<?xml version="1.0"?>
<VTKFile type="UnstructuredGrid" version="0.1" byte_order="LittleEndian">
<UnstructuredGrid>
<Piece NumberOfPoints="31898" NumberOfCells="11152">
<Points>
<DataArray type="Float64" NumberOfComponents="3" format="ascii">
-0.5 -0.5 0 -0.47620991077874902 -0.44978878706170539 0 -0.49999999999999473 -0.42132396840504388 0 -0.5 -0.5 0 -0.47160970827802529 -0.4793630013852106 0 -0.47620991077874902 -0.44978878706170539 0 -0.5 -0.5 0 -0.47160970827802529 -0.4793630013852106 0 -0.44860394795025399 -0.5 0 -0.47160970827802529 -0.4793630013852106 0 -0.44860394795025399 -0.5 0 -0.4490820238307246 -0.45820516232899983 0 -0.44860394795025399 -0.5 0 -0.4490820238307246 -0.45820516232899983 0 -0.42881687682924802 -0.47781464288736519 0 -0.4490820238307246 -0.45820516232899983 0 -0.45555437223955858 -0.42914059360647611 0 -0.4490820238307246 -0.45820516232899983 0 -0.45555437223955858 -0.42914059360647611 0 -0.43867285131603428 -0.4271457417558665 0 -0.4490820238307246 -0.45820516232899983 0 -0.43867285131603428 -0.4271457417558665 0 -0.4263356171060747 -0.44269880333887462 0 -0.47160970827802529 -0.4793630013852106 0 -0.4490820238307246 -0.45820516232899983 0 -0.47620991077874902 -0.44978878706170539 0 -0.4490820238307246 -0.45820516232899983 0 -0.47620991077874902 -0.44978878706170539 0 -0.45555437223955858 -0.42914059360647611 0 -0.47620991077874902 -0.44978878706170539 0 -0.48101336032419229 -0.41069999664450008 0 -0.45555437223955858 -0.42914059360647611 0 -0.47620991077874902 -0.44978878706170539 0 -0.49999999999999473 -0.42132396840504388 0 -0.48101336032419229 -0.41069999664450008 0 -0.49999999999999473 -0.42132396840504388 0 -0.48101336032419229 -0.41069999664450008 0 -0.5 -0.393886241813306 0 -0.49999999999999473 -0.42132396840504388 0 -0.48101336032419229 -0.41069999664450008 0 -0.5 -0.393886241813306 0 -0.47854472220918332 -0.38978458738689759 0 -0.48422759779560409 -0.37130120630367158 0 -0.5 -0.393886241813306 0 -0.5 -0.36644851522156802 0 -0.48422759779560409 -0.37130120630367158 0 -0.48101336032419229 -0.41069999664450008 0 -0.5 -0.393886241813306 0 -0.47854472220918332 -0.38978458738689759 0 -0.48101336032419229 -0.41069999664450008 0 -0.47854472220918332 -0.38978458738689759 0 -0.46202672064839212 -0.40007602488395211 0 -0.48101336032419229 -0.41069999664450008 0 -0.46202672064839212 -0.40007602488395211 0 -0.47854472220918332 -0.38978458738689759 0 -0.46725442735267431 -0.37660061361585562 0 -0.46202672064839212 -0.40007602488395211 0 -0.47854472220918332 -0.38978458738689759 0 -0.46725442735267431 -0.37660061361585562 0 -0.48422759779560409 -0.37130120630367158 0 -0.46725442735267431 -0.37660061361585562 0 -0.46202672064839212 -0.40007602488395211 0 -0.46725442735267431 -0.37660061361585562 0 -0.45645674801697989 -0.38644133236760531 0 -0.46202672064839212 -0.40007602488395211 0 -0.46725442735267431 -0.37660061361585562 0 -0.45645674801697989 -0.38644133236760531 0 -0.4540003998136638 -0.37455519391687309 0 -0.45645674801697989 -0.38644133236760531 0 -0.46202672064839212 -0.40007602488395211 0 -0.44257020456291563 -0.38918913383950271 0 -0.46202672064839212 -0.40007602488395211 0 -0.44257020456291563 -0.38918913383950271 0 -0.44727608925983742 -0.41095911152778891 0 -0.46202672064839212 -0.40007602488395211 0 -0.44257020456291563 -0.38918913383950271 0 -0.44257020456291563 -0.38918913383950271 0 -0.44727608925983742 -0.41095911152778891 0 -0.43479358559901082 -0.4041454901736512 0 -0.44257020456291563 -0.38918913383950271 0 -0.4540003998136638 -0.37455519391687309 0 -0.44172858264042247 -0.37082207246888088 0 -0.45645674801697989 -0.38644133236760531 0 -0.44257020456291563 -0.38918913383950271 0 -0.4540003998136638 -0.37455519391687309 0 -0.46202672064839212 -0.40007602488395211 0 -0.45555437223955858 -0.42914059360647611 0 -0.44727608925983742 -0.41095911152778891 0 -0.46202672064839212 -0.40007602488395211 0 -0.45555437223955858 -0.42914059360647611 0 -0.48101336032419229 -0.41069999664450008 0 -0.46202672064839212 -0.40007602488395211 0 -0.45555437223955858 -0.42914059360647611 0 -0.44727608925983742 -0.41095911152778891 0 -0.43867285131603428 -0.4271457417558665 0 -0.43676601469929588 -0.41441201227470881 0 -0.44727608925983742 -0.41095911152778891 0 -0.43676601469929588 -0.41441201227470881 0 -0.43479358559901082 -0.4041454901736512 0 -0.45555437223955858 -0.42914059360647611 0 -0.44727608925983742 -0.41095911152778891 0 -0.43867285131603428 -0.4271457417558665 0 -0.43867285131603428 -0.4271457417558665 0 -0.42681803064840879 -0.42717069814352421 0 -0.4263356171060747 -0.44269880333887462 0 -0.42681803064840879 -0.42717069814352421 0 -0.41531815884496182 -0.42985383783075998 0 -0.4263356171060747 -0.44269880333887462 0 -0.42681803064840879 -0.42717069814352421 0 -0.42624289495594048 -0.42089725947505818 0 -0.42083332353326591 -0.42146747131641099 0 -0.42681803064840879 -0.42717069814352421 0 -0.43096994786351572 -0.41951492446283251 0 -0.42624289495594048 -0.42089725947505818 0 -0.43867285131603428 -0.4271457417558665 0 -0.42681803064840879 -0.42717069814352421 0 -0.43096994786351572 -0.41951492446283251 0 -0.43867285131603428 -0.4271457417558665 0 -0.43676601469929588 -0.41441201227470881 0 -0.43096994786351572 -0.41951492446283251 0 -0.43676601469929588 -0.41441201227470881 0 -0.43096994786351572 -0.41951492446283251 0 -0.42907264086257813 -0.41311715872526122 0 -0.43676601469929588 -0.41441201227470881 0 -0.42907264086257813 -0.41311715872526122 0 -0.43479358559901082 -0.4041454901736512 0 -0.42907264086257813 -0.41311715872526122 0 -0.43479358559901082 -0.4041454901736512 0 -0.42460885511582858 -0.40417321677700252 0 -0.42907264086257813 -0.41311715872526122 0 -0.41997834854398469 -0.41180534796019508 0 -0.42907264086257813 -0.41311715872526122 0 -0.42635027777857132 -0.41543594397746519 0 -0.41997834854398469 -0.41180534796019508 0 -0.42907264086257813 -0.41311715872526122 0 -0.41997834854398469 -0.41180534796019508 0 -0.42460885511582858 -0.40417321677700252 0 -0.42635027777857132 -0.41543594397746519 0 -0.41997834854398469 -0.41180534796019508 0 -0.42635027777857132 -0.41543594397746519 0 -0.42083332353326591 -0.42146747131641099 0 -0.41997834854398469 -0.41180534796019508 0 -0.43096994786351572 -0.41951492446283251 0 -0.42624289495594048 -0.42089725947505818 0 -0.42635027777857132 -0.41543594397746519 0 -0.43096994786351572 -0.41951492446283251 0 -0.42907264086257813 -0.41311715872526122 0 -0.42635027777857132 -0.41543594397746519 0 -0.42624289495594048 -0.42089725947505818 0 -0.42635027777857132 -0.41543594397746519 0 -0.42083332353326591 -0.42146747131641099 0 -0.42083332353326591 -0.42146747131641099 0 -0.41997834854398469 -0.41180534796019508 0 -0.40992282953163789 -0.42011435591993562 0 -0.41997834854398469 -0.41180534796019508 0 -0.39756877647335259 -0.40857286797681719 0 -0.41997834854398469 -0.41180534796019508 0 -0.40992282953163789 -0.42011435591993562 0 -0.39756877647335259 -0.40857286797681719 0 -0.40992282953163789 -0.42011435591993562 0 -0.41531815884496182 -0.42985383783075998 0 -0.39591554026262499 -0.42887225451549271 0 -0.41531815884496182 -0.42985383783075998 0 -0.39591554026262499 -0.42887225451549271 0 -0.41160927495564159 -0.44339431233754628 0 -0.42083332353326591 -0.42146747131641099 0 -0.40992282953163789 -0.42011435591993562 0 -0.41531815884496182 -0.42985383783075998 0 -0.42681803064840879 -0.42717069814352421 0 -0.42083332353326591 -0.42146747131641099 0 -0.41531815884496182 -0.42985383783075998 0 -0.44257020456291563 -0.38918913383950271 0 -0.42311368847744002 -0.37830224279505142 0 -0.42594061475171041 -0.39368797999533162 0 -0.44257020456291563 -0.38918913383950271 0 -0.42311368847744002 -0.37830224279505142 0 -0.44172858264042247 -0.37082207246888088 0 -0.44257020456291563 -0.38918913383950271 0 -0.42311368847744002 -0.37830224279505142 0 -0.42311368847744002 -0.37830224279505142 0 -0.42594061475171041 -0.39368797999533162 0 -0.416587075656149 -0.38785930376960043 0 -0.44257020456291563 -0.38918913383950271 0 -0.42594061475171041 -0.39368797999533162 0 -0.43479358559901082 -0.4041454901736512 0 -0.42594061475171041 -0.39368797999533162 0 -0.43479358559901082 -0.4041454901736512 0 -0.42460885511582858 -0.40417321677700252 0 -0.41997834854398469 -0.41180534796019508 0 -0.41325908582185972 -0.39811010703057192 0 -0.39770572831670092 -0.39911486077581648 0 -0.41997834854398469 -0.41180534796019508 0 -0.39770572831670092 -0.39911486077581648 0 -0.42594061475171041 -0.39368797999533162 0 -0.42460885511582858 -0.40417321677700252 0 -0.41325908582185972 -0.39811010703057192 0 -0.41997834854398469 -0.41180534796019508 0 -0.42460885511582858 -0.40417321677700252 0 -0.41325908582185972 -0.39811010703057192 0 -0.42594061475171041 -0.39368797999533162 0 -0.41325908582185972 -0.39811010703057192 0 -0.416587075656149 -0.38785930376960043 0 -0.41325908582185972 -0.39811010703057192 0 -0.416587075656149 -0.38785930376960043 0 -0.40403491357358612 -0.38133688525744702 0 -0.42311368847744002 -0.37830224279505142 0 -0.40403491357358612 -0.38133688525744702 0 -0.40365717239196519 -0.36741535175059892 0 -0.42311368847744002 -0.37830224279505142 0 -0.416587075656149 -0.38785930376960043 0 -0.40403491357358612 -0.38133688525744702 0 -0.40403491357358612 -0.38133688525744702 0 -0.39190790742475001 -0.38540387676521748 0 -0.39770572831670092 -0.39911486077581648 0 -0.40403491357358612 -0.38133688525744702 0 -0.39190790742475001 -0.38540387676521748 0 -0.3904578797192948 -0.37473938743617019 0 -0.41325908582185972 -0.39811010703057192 0 -0.40403491357358612 -0.38133688525744702 0 -0.39770572831670092 -0.39911486077581648 0 -0.39770572831670092 -0.39911486077581648 0 -0.37543310808941849 -0.38642437359143528 0 -0.39770572831670092 -0.39911486077581648 0 -0.37515920440272033 -0.40534038799344108 0 -0.37543310808941849 -0.38642437359143528 0 -0.39770572831670092 -0.39911486077581648 0 -0.37515920440272033 -0.40534038799344108 0 -0.39756877647335259 -0.40857286797681719 0 -0.37515920440272033 -0.40534038799344108 0 -0.37543310808941849 -0.38642437359143528 0 -0.37543310808941849 -0.38642437359143528 0 -0.3904578797192948 -0.37473938743617019 0 -0.37568304780698558 -0.36916333065311507 0 -0.39190790742475001 -0.38540387676521748 0 -0.37543310808941849 -0.38642437359143528 0 -0.3904578797192948 -0.37473938743617019 0 -0.37543310808941849 -0.38642437359143528 0 -0.37568304780698558 -0.36916333065311507 0 -0.39190790742475001 -0.38540387676521748 0 -0.39770572831670092 -0.39911486077581648 0 -0.37543310808941849 -0.38642437359143528 0 -0.41997834854398469 -0.41180534796019508 0 -0.39770572831670092 -0.39911486077581648 0 -0.39756877647335259 -0.40857286797681719 0 -0.40992282953163789 -0.42011435591993562 0 -0.39591554026262499 -0.42887225451549271 0 -0.39756877647335259 -0.40857286797681719 0 -0.37515920440272033 -0.40534038799344108 0 -0.39591554026262499 -0.42887225451549271 0 -0.39756877647335259 -0.40857286797681719 0 -0.37515920440272033 -0.40534038799344108 0 -0.39756877647335259 -0.40857286797681719 0 -0.37515920440272033 -0.40534038799344108 0 -0.39591554026262499 -0.42887225451549271 0 -0.37472313619600889 -0.43545561783144832 0 -0.39591554026262499 -0.42887225451549271 0 -0.39301703415267508 -0.44654444244683272 0 -0.37472313619600889 -0.43545561783144832 0 -0.39301703415267508 -0.44654444244683272 0 -0.37428706798929601 -0.46557084766945539 0 -0.37472313619600889 -0.43545561783144832 0 -0.39591554026262499 -0.42887225451549271 0 -0.39301703415267508 -0.44654444244683272 0 -0.41160927495564159 -0.44339431233754628 0 -0.39301703415267508 -0.44654444244683272 0 -0.40396056051613372 -0.45751466911048011 0 -0.41160927495564159 -0.44339431233754628 0 -0.40396056051613372 -0.45751466911048011 0 -0.39245383412573559 -0.47875733455523922 0 -0.41207507163844148 -0.46917161410542801 0 -0.40396056051613372 -0.45751466911048011 0 -0.38912381425271458 -0.46154275838996711 0 -0.39245383412573559 -0.47875733455523922 0 -0.40396056051613372 -0.45751466911048011 0 -0.39245383412573559 -0.47875733455523922 0 -0.40396056051613372 -0.45751466911048011 0 -0.40649676728151513 -0.45682610390212369 0 -0.40396056051613372 -0.45751466911048011 0 -0.38912381425271458 -0.46154275838996711 0 -0.39301703415267508 -0.44654444244683272 0 -0.40396056051613372 -0.45751466911048011 0 -0.38912381425271458 -0.46154275838996711 0 -0.39301703415267508 -0.44654444244683272 0 -0.38912381425271458 -0.46154275838996711 0 -0.37428706798929601 -0.46557084766945539 0 -0.38912381425271458 -0.46154275838996711 0 -0.37428706798929601 -0.46557084766945539 0 -0.38912381425271458 -0.46154275838996711 0 -0.38378714202547332 -0.47159002408209011 0 -0.37428706798929601 -0.46557084766945539 0 -0.38378714202547332 -0.47159002408209011 0 -0.39245383412573559 -0.47875733455523922 0 -0.37411677223754131 -0.47733161267270968 0 -0.39245383412573559 -0.47875733455523922 0 -0.37240076261097882 -0.48974555046165519 0 -0.37411677223754131 -0.47733161267270968 0 -0.38378714202547332 -0.47159002408209011 0 -0.37411677223754131 -0.47733161267270968 0 -0.37428706798929601 -0.46557084766945539 0 -0.38912381425271458 -0.46154275838996711 0 -0.38378714202547332 -0.47159002408209011 0 -0.39245383412573559 -0.47875733455523922 0 -0.38094710773533791 -0.49999999999999839 0 -0.39245383412573559 -0.47875733455523922 0 -0.38094710773533791 -0.49999999999999839 0 -0.39245383412573559 -0.47875733455523922 0 -0.37240076261097882 -0.48974555046165519 0 -0.38094710773533791 -0.49999999999999839 0 -0.39245383412573559 -0.47875733455523922 0 -0.40997732063196057 -0.5 0 -0.39245383412573559 -0.47875733455523922 0 -0.41207507163844148 -0.46917161410542801 0 -0.40997732063196057 -0.5 0 -0.41207507163844148 -0.46917161410542801 0 -0.40997732063196057 -0.5 0 -0.42881687682924802 -0.47781464288736519 0 -0.44860394795025399 -0.5 0 -0.40997732063196057 -0.5 0 -0.42881687682924802 -0.47781464288736519 0 -0.41207507163844148 -0.46917161410542801 0 -0.42881687682924802 -0.47781464288736519 0 -0.42627766738448791 -0.46032764904509182 0 -0.4490820238307246 -0.45820516232899983 0 -0.42881687682924802 -0.47781464288736519 0 -0.42627766738448791 -0.46032764904509182 0 -0.4490820238307246 -0.45820516232899983 0 -0.42627766738448791 -0.46032764904509182 0 -0.4263356171060747 -0.44269880333887462 0 -0.42627766738448791 -0.46032764904509182 0 -0.4263356171060747 -0.44269880333887462 0 -0.41655419253802572 -0.45404861160063659 0 -0.4263356171060747 -0.44269880333887462 0 -0.41160927495564159 -0.44339431233754628 0 -0.41655419253802572 -0.45404861160063659 0 -0.41531815884496182 -0.42985383783075998 0 -0.4263356171060747 -0.44269880333887462 0 -0.41160927495564159 -0.44339431233754628 0 -0.40396056051613372 -0.45751466911048011 0 -0.41160927495564159 -0.44339431233754628 0 -0.40649676728151513 -0.45682610390212369 0 -0.41160927495564159 -0.44339431233754628 0 -0.40649676728151513 -0.45682610390212369 0 -0.41655419253802572 -0.45404861160063659 0 -0.40396056051613372 -0.45751466911048011 0 -0.41160927495564159 -0.44339431233754628 0 -0.41207507163844148 -0.46917161410542801 0 -0.40649676728151513 -0.45682610390212369 0 -0.41655419253802572 -0.45404861160063659 0 -0.40396056051613372 -0.45751466911048011 0 -0.41207507163844148 -0.46917161410542801 0 -0.40649676728151513 -0.45682610390212369 0 -0.41207507163844148 -0.46917161410542801 0 -0.42627766738448791 -0.46032764904509182 0 -0.41655419253802572 -0.45404861160063659 0 -0.45662330498375908 -0.25656877445722759 0 -0.43445882011373449 -0.25478651907497341 0 -0.45662330498375908 -0.25656877445722759 0 -0.43445882011373449 -0.25478651907497341 0 -0.45034617445999431 -0.24335722649563979 0 -0.44999384684511368 -0.2755750489792308 0 -0.45662330498375908 -0.25656877445722759 0 -0.43445882011373449 -0.25478651907497341 0 -0.44999384684511368 -0.2755750489792308 0 -0.43077531442077321 -0.27459050524281542 0 -0.43445882011373449 -0.25478651907497341 0 -0.44999384684511368 -0.2755750489792308 0 -0.441361257405879 -0.29303276451920029 0 -0.43077531442077321 -0.27459050524281542 0 -0.44999384684511368 -0.2755750489792308 0 -0.4670541169931961 -0.26846056693166809 0 -0.46910519348062618 -0.28320526693770848 0 -0.44999384684511368 -0.2755750489792308 0 -0.4670541169931961 -0.26846056693166809 0 -0.45662330498375908 -0.25656877445722759 0 -0.45662330498375908 -0.25656877445722759 0 -0.47878778985378329 -0.25835102983948688 0 -0.4670541169931961 -0.26846056693166809 0 -0.45662330498375908 -0.25656877445722759 0 -0.47878778985378329 -0.25835102983948688 0 -0.45662330498375908 -0.25656877445722759 0 -0.47878778985378329 -0.25835102983948688 0 -0.47142395938804471 -0.23802335247430181 0 -0.47878778985378329 -0.25835102983948688 0 -0.5 -0.25669760885461612 0 -0.48361763707807442 -0.27426406281091331 0 -0.47878778985378329 -0.25835102983948688 0 -0.5 -0.25669760885461612 0 -0.4875835208682564 -0.24248539692068891 0 -0.5 -0.25669760885461612 0 -0.48361763707807442 -0.27426406281091331 0 -0.5 -0.28413533544635422 0 -0.4670541169931961 -0.26846056693166809 0 -0.47878778985378329 -0.25835102983948688 0 -0.48361763707807442 -0.27426406281091331 0 -0.4670541169931961 -0.26846056693166809 0 -0.48361763707807442 -0.27426406281091331 0 -0.46910519348062618 -0.28320526693770848 0 -0.46910519348062618 -0.28320526693770848 0 -0.48580896399913942 -0.29193665231809679 0 -0.47164434439118558 -0.29859902487093259 0 -0.48361763707807442 -0.27426406281091331 0 -0.46910519348062618 -0.28320526693770848 0 -0.48580896399913942 -0.29193665231809679 0 -0.5 -0.28413533544635422 0 -0.48580896399913942 -0.29193665231809679 0 -0.5 -0.3115730620380921 0 -0.48361763707807442 -0.27426406281091331 0 -0.5 -0.28413533544635422 0 -0.48580896399913942 -0.29193665231809679 0 -0.48580896399913942 -0.29193665231809679 0 -0.5 -0.3115730620380921 0 -0.48293754746551898 -0.30617437981156609 0 -0.48293754746551898 -0.30617437981156609 0 -0.47164434439118558 -0.29859902487093259 0 -0.47203566342767839 -0.31514771464943409 0 -0.48580896399913942 -0.29193665231809679 0 -0.48293754746551898 -0.30617437981156609 0 -0.47164434439118558 -0.29859902487093259 0 -0.47164434439118558 -0.29859902487093259 0 -0.46096111539772322 -0.3069557537098867 0 -0.47203566342767839 -0.31514771464943409 0 -0.46096111539772322 -0.3069557537098867 0 -0.44739706002137658 -0.30395698434733032 0 -0.45229582611609759 -0.31444164243390338 0 -0.46096111539772322 -0.3069557537098867 0 -0.45682111422556548 -0.29317658806621089 0 -0.44739706002137658 -0.30395698434733032 0 -0.47164434439118558 -0.29859902487093259 0 -0.46096111539772322 -0.3069557537098867 0 -0.45682111422556548 -0.29317658806621089 0 -0.44999384684511368 -0.2755750489792308 0 -0.46910519348062618 -0.28320526693770848 0 -0.45682111422556548 -0.29317658806621089 0 -0.46910519348062618 -0.28320526693770848 0 -0.47164434439118558 -0.29859902487093259 0 -0.45682111422556548 -0.29317658806621089 0 -0.44999384684511368 -0.2755750489792308 0 -0.45682111422556548 -0.29317658806621089 0 -0.441361257405879 -0.29303276451920029 0 -0.45682111422556548 -0.29317658806621089 0 -0.441361257405879 -0.29303276451920029 0 -0.44739706002137658 -0.30395698434733032 0 -0.441361257405879 -0.29303276451920029 0 -0.44739706002137658 -0.30395698434733032 0 -0.43527018611072049 -0.30465000121327751 0 -0.44739706002137658 -0.30395698434733032 0 -0.44024276041750632 -0.31887045497680111 0 -0.43527018611072049 -0.30465000121327751 0 -0.44739706002137658 -0.30395698434733032 0 -0.45229582611609759 -0.31444164243390338 0 -0.44024276041750632 -0.31887045497680111 0 -0.44024276041750632 -0.31887045497680111 0 -0.45653421084860168 -0.32646185290925811 0 -0.44024276041750632 -0.31887045497680111 0 -0.43930980958642257 -0.33554338078202212 0 -0.45653421084860168 -0.32646185290925811 0 -0.45229582611609759 -0.31444164243390338 0 -0.44024276041750632 -0.31887045497680111 0 -0.45653421084860168 -0.32646185290925811 0 -0.43930980958642257 -0.33554338078202212 0 -0.44966367396753332 -0.33841986907325933 0 -0.46855294336124231 -0.32873531729210143 0 -0.43930980958642257 -0.33554338078202212 0 -0.4507851133594416 -0.34910720111649318 0 -0.43930980958642257 -0.33554338078202212 0 -0.44966367396753332 -0.33841986907325933 0 -0.4507851133594416 -0.34910720111649318 0 -0.44966367396753332 -0.33841986907325933 0 -0.46855294336124231 -0.32873531729210143 0 -0.46386644800117471 -0.33586508895417932 0 -0.43930980958642257 -0.33554338078202212 0 -0.46855294336124231 -0.32873531729210143 0 -0.43930980958642257 -0.33554338078202212 0 -0.46855294336124231 -0.32873531729210143 0 -0.45653421084860168 -0.32646185290925811 0 -0.44966367396753332 -0.33841986907325933 0 -0.4586808436472537 -0.3401528003513713 0 -0.45711636988675219 -0.34547487934353349 0 -0.44966367396753332 -0.33841986907325933 0 -0.4586808436472537 -0.3401528003513713 0 -0.46386644800117471 -0.33586508895417932 0 -0.4586808436472537 -0.3401528003513713 0 -0.46472493826860672 -0.34236766697450172 0 -0.45711636988675219 -0.34547487934353349 0 -0.4586808436472537 -0.3401528003513713 0 -0.46472493826860672 -0.34236766697450172 0 -0.46386644800117471 -0.33586508895417932 0 -0.46855294336124231 -0.32873531729210143 0 -0.46207595183026873 -0.31834845619891672 0 -0.47203566342767839 -0.31514771464943409 0 -0.46855294336124231 -0.32873531729210143 0 -0.45653421084860168 -0.32646185290925811 0 -0.46207595183026873 -0.31834845619891672 0 -0.46096111539772322 -0.3069557537098867 0 -0.45229582611609759 -0.31444164243390338 0 -0.46207595183026873 -0.31834845619891672 0 -0.45229582611609759 -0.31444164243390338 0 -0.45653421084860168 -0.32646185290925811 0 -0.46207595183026873 -0.31834845619891672 0 -0.46096111539772322 -0.3069557537098867 0 -0.46207595183026873 -0.31834845619891672 0 -0.47203566342767839 -0.31514771464943409 0 -0.48293754746551898 -0.30617437981156609 0 -0.47203566342767839 -0.31514771464943409 0 -0.47770984076123751 -0.32964979107966252 0 -0.48293754746551898 -0.30617437981156609 0 -0.47770984076123751 -0.32964979107966252 0 -0.48293754746551898 -0.30617437981156609 0 -0.48763303240419292 -0.31981883507337211 0 -0.47770984076123751 -0.32964979107966252 0 -0.46855294336124231 -0.32873531729210143 0 -0.47203566342767839 -0.31514771464943409 0 -0.47770984076123751 -0.32964979107966252 0 -0.5 -0.3115730620380921 0 -0.5 -0.33901078862982997 0 -0.49048543526404831 -0.32960291085151988 0 -0.5 -0.3115730620380921 0 -0.48763303240419292 -0.31981883507337211 0 -0.49048543526404831 -0.32960291085151988 0 -0.5 -0.3115730620380921 0 -0.48293754746551898 -0.30617437981156609 0 -0.48763303240419292 -0.31981883507337211 0 -0.48763303240419292 -0.31981883507337211 0 -0.49048543526404831 -0.32960291085151988 0 -0.47770984076123751 -0.32964979107966252 0 -0.49048543526404831 -0.32960291085151988 0 -0.47770984076123751 -0.32964979107966252 0 -0.48708430315481122 -0.3479620774366432 0 -0.5 -0.33901078862982997 0 -0.49048543526404831 -0.32960291085151988 0 -0.48708430315481122 -0.3479620774366432 0 -0.47770984076123751 -0.32964979107966252 0 -0.47248213405695583 -0.35312520234775913 0 -0.47770984076123751 -0.32964979107966252 0 -0.47248213405695583 -0.35312520234775913 0 -0.48708430315481122 -0.3479620774366432 0 -0.46472493826860672 -0.34236766697450172 0 -0.47770984076123751 -0.32964979107966252 0 -0.47248213405695583 -0.35312520234775913 0 -0.46855294336124231 -0.32873531729210143 0 -0.46386644800117471 -0.33586508895417932 0 -0.47770984076123751 -0.32964979107966252 0 -0.46472493826860672 -0.34236766697450172 0 -0.46386644800117471 -0.33586508895417932 0 -0.47770984076123751 -0.32964979107966252 0 -0.47248213405695583 -0.35312520234775913 0 -0.48708430315481122 -0.3479620774366432 0 -0.48422759779560409 -0.37130120630367158 0 -0.5 -0.33901078862982997 0 -0.48708430315481122 -0.3479620774366432 0 -0.5 -0.36644851522156802 0 -0.48708430315481122 -0.3479620774366432 0 -0.5 -0.36644851522156802 0 -0.48422759779560409 -0.37130120630367158 0 -0.46725442735267431 -0.37660061361585562 0 -0.47248213405695583 -0.35312520234775913 0 -0.48422759779560409 -0.37130120630367158 0 -0.46725442735267431 -0.37660061361585562 0 -0.47248213405695583 -0.35312520234775913 0 -0.46725442735267431 -0.37660061361585562 0 -0.4540003998136638 -0.37455519391687309 0 -0.46226041713245919 -0.36267102145096558 0 -0.46725442735267431 -0.37660061361585562 0 -0.47248213405695583 -0.35312520234775913 0 -0.46226041713245919 -0.36267102145096558 0 -0.4540003998136638 -0.37455519391687309 0 -0.46226041713245919 -0.36267102145096558 0 -0.45167034254705118 -0.36337553476545958 0 -0.47248213405695583 -0.35312520234775913 0 -0.46226041713245919 -0.36267102145096558 0 -0.46130034509645268 -0.35111989715704561 0 -0.46472493826860672 -0.34236766697450172 0 -0.47248213405695583 -0.35312520234775913 0 -0.46130034509645268 -0.35111989715704561 0 -0.46472493826860672 -0.34236766697450172 0 -0.46130034509645268 -0.35111989715704561 0 -0.45711636988675219 -0.34547487934353349 0 -0.46130034509645268 -0.35111989715704561 0 -0.45711636988675219 -0.34547487934353349 0 -0.4507851133594416 -0.34910720111649318 0 -0.46226041713245919 -0.36267102145096558 0 -0.4507851133594416 -0.34910720111649318 0 -0.45167034254705118 -0.36337553476545958 0 -0.46226041713245919 -0.36267102145096558 0 -0.46130034509645268 -0.35111989715704561 0 -0.4507851133594416 -0.34910720111649318 0 -0.46226041713245919 -0.36267102145096558 0 -0.4507851133594416 -0.34910720111649318 0 -0.4507851133594416 -0.34910720111649318 0 -0.44504098357239391 -0.35771747353496869 0 -0.45167034254705118 -0.36337553476545958 0 -0.44966367396753332 -0.33841986907325933 0 -0.45711636988675219 -0.34547487934353349 0 -0.4507851133594416 -0.34910720111649318 0 -0.4507851133594416 -0.34910720111649318 0 -0.44408457896710762 -0.34741130507322732 0 -0.44504098357239391 -0.35771747353496869 0 -0.43930980958642257 -0.33554338078202212 0 -0.4507851133594416 -0.34910720111649318 0 -0.44408457896710762 -0.34741130507322732 0 -0.44408457896710762 -0.34741130507322732 0 -0.43834809566141358 -0.35386966642967582 0 -0.4310745521241639 -0.35060051531725012 0 -0.44408457896710762 -0.34741130507322732 0 -0.43834809566141358 -0.35386966642967582 0 -0.44504098357239391 -0.35771747353496869 0 -0.43834809566141358 -0.35386966642967582 0 -0.44504098357239391 -0.35771747353496869 0 -0.43256408976529492 -0.36260533289695268 0 -0.44504098357239391 -0.35771747353496869 0 -0.44172858264042247 -0.37082207246888088 0 -0.43256408976529492 -0.36260533289695268 0 -0.4540003998136638 -0.37455519391687309 0 -0.44172858264042247 -0.37082207246888088 0 -0.45167034254705118 -0.36337553476545958 0 -0.44504098357239391 -0.35771747353496869 0 -0.44172858264042247 -0.37082207246888088 0 -0.45167034254705118 -0.36337553476545958 0 -0.42311368847744002 -0.37830224279505142 0 -0.44172858264042247 -0.37082207246888088 0 -0.43256408976529492 -0.36260533289695268 0 -0.42311368847744002 -0.37830224279505142 0 -0.43256408976529492 -0.36260533289695268 0 -0.41867380740831611 -0.36398836527224071 0 -0.43256408976529492 -0.36260533289695268 0 -0.42210656065146929 -0.35476551363046099 0 -0.41867380740831611 -0.36398836527224071 0 -0.44408457896710762 -0.34741130507322732 0 -0.4310745521241639 -0.35060051531725012 0 -0.42443636388738298 -0.3390060521705498 0 -0.43834809566141358 -0.35386966642967582 0 -0.43256408976529492 -0.36260533289695268 0 -0.4310745521241639 -0.35060051531725012 0 -0.4310745521241639 -0.35060051531725012 0 -0.42266042161335821 -0.34652378860874011 0 -0.42210656065146929 -0.35476551363046099 0 -0.4310745521241639 -0.35060051531725012 0 -0.42266042161335821 -0.34652378860874011 0 -0.42443636388738298 -0.3390060521705498 0 -0.43256408976529492 -0.36260533289695268 0 -0.4310745521241639 -0.35060051531725012 0 -0.42210656065146929 -0.35476551363046099 0 -0.42210656065146929 -0.35476551363046099 0 -0.41243440171204931 -0.35621682403100541 0 -0.41867380740831611 -0.36398836527224071 0 -0.41243440171204931 -0.35621682403100541 0 -0.40365717239196519 -0.36741535175059892 0 -0.40302160193259851 -0.3439916005776541 0 -0.42210656065146929 -0.35476551363046099 0 -0.41714587076776338 -0.34786779488983011 0 -0.41243440171204931 -0.35621682403100541 0 -0.42266042161335821 -0.34652378860874011 0 -0.42210656065146929 -0.35476551363046099 0 -0.41714587076776338 -0.34786779488983011 0 -0.42266042161335821 -0.34652378860874011 0 -0.41714587076776338 -0.34786779488983011 0 -0.41853876063601031 -0.34037906703560689 0 -0.41714587076776338 -0.34786779488983011 0 -0.41853876063601031 -0.34037906703560689 0 -0.41714587076776338 -0.34786779488983011 0 -0.41243440171204931 -0.35621682403100541 0 -0.40302160193259851 -0.3439916005776541 0 -0.41714587076776338 -0.34786779488983011 0 -0.40302160193259851 -0.3439916005776541 0 -0.41853876063601031 -0.34037906703560689 0 -0.42311368847744002 -0.37830224279505142 0 -0.41867380740831611 -0.36398836527224071 0 -0.40365717239196519 -0.36741535175059892 0 -0.42311368847744002 -0.37830224279505142 0 -0.40365717239196519 -0.36741535175059892 0 -0.41243440171204931 -0.35621682403100541 0 -0.41867380740831611 -0.36398836527224071 0 -0.40365717239196519 -0.36741535175059892 0 -0.40403491357358612 -0.38133688525744702 0 -0.40365717239196519 -0.36741535175059892 0 -0.40403491357358612 -0.38133688525744702 0 -0.40365717239196519 -0.36741535175059892 0 -0.3904578797192948 -0.37473938743617019 0 -0.40365717239196519 -0.36741535175059892 0 -0.38979507995825918 -0.35965881973269581 0 -0.40365717239196519 -0.36741535175059892 0 -0.3904578797192948 -0.37473938743617019 0 -0.38979507995825918 -0.35965881973269581 0 -0.3904578797192948 -0.37473938743617019 0 -0.38979507995825918 -0.35965881973269581 0 -0.37568304780698558 -0.36916333065311507 0 -0.37568304780698558 -0.36916333065311507 0 -0.37593298752455201 -0.35190228771479481 0 -0.38979507995825918 -0.35965881973269581 0 -0.37568304780698558 -0.36916333065311507 0 -0.37593298752455201 -0.35190228771479481 0 -0.38979507995825918 -0.35965881973269581 0 -0.37595629511297179 -0.35029264644438168 0 -0.40302160193259851 -0.3439916005776541 0 -0.37595629511297179 -0.35029264644438168 0 -0.40302160193259851 -0.3439916005776541 0 -0.38842354837557669 -0.33756560667471242 0 -0.37595629511297179 -0.35029264644438168 0 -0.40302160193259851 -0.3439916005776541 0 -0.37595629511297179 -0.35029264644438168 0 -0.37607676276689278 -0.3419730509543204 0 -0.37390838074359528 -0.35076941925389299 0 -0.37595629511297179 -0.35029264644438168 0 -0.37607676276689278 -0.3419730509543204 0 -0.37595629511297179 -0.35029264644438168 0 -0.37593298752455201 -0.35190228771479481 0 -0.37390838074359528 -0.35076941925389299 0 -0.37595629511297179 -0.35029264644438168 0 -0.37593298752455201 -0.35190228771479481 0 -0.38979507995825918 -0.35965881973269581 0 -0.37595629511297179 -0.35029264644438168 0 -0.37593298752455201 -0.35190228771479481 0 -0.38979507995825918 -0.35965881973269581 0 -0.37593298752455201 -0.35190228771479481 0 -0.40365717239196519 -0.36741535175059892 0 -0.40302160193259851 -0.3439916005776541 0 -0.40365717239196519 -0.36741535175059892 0 -0.38979507995825918 -0.35965881973269581 0 -0.40302160193259851 -0.3439916005776541 0 -0.40302160193259851 -0.3439916005776541 0 -0.40263324863316441 -0.32967896077653092 0 -0.40263324863316441 -0.32967896077653092 0 -0.38842354837557669 -0.33756560667471242 0 -0.38442983343225828 -0.32189177462067481 0 -0.40302160193259851 -0.3439916005776541 0 -0.40263324863316441 -0.32967896077653092 0 -0.38842354837557669 -0.33756560667471242 0 -0.37607676276689278 -0.3419730509543204 0 -0.37641717267996733 -0.3184640617331177 0 -0.38842354837557669 -0.33756560667471242 0 -0.37607676276689278 -0.3419730509543204 0 -0.38442983343225828 -0.32189177462067481 0 -0.37607676276689278 -0.3419730509543204 0 -0.38442983343225828 -0.32189177462067481 0 -0.37595629511297179 -0.35029264644438168 0 -0.38842354837557669 -0.33756560667471242 0 -0.37607676276689278 -0.3419730509543204 0 -0.37607676276689278 -0.3419730509543204 0 -0.37641717267996733 -0.3184640617331177 0 -0.38442983343225828 -0.32189177462067481 0 -0.37641717267996733 -0.3184640617331177 0 -0.38442983343225828 -0.32189177462067481 0 -0.3841914044669909 -0.30132118344037401 0 -0.37641717267996733 -0.3184640617331177 0 -0.38442983343225828 -0.32189177462067481 0 -0.40263324863316441 -0.32967896077653092 0 -0.38442983343225828 -0.32189177462067481 0 -0.40185461233875269 -0.30098256284660307 0 -0.40263324863316441 -0.32967896077653092 0 -0.38442983343225828 -0.32189177462067481 0 -0.40263324863316441 -0.32967896077653092 0 -0.40185461233875269 -0.30098256284660307 0 -0.40263324863316441 -0.32967896077653092 0 -0.41242695344044827 -0.31820451366256841 0 -0.40185461233875269 -0.30098256284660307 0 -0.41242695344044827 -0.31820451366256841 0 -0.41920998916455232 -0.33677027649670849 0 -0.42301959421646518 -0.31628833020920039 0 -0.41920998916455232 -0.33677027649670849 0 -0.42301959421646518 -0.31628833020920039 0 -0.41242695344044827 -0.31820451366256841 0 -0.42301959421646518 -0.31628833020920039 0 -0.41541732284930832 -0.30730243798379953 0 -0.40302160193259851 -0.3439916005776541 0 -0.41920998916455232 -0.33677027649670849 0 -0.41853876063601031 -0.34037906703560689 0 -0.40302160193259851 -0.3439916005776541 0 -0.40263324863316441 -0.32967896077653092 0 -0.41920998916455232 -0.33677027649670849 0 -0.40263324863316441 -0.32967896077653092 0 -0.41920998916455232 -0.33677027649670849 0 -0.40263324863316441 -0.32967896077653092 0 -0.41242695344044827 -0.31820451366256841 0 -0.41920998916455232 -0.33677027649670849 0 -0.40302160193259851 -0.3439916005776541 0 -0.41853876063601031 -0.34037906703560689 0 -0.41853876063601031 -0.34037906703560689 0 -0.42443636388738298 -0.3390060521705498 0 -0.41920998916455232 -0.33677027649670849 0 -0.42443636388738298 -0.3390060521705498 0 -0.41920998916455232 -0.33677027649670849 0 -0.41853876063601031 -0.34037906703560689 0 -0.42443636388738298 -0.3390060521705498 0 -0.41920998916455232 -0.33677027649670849 0 -0.41853876063601031 -0.34037906703560689 0 -0.43930980958642257 -0.33554338078202212 0 -0.44408457896710762 -0.34741130507322732 0 -0.42443636388738298 -0.3390060521705498 0 -0.43930980958642257 -0.33554338078202212 0 -0.42443636388738298 -0.3390060521705498 0 -0.42301959421646518 -0.31628833020920039 0 -0.41920998916455232 -0.33677027649670849 0 -0.42443636388738298 -0.3390060521705498 0 -0.42301959421646518 -0.31628833020920039 0 -0.44408457896710762 -0.34741130507322732 0 -0.42443636388738298 -0.3390060521705498 0 -0.42266042161335821 -0.34652378860874011 0 -0.41853876063601031 -0.34037906703560689 0 -0.42443636388738298 -0.3390060521705498 0 -0.43930980958642257 -0.33554338078202212 0 -0.42443636388738298 -0.3390060521705498 0 -0.43930980958642257 -0.33554338078202212 0 -0.42301959421646518 -0.31628833020920039 0 -0.44024276041750632 -0.31887045497680111 0 -0.42395130998641067 -0.31127905704434472 0 -0.44024276041750632 -0.31887045497680111 0 -0.43930980958642257 -0.33554338078202212 0 -0.42301959421646518 -0.31628833020920039 0 -0.44024276041750632 -0.31887045497680111 0 -0.42301959421646518 -0.31628833020920039 0 -0.42395130998641067 -0.31127905704434472 0 -0.42301959421646518 -0.31628833020920039 0 -0.42395130998641067 -0.31127905704434472 0 -0.42395130998641067 -0.31127905704434472 0 -0.42709180872781188 -0.29439449141065738 0 -0.44024276041750632 -0.31887045497680111 0 -0.42395130998641067 -0.31127905704434472 0 -0.43527018611072049 -0.30465000121327751 0 -0.42395130998641067 -0.31127905704434472 0 -0.42709180872781188 -0.29439449141065738 0 -0.41541732284930832 -0.30730243798379953 0 -0.42395130998641067 -0.31127905704434472 0 -0.43527018611072049 -0.30465000121327751 0 -0.42709180872781188 -0.29439449141065738 0 -0.441361257405879 -0.29303276451920029 0 -0.43527018611072049 -0.30465000121327751 0 -0.42709180872781188 -0.29439449141065738 0 -0.42709180872781188 -0.29439449141065738 0 -0.43077531442077321 -0.27459050524281542 0 -0.42709180872781188 -0.29439449141065738 0 -0.41684225135067149 -0.28376244362903152 0 -0.43077531442077321 -0.27459050524281542 0 -0.441361257405879 -0.29303276451920029 0 -0.42709180872781188 -0.29439449141065738 0 -0.441361257405879 -0.29303276451920029 0 -0.42709180872781188 -0.29439449141065738 0 -0.43077531442077321 -0.27459050524281542 0 -0.42709180872781188 -0.29439449141065738 0 -0.41684225135067149 -0.28376244362903152 0 -0.40618483967714292 -0.29638963380315841 0 -0.42709180872781188 -0.29439449141065738 0 -0.40618483967714292 -0.29638963380315841 0 -0.41684225135067149 -0.28376244362903152 0 -0.40690107601488551 -0.28490397733270861 0 -0.40618483967714292 -0.29638963380315841 0 -0.41541732284930832 -0.30730243798379953 0 -0.40185461233875269 -0.30098256284660307 0 -0.40618483967714292 -0.29638963380315841 0 -0.42709180872781188 -0.29439449141065738 0 -0.41541732284930832 -0.30730243798379953 0 -0.40618483967714292 -0.29638963380315841 0 -0.41541732284930832 -0.30730243798379953 0 -0.40618483967714292 -0.29638963380315841 0 -0.41242695344044827 -0.31820451366256841 0 -0.41541732284930832 -0.30730243798379953 0 -0.40185461233875269 -0.30098256284660307 0 -0.41541732284930832 -0.30730243798379953 0 -0.40185461233875269 -0.30098256284660307 0 -0.42301959421646518 -0.31628833020920039 0 -0.41541732284930832 -0.30730243798379953 0 -0.42395130998641067 -0.31127905704434472 0 -0.41541732284930832 -0.30730243798379953 0 -0.42301959421646518 -0.31628833020920039 0 -0.42395130998641067 -0.31127905704434472 0 -0.41541732284930832 -0.30730243798379953 0 -0.38442983343225828 -0.32189177462067481 0 -0.40185461233875269 -0.30098256284660307 0 -0.39448508010510541 -0.297525044214214 0 -0.40185461233875269 -0.30098256284660307 0 -0.40174149504185092 -0.29681366012781812 0 -0.40618483967714292 -0.29638963380315841 0 -0.40185461233875269 -0.30098256284660307 0 -0.40174149504185092 -0.29681366012781812 0 -0.40185461233875269 -0.30098256284660307 0 -0.39448508010510541 -0.297525044214214 0 -0.40174149504185092 -0.29681366012781812 0 -0.40185461233875269 -0.30098256284660307 0 -0.39448508010510541 -0.297525044214214 0 -0.39448508010510541 -0.297525044214214 0 -0.40174149504185092 -0.29681366012781812 0 -0.37641717267996733 -0.3184640617331177 0 -0.37669606201677502 -0.29920373422444158 0 -0.38442983343225828 -0.32189177462067481 0 -0.39448508010510541 -0.297525044214214 0 -0.38442983343225828 -0.32189177462067481 0 -0.39448508010510541 -0.297525044214214 0 -0.3841914044669909 -0.30132118344037401 0 -0.37641717267996733 -0.3184640617331177 0 -0.3841914044669909 -0.30132118344037401 0 -0.37669606201677502 -0.29920373422444158 0 -0.39448508010510541 -0.297525044214214 0 -0.3841914044669909 -0.30132118344037401 0 -0.37928718982873688 -0.29895646409505849 0 -0.39448508010510541 -0.297525044214214 0 -0.37928718982873688 -0.29895646409505849 0 -0.3841914044669909 -0.30132118344037401 0 -0.37928718982873688 -0.29895646409505849 0 -0.3841914044669909 -0.30132118344037401 0 -0.37928718982873688 -0.29895646409505849 0 -0.37669606201677502 -0.29920373422444158 0 -0.37928718982873688 -0.29895646409505849 0 -0.37669606201677502 -0.29920373422444158 0 -0.37671758341694961 -0.29771744858697219 0 -0.37928718982873688 -0.29895646409505849 0 -0.37671758341694961 -0.29771744858697219 0 -0.37928718982873688 -0.29895646409505849 0 -0.37669606201677502 -0.29920373422444158 0 -0.37669606201677502 -0.29920373422444158 0 -0.37671758341694961 -0.29771744858697219 0 -0.37671758341694961 -0.29771744858697219 0 -0.38607699004493318 -0.28757386461908069 0 -0.38483052758877101 -0.28123782127595193 0 -0.37671758341694961 -0.29771744858697219 0 -0.3770412393053626 -0.27536550612006683 0 -0.37671758341694961 -0.29771744858697219 0 -0.38483052758877101 -0.28123782127595193 0 -0.3770412393053626 -0.27536550612006683 0 -0.37928718982873688 -0.29895646409505849 0 -0.37671758341694961 -0.29771744858697219 0 -0.38467000758835601 -0.29297497791584359 0 -0.37671758341694961 -0.29771744858697219 0 -0.38467000758835601 -0.29297497791584359 0 -0.38607699004493318 -0.28757386461908069 0 -0.39448508010510541 -0.297525044214214 0 -0.37928718982873688 -0.29895646409505849 0 -0.38467000758835601 -0.29297497791584359 0 -0.39448508010510541 -0.297525044214214 0 -0.38467000758835601 -0.29297497791584359 0 -0.39448508010510541 -0.297525044214214 0 -0.38467000758835601 -0.29297497791584359 0 -0.39217701296355612 -0.28987936211692023 0 -0.38467000758835601 -0.29297497791584359 0 -0.38607699004493318 -0.28757386461908069 0 -0.39217701296355612 -0.28987936211692023 0 -0.38607699004493318 -0.28757386461908069 0 -0.39049541959166939 -0.28414526237041138 0 -0.39217701296355612 -0.28987936211692023 0 -0.39049541959166939 -0.28414526237041138 0 -0.39420405367365152 -0.27853706101481662 0 -0.38483052758877101 -0.28123782127595193 0 -0.38607699004493318 -0.28757386461908069 0 -0.39049541959166939 -0.28414526237041138 0 -0.38483052758877101 -0.28123782127595193 0 -0.39597078832761667 -0.28551153658085893 0 -0.40174149504185092 -0.29681366012781812 0 -0.40123596036735593 -0.27818233727432817 0 -0.39049541959166939 -0.28414526237041138 0 -0.39597078832761667 -0.28551153658085893 0 -0.39420405367365152 -0.27853706101481662 0 -0.40174149504185092 -0.29681366012781812 0 -0.40123596036735593 -0.27818233727432817 0 -0.40174149504185092 -0.29681366012781812 0 -0.40322207619149192 -0.29288764445213411 0 -0.40123596036735593 -0.27818233727432817 0 -0.39049541959166939 -0.28414526237041138 0 -0.39597078832761667 -0.28551153658085893 0 -0.39217701296355612 -0.28987936211692023 0 -0.39597078832761667 -0.28551153658085893 0 -0.39217701296355612 -0.28987936211692023 0 -0.40174149504185092 -0.29681366012781812 0 -0.39448508010510541 -0.297525044214214 0 -0.39217701296355612 -0.28987936211692023 0 -0.40174149504185092 -0.29681366012781812 0 -0.40690107601488551 -0.28490397733270861 0 -0.40322207619149192 -0.29288764445213411 0 -0.40618483967714292 -0.29638963380315841 0 -0.40174149504185092 -0.29681366012781812 0 -0.40322207619149192 -0.29288764445213411 0 -0.40618483967714292 -0.29638963380315841 0 -0.40174149504185092 -0.29681366012781812 0 -0.40618483967714292 -0.29638963380315841 0 -0.40322207619149192 -0.29288764445213411 0 -0.40618483967714292 -0.29638963380315841 0 -0.40690107601488551 -0.28490397733270861 0 -0.40322207619149192 -0.29288764445213411 0 -0.40123596036735593 -0.27818233727432817 0 -0.39420405367365152 -0.27853706101481662 0 -0.37710287173325818 -0.2711091198417086 0 -0.40073042569286338 -0.25955101442083811 0 -0.40123596036735593 -0.27818233727432817 0 -0.39420405367365152 -0.27853706101481662 0 -0.40073042569286338 -0.25955101442083811 0 -0.40123596036735593 -0.27818233727432817 0 -0.40073042569286338 -0.25955101442083811 0 -0.40123596036735593 -0.27818233727432817 0 -0.40073042569286338 -0.25955101442083811 0 -0.41341650638623911 -0.27076301679274262 0 -0.39597078832761667 -0.28551153658085893 0 -0.40123596036735593 -0.27818233727432817 0 -0.39420405367365152 -0.27853706101481662 0 -0.39420405367365152 -0.27853706101481662 0 -0.37710287173325818 -0.2711091198417086 0 -0.3770412393053626 -0.27536550612006683 0 -0.39420405367365152 -0.27853706101481662 0 -0.3770412393053626 -0.27536550612006683 0 -0.39420405367365152 -0.27853706101481662 0 -0.38483052758877101 -0.28123782127595193 0 -0.3770412393053626 -0.27536550612006683 0 -0.37710287173325818 -0.2711091198417086 0 -0.3770412393053626 -0.27536550612006683 0 -0.37710287173325818 -0.2711091198417086 0 -0.38543722149146659 -0.25821727905458303 0 -0.40073042569286338 -0.25955101442083811 0 -0.37710287173325818 -0.2711091198417086 0 -0.37747963509906429 -0.24508953120583671 0 -0.37710287173325818 -0.2711091198417086 0 -0.40073042569286338 -0.25955101442083811 0 -0.37710287173325818 -0.2711091198417086 0 -0.38543722149146659 -0.25821727905458303 0 -0.37747963509906429 -0.24508953120583671 0 -0.38543722149146659 -0.25821727905458303 0 -0.3938256931015453 -0.25037754026629511 0 -0.37747963509906429 -0.24508953120583671 0 -0.38543722149146659 -0.25821727905458303 0 -0.3938256931015453 -0.25037754026629511 0 -0.40073042569286338 -0.25955101442083811 0 -0.40073042569286338 -0.25955101442083811 0 -0.40282532782868952 -0.25224285689579767 0 -0.40022281387448849 -0.24084313907701979 0 -0.40073042569286338 -0.25955101442083811 0 -0.40022281387448849 -0.24084313907701979 0 -0.3938256931015453 -0.25037754026629511 0 -0.40073042569286338 -0.25955101442083811 0 -0.40022281387448849 -0.24084313907701979 0 -0.40073042569286338 -0.25955101442083811 0 -0.40282532782868952 -0.25224285689579767 0 -0.41385673751816382 -0.25312989710486528 0 -0.40073042569286338 -0.25955101442083811 0 -0.41385673751816382 -0.25312989710486528 0 -0.40073042569286338 -0.25955101442083811 0 -0.41385673751816382 -0.25312989710486528 0 -0.41341650638623911 -0.27076301679274262 0 -0.41385673751816382 -0.25312989710486528 0 -0.41341650638623911 -0.27076301679274262 0 -0.42312684460972783 -0.26331748455384929 0 -0.41385673751816382 -0.25312989710486528 0 -0.41679144862722167 -0.25169429778568547 0 -0.43445882011373449 -0.25478651907497341 0 -0.40282532782868952 -0.25224285689579767 0 -0.41385673751816382 -0.25312989710486528 0 -0.4086566941719203 -0.24778871483445111 0 -0.40282532782868952 -0.25224285689579767 0 -0.41385673751816382 -0.25312989710486528 0 -0.41385673751816382 -0.25312989710486528 0 -0.41679144862722167 -0.25169429778568547 0 -0.41627810448972868 -0.24641300060905449 0 -0.41385673751816382 -0.25312989710486528 0 -0.41679144862722167 -0.25169429778568547 0 -0.41684225135067149 -0.28376244362903152 0 -0.41341650638623911 -0.27076301679274262 0 -0.43077531442077321 -0.27459050524281542 0 -0.40690107601488551 -0.28490397733270861 0 -0.40123596036735593 -0.27818233727432817 0 -0.41341650638623911 -0.27076301679274262 0 -0.41684225135067149 -0.28376244362903152 0 -0.40690107601488551 -0.28490397733270861 0 -0.41341650638623911 -0.27076301679274262 0 -0.41341650638623911 -0.27076301679274262 0 -0.43077531442077321 -0.27459050524281542 0 -0.42312684460972783 -0.26331748455384929 0 -0.43077531442077321 -0.27459050524281542 0 -0.42312684460972783 -0.26331748455384929 0 -0.43445882011373449 -0.25478651907497341 0 -0.41385673751816382 -0.25312989710486528 0 -0.43445882011373449 -0.25478651907497341 0 -0.43077531442077321 -0.27459050524281542 0 -0.43445882011373449 -0.25478651907497341 0 -0.41385673751816382 -0.25312989710486528 0 -0.42312684460972783 -0.26331748455384929 0 -0.43445882011373449 -0.25478651907497341 0 -0.41679144862722167 -0.25169429778568547 0 -0.43445882011373449 -0.25478651907497341 0 -0.42335340856967768 -0.24893549408922019 0 -0.32580796388430833 -0.26195871891040218 0 -0.34139866608006603 -0.2687790352098644 0 -0.31202674084989918 -0.26335133138269068 0 -0.32580796388430833 -0.26195871891040218 0 -0.33345250408021371 -0.25331871279766999 0 -0.32023222063025569 -0.2489608815952247 0 -0.32580796388430833 -0.26195871891040218 0 -0.31664960680882542 -0.25714232151458272 0 -0.32023222063025569 -0.2489608815952247 0 -0.31664960680882542 -0.25714232151458272 0 -0.30853150187083839 -0.25429835417001312 0 -0.32023222063025569 -0.2489608815952247 0 -0.32580796388430833 -0.26195871891040218 0 -0.31664960680882542 -0.25714232151458272 0 -0.31202674084989918 -0.26335133138269068 0 -0.33223611708196649 -0.27626932861073827 0 -0.31972670239926188 -0.28454160199560091 0 -0.31187737399160442 -0.27618124236115132 0 -0.34139866608006603 -0.2687790352098644 0 -0.31202674084989918 -0.26335133138269068 0 -0.33223611708196649 -0.27626932861073827 0 -0.31202674084989918 -0.26335133138269068 0 -0.3062135479255173 -0.26372173898871692 0 -0.33223611708196649 -0.27626932861073827 0 -0.31187737399160442 -0.27618124236115132 0 -0.3062135479255173 -0.26372173898871692 0 -0.33260241140844943 -0.2743168067351805 0 -0.33223611708196649 -0.27626932861073827 0 -0.31202674084989918 -0.26335133138269068 0 -0.33223611708196649 -0.27626932861073827 0 -0.3062135479255173 -0.26372173898871692 0 -0.33260241140844943 -0.2743168067351805 0 -0.34139866608006603 -0.2687790352098644 0 -0.31202674084989918 -0.26335133138269068 0 -0.33223611708196649 -0.27626932861073827 0 -0.34139866608006603 -0.2687790352098644 0 -0.34951875912658742 -0.28460269103381453 0 -0.33223611708196649 -0.27626932861073827 0 -0.34951875912658742 -0.28460269103381453 0 -0.33260241140844943 -0.2743168067351805 0 -0.33223611708196649 -0.27626932861073827 0 -0.34139866608006603 -0.2687790352098644 0 -0.33260241140844943 -0.2743168067351805 0 -0.33223611708196649 -0.27626932861073827 0 -0.34139866608006603 -0.2687790352098644 0 -0.3363084638556994 -0.26041051377605268 0 -0.34457472137820933 -0.25758558818627408 0 -0.32580796388430833 -0.26195871891040218 0 -0.34139866608006603 -0.2687790352098644 0 -0.3363084638556994 -0.26041051377605268 0 -0.32580796388430833 -0.26195871891040218 0 -0.3363084638556994 -0.26041051377605268 0 -0.33345250408021371 -0.25331871279766999 0 -0.3363084638556994 -0.26041051377605268 0 -0.33345250408021371 -0.25331871279766999 0 -0.34457472137820933 -0.25758558818627408 0 -0.33345250408021371 -0.25331871279766999 0 -0.34457472137820933 -0.25758558818627408 0 -0.34395992200845399 -0.24382677409400949 0 -0.34139866608006603 -0.2687790352098644 0 -0.34457472137820933 -0.25758558818627408 0 -0.35733732661955131 -0.26288598862094092 0 -0.34457472137820933 -0.25758558818627408 0 -0.35872453044413888 -0.25078889886649508 0 -0.34395992200845399 -0.24382677409400949 0 -0.34457472137820933 -0.25758558818627408 0 -0.35733732661955131 -0.26288598862094092 0 -0.35872453044413888 -0.25078889886649508 0 -0.37710287173325818 -0.2711091198417086 0 -0.36828299104124951 -0.26081605551440462 0 -0.37747963509906429 -0.24508953120583671 0 -0.35872453044413888 -0.25078889886649508 0 -0.36828299104124951 -0.26081605551440462 0 -0.37747963509906429 -0.24508953120583671 0 -0.35733732661955131 -0.26288598862094092 0 -0.35872453044413888 -0.25078889886649508 0 -0.36828299104124951 -0.26081605551440462 0 -0.37077059131023282 -0.27420673903703829 0 -0.34951875912658742 -0.28460269103381453 0 -0.37710287173325818 -0.2711091198417086 0 -0.3770412393053626 -0.27536550612006683 0 -0.37077059131023282 -0.27420673903703829 0 -0.3770412393053626 -0.27536550612006683 0 -0.37077059131023282 -0.27420673903703829 0 -0.37710287173325818 -0.2711091198417086 0 -0.36828299104124951 -0.26081605551440462 0 -0.37077059131023282 -0.27420673903703829 0 -0.37710287173325818 -0.2711091198417086 0 -0.37077059131023282 -0.27420673903703829 0 -0.35733732661955131 -0.26288598862094092 0 -0.36828299104124951 -0.26081605551440462 0 -0.37077059131023282 -0.27420673903703829 0 -0.34139866608006603 -0.2687790352098644 0 -0.35733732661955131 -0.26288598862094092 0 -0.37077059131023282 -0.27420673903703829 0 -0.34139866608006603 -0.2687790352098644 0 -0.37077059131023282 -0.27420673903703829 0 -0.34951875912658742 -0.28460269103381453 0 -0.34139866608006603 -0.2687790352098644 0 -0.37077059131023282 -0.27420673903703829 0 -0.34951875912658742 -0.28460269103381453 0 -0.3581763596052473 -0.30097106086504849 0 -0.34010739644885768 -0.2892065328944351 0 -0.34951875912658742 -0.28460269103381453 0 -0.34010739644885768 -0.2892065328944351 0 -0.37671758341694961 -0.29771744858697219 0 -0.37077059131023282 -0.27420673903703829 0 -0.34951875912658742 -0.28460269103381453 0 -0.37671758341694961 -0.29771744858697219 0 -0.34951875912658742 -0.28460269103381453 0 -0.37671758341694961 -0.29771744858697219 0 -0.3770412393053626 -0.27536550612006683 0 -0.37077059131023282 -0.27420673903703829 0 -0.37671758341694961 -0.29771744858697219 0 -0.34951875912658742 -0.28460269103381453 0 -0.3581763596052473 -0.30097106086504849 0 -0.37669606201677502 -0.29920373422444158 0 -0.37671758341694961 -0.29771744858697219 0 -0.3581763596052473 -0.30097106086504849 0 -0.37641717267996733 -0.3184640617331177 0 -0.37669606201677502 -0.29920373422444158 0 -0.36799370156123501 -0.30592930732763762 0 -0.37641717267996733 -0.3184640617331177 0 -0.36799370156123501 -0.30592930732763762 0 -0.35803691493684492 -0.31060122461938489 0 -0.37669606201677502 -0.29920373422444158 0 -0.36799370156123501 -0.30592930732763762 0 -0.3581763596052473 -0.30097106086504849 0 -0.37669606201677502 -0.29920373422444158 0 -0.3581763596052473 -0.30097106086504849 0 -0.36799370156123501 -0.30592930732763762 0 -0.35803691493684492 -0.31060122461938489 0 -0.3581763596052473 -0.30097106086504849 0 -0.35803691493684492 -0.31060122461938489 0 -0.33965665719371979 -0.30273838750565862 0 -0.35803691493684492 -0.31060122461938489 0 -0.33965665719371979 -0.30273838750565862 0 -0.34514704515453298 -0.31300544250539297 0 -0.3581763596052473 -0.30097106086504849 0 -0.33965665719371979 -0.30273838750565862 0 -0.34010739644885768 -0.2892065328944351 0 -0.35803691493684492 -0.31060122461938489 0 -0.3581763596052473 -0.30097106086504849 0 -0.33965665719371979 -0.30273838750565862 0 -0.3581763596052473 -0.30097106086504849 0 -0.33965665719371979 -0.30273838750565862 0 -0.33676996251121621 -0.31158184422573892 0 -0.33965665719371979 -0.30273838750565862 0 -0.34514704515453298 -0.31300544250539297 0 -0.33676996251121621 -0.31158184422573892 0 -0.33965665719371979 -0.30273838750565862 0 -0.32704471803945162 -0.30394193902942662 0 -0.33676996251121621 -0.31158184422573892 0 -0.32594772137393307 -0.30978944971135602 0 -0.32704471803945162 -0.30394193902942662 0 -0.33965665719371979 -0.30273838750565862 0 -0.32704471803945162 -0.30394193902942662 0 -0.32819068517220462 -0.29783339261299951 0 -0.33965665719371979 -0.30273838750565862 0 -0.32704471803945162 -0.30394193902942662 0 -0.32819068517220462 -0.29783339261299951 0 -0.33965665719371979 -0.30273838750565862 0 -0.33223611708196649 -0.27626932861073827 0 -0.32819068517220462 -0.29783339261299951 0 -0.33223611708196649 -0.27626932861073827 0 -0.32819068517220462 -0.29783339261299951 0 -0.34010739644885768 -0.2892065328944351 0 -0.33223611708196649 -0.27626932861073827 0 -0.34951875912658742 -0.28460269103381453 0 -0.34010739644885768 -0.2892065328944351 0 -0.32819068517220462 -0.29783339261299951 0 -0.33965665719371979 -0.30273838750565862 0 -0.34010739644885768 -0.2892065328944351 0 -0.32819068517220462 -0.29783339261299951 0 -0.31972670239926188 -0.28454160199560091 0 -0.31332574866090718 -0.291474364566292 0 -0.32819068517220462 -0.29783339261299951 0 -0.31332574866090718 -0.291474364566292 0 -0.33223611708196649 -0.27626932861073827 0 -0.32819068517220462 -0.29783339261299951 0 -0.31972670239926188 -0.28454160199560091 0 -0.31972670239926188 -0.28454160199560091 0 -0.31332574866090718 -0.291474364566292 0 -0.30937392239009109 -0.28339120160471948 0 -0.31972670239926188 -0.28454160199560091 0 -0.30937392239009109 -0.28339120160471948 0 -0.31187737399160442 -0.27618124236115132 0 -0.31992409361072222 -0.30462145692723192 0 -0.32594772137393307 -0.30978944971135602 0 -0.31307430431717392 -0.31869978567557272 0 -0.31992409361072222 -0.30462145692723192 0 -0.32594772137393307 -0.30978944971135602 0 -0.32594772137393307 -0.30978944971135602 0 -0.32704471803945162 -0.30394193902942662 0 -0.31992409361072222 -0.30462145692723192 0 -0.32594772137393307 -0.30978944971135602 0 -0.32704471803945162 -0.30394193902942662 0 -0.32819068517220462 -0.29783339261299951 0 -0.31332574866090718 -0.291474364566292 0 -0.31992409361072222 -0.30462145692723192 0 -0.32819068517220462 -0.29783339261299951 0 -0.32704471803945162 -0.30394193902942662 0 -0.32819068517220462 -0.29783339261299951 0 -0.31992409361072222 -0.30462145692723192 0 -0.32704471803945162 -0.30394193902942662 0 -0.31992409361072222 -0.30462145692723192 0 -0.32704471803945162 -0.30394193902942662 0 -0.32594772137393307 -0.30978944971135602 0 -0.31307430431717392 -0.31869978567557272 0 -0.32184288384298337 -0.33167017375041419 0 -0.32594772137393307 -0.30978944971135602 0 -0.32184288384298337 -0.33167017375041419 0 -0.32184288384298337 -0.33167017375041419 0 -0.31773804631203251 -0.35355089778947202 0 -0.32184288384298337 -0.33167017375041419 0 -0.34475024534571441 -0.34586667392980902 0 -0.31773804631203251 -0.35355089778947202 0 -0.32184288384298337 -0.33167017375041419 0 -0.34612464597635118 -0.32710031367078812 0 -0.34475024534571441 -0.34586667392980902 0 -0.33676996251121621 -0.31158184422573892 0 -0.32594772137393307 -0.30978944971135602 0 -0.34612464597635118 -0.32710031367078812 0 -0.32594772137393307 -0.30978944971135602 0 -0.34612464597635118 -0.32710031367078812 0 -0.32594772137393307 -0.30978944971135602 0 -0.32184288384298337 -0.33167017375041419 0 -0.34612464597635118 -0.32710031367078812 0 -0.33676996251121621 -0.31158184422573892 0 -0.34514704515453298 -0.31300544250539297 0 -0.34612464597635118 -0.32710031367078812 0 -0.35803691493684492 -0.31060122461938489 0 -0.34514704515453298 -0.31300544250539297 0 -0.34612464597635118 -0.32710031367078812 0 -0.35803691493684492 -0.31060122461938489 0 -0.34612464597635118 -0.32710031367078812 0 -0.35600230731325749 -0.33324145173106873 0 -0.37641717267996733 -0.3184640617331177 0 -0.35803691493684492 -0.31060122461938489 0 -0.37641717267996733 -0.3184640617331177 0 -0.35803691493684492 -0.31060122461938489 0 -0.36719759625642318 -0.33008752154143739 0 -0.35803691493684492 -0.31060122461938489 0 -0.36719759625642318 -0.33008752154143739 0 -0.35600230731325749 -0.33324145173106873 0 -0.37607676276689278 -0.3419730509543204 0 -0.37641717267996733 -0.3184640617331177 0 -0.36719759625642318 -0.33008752154143739 0 -0.37607676276689278 -0.3419730509543204 0 -0.3688763256213185 -0.34309961767568647 0 -0.36719759625642318 -0.33008752154143739 0 -0.36719759625642318 -0.33008752154143739 0 -0.36118874601324108 -0.3436521492952741 0 -0.35600230731325749 -0.33324145173106873 0 -0.3688763256213185 -0.34309961767568647 0 -0.36719759625642318 -0.33008752154143739 0 -0.36118874601324108 -0.3436521492952741 0 -0.34612464597635118 -0.32710031367078812 0 -0.35600230731325749 -0.33324145173106873 0 -0.34475024534571441 -0.34586667392980902 0 -0.36118874601324108 -0.3436521492952741 0 -0.35600230731325749 -0.33324145173106873 0 -0.34475024534571441 -0.34586667392980902 0 -0.36118874601324108 -0.3436521492952741 0 -0.34475024534571441 -0.34586667392980902 0 -0.35925477447714671 -0.35134479444962452 0 -0.34475024534571441 -0.34586667392980902 0 -0.35480891830463612 -0.3592101017575729 0 -0.33937201587241012 -0.36587749477948078 0 -0.34475024534571441 -0.34586667392980902 0 -0.35480891830463612 -0.3592101017575729 0 -0.35925477447714671 -0.35134479444962452 0 -0.36118874601324108 -0.3436521492952741 0 -0.37225797237559449 -0.35115364910559932 0 -0.36118874601324108 -0.3436521492952741 0 -0.35925477447714671 -0.35134479444962452 0 -0.36985982957495511 -0.35171195823109852 0 -0.37568304780698558 -0.36916333065311507 0 -0.37593298752455201 -0.35190228771479481 0 -0.37225797237559449 -0.35115364910559932 0 -0.35480891830463612 -0.3592101017575729 0 -0.35925477447714671 -0.35134479444962452 0 -0.36985982957495511 -0.35171195823109852 0 -0.37607676276689278 -0.3419730509543204 0 -0.3688763256213185 -0.34309961767568647 0 -0.37225797237559449 -0.35115364910559932 0 -0.37607676276689278 -0.3419730509543204 0 -0.37225797237559449 -0.35115364910559932 0 -0.37607676276689278 -0.3419730509543204 0 -0.37390838074359528 -0.35076941925389299 0 -0.37225797237559449 -0.35115364910559932 0 -0.37593298752455201 -0.35190228771479481 0 -0.37390838074359528 -0.35076941925389299 0 -0.37225797237559449 -0.35115364910559932 0 -0.3688763256213185 -0.34309961767568647 0 -0.36118874601324108 -0.3436521492952741 0 -0.37225797237559449 -0.35115364910559932 0 -0.37593298752455201 -0.35190228771479481 0 -0.37390838074359528 -0.35076941925389299 0 -0.36118874601324108 -0.3436521492952741 0 -0.36985982957495511 -0.35171195823109852 0 -0.37225797237559449 -0.35115364910559932 0 -0.37595629511297179 -0.35029264644438168 0 -0.37390838074359528 -0.35076941925389299 0 -0.37390838074359528 -0.35076941925389299 0 -0.37225797237559449 -0.35115364910559932 0 -0.36985982957495511 -0.35171195823109852 0 -0.37225797237559449 -0.35115364910559932 0 -0.37568304780698558 -0.36916333065311507 0 -0.37225797237559449 -0.35115364910559932 0 -0.36100598543278789 -0.37820409176948921 0 -0.35480891830463612 -0.3592101017575729 0 -0.36985982957495511 -0.35171195823109852 0 -0.36100598543278789 -0.37820409176948921 0 -0.36985982957495511 -0.35171195823109852 0 -0.37225797237559449 -0.35115364910559932 0 -0.36100598543278789 -0.37820409176948921 0 -0.37225797237559449 -0.35115364910559932 0 -0.36100598543278789 -0.37820409176948921 0 -0.33937201587241012 -0.36587749477948078 0 -0.36100598543278789 -0.37820409176948921 0 -0.35480891830463612 -0.3592101017575729 0 -0.33937201587241012 -0.36587749477948078 0 -0.36100598543278789 -0.37820409176948921 0 -0.33937201587241012 -0.36587749477948078 0 -0.31773804631203251 -0.35355089778947202 0 -0.33937201587241012 -0.36587749477948078 0 -0.31773804631203251 -0.35355089778947202 0 -0.32803705280137402 -0.37447550275240871 0 -0.34475024534571441 -0.34586667392980902 0 -0.33937201587241012 -0.36587749477948078 0 -0.31773804631203251 -0.35355089778947202 0 -0.31773804631203251 -0.35355089778947202 0 -0.31381007312398762 -0.37448885129246268 0 -0.31773804631203251 -0.35355089778947202 0 -0.31381007312398762 -0.37448885129246268 0 -0.32803705280137402 -0.37447550275240871 0 -0.31381007312398762 -0.37448885129246268 0 -0.29871455833571747 -0.36148408621311728 0 -0.29196992941862432 -0.3825632544476108 0 -0.31773804631203251 -0.35355089778947202 0 -0.31381007312398762 -0.37448885129246268 0 -0.29871455833571747 -0.36148408621311728 0 -0.31773804631203251 -0.35355089778947202 0 -0.29871455833571747 -0.36148408621311728 0 -0.29282778547957722 -0.33935753649529382 0 -0.31773804631203251 -0.35355089778947202 0 -0.29282778547957722 -0.33935753649529382 0 -0.29871455833571747 -0.36148408621311728 0 -0.27675503022224163 -0.36681377825091099 0 -0.29282778547957722 -0.33935753649529382 0 -0.29871455833571747 -0.36148408621311728 0 -0.27675503022224163 -0.36681377825091099 0 -0.29196992941862432 -0.3825632544476108 0 -0.27675503022224163 -0.36681377825091099 0 -0.25757508569408222 -0.36424633604315798 0 -0.26546808025963542 -0.34847395767735678 0 -0.27675503022224163 -0.36681377825091099 0 -0.25757508569408222 -0.36424633604315798 0 -0.25812358553267323 -0.37605355791306738 0 -0.25757508569408222 -0.36424633604315798 0 -0.24839247009954951 -0.37292447016044328 0 -0.24532753696728959 -0.36501789644951049 0 -0.25757508569408222 -0.36424633604315798 0 -0.25812358553267323 -0.37605355791306738 0 -0.24839247009954951 -0.37292447016044328 0 -0.25757508569408222 -0.36424633604315798 0 -0.26546808025963542 -0.34847395767735678 0 -0.24650166737573331 -0.3569693529562265 0 -0.26546808025963542 -0.34847395767735678 0 -0.24650166737573331 -0.3569693529562265 0 -0.24881121389389799 -0.33838995723746451 0 -0.27675503022224163 -0.36681377825091099 0 -0.26546808025963542 -0.34847395767735678 0 -0.29282778547957722 -0.33935753649529382 0 -0.26791752464712137 -0.32516417520111718 0 -0.27544300416693679 -0.31995488319631832 0 -0.29282778547957722 -0.33935753649529382 0 -0.26546808025963542 -0.34847395767735678 0 -0.26791752464712137 -0.32516417520111718 0 -0.29282778547957722 -0.33935753649529382 0 -0.26791752464712137 -0.32516417520111718 0 -0.29282778547957722 -0.33935753649529382 0 -0.26791752464712137 -0.32516417520111718 0 -0.24881121389389799 -0.33838995723746451 0 -0.26546808025963542 -0.34847395767735678 0 -0.26791752464712137 -0.32516417520111718 0 -0.24881121389389799 -0.33838995723746451 0 -0.26791752464712137 -0.32516417520111718 0 -0.24881121389389799 -0.33838995723746451 0 -0.2441082332202735 -0.32380704628422963 0 -0.26791752464712137 -0.32516417520111718 0 -0.2444966906846206 -0.31181945912301329 0 -0.26791752464712137 -0.32516417520111718 0 -0.26963915832665503 -0.30942012505775762 0 -0.2444966906846206 -0.31181945912301329 0 -0.26791752464712137 -0.32516417520111718 0 -0.2441082332202735 -0.32380704628422963 0 -0.2444966906846206 -0.31181945912301329 0 -0.26791752464712137 -0.32516417520111718 0 -0.27544300416693679 -0.31995488319631832 0 -0.26963915832665503 -0.30942012505775762 0 -0.26791752464712137 -0.32516417520111718 0 -0.27544300416693679 -0.31995488319631832 0 -0.27544300416693679 -0.31995488319631832 0 -0.29403167998309421 -0.32125824908992018 0 -0.29478162596868879 -0.30702079099249591 0 -0.27544300416693679 -0.31995488319631832 0 -0.29403167998309421 -0.32125824908992018 0 -0.29282778547957722 -0.33935753649529382 0 -0.31307430431717392 -0.31869978567557272 0 -0.32184288384298337 -0.33167017375041419 0 -0.29282778547957722 -0.33935753649529382 0 -0.32184288384298337 -0.33167017375041419 0 -0.31773804631203251 -0.35355089778947202 0 -0.29282778547957722 -0.33935753649529382 0 -0.31307430431717392 -0.31869978567557272 0 -0.29403167998309421 -0.32125824908992018 0 -0.29282778547957722 -0.33935753649529382 0 -0.31307430431717392 -0.31869978567557272 0 -0.29403167998309421 -0.32125824908992018 0 -0.29478162596868879 -0.30702079099249591 0 -0.31992409361072222 -0.30462145692723192 0 -0.29478162596868879 -0.30702079099249591 0 -0.31992409361072222 -0.30462145692723192 0 -0.31307430431717392 -0.31869978567557272 0 -0.29478162596868879 -0.30702079099249591 0 -0.31992409361072222 -0.30462145692723192 0 -0.30687808727867438 -0.29770175581860719 0 -0.29478162596868879 -0.30702079099249591 0 -0.30687808727867438 -0.29770175581860719 0 -0.29813438661480679 -0.29530641477552327 0 -0.29478162596868879 -0.30702079099249591 0 -0.31992409361072222 -0.30462145692723192 0 -0.2984608121496099 -0.28511533651958437 0 -0.31992409361072222 -0.30462145692723192 0 -0.30687808727867438 -0.29770175581860719 0 -0.2984608121496099 -0.28511533651958437 0 -0.31332574866090718 -0.291474364566292 0 -0.31992409361072222 -0.30462145692723192 0 -0.2984608121496099 -0.28511533651958437 0 -0.31332574866090718 -0.291474364566292 0 -0.30937392239009109 -0.28339120160471948 0 -0.2984608121496099 -0.28511533651958437 0 -0.31332574866090718 -0.291474364566292 0 -0.2984608121496099 -0.28511533651958437 0 -0.30937392239009109 -0.28339120160471948 0 -0.2984608121496099 -0.28511533651958437 0 -0.30347897474907187 -0.279643462580969 0 -0.30687808727867438 -0.29770175581860719 0 -0.29951482580247829 -0.29240083595456018 0 -0.29813438661480679 -0.29530641477552327 0 -0.30687808727867438 -0.29770175581860719 0 -0.2984608121496099 -0.28511533651958437 0 -0.29951482580247829 -0.29240083595456018 0 -0.29951482580247829 -0.29240083595456018 0 -0.29813438661480679 -0.29530641477552327 0 -0.29499124589990039 -0.29073588210889412 0 -0.2984608121496099 -0.28511533651958437 0 -0.29951482580247829 -0.29240083595456018 0 -0.29499124589990039 -0.29073588210889412 0 -0.29499124589990039 -0.29073588210889412 0 -0.29148170063899659 -0.29460773718781319 0 -0.28586576089235322 -0.28577101837165192 0 -0.29813438661480679 -0.29530641477552327 0 -0.29499124589990039 -0.29073588210889412 0 -0.29148170063899659 -0.29460773718781319 0 -0.2984608121496099 -0.28511533651958437 0 -0.29499124589990039 -0.29073588210889412 0 -0.28586576089235322 -0.28577101837165192 0 -0.29148170063899659 -0.29460773718781319 0 -0.28586576089235322 -0.28577101837165192 0 -0.2798353156189245 -0.29508903771003908 0 -0.29148170063899659 -0.29460773718781319 0 -0.29478162596868879 -0.30702079099249591 0 -0.2798353156189245 -0.29508903771003908 0 -0.29478162596868879 -0.30702079099249591 0 -0.26963915832665503 -0.30942012505775762 0 -0.2798353156189245 -0.29508903771003908 0 -0.29478162596868879 -0.30702079099249591 0 -0.26963915832665503 -0.30942012505775762 0 -0.29813438661480679 -0.29530641477552327 0 -0.29148170063899659 -0.29460773718781319 0 -0.29478162596868879 -0.30702079099249591 0 -0.27544300416693679 -0.31995488319631832 0 -0.29478162596868879 -0.30702079099249591 0 -0.26963915832665503 -0.30942012505775762 0 -0.26963915832665503 -0.30942012505775762 0 -0.26057201890547982 -0.29344093798311832 0 -0.2798353156189245 -0.29508903771003908 0 -0.26963915832665503 -0.30942012505775762 0 -0.2444966906846206 -0.31181945912301329 0 -0.26963915832665503 -0.30942012505775762 0 -0.26057201890547982 -0.29344093798311832 0 -0.2444966906846206 -0.31181945912301329 0 -0.26057201890547982 -0.29344093798311832 0 -0.27108878797196961 -0.28331686931735522 0 -0.25298377122075039 -0.27518622721876451 0 -0.26057201890547982 -0.29344093798311832 0 -0.25298377122075039 -0.27518622721876451 0 -0.2435111179254994 -0.29490773243705071 0 -0.26057201890547982 -0.29344093798311832 0 -0.27108878797196961 -0.28331686931735522 0 -0.2798353156189245 -0.29508903771003908 0 -0.28586576089235322 -0.28577101837165192 0 -0.27108878797196961 -0.28331686931735522 0 -0.2798353156189245 -0.29508903771003908 0 -0.27108878797196961 -0.28331686931735522 0 -0.27618707322233982 -0.26709712530320262 0 -0.25298377122075039 -0.27518622721876451 0 -0.28586576089235322 -0.28577101837165192 0 -0.27108878797196961 -0.28331686931735522 0 -0.27618707322233982 -0.26709712530320262 0 -0.27618707322233982 -0.26709712530320262 0 -0.25431856302814809 -0.24833495949118861 0 -0.27618707322233982 -0.26709712530320262 0 -0.25298377122075039 -0.27518622721876451 0 -0.25431856302814809 -0.24833495949118861 0 -0.27618707322233982 -0.26709712530320262 0 -0.27309361240676189 -0.24179026653703889 0 -0.25431856302814809 -0.24833495949118861 0 -0.27618707322233982 -0.26709712530320262 0 -0.2907170577323625 -0.25177677077710309 0 -0.27309361240676189 -0.24179026653703889 0 -0.27618707322233982 -0.26709712530320262 0 -0.2907170577323625 -0.25177677077710309 0 -0.29477899871119112 -0.26293378760569941 0 -0.2984608121496099 -0.28511533651958437 0 -0.28586576089235322 -0.28577101837165192 0 -0.27618707322233982 -0.26709712530320262 0 -0.2984608121496099 -0.28511533651958437 0 -0.27618707322233982 -0.26709712530320262 0 -0.27618707322233982 -0.26709712530320262 0 -0.29477899871119112 -0.26293378760569941 0 -0.29948479845841441 -0.27338487519771032 0 -0.2984608121496099 -0.28511533651958437 0 -0.27618707322233982 -0.26709712530320262 0 -0.29948479845841441 -0.27338487519771032 0 -0.29477899871119112 -0.26293378760569941 0 -0.29948479845841441 -0.27338487519771032 0 -0.30156079933714469 -0.26765617134954151 0 -0.30156079933714469 -0.26765617134954151 0 -0.30403476516136241 -0.27459464834518948 0 -0.30588444940973558 -0.27063474712059482 0 -0.29948479845841441 -0.27338487519771032 0 -0.30156079933714469 -0.26765617134954151 0 -0.30403476516136241 -0.27459464834518948 0 -0.30156079933714469 -0.26765617134954151 0 -0.30588444940973558 -0.27063474712059482 0 -0.3062135479255173 -0.26372173898871692 0 -0.2984608121496099 -0.28511533651958437 0 -0.29948479845841441 -0.27338487519771032 0 -0.30347897474907187 -0.279643462580969 0 -0.29948479845841441 -0.27338487519771032 0 -0.30403476516136241 -0.27459464834518948 0 -0.30347897474907187 -0.279643462580969 0 -0.30937392239009109 -0.28339120160471948 0 -0.30347897474907187 -0.279643462580969 0 -0.31187737399160442 -0.27618124236115132 0 -0.30403476516136241 -0.27459464834518948 0 -0.30347897474907187 -0.279643462580969 0 -0.31187737399160442 -0.27618124236115132 0 -0.30403476516136241 -0.27459464834518948 0 -0.31187737399160442 -0.27618124236115132 0 -0.30588444940973558 -0.27063474712059482 0 -0.31187737399160442 -0.27618124236115132 0 -0.30588444940973558 -0.27063474712059482 0 -0.3062135479255173 -0.26372173898871692 0 -0.31664960680882542 -0.25714232151458272 0 -0.31202674084989918 -0.26335133138269068 0 -0.30853150187083839 -0.25429835417001312 0 -0.2907170577323625 -0.25177677077710309 0 -0.29477899871119112 -0.26293378760569941 0 -0.30853150187083839 -0.25429835417001312 0 -0.31202674084989918 -0.26335133138269068 0 -0.3062135479255173 -0.26372173898871692 0 -0.30853150187083839 -0.25429835417001312 0 -0.29477899871119112 -0.26293378760569941 0 -0.30156079933714469 -0.26765617134954151 0 -0.3062135479255173 -0.26372173898871692 0 -0.29477899871119112 -0.26293378760569941 0 -0.3062135479255173 -0.26372173898871692 0 -0.30853150187083839 -0.25429835417001312 0 -0.33709504481289931 -0.46474263175187808 0 -0.33075086723682939 -0.45093918684289991 0 -0.35302422329502631 -0.44785824460859458 0 -0.33709504481289931 -0.46474263175187808 0 -0.33075086723682939 -0.45093918684289991 0 -0.32054712240525829 -0.47546959342145068 0 -0.33075086723682939 -0.45093918684289991 0 -0.34095461206840061 -0.42640878026434909 0 -0.33075086723682939 -0.45093918684289991 0 -0.35302422329502631 -0.44785824460859458 0 -0.34095461206840061 -0.42640878026434909 0 -0.33075086723682939 -0.45093918684289991 0 -0.32054706720266329 -0.44859283512714471 0 -0.3206124180200437 -0.43193612962395289 0 -0.33075086723682939 -0.45093918684289991 0 -0.32054706720266329 -0.44859283512714471 0 -0.31571728338184601 -0.45752087103574601 0 -0.32054706720266329 -0.44859283512714471 0 -0.31571728338184601 -0.45752087103574601 0 -0.30706080135445341 -0.45057148265483188 0 -0.33075086723682939 -0.45093918684289991 0 -0.32054712240525829 -0.47546959342145068 0 -0.33075086723682939 -0.45093918684289991 0 -0.31571728338184601 -0.45752087103574601 0 -0.32054712240525829 -0.47546959342145068 0 -0.32054712240525829 -0.47546959342145068 0 -0.32750579650535672 -0.48798687004089669 0 -0.32933965142182292 -0.47777380670114528 0 -0.32054712240525829 -0.47546959342145068 0 -0.31034337757368669 -0.50000000000000133 0 -0.32750579650535672 -0.48798687004089669 0 -0.33387795429423722 -0.5 0 -0.31034337757368669 -0.50000000000000133 0 -0.32054712240525829 -0.47546959342145068 0 -0.32750579650535672 -0.48798687004089669 0 -0.31034337757368669 -0.50000000000000133 0 -0.32750579650535672 -0.48798687004089669 0 -0.34342087683177741 -0.48669095008188618 0 -0.33387795429423722 -0.5 0 -0.33709504481289931 -0.46474263175187808 0 -0.32933965142182292 -0.47777380670114528 0 -0.35181335970555933 -0.47167232718529989 0 -0.34342087683177741 -0.48669095008188618 0 -0.32933965142182292 -0.47777380670114528 0 -0.35181335970555933 -0.47167232718529989 0 -0.32750579650535672 -0.48798687004089669 0 -0.34342087683177741 -0.48669095008188618 0 -0.32933965142182292 -0.47777380670114528 0 -0.33709504481289931 -0.46474263175187808 0 -0.32054712240525829 -0.47546959342145068 0 -0.32933965142182292 -0.47777380670114528 0 -0.32933965142182292 -0.47777380670114528 0 -0.35181335970555933 -0.47167232718529989 0 -0.34342087683177741 -0.48669095008188618 0 -0.35181335970555933 -0.47167232718529989 0 -0.35979455825166368 -0.48519290092039941 0 -0.34342087683177741 -0.48669095008188618 0 -0.35741253101478748 -0.5 0 -0.35979455825166368 -0.48519290092039941 0 -0.34342087683177741 -0.48669095008188618 0 -0.33387795429423722 -0.5 0 -0.35741253101478748 -0.5 0 -0.38094710773533791 -0.49999999999999839 0 -0.35741253101478748 -0.5 0 -0.37240076261097882 -0.48974555046165519 0 -0.35741253101478748 -0.5 0 -0.35979455825166368 -0.48519290092039941 0 -0.37240076261097882 -0.48974555046165519 0 -0.35181335970555933 -0.47167232718529989 0 -0.35979455825166368 -0.48519290092039941 0 -0.37411677223754131 -0.47733161267270968 0 -0.35181335970555933 -0.47167232718529989 0 -0.37411677223754131 -0.47733161267270968 0 -0.37428706798929601 -0.46557084766945539 0 -0.35979455825166368 -0.48519290092039941 0 -0.37240076261097882 -0.48974555046165519 0 -0.37411677223754131 -0.47733161267270968 0 -0.37411677223754131 -0.47733161267270968 0 -0.37428706798929601 -0.46557084766945539 0 -0.35181335970555933 -0.47167232718529989 0 -0.37428706798929601 -0.46557084766945539 0 -0.35302422329502631 -0.44785824460859458 0 -0.35181335970555933 -0.47167232718529989 0 -0.37428706798929601 -0.46557084766945539 0 -0.33709504481289931 -0.46474263175187808 0 -0.35181335970555933 -0.47167232718529989 0 -0.35302422329502631 -0.44785824460859458 0 -0.37428706798929601 -0.46557084766945539 0 -0.35302422329502631 -0.44785824460859458 0 -0.37472313619600889 -0.43545561783144832 0 -0.37428706798929601 -0.46557084766945539 0 -0.37472313619600889 -0.43545561783144832 0 -0.35302422329502631 -0.44785824460859458 0 -0.37472313619600889 -0.43545561783144832 0 -0.36076670325611282 -0.42019275678090617 0 -0.37515920440272033 -0.40534038799344108 0 -0.37472313619600889 -0.43545561783144832 0 -0.36076670325611282 -0.42019275678090617 0 -0.37515920440272033 -0.40534038799344108 0 -0.36076670325611282 -0.42019275678090617 0 -0.35115835689997099 -0.40187837368579798 0 -0.37515920440272033 -0.40534038799344108 0 -0.37472313619600889 -0.43545561783144832 0 -0.36076670325611282 -0.42019275678090617 0 -0.35115835689997099 -0.40187837368579798 0 -0.34095461206840061 -0.42640878026434909 0 -0.34815033243380111 -0.40144447968524521 0 -0.35115835689997099 -0.40187837368579798 0 -0.34095461206840061 -0.42640878026434909 0 -0.35115835689997099 -0.40187837368579798 0 -0.34095461206840061 -0.42640878026434909 0 -0.35302422329502631 -0.44785824460859458 0 -0.36076670325611282 -0.42019275678090617 0 -0.34095461206840061 -0.42640878026434909 0 -0.37543310808941849 -0.38642437359143528 0 -0.36100598543278789 -0.37820409176948921 0 -0.35115835689997099 -0.40187837368579798 0 -0.37543310808941849 -0.38642437359143528 0 -0.37568304780698558 -0.36916333065311507 0 -0.36100598543278789 -0.37820409176948921 0 -0.37543310808941849 -0.38642437359143528 0 -0.36100598543278789 -0.37820409176948921 0 -0.37515920440272033 -0.40534038799344108 0 -0.37543310808941849 -0.38642437359143528 0 -0.35115835689997099 -0.40187837368579798 0 -0.37515920440272033 -0.40534038799344108 0 -0.35115835689997099 -0.40187837368579798 0 -0.35115835689997099 -0.40187837368579798 0 -0.34646966066369161 -0.38533898881774881 0 -0.34316085436749 -0.39382471367395527 0 -0.34815033243380111 -0.40144447968524521 0 -0.35115835689997099 -0.40187837368579798 0 -0.34316085436749 -0.39382471367395527 0 -0.34815033243380111 -0.40144447968524521 0 -0.35115835689997099 -0.40187837368579798 0 -0.33937201587241012 -0.36587749477948078 0 -0.36100598543278789 -0.37820409176948921 0 -0.34646966066369161 -0.38533898881774881 0 -0.36100598543278789 -0.37820409176948921 0 -0.35115835689997099 -0.40187837368579798 0 -0.36100598543278789 -0.37820409176948921 0 -0.35115835689997099 -0.40187837368579798 0 -0.34646966066369161 -0.38533898881774881 0 -0.33937201587241012 -0.36587749477948078 0 -0.32803705280137402 -0.37447550275240871 0 -0.34646966066369161 -0.38533898881774881 0 -0.32803705280137402 -0.37447550275240871 0 -0.34646966066369161 -0.38533898881774881 0 -0.32931529664348408 -0.38869437358142001 0 -0.34646966066369161 -0.38533898881774881 0 -0.32931529664348408 -0.38869437358142001 0 -0.34316085436749 -0.39382471367395527 0 -0.34815033243380111 -0.40144447968524521 0 -0.33486919938690762 -0.39884665705885908 0 -0.32944617452305069 -0.41182817437998842 0 -0.32931529664348408 -0.38869437358142001 0 -0.34316085436749 -0.39382471367395527 0 -0.33486919938690762 -0.39884665705885908 0 -0.32931529664348408 -0.38869437358142001 0 -0.33486919938690762 -0.39884665705885908 0 -0.32365381597648563 -0.39942827076698811 0 -0.34815033243380111 -0.40144447968524521 0 -0.34316085436749 -0.39382471367395527 0 -0.33486919938690762 -0.39884665705885908 0 -0.33486919938690762 -0.39884665705885908 0 -0.32365381597648563 -0.39942827076698811 0 -0.32944617452305069 -0.41182817437998842 0 -0.32931529664348408 -0.38869437358142001 0 -0.32365381597648563 -0.39942827076698811 0 -0.30988209993594379 -0.39542680479545339 0 -0.32365381597648563 -0.39942827076698811 0 -0.30595412674790001 -0.41636475829844438 0 -0.30988209993594379 -0.39542680479545339 0 -0.31381007312398762 -0.37448885129246268 0 -0.32931529664348408 -0.38869437358142001 0 -0.30988209993594379 -0.39542680479545339 0 -0.31381007312398762 -0.37448885129246268 0 -0.32803705280137402 -0.37447550275240871 0 -0.32931529664348408 -0.38869437358142001 0 -0.34095461206840061 -0.42640878026434909 0 -0.32944617452305069 -0.41182817437998842 0 -0.3206124180200437 -0.43193612962395289 0 -0.33075086723682939 -0.45093918684289991 0 -0.34095461206840061 -0.42640878026434909 0 -0.3206124180200437 -0.43193612962395289 0 -0.34815033243380111 -0.40144447968524521 0 -0.34095461206840061 -0.42640878026434909 0 -0.32944617452305069 -0.41182817437998842 0 -0.32944617452305069 -0.41182817437998842 0 -0.3206124180200437 -0.43193612962395289 0 -0.30595412674790001 -0.41636475829844438 0 -0.32365381597648563 -0.39942827076698811 0 -0.32944617452305069 -0.41182817437998842 0 -0.30595412674790001 -0.41636475829844438 0 -0.3206124180200437 -0.43193612962395289 0 -0.30595412674790001 -0.41636475829844438 0 -0.29602166034141808 -0.43748304283089118 0 -0.30595412674790001 -0.41636475829844438 0 -0.28680587137917263 -0.41476105187328532 0 -0.29502227998321778 -0.40112933436643161 0 -0.30595412674790001 -0.41636475829844438 0 -0.28680587137917263 -0.41476105187328532 0 -0.29602166034141808 -0.43748304283089118 0 -0.28680587137917263 -0.41476105187328532 0 -0.29602166034141808 -0.43748304283089118 0 -0.27149625348017281 -0.42637325053463759 0 -0.29602166034141808 -0.43748304283089118 0 -0.27149625348017281 -0.42637325053463759 0 -0.29602166034141808 -0.43748304283089118 0 -0.27149625348017281 -0.42637325053463759 0 -0.27906578537949278 -0.44687665772048962 0 -0.31381007312398762 -0.37448885129246268 0 -0.30988209993594379 -0.39542680479545339 0 -0.31381007312398762 -0.37448885129246268 0 -0.30988209993594379 -0.39542680479545339 0 -0.29196992941862432 -0.3825632544476108 0 -0.30595412674790001 -0.41636475829844438 0 -0.30988209993594379 -0.39542680479545339 0 -0.30595412674790001 -0.41636475829844438 0 -0.30988209993594379 -0.39542680479545339 0 -0.29502227998321778 -0.40112933436643161 0 -0.30988209993594379 -0.39542680479545339 0 -0.29502227998321778 -0.40112933436643161 0 -0.29196992941862432 -0.3825632544476108 0 -0.28680587137917263 -0.41476105187328532 0 -0.29502227998321778 -0.40112933436643161 0 -0.2806661672136338 -0.39648987600255969 0 -0.29502227998321778 -0.40112933436643161 0 -0.29196992941862432 -0.3825632544476108 0 -0.2806661672136338 -0.39648987600255969 0 -0.27675503022224163 -0.36681377825091099 0 -0.29196992941862432 -0.3825632544476108 0 -0.26924588117792803 -0.38334910629271668 0 -0.29196992941862432 -0.3825632544476108 0 -0.26924588117792803 -0.38334910629271668 0 -0.2806661672136338 -0.39648987600255969 0 -0.27675503022224163 -0.36681377825091099 0 -0.26924588117792803 -0.38334910629271668 0 -0.25812358553267323 -0.37605355791306738 0 -0.28680587137917263 -0.41476105187328532 0 -0.2806661672136338 -0.39648987600255969 0 -0.26326431180229581 -0.40282557300305732 0 -0.26924588117792803 -0.38334910629271668 0 -0.2806661672136338 -0.39648987600255969 0 -0.26326431180229581 -0.40282557300305732 0 -0.26326431180229581 -0.40282557300305732 0 -0.2504897110532438 -0.38524934403489181 0 -0.24394706363899241 -0.39877073912243299 0 -0.26326431180229581 -0.40282557300305732 0 -0.24697084661892749 -0.41526345823838401 0 -0.24394706363899241 -0.39877073912243299 0 -0.26924588117792803 -0.38334910629271668 0 -0.26326431180229581 -0.40282557300305732 0 -0.2504897110532438 -0.38524934403489181 0 -0.26924588117792803 -0.38334910629271668 0 -0.2504897110532438 -0.38524934403489181 0 -0.25812358553267323 -0.37605355791306738 0 -0.2504897110532438 -0.38524934403489181 0 -0.25812358553267323 -0.37605355791306738 0 -0.24839247009954951 -0.37292447016044328 0 -0.28680587137917263 -0.41476105187328532 0 -0.26326431180229581 -0.40282557300305732 0 -0.27149625348017281 -0.42637325053463759 0 -0.27149625348017281 -0.42637325053463759 0 -0.24697084661892749 -0.41526345823838401 0 -0.26326431180229581 -0.40282557300305732 0 -0.27149625348017281 -0.42637325053463759 0 -0.24697084661892749 -0.41526345823838401 0 -0.27149625348017281 -0.42637325053463759 0 -0.25687425522332558 -0.44642006451091643 0 -0.24697084661892749 -0.41526345823838401 0 -0.25687425522332558 -0.44642006451091643 0 -0.27607931301277078 -0.46657199895299017 0 -0.25409384940020791 -0.47271975939701871 0 -0.25687425522332558 -0.44642006451091643 0 -0.27607931301277078 -0.46657199895299017 0 -0.27906578537949278 -0.44687665772048962 0 -0.27149625348017281 -0.42637325053463759 0 -0.25687425522332558 -0.44642006451091643 0 -0.27906578537949278 -0.44687665772048962 0 -0.29602166034141808 -0.43748304283089118 0 -0.27906578537949278 -0.44687665772048962 0 -0.29968055871002541 -0.46203125713240301 0 -0.27607931301277078 -0.46657199895299017 0 -0.27906578537949278 -0.44687665772048962 0 -0.29968055871002541 -0.46203125713240301 0 -0.31571728338184601 -0.45752087103574601 0 -0.29968055871002541 -0.46203125713240301 0 -0.30706080135445341 -0.45057148265483188 0 -0.31571728338184601 -0.45752087103574601 0 -0.32054712240525829 -0.47546959342145068 0 -0.29968055871002541 -0.46203125713240301 0 -0.32054706720266329 -0.44859283512714471 0 -0.29602166034141808 -0.43748304283089118 0 -0.32054706720266329 -0.44859283512714471 0 -0.3206124180200437 -0.43193612962395289 0 -0.29602166034141808 -0.43748304283089118 0 -0.32054706720266329 -0.44859283512714471 0 -0.29602166034141808 -0.43748304283089118 0 -0.30706080135445341 -0.45057148265483188 0 -0.29602166034141808 -0.43748304283089118 0 -0.29968055871002541 -0.46203125713240301 0 -0.30706080135445341 -0.45057148265483188 0 -0.32054712240525829 -0.47546959342145068 0 -0.31034337757368669 -0.50000000000000133 0 -0.2941570887960146 -0.48201569375099518 0 -0.32054712240525829 -0.47546959342145068 0 -0.29968055871002541 -0.46203125713240301 0 -0.2941570887960146 -0.48201569375099518 0 -0.27607931301277078 -0.46657199895299017 0 -0.29968055871002541 -0.46203125713240301 0 -0.2941570887960146 -0.48201569375099518 0 -0.2941570887960146 -0.48201569375099518 0 -0.28248249767631262 -0.5 0 -0.27039562620846602 -0.48462576079096858 0 -0.31034337757368669 -0.50000000000000133 0 -0.2941570887960146 -0.48201569375099518 0 -0.28248249767631262 -0.5 0 -0.28248249767631262 -0.5 0 -0.27039562620846602 -0.48462576079096858 0 -0.25462161777893849 -0.5 0 -0.27607931301277078 -0.46657199895299017 0 -0.2941570887960146 -0.48201569375099518 0 -0.27039562620846602 -0.48462576079096858 0 -0.27607931301277078 -0.46657199895299017 0 -0.27039562620846602 -0.48462576079096858 0 -0.25409384940020791 -0.47271975939701871 0 -0.27039562620846602 -0.48462576079096858 0 -0.25409384940020791 -0.47271975939701871 0 -0.25462161777893849 -0.5 0 -0.25462161777893849 -0.5 0 -0.23155232774708009 -0.47932355884050398 0 -0.22676073788156451 -0.5 0 -0.25409384940020791 -0.47271975939701871 0 -0.25462161777893849 -0.5 0 -0.23155232774708009 -0.47932355884050398 0 -0.25409384940020791 -0.47271975939701871 0 -0.23155232774708009 -0.47932355884050398 0 -0.2350399564306665 -0.45937717328673289 0 -0.23155232774708009 -0.47932355884050398 0 -0.2350399564306665 -0.45937717328673289 0 -0.2080224731694312 -0.47403962225972662 0 -0.23155232774708009 -0.47932355884050398 0 -0.22676073788156451 -0.5 0 -0.2080224731694312 -0.47403962225972662 0 -0.25687425522332558 -0.44642006451091643 0 -0.2350399564306665 -0.45937717328673289 0 -0.23180750449586429 -0.4343742486430574 0 -0.25687425522332558 -0.44642006451091643 0 -0.25409384940020791 -0.47271975939701871 0 -0.2350399564306665 -0.45937717328673289 0 -0.2350399564306665 -0.45937717328673289 0 -0.21590660946663959 -0.44883644739355771 0 -0.2080224731694312 -0.47403962225972662 0 -0.2350399564306665 -0.45937717328673289 0 -0.21590660946663959 -0.44883644739355771 0 -0.23180750449586429 -0.4343742486430574 0 -0.21590660946663959 -0.44883644739355771 0 -0.1943898331460783 -0.4473597119794826 0 -0.20910912931781811 -0.42543372189632289 0 -0.21590660946663959 -0.44883644739355771 0 -0.1943898331460783 -0.4473597119794826 0 -0.2080224731694312 -0.47403962225972662 0 -0.1943898331460783 -0.4473597119794826 0 -0.2080224731694312 -0.47403962225972662 0 -0.17967053697433849 -0.46928570206264231 0 -0.22676073788156451 -0.5 0 -0.2080224731694312 -0.47403962225972662 0 -0.19889985798419041 -0.5 0 -0.2080224731694312 -0.47403962225972662 0 -0.1821948971586228 -0.48648437486529872 0 -0.17967053697433849 -0.46928570206264231 0 -0.2080224731694312 -0.47403962225972662 0 -0.19889985798419041 -0.5 0 -0.1821948971586228 -0.48648437486529872 0 -0.19889985798419041 -0.5 0 -0.1821948971586228 -0.48648437486529872 0 -0.17103897808681609 -0.49999999999999778 0 -0.1821948971586228 -0.48648437486529872 0 -0.17103897808681609 -0.49999999999999778 0 -0.16495124080259491 -0.49121169214579941 0 -0.17103897808681609 -0.49999999999999778 0 -0.16495124080259491 -0.49121169214579941 0 -0.17103897808681609 -0.49999999999999778 0 -0.16495124080259491 -0.49121169214579941 0 -0.15905149781887321 -0.49999999999999961 0 -0.16495124080259491 -0.49121169214579941 0 -0.15905149781887321 -0.49999999999999961 0 -0.1545750311736096 -0.49062041690426861 0 -0.16495124080259491 -0.49121169214579941 0 -0.15905149781887321 -0.49999999999999961 0 -0.16495124080259491 -0.49121169214579941 0 -0.16530166315622061 -0.47155300009798301 0 -0.17967053697433849 -0.46928570206264231 0 -0.16495124080259491 -0.49121169214579941 0 -0.16530166315622061 -0.47155300009798301 0 -0.15083103946930049 -0.47082765280793248 0 -0.16495124080259491 -0.49121169214579941 0 -0.1545750311736096 -0.49062041690426861 0 -0.15083103946930049 -0.47082765280793248 0 -0.16495124080259491 -0.49121169214579941 0 -0.15083103946930049 -0.47082765280793248 0 -0.16495124080259491 -0.49121169214579941 0 -0.17967053697433849 -0.46928570206264231 0 -0.1821948971586228 -0.48648437486529872 0 -0.16495124080259491 -0.49121169214579941 0 -0.17967053697433849 -0.46928570206264231 0 -0.1943898331460783 -0.4473597119794826 0 -0.17967053697433849 -0.46928570206264231 0 -0.1943898331460783 -0.4473597119794826 0 -0.17967053697433849 -0.46928570206264231 0 -0.1657538353786501 -0.45488695337555668 0 -0.1943898331460783 -0.4473597119794826 0 -0.1657538353786501 -0.45488695337555668 0 -0.1755027511393909 -0.43471579892562301 0 -0.1657538353786501 -0.45488695337555668 0 -0.15761868306950341 -0.43586407366366631 0 -0.1755027511393909 -0.43471579892562301 0 -0.16530166315622061 -0.47155300009798301 0 -0.1657538353786501 -0.45488695337555668 0 -0.15083103946930049 -0.47082765280793248 0 -0.16530166315622061 -0.47155300009798301 0 -0.17967053697433849 -0.46928570206264231 0 -0.1657538353786501 -0.45488695337555668 0 -0.13671083813600751 -0.45044361347006462 0 -0.15083103946930049 -0.47082765280793248 0 -0.13671083813600751 -0.45044361347006462 0 -0.13441782301728619 -0.47175980973682791 0 -0.15083103946930049 -0.47082765280793248 0 -0.1657538353786501 -0.45488695337555668 0 -0.13671083813600751 -0.45044361347006462 0 -0.15083103946930049 -0.47082765280793248 0 -0.13671083813600751 -0.45044361347006462 0 -0.13816776916695811 -0.432543871779144 0 -0.15761868306950341 -0.43586407366366631 0 -0.1657538353786501 -0.45488695337555668 0 -0.13671083813600751 -0.45044361347006462 0 -0.15761868306950341 -0.43586407366366631 0 -0.13671083813600751 -0.45044361347006462 0 -0.13816776916695811 -0.432543871779144 0 -0.1225906368027144 -0.43005957413219659 0 -0.13671083813600751 -0.45044361347006462 0 -0.1225906368027144 -0.43005957413219659 0 -0.13671083813600751 -0.45044361347006462 0 -0.13441782301728619 -0.47175980973682791 0 -0.1201929706126502 -0.46127799294672761 0 -0.13441782301728619 -0.47175980973682791 0 -0.12605423818426559 -0.48707922202292669 0 -0.14429533434837091 -0.48908967660720287 0 -0.13441782301728619 -0.47175980973682791 0 -0.12605423818426559 -0.48707922202292669 0 -0.1201929706126502 -0.46127799294672761 0 -0.1295391708778694 -0.5 0 -0.12605423818426559 -0.48707922202292669 0 -0.14429533434837091 -0.48908967660720287 0 -0.15905149781887321 -0.49999999999999961 0 -0.1295391708778694 -0.5 0 -0.14429533434837091 -0.48908967660720287 0 -0.15905149781887321 -0.49999999999999961 0 -0.14429533434837091 -0.48908967660720287 0 -0.1545750311736096 -0.49062041690426861 0 -0.14429533434837091 -0.48908967660720287 0 -0.1545750311736096 -0.49062041690426861 0 -0.15083103946930049 -0.47082765280793248 0 -0.13441782301728619 -0.47175980973682791 0 -0.14429533434837091 -0.48908967660720287 0 -0.15083103946930049 -0.47082765280793248 0 -0.15345949684661231 -0.4053237642064671 0 -0.15136585988972451 -0.39002590355483568 0 -0.13982663417143551 -0.39933000433158738 0 -0.15136585988972451 -0.39002590355483568 0 -0.1368738238800834 -0.3880397179408614 0 -0.13982663417143551 -0.39933000433158738 0 -0.15345949684661231 -0.4053237642064671 0 -0.13982663417143551 -0.39933000433158738 0 -0.1398029654186671 -0.41064466143528439 0 -0.15136585988972451 -0.39002590355483568 0 -0.1368738238800834 -0.3880397179408614 0 -0.13959568407155781 -0.37291875636350952 0 -0.15136585988972451 -0.39002590355483568 0 -0.15951650330528561 -0.37856285477961621 0 -0.13959568407155781 -0.37291875636350952 0 -0.1368738238800834 -0.3880397179408614 0 -0.12625141541498519 -0.38197991289387551 0 -0.13959568407155781 -0.37291875636350952 0 -0.1368738238800834 -0.3880397179408614 0 -0.12625141541498519 -0.38197991289387551 0 -0.1273295258527142 -0.39594401256049883 0 -0.1368738238800834 -0.3880397179408614 0 -0.1273295258527142 -0.39594401256049883 0 -0.13982663417143551 -0.39933000433158738 0 -0.13982663417143551 -0.39933000433158738 0 -0.1295768038857959 -0.40463739140698729 0 -0.1398029654186671 -0.41064466143528439 0 -0.1273295258527142 -0.39594401256049883 0 -0.13982663417143551 -0.39933000433158738 0 -0.1295768038857959 -0.40463739140698729 0 -0.1273295258527142 -0.39594401256049883 0 -0.1295768038857959 -0.40463739140698729 0 -0.1219584454402414 -0.40406961642135292 0 -0.1295768038857959 -0.40463739140698729 0 -0.1296119374269841 -0.41417592727859581 0 -0.1225700411049412 -0.40994677461386392 0 -0.1296119374269841 -0.41417592727859581 0 -0.12315425937001 -0.41747458531602638 0 -0.1225700411049412 -0.40994677461386392 0 -0.1296119374269841 -0.41417592727859581 0 -0.13713184062407599 -0.42036644340313623 0 -0.12908399078123631 -0.42243277819987513 0 -0.1296119374269841 -0.41417592727859581 0 -0.12908399078123631 -0.42243277819987513 0 -0.12315425937001 -0.41747458531602638 0 -0.1296119374269841 -0.41417592727859581 0 -0.13713184062407599 -0.42036644340313623 0 -0.1398029654186671 -0.41064466143528439 0 -0.1295768038857959 -0.40463739140698729 0 -0.1296119374269841 -0.41417592727859581 0 -0.1398029654186671 -0.41064466143528439 0 -0.12908399078123631 -0.42243277819987513 0 -0.13816776916695811 -0.432543871779144 0 -0.1225906368027144 -0.43005957413219659 0 -0.13713184062407599 -0.42036644340313623 0 -0.12908399078123631 -0.42243277819987513 0 -0.13816776916695811 -0.432543871779144 0 -0.13816776916695811 -0.432543871779144 0 -0.14921107955709881 -0.42003443798493328 0 -0.15761868306950341 -0.43586407366366631 0 -0.13713184062407599 -0.42036644340313623 0 -0.13816776916695811 -0.432543871779144 0 -0.14921107955709881 -0.42003443798493328 0 -0.15345949684661231 -0.4053237642064671 0 -0.1398029654186671 -0.41064466143528439 0 -0.14921107955709881 -0.42003443798493328 0 -0.13713184062407599 -0.42036644340313623 0 -0.1398029654186671 -0.41064466143528439 0 -0.14921107955709881 -0.42003443798493328 0 -0.15345949684661231 -0.4053237642064671 0 -0.14921107955709881 -0.42003443798493328 0 -0.17009787391258249 -0.41611158199907422 0 -0.14921107955709881 -0.42003443798493328 0 -0.17009787391258249 -0.41611158199907422 0 -0.15761868306950341 -0.43586407366366631 0 -0.17009787391258249 -0.41611158199907422 0 -0.15761868306950341 -0.43586407366366631 0 -0.1755027511393909 -0.43471579892562301 0 -0.1943898331460783 -0.4473597119794826 0 -0.1755027511393909 -0.43471579892562301 0 -0.18951413900105801 -0.42212105940109063 0 -0.17009787391258249 -0.41611158199907422 0 -0.1755027511393909 -0.43471579892562301 0 -0.18951413900105801 -0.42212105940109063 0 -0.17009787391258249 -0.41611158199907422 0 -0.18562609472684241 -0.40161550393767448 0 -0.18951413900105801 -0.42212105940109063 0 -0.18562609472684241 -0.40161550393767448 0 -0.16863204450281991 -0.39380366607865908 0 -0.18254917963999329 -0.38971973427100182 0 -0.17009787391258249 -0.41611158199907422 0 -0.18562609472684241 -0.40161550393767448 0 -0.16863204450281991 -0.39380366607865908 0 -0.18562609472684241 -0.40161550393767448 0 -0.18254917963999329 -0.38971973427100182 0 -0.19364364155811911 -0.391297223908462 0 -0.15345949684661231 -0.4053237642064671 0 -0.17009787391258249 -0.41611158199907422 0 -0.16863204450281991 -0.39380366607865908 0 -0.15345949684661231 -0.4053237642064671 0 -0.15136585988972451 -0.39002590355483568 0 -0.16863204450281991 -0.39380366607865908 0 -0.15951650330528561 -0.37856285477961621 0 -0.17625218554490921 -0.38180729220612769 0 -0.1663610822414904 -0.3702523776444529 0 -0.16863204450281991 -0.39380366607865908 0 -0.15951650330528561 -0.37856285477961621 0 -0.17625218554490921 -0.38180729220612769 0 -0.15136585988972451 -0.39002590355483568 0 -0.16863204450281991 -0.39380366607865908 0 -0.15951650330528561 -0.37856285477961621 0 -0.17625218554490921 -0.38180729220612769 0 -0.1663610822414904 -0.3702523776444529 0 -0.18579747934449059 -0.37379744869579251 0 -0.16863204450281991 -0.39380366607865908 0 -0.17625218554490921 -0.38180729220612769 0 -0.18254917963999329 -0.38971973427100182 0 -0.17625218554490921 -0.38180729220612769 0 -0.18254917963999329 -0.38971973427100182 0 -0.18859193186727599 -0.38007498522408562 0 -0.17625218554490921 -0.38180729220612769 0 -0.18859193186727599 -0.38007498522408562 0 -0.18579747934449059 -0.37379744869579251 0 -0.18859193186727599 -0.38007498522408562 0 -0.2014200033848125 -0.37119512976538899 0 -0.18859193186727599 -0.38007498522408562 0 -0.2014200033848125 -0.37119512976538899 0 -0.18579747934449059 -0.37379744869579251 0 -0.18859193186727599 -0.38007498522408562 0 -0.1989719328316337 -0.38216032023399737 0 -0.2014200033848125 -0.37119512976538899 0 -0.1989719328316337 -0.38216032023399737 0 -0.20694960464083431 -0.38128159833907621 0 -0.2014200033848125 -0.37119512976538899 0 -0.1989719328316337 -0.38216032023399737 0 -0.19364364155811911 -0.391297223908462 0 -0.20620014074293039 -0.39180645285032889 0 -0.18859193186727599 -0.38007498522408562 0 -0.1989719328316337 -0.38216032023399737 0 -0.19364364155811911 -0.391297223908462 0 -0.18254917963999329 -0.38971973427100182 0 -0.18859193186727599 -0.38007498522408562 0 -0.19364364155811911 -0.391297223908462 0 -0.18562609472684241 -0.40161550393767448 0 -0.19364364155811911 -0.391297223908462 0 -0.20208872018367391 -0.4070926974887904 0 -0.19364364155811911 -0.391297223908462 0 -0.20620014074293039 -0.39180645285032889 0 -0.20208872018367391 -0.4070926974887904 0 -0.20620014074293039 -0.39180645285032889 0 -0.21479853281951461 -0.38638530273916921 0 -0.22382842548955789 -0.4035077318131633 0 -0.20620014074293039 -0.39180645285032889 0 -0.20208872018367391 -0.4070926974887904 0 -0.22382842548955789 -0.4035077318131633 0 -0.21479853281951461 -0.38638530273916921 0 -0.20694960464083431 -0.38128159833907621 0 -0.21335741342528061 -0.3748607861064962 0 -0.21479853281951461 -0.38638530273916921 0 -0.22412886374227589 -0.38235217247817599 0 -0.21335741342528061 -0.3748607861064962 0 -0.20694960464083431 -0.38128159833907621 0 -0.2014200033848125 -0.37119512976538899 0 -0.21335741342528061 -0.3748607861064962 0 -0.20620014074293039 -0.39180645285032889 0 -0.21479853281951461 -0.38638530273916921 0 -0.20694960464083431 -0.38128159833907621 0 -0.1989719328316337 -0.38216032023399737 0 -0.20620014074293039 -0.39180645285032889 0 -0.20694960464083431 -0.38128159833907621 0 -0.1943898331460783 -0.4473597119794826 0 -0.20910912931781811 -0.42543372189632289 0 -0.1943898331460783 -0.4473597119794826 0 -0.18951413900105801 -0.42212105940109063 0 -0.20910912931781811 -0.42543372189632289 0 -0.18951413900105801 -0.42212105940109063 0 -0.20208872018367391 -0.4070926974887904 0 -0.20910912931781811 -0.42543372189632289 0 -0.18562609472684241 -0.40161550393767448 0 -0.18951413900105801 -0.42212105940109063 0 -0.20208872018367391 -0.4070926974887904 0 -0.20208872018367391 -0.4070926974887904 0 -0.20910912931781811 -0.42543372189632289 0 -0.22382842548955789 -0.4035077318131633 0 -0.20910912931781811 -0.42543372189632289 0 -0.22382842548955789 -0.4035077318131633 0 -0.21590660946663959 -0.44883644739355771 0 -0.20910912931781811 -0.42543372189632289 0 -0.23180750449586429 -0.4343742486430574 0 -0.20910912931781811 -0.42543372189632289 0 -0.23180750449586429 -0.4343742486430574 0 -0.22382842548955789 -0.4035077318131633 0 -0.23180750449586429 -0.4343742486430574 0 -0.24697084661892749 -0.41526345823838401 0 -0.22382842548955789 -0.4035077318131633 0 -0.25687425522332558 -0.44642006451091643 0 -0.23180750449586429 -0.4343742486430574 0 -0.24697084661892749 -0.41526345823838401 0 -0.22412886374227589 -0.38235217247817599 0 -0.2351820232309369 -0.38700758852266848 0 -0.22952037500089251 -0.37311519752493849 0 -0.22412886374227589 -0.38235217247817599 0 -0.22186900287429051 -0.37074082218821958 0 -0.21335741342528061 -0.3748607861064962 0 -0.22412886374227589 -0.38235217247817599 0 -0.22952037500089251 -0.37311519752493849 0 -0.22186900287429051 -0.37074082218821958 0 -0.22382842548955789 -0.4035077318131633 0 -0.24394706363899241 -0.39877073912243299 0 -0.2351820232309369 -0.38700758852266848 0 -0.21479853281951461 -0.38638530273916921 0 -0.22412886374227589 -0.38235217247817599 0 -0.22382842548955789 -0.4035077318131633 0 -0.22412886374227589 -0.38235217247817599 0 -0.22382842548955789 -0.4035077318131633 0 -0.2351820232309369 -0.38700758852266848 0 -0.24697084661892749 -0.41526345823838401 0 -0.22382842548955789 -0.4035077318131633 0 -0.24394706363899241 -0.39877073912243299 0 -0.2504897110532438 -0.38524934403489181 0 -0.24394706363899241 -0.39877073912243299 0 -0.2351820232309369 -0.38700758852266848 0 -0.2504897110532438 -0.38524934403489181 0 -0.2351820232309369 -0.38700758852266848 0 -0.24036284435674521 -0.37772398595485779 0 -0.2351820232309369 -0.38700758852266848 0 -0.24036284435674521 -0.37772398595485779 0 -0.22952037500089251 -0.37311519752493849 0 -0.2504897110532438 -0.38524934403489181 0 -0.24036284435674521 -0.37772398595485779 0 -0.24839247009954951 -0.37292447016044328 0 -0.24839247009954951 -0.37292447016044328 0 -0.24532753696728959 -0.36501789644951049 0 -0.23861636880082099 -0.36955921174380651 0 -0.24036284435674521 -0.37772398595485779 0 -0.24839247009954951 -0.37292447016044328 0 -0.23861636880082099 -0.36955921174380651 0 -0.25757508569408222 -0.36424633604315798 0 -0.24532753696728959 -0.36501789644951049 0 -0.24650166737573331 -0.3569693529562265 0 -0.24532753696728959 -0.36501789644951049 0 -0.24234943749700691 -0.36154613291017651 0 -0.24650166737573331 -0.3569693529562265 0 -0.24532753696728959 -0.36501789644951049 0 -0.24234943749700691 -0.36154613291017651 0 -0.23928568589256061 -0.36455139619594779 0 -0.24234943749700691 -0.36154613291017651 0 -0.23928568589256061 -0.36455139619594779 0 -0.23696933381926599 -0.3585493042599866 0 -0.24532753696728959 -0.36501789644951049 0 -0.23928568589256061 -0.36455139619594779 0 -0.23861636880082099 -0.36955921174380651 0 -0.23928568589256061 -0.36455139619594779 0 -0.23861636880082099 -0.36955921174380651 0 -0.23345080570298909 -0.36409891217005902 0 -0.23928568589256061 -0.36455139619594779 0 -0.23345080570298909 -0.36409891217005902 0 -0.23696933381926599 -0.3585493042599866 0 -0.24036284435674521 -0.37772398595485779 0 -0.23861636880082099 -0.36955921174380651 0 -0.22952037500089251 -0.37311519752493849 0 -0.23345080570298909 -0.36409891217005902 0 -0.22186900287429051 -0.37074082218821958 0 -0.21424807490234879 -0.36231527430669241 0 -0.22952037500089251 -0.37311519752493849 0 -0.23345080570298909 -0.36409891217005902 0 -0.22186900287429051 -0.37074082218821958 0 -0.23696933381926599 -0.3585493042599866 0 -0.21424807490234879 -0.36231527430669241 0 -0.23861636880082099 -0.36955921174380651 0 -0.22952037500089251 -0.37311519752493849 0 -0.23345080570298909 -0.36409891217005902 0 -0.23345080570298909 -0.36409891217005902 0 -0.23696933381926599 -0.3585493042599866 0 -0.21424807490234879 -0.36231527430669241 0 -0.22913587473404851 -0.35200963246311751 0 -0.2097464541822805 -0.33582260124732738 0 -0.22913587473404851 -0.35200963246311751 0 -0.23696933381926599 -0.3585493042599866 0 -0.21424807490234879 -0.36231527430669241 0 -0.22913587473404851 -0.35200963246311751 0 -0.21998707993494029 -0.33959044394559312 0 -0.22913587473404851 -0.35200963246311751 0 -0.21424807490234879 -0.36231527430669241 0 -0.22913587473404851 -0.35200963246311751 0 -0.23696933381926599 -0.3585493042599866 0 -0.22913587473404851 -0.35200963246311751 0 -0.24881121389389799 -0.33838995723746451 0 -0.22913587473404851 -0.35200963246311751 0 -0.23696933381926599 -0.3585493042599866 0 -0.24650166737573331 -0.3569693529562265 0 -0.22913587473404851 -0.35200963246311751 0 -0.24650166737573331 -0.3569693529562265 0 -0.24881121389389799 -0.33838995723746451 0 -0.23696933381926599 -0.3585493042599866 0 -0.24650166737573331 -0.3569693529562265 0 -0.24234943749700691 -0.36154613291017651 0 -0.23696933381926599 -0.3585493042599866 0 -0.24650166737573331 -0.3569693529562265 0 -0.22913587473404851 -0.35200963246311751 0 -0.24881121389389799 -0.33838995723746451 0 -0.2325545649384867 -0.33453283978227571 0 -0.24881121389389799 -0.33838995723746451 0 -0.2441082332202735 -0.32380704628422963 0 -0.2325545649384867 -0.33453283978227571 0 -0.23613058105125781 -0.31890710479075163 0 -0.2279063026952847 -0.3135077128279592 0 -0.2444966906846206 -0.31181945912301329 0 -0.2441082332202735 -0.32380704628422963 0 -0.23498207165859719 -0.32537142019391418 0 -0.23613058105125781 -0.31890710479075163 0 -0.2441082332202735 -0.32380704628422963 0 -0.23498207165859719 -0.32537142019391418 0 -0.2325545649384867 -0.33453283978227571 0 -0.2441082332202735 -0.32380704628422963 0 -0.23613058105125781 -0.31890710479075163 0 -0.2444966906846206 -0.31181945912301329 0 -0.2279063026952847 -0.3135077128279592 0 -0.2193464910840433 -0.31976030368968739 0 -0.21134622408423179 -0.310554889255794 0 -0.23613058105125781 -0.31890710479075163 0 -0.2279063026952847 -0.3135077128279592 0 -0.22829430606921119 -0.32293804105388452 0 -0.23498207165859719 -0.32537142019391418 0 -0.22829430606921119 -0.32293804105388452 0 -0.2325545649384867 -0.33453283978227571 0 -0.23498207165859719 -0.32537142019391418 0 -0.23613058105125781 -0.31890710479075163 0 -0.22829430606921119 -0.32293804105388452 0 -0.22829430606921119 -0.32293804105388452 0 -0.2193464910840433 -0.31976030368968739 0 -0.22209033975117781 -0.32887735541776358 0 -0.2279063026952847 -0.3135077128279592 0 -0.22829430606921119 -0.32293804105388452 0 -0.2193464910840433 -0.31976030368968739 0 -0.22913587473404851 -0.35200963246311751 0 -0.2325545649384867 -0.33453283978227571 0 -0.21998707993494029 -0.33959044394559312 0 -0.22913587473404851 -0.35200963246311751 0 -0.21998707993494029 -0.33959044394559312 0 -0.2097464541822805 -0.33582260124732738 0 -0.22829430606921119 -0.32293804105388452 0 -0.2325545649384867 -0.33453283978227571 0 -0.22209033975117781 -0.32887735541776358 0 -0.2325545649384867 -0.33453283978227571 0 -0.22209033975117781 -0.32887735541776358 0 -0.21998707993494029 -0.33959044394559312 0 -0.21998707993494029 -0.33959044394559312 0 -0.21026925672920721 -0.32756514861737779 0 -0.22209033975117781 -0.32887735541776358 0 -0.21998707993494029 -0.33959044394559312 0 -0.21026925672920721 -0.32756514861737779 0 -0.21998707993494029 -0.33959044394559312 0 -0.2097464541822805 -0.33582260124732738 0 -0.21026925672920721 -0.32756514861737779 0 -0.2097464541822805 -0.33582260124732738 0 -0.21026925672920721 -0.32756514861737779 0 -0.21026925672920721 -0.32756514861737779 0 -0.21134622408423179 -0.310554889255794 0 -0.19267178705524021 -0.30578920503631912 0 -0.21026925672920721 -0.32756514861737779 0 -0.21134622408423179 -0.310554889255794 0 -0.2097464541822805 -0.33582260124732738 0 -0.21026925672920721 -0.32756514861737779 0 -0.19254159852174429 -0.31996122112867409 0 -0.2193464910840433 -0.31976030368968739 0 -0.21026925672920721 -0.32756514861737779 0 -0.21134622408423179 -0.310554889255794 0 -0.2193464910840433 -0.31976030368968739 0 -0.22209033975117781 -0.32887735541776358 0 -0.21026925672920721 -0.32756514861737779 0 -0.2097464541822805 -0.33582260124732738 0 -0.1943588054861482 -0.32297640251143073 0 -0.19254159852174429 -0.31996122112867409 0 -0.21026925672920721 -0.32756514861737779 0 -0.19267178705524021 -0.30578920503631912 0 -0.21026925672920721 -0.32756514861737779 0 -0.19254159852174429 -0.31996122112867409 0 -0.19267178705524021 -0.30578920503631912 0 -0.2097464541822805 -0.33582260124732738 0 -0.19254159852174429 -0.31996122112867409 0 -0.1943588054861482 -0.32297640251143073 0 -0.18737083868624629 -0.33075534874643497 0 -0.18479650728396149 -0.32227615663527998 0 -0.1943588054861482 -0.32297640251143073 0 -0.19254159852174429 -0.31996122112867409 0 -0.1789711567900161 -0.3101302037755338 0 -0.2097464541822805 -0.33582260124732738 0 -0.19466829689393059 -0.33824472710720138 0 -0.19565175395430129 -0.3512554891803924 0 -0.2097464541822805 -0.33582260124732738 0 -0.1943588054861482 -0.32297640251143073 0 -0.19466829689393059 -0.33824472710720138 0 -0.2097464541822805 -0.33582260124732738 0 -0.1943588054861482 -0.32297640251143073 0 -0.1943588054861482 -0.32297640251143073 0 -0.19466829689393059 -0.33824472710720138 0 -0.18737083868624629 -0.33075534874643497 0 -0.19466829689393059 -0.33824472710720138 0 -0.18164424501215659 -0.34621916084723381 0 -0.18737083868624629 -0.33075534874643497 0 -0.19466829689393059 -0.33824472710720138 0 -0.19565175395430129 -0.3512554891803924 0 -0.18164424501215659 -0.34621916084723381 0 -0.20800359978069241 -0.36335027445133922 0 -0.18480326185087809 -0.36719565018674682 0 -0.19565175395430129 -0.3512554891803924 0 -0.20800359978069241 -0.36335027445133922 0 -0.18480326185087809 -0.36719565018674682 0 -0.2014200033848125 -0.37119512976538899 0 -0.18480326185087809 -0.36719565018674682 0 -0.18579747934449059 -0.37379744869579251 0 -0.2014200033848125 -0.37119512976538899 0 -0.20800359978069241 -0.36335027445133922 0 -0.18480326185087809 -0.36719565018674682 0 -0.2014200033848125 -0.37119512976538899 0 -0.20800359978069241 -0.36335027445133922 0 -0.20803809997708481 -0.36661394692190907 0 -0.20800359978069241 -0.36335027445133922 0 -0.20803809997708481 -0.36661394692190907 0 -0.21424807490234879 -0.36231527430669241 0 -0.20800359978069241 -0.36335027445133922 0 -0.20803809997708481 -0.36661394692190907 0 -0.2014200033848125 -0.37119512976538899 0 -0.20803809997708481 -0.36661394692190907 0 -0.21335741342528061 -0.3748607861064962 0 -0.2014200033848125 -0.37119512976538899 0 -0.20803809997708481 -0.36661394692190907 0 -0.20803809997708481 -0.36661394692190907 0 -0.21335741342528061 -0.3748607861064962 0 -0.21424807490234879 -0.36231527430669241 0 -0.22186900287429051 -0.37074082218821958 0 -0.21335741342528061 -0.3748607861064962 0 -0.21424807490234879 -0.36231527430669241 0 -0.20800359978069241 -0.36335027445133922 0 -0.21424807490234879 -0.36231527430669241 0 -0.20803809997708481 -0.36661394692190907 0 -0.21424807490234879 -0.36231527430669241 0 -0.2097464541822805 -0.33582260124732738 0 -0.19565175395430129 -0.3512554891803924 0 -0.20800359978069241 -0.36335027445133922 0 -0.2097464541822805 -0.33582260124732738 0 -0.20800359978069241 -0.36335027445133922 0 -0.2097464541822805 -0.33582260124732738 0 -0.20800359978069241 -0.36335027445133922 0 -0.21424807490234879 -0.36231527430669241 0 -0.22913587473404851 -0.35200963246311751 0 -0.2097464541822805 -0.33582260124732738 0 -0.21424807490234879 -0.36231527430669241 0 -0.2335542019388327 -0.26090262277066528 0 -0.21472073189145299 -0.25725591714607071 0 -0.22837296648480071 -0.23789375384220129 0 -0.2335542019388327 -0.26090262277066528 0 -0.21357196166535461 -0.27540027352014051 0 -0.21472073189145299 -0.25725591714607071 0 -0.25298377122075039 -0.27518622721876451 0 -0.2335542019388327 -0.26090262277066528 0 -0.25431856302814809 -0.24833495949118861 0 -0.25298377122075039 -0.27518622721876451 0 -0.2335542019388327 -0.26090262277066528 0 -0.23093648268818689 -0.28342115129973 0 -0.2335542019388327 -0.26090262277066528 0 -0.23093648268818689 -0.28342115129973 0 -0.21357196166535461 -0.27540027352014051 0 -0.23093648268818689 -0.28342115129973 0 -0.21242319143925911 -0.29354462989421048 0 -0.21357196166535461 -0.27540027352014051 0 -0.23093648268818689 -0.28342115129973 0 -0.2435111179254994 -0.29490773243705071 0 -0.2284599410619414 -0.30268204450860919 0 -0.23093648268818689 -0.28342115129973 0 -0.2284599410619414 -0.30268204450860919 0 -0.21242319143925911 -0.29354462989421048 0 -0.25298377122075039 -0.27518622721876451 0 -0.23093648268818689 -0.28342115129973 0 -0.2435111179254994 -0.29490773243705071 0 -0.2444966906846206 -0.31181945912301329 0 -0.2284599410619414 -0.30268204450860919 0 -0.2435111179254994 -0.29490773243705071 0 -0.2444966906846206 -0.31181945912301329 0 -0.2284599410619414 -0.30268204450860919 0 -0.26057201890547982 -0.29344093798311832 0 -0.2435111179254994 -0.29490773243705071 0 -0.2444966906846206 -0.31181945912301329 0 -0.2279063026952847 -0.3135077128279592 0 -0.2444966906846206 -0.31181945912301329 0 -0.2284599410619414 -0.30268204450860919 0 -0.2284599410619414 -0.30268204450860919 0 -0.21242319143925911 -0.29354462989421048 0 -0.2279063026952847 -0.3135077128279592 0 -0.2284599410619414 -0.30268204450860919 0 -0.21134622408423179 -0.310554889255794 0 -0.2284599410619414 -0.30268204450860919 0 -0.21134622408423179 -0.310554889255794 0 -0.21242319143925911 -0.29354462989421048 0 -0.21134622408423179 -0.310554889255794 0 -0.19267178705524021 -0.30578920503631912 0 -0.21242319143925911 -0.29354462989421048 0 -0.21134622408423179 -0.310554889255794 0 -0.21242319143925911 -0.29354462989421048 0 -0.19267178705524021 -0.30578920503631912 0 -0.19410774352861071 -0.2831088592208712 0 -0.21242319143925911 -0.29354462989421048 0 -0.19410774352861071 -0.2831088592208712 0 -0.21242319143925911 -0.29354462989421048 0 -0.21357196166535461 -0.27540027352014051 0 -0.19410774352861071 -0.2831088592208712 0 -0.21242319143925911 -0.29354462989421048 0 -0.21242319143925911 -0.29354462989421048 0 -0.21357196166535461 -0.27540027352014051 0 -0.21357196166535461 -0.27540027352014051 0 -0.21472073189145299 -0.25725591714607071 0 -0.19410774352861071 -0.2831088592208712 0 -0.21357196166535461 -0.27540027352014051 0 -0.1965391795889786 -0.26204425282134669 0 -0.19410774352861071 -0.2831088592208712 0 -0.1965391795889786 -0.26204425282134669 0 -0.17579229561796161 -0.27267308854753308 0 -0.1965391795889786 -0.26204425282134669 0 -0.20565562739327201 -0.24334207984173631 0 -0.18863044441395099 -0.24733650333174401 0 -0.1965391795889786 -0.26204425282134669 0 -0.18340152769721799 -0.25642831405215172 0 -0.18863044441395099 -0.24733650333174401 0 -0.1965391795889786 -0.26204425282134669 0 -0.21472073189145299 -0.25725591714607071 0 -0.20565562739327201 -0.24334207984173631 0 -0.21357196166535461 -0.27540027352014051 0 -0.1965391795889786 -0.26204425282134669 0 -0.21472073189145299 -0.25725591714607071 0 -0.15747684770731041 -0.26223731787419863 0 -0.16344648285301799 -0.25937253054906129 0 -0.17579229561796161 -0.27267308854753308 0 -0.1593809120407062 -0.25278805690175971 0 -0.16344648285301799 -0.25937253054906129 0 -0.1534429259631987 -0.25724555178864622 0 -0.1593809120407062 -0.25278805690175971 0 -0.16344648285301799 -0.25937253054906129 0 -0.16709258238786229 -0.25188408856254202 0 -0.1593809120407062 -0.25278805690175971 0 -0.16709258238786229 -0.25188408856254202 0 -0.1601832428566283 -0.24550858739866141 0 -0.15747684770731041 -0.26223731787419863 0 -0.16344648285301799 -0.25937253054906129 0 -0.1534429259631987 -0.25724555178864622 0 -0.16344648285301799 -0.25937253054906129 0 -0.1534429259631987 -0.25724555178864622 0 -0.16344648285301799 -0.25937253054906129 0 -0.17379217291466831 -0.25992581321180469 0 -0.17579229561796161 -0.27267308854753308 0 -0.16344648285301799 -0.25937253054906129 0 -0.16709258238786229 -0.25188408856254202 0 -0.17379217291466831 -0.25992581321180469 0 -0.16709258238786229 -0.25188408856254202 0 -0.17679077873490559 -0.25046109420941731 0 -0.17379217291466831 -0.25992581321180469 0 -0.1965391795889786 -0.26204425282134669 0 -0.18340152769721799 -0.25642831405215172 0 -0.17579229561796161 -0.27267308854753308 0 -0.17679077873490559 -0.25046109420941731 0 -0.18340152769721799 -0.25642831405215172 0 -0.17379217291466831 -0.25992581321180469 0 -0.18340152769721799 -0.25642831405215172 0 -0.17379217291466831 -0.25992581321180469 0 -0.17579229561796161 -0.27267308854753308 0 -0.17679077873490559 -0.25046109420941731 0 -0.18340152769721799 -0.25642831405215172 0 -0.18863044441395099 -0.24733650333174401 0 -0.19410774352861071 -0.2831088592208712 0 -0.17579229561796161 -0.27267308854753308 0 -0.17507431738127369 -0.28401326145526029 0 -0.19410774352861071 -0.2831088592208712 0 -0.17579229561796161 -0.27267308854753308 0 -0.15747684770731041 -0.26223731787419863 0 -0.17507431738127369 -0.28401326145526029 0 -0.15747684770731041 -0.26223731787419863 0 -0.17579229561796161 -0.27267308854753308 0 -0.15747684770731041 -0.26223731787419863 0 -0.17579229561796161 -0.27267308854753308 0 -0.17507431738127369 -0.28401326145526029 0 -0.15747684770731041 -0.26223731787419863 0 -0.1596399504195592 -0.27820623095404468 0 -0.17507431738127369 -0.28401326145526029 0 -0.1596399504195592 -0.27820623095404468 0 -0.1624028041075358 -0.29248408411088062 0 -0.1494793968803598 -0.28070198605355251 0 -0.1624028041075358 -0.29248408411088062 0 -0.15973767967650701 -0.30493196891575292 0 -0.15108397830665751 -0.29236825921418419 0 -0.1624028041075358 -0.29248408411088062 0 -0.17507431738127369 -0.28401326145526029 0 -0.17391538329452061 -0.29489800819007239 0 -0.1596399504195592 -0.27820623095404468 0 -0.1624028041075358 -0.29248408411088062 0 -0.17507431738127369 -0.28401326145526029 0 -0.19267178705524021 -0.30578920503631912 0 -0.19410774352861071 -0.2831088592208712 0 -0.17507431738127369 -0.28401326145526029 0 -0.19267178705524021 -0.30578920503631912 0 -0.17507431738127369 -0.28401326145526029 0 -0.17391538329452061 -0.29489800819007239 0 -0.19267178705524021 -0.30578920503631912 0 -0.17507431738127369 -0.28401326145526029 0 -0.17391538329452061 -0.29489800819007239 0 -0.17532621133471249 -0.30426618216820789 0 -0.19254159852174429 -0.31996122112867409 0 -0.19267178705524021 -0.30578920503631912 0 -0.17532621133471249 -0.30426618216820789 0 -0.19267178705524021 -0.30578920503631912 0 -0.17391538329452061 -0.29489800819007239 0 -0.17532621133471249 -0.30426618216820789 0 -0.19254159852174429 -0.31996122112867409 0 -0.17532621133471249 -0.30426618216820789 0 -0.1789711567900161 -0.3101302037755338 0 -0.19254159852174429 -0.31996122112867409 0 -0.17532621133471249 -0.30426618216820789 0 -0.17532621133471249 -0.30426618216820789 0 -0.15973767967650701 -0.30493196891575292 0 -0.16582550601247259 -0.31644195918285489 0 -0.1624028041075358 -0.29248408411088062 0 -0.17532621133471249 -0.30426618216820789 0 -0.15973767967650701 -0.30493196891575292 0 -0.1624028041075358 -0.29248408411088062 0 -0.17532621133471249 -0.30426618216820789 0 -0.1624028041075358 -0.29248408411088062 0 -0.17391538329452061 -0.29489800819007239 0 -0.17532621133471249 -0.30426618216820789 0 -0.144593184228827 -0.30237793828586917 0 -0.15261731536399281 -0.31699983390472031 0 -0.1327552185807534 -0.31482398186879779 0 -0.15973767967650701 -0.30493196891575292 0 -0.144593184228827 -0.30237793828586917 0 -0.15261731536399281 -0.31699983390472031 0 -0.15973767967650701 -0.30493196891575292 0 -0.144593184228827 -0.30237793828586917 0 -0.15108397830665751 -0.29236825921418419 0 -0.144593184228827 -0.30237793828586917 0 -0.1304175251842298 -0.30012492429455973 0 -0.1327552185807534 -0.31482398186879779 0 -0.1304175251842298 -0.30012492429455973 0 -0.1327552185807534 -0.31482398186879779 0 -0.11567190875339491 -0.3081878681979589 0 -0.1304175251842298 -0.30012492429455973 0 -0.13697378053928061 -0.28594316463020741 0 -0.11725087491461519 -0.29108504565108578 0 -0.144593184228827 -0.30237793828586917 0 -0.1304175251842298 -0.30012492429455973 0 -0.13697378053928061 -0.28594316463020741 0 -0.13697378053928061 -0.28594316463020741 0 -0.15108397830665751 -0.29236825921418419 0 -0.1494793968803598 -0.28070198605355251 0 -0.144593184228827 -0.30237793828586917 0 -0.13697378053928061 -0.28594316463020741 0 -0.15108397830665751 -0.29236825921418419 0 -0.1624028041075358 -0.29248408411088062 0 -0.15108397830665751 -0.29236825921418419 0 -0.1494793968803598 -0.28070198605355251 0 -0.1624028041075358 -0.29248408411088062 0 -0.1494793968803598 -0.28070198605355251 0 -0.15747684770731041 -0.26223731787419863 0 -0.1596399504195592 -0.27820623095404468 0 -0.1503927610565664 -0.27179087804580171 0 -0.1596399504195592 -0.27820623095404468 0 -0.1494793968803598 -0.28070198605355251 0 -0.1503927610565664 -0.27179087804580171 0 -0.15747684770731041 -0.26223731787419863 0 -0.1503927610565664 -0.27179087804580171 0 -0.1469785187108 -0.2635474229235048 0 -0.1503927610565664 -0.27179087804580171 0 -0.13966748117377659 -0.26847157538705668 0 -0.1469785187108 -0.2635474229235048 0 -0.1503927610565664 -0.27179087804580171 0 -0.14153524490660671 -0.2763029116229278 0 -0.13966748117377659 -0.26847157538705668 0 -0.1494793968803598 -0.28070198605355251 0 -0.1503927610565664 -0.27179087804580171 0 -0.14153524490660671 -0.2763029116229278 0 -0.13697378053928061 -0.28594316463020741 0 -0.1494793968803598 -0.28070198605355251 0 -0.14153524490660671 -0.2763029116229278 0 -0.13697378053928061 -0.28594316463020741 0 -0.14153524490660671 -0.2763029116229278 0 -0.13219795163187159 -0.27110871778552531 0 -0.13697378053928061 -0.28594316463020741 0 -0.1173011125765811 -0.2721428964285707 0 -0.13697378053928061 -0.28594316463020741 0 -0.13219795163187159 -0.27110871778552531 0 -0.1173011125765811 -0.2721428964285707 0 -0.13219795163187159 -0.27110871778552531 0 -0.1333337708168415 -0.26377523499205202 0 -0.12600056203783161 -0.26301541000095829 0 -0.13219795163187159 -0.27110871778552531 0 -0.12600056203783161 -0.26301541000095829 0 -0.1173011125765811 -0.2721428964285707 0 -0.13219795163187159 -0.27110871778552531 0 -0.13966748117377659 -0.26847157538705668 0 -0.1333337708168415 -0.26377523499205202 0 -0.14153524490660671 -0.2763029116229278 0 -0.13219795163187159 -0.27110871778552531 0 -0.13966748117377659 -0.26847157538705668 0 -0.13966748117377659 -0.26847157538705668 0 -0.13807993829988649 -0.25979154560904222 0 -0.1333337708168415 -0.26377523499205202 0 -0.13807993829988649 -0.25979154560904222 0 -0.1333337708168415 -0.26377523499205202 0 -0.13072292094084129 -0.25648892617767749 0 -0.12600056203783161 -0.26301541000095829 0 -0.13072292094084129 -0.25648892617767749 0 -0.1187556211832122 -0.25814451816493872 0 -0.1333337708168415 -0.26377523499205202 0 -0.12600056203783161 -0.26301541000095829 0 -0.13072292094084129 -0.25648892617767749 0 -0.13072292094084129 -0.25648892617767749 0 -0.13218950310710981 -0.25272660122947088 0 -0.1187556211832122 -0.25814451816493872 0 -0.13072292094084129 -0.25648892617767749 0 -0.13218950310710981 -0.25272660122947088 0 -0.13218950310710981 -0.25272660122947088 0 -0.1459019403517107 -0.25564217047089421 0 -0.13375162957080131 -0.24871916986845621 0 -0.13218950310710981 -0.25272660122947088 0 -0.1459019403517107 -0.25564217047089421 0 -0.13218950310710981 -0.25272660122947088 0 -0.13375162957080131 -0.24871916986845621 0 -0.1459019403517107 -0.25564217047089421 0 -0.13375162957080131 -0.24871916986845621 0 -0.13807993829988649 -0.25979154560904222 0 -0.13218950310710981 -0.25272660122947088 0 -0.1459019403517107 -0.25564217047089421 0 -0.13807993829988649 -0.25979154560904222 0 -0.13072292094084129 -0.25648892617767749 0 -0.13218950310710981 -0.25272660122947088 0 -0.1459019403517107 -0.25564217047089421 0 -0.1534429259631987 -0.25724555178864622 0 -0.1378886282313006 -0.2381062402767252 0 -0.13966748117377659 -0.26847157538705668 0 -0.13807993829988649 -0.25979154560904222 0 -0.1469785187108 -0.2635474229235048 0 -0.13807993829988649 -0.25979154560904222 0 -0.1459019403517107 -0.25564217047089421 0 -0.1469785187108 -0.2635474229235048 0 -0.15747684770731041 -0.26223731787419863 0 -0.1459019403517107 -0.25564217047089421 0 -0.1534429259631987 -0.25724555178864622 0 -0.15747684770731041 -0.26223731787419863 0 -0.1459019403517107 -0.25564217047089421 0 -0.1469785187108 -0.2635474229235048 0 -0.15747684770731041 -0.26223731787419863 0 -0.1459019403517107 -0.25564217047089421 0 -0.15747684770731041 -0.26223731787419863 0 -0.1534429259631987 -0.25724555178864622 0 -0.1593809120407062 -0.25278805690175971 0 -0.1534429259631987 -0.25724555178864622 0 -0.15289321433053751 -0.246830478479277 0 -0.1459019403517107 -0.25564217047089421 0 -0.1534429259631987 -0.25724555178864622 0 -0.17143624801538501 -0.35840063883308271 0 -0.1580141783998408 -0.34710035810185619 0 -0.15489216358121211 -0.36256913283011211 0 -0.17143624801538501 -0.35840063883308271 0 -0.1580141783998408 -0.34710035810185619 0 -0.18164424501215659 -0.34621916084723381 0 -0.17143624801538501 -0.35840063883308271 0 -0.1663610822414904 -0.3702523776444529 0 -0.15489216358121211 -0.36256913283011211 0 -0.15951650330528561 -0.37856285477961621 0 -0.1663610822414904 -0.3702523776444529 0 -0.15489216358121211 -0.36256913283011211 0 -0.17143624801538501 -0.35840063883308271 0 -0.1663610822414904 -0.3702523776444529 0 -0.18480326185087809 -0.36719565018674682 0 -0.1663610822414904 -0.3702523776444529 0 -0.18480326185087809 -0.36719565018674682 0 -0.1663610822414904 -0.3702523776444529 0 -0.18480326185087809 -0.36719565018674682 0 -0.18579747934449059 -0.37379744869579251 0 -0.18480326185087809 -0.36719565018674682 0 -0.18579747934449059 -0.37379744869579251 0 -0.18480326185087809 -0.36719565018674682 0 -0.18164424501215659 -0.34621916084723381 0 -0.19565175395430129 -0.3512554891803924 0 -0.18480326185087809 -0.36719565018674682 0 -0.18164424501215659 -0.34621916084723381 0 -0.17143624801538501 -0.35840063883308271 0 -0.18480326185087809 -0.36719565018674682 0 -0.18164424501215659 -0.34621916084723381 0 -0.18164424501215659 -0.34621916084723381 0 -0.17848522817343529 -0.32524267150772068 0 -0.1629610955137164 -0.33076913941787212 0 -0.18164424501215659 -0.34621916084723381 0 -0.17848522817343529 -0.32524267150772068 0 -0.18164424501215659 -0.34621916084723381 0 -0.18737083868624629 -0.33075534874643497 0 -0.17848522817343529 -0.32524267150772068 0 -0.17532621133471249 -0.30426618216820789 0 -0.17848522817343529 -0.32524267150772068 0 -0.17532621133471249 -0.30426618216820789 0 -0.1789711567900161 -0.3101302037755338 0 -0.17848522817343529 -0.32524267150772068 0 -0.17532621133471249 -0.30426618216820789 0 -0.17848522817343529 -0.32524267150772068 0 -0.16582550601247259 -0.31644195918285489 0 -0.1943588054861482 -0.32297640251143073 0 -0.1789711567900161 -0.3101302037755338 0 -0.18479650728396149 -0.32227615663527998 0 -0.1789711567900161 -0.3101302037755338 0 -0.18479650728396149 -0.32227615663527998 0 -0.17848522817343529 -0.32524267150772068 0 -0.1943588054861482 -0.32297640251143073 0 -0.1789711567900161 -0.3101302037755338 0 -0.18737083868624629 -0.33075534874643497 0 -0.18479650728396149 -0.32227615663527998 0 -0.17848522817343529 -0.32524267150772068 0 -0.17848522817343529 -0.32524267150772068 0 -0.16582550601247259 -0.31644195918285489 0 -0.1629610955137164 -0.33076913941787212 0 -0.16582550601247259 -0.31644195918285489 0 -0.1629610955137164 -0.33076913941787212 0 -0.15261731536399281 -0.31699983390472031 0 -0.15973767967650701 -0.30493196891575292 0 -0.16582550601247259 -0.31644195918285489 0 -0.15261731536399281 -0.31699983390472031 0 -0.1580141783998408 -0.34710035810185619 0 -0.18164424501215659 -0.34621916084723381 0 -0.1629610955137164 -0.33076913941787212 0 -0.1580141783998408 -0.34710035810185619 0 -0.1629610955137164 -0.33076913941787212 0 -0.14559484309128301 -0.3331209990743299 0 -0.14559484309128301 -0.3331209990743299 0 -0.15261731536399281 -0.31699983390472031 0 -0.1327552185807534 -0.31482398186879779 0 -0.1629610955137164 -0.33076913941787212 0 -0.14559484309128301 -0.3331209990743299 0 -0.15261731536399281 -0.31699983390472031 0 -0.14559484309128301 -0.3331209990743299 0 -0.1327552185807534 -0.31482398186879779 0 -0.12678352480283511 -0.3369129194106073 0 -0.14559484309128301 -0.3331209990743299 0 -0.12678352480283511 -0.3369129194106073 0 -0.14043772588655989 -0.35211976174212622 0 -0.12678352480283511 -0.3369129194106073 0 -0.14043772588655989 -0.35211976174212622 0 -0.1203130985899742 -0.35955571918490481 0 -0.1580141783998408 -0.34710035810185619 0 -0.14043772588655989 -0.35211976174212622 0 -0.15489216358121211 -0.36256913283011211 0 -0.1580141783998408 -0.34710035810185619 0 -0.14559484309128301 -0.3331209990743299 0 -0.14043772588655989 -0.35211976174212622 0 -0.14043772588655989 -0.35211976174212622 0 -0.15489216358121211 -0.36256913283011211 0 -0.13959568407155781 -0.37291875636350952 0 -0.15951650330528561 -0.37856285477961621 0 -0.15489216358121211 -0.36256913283011211 0 -0.13959568407155781 -0.37291875636350952 0 -0.12625141541498519 -0.38197991289387551 0 -0.13959568407155781 -0.37291875636350952 0 -0.1203130985899742 -0.35955571918490481 0 -0.14043772588655989 -0.35211976174212622 0 -0.13959568407155781 -0.37291875636350952 0 -0.1203130985899742 -0.35955571918490481 0 -0.1203130985899742 -0.35955571918490481 0 -0.11384267237711319 -0.38219851895920232 0 -0.1203130985899742 -0.35955571918490481 0 -0.10849363524981311 -0.36442991456039969 0 -0.11384267237711319 -0.38219851895920232 0 -0.12625141541498519 -0.38197991289387551 0 -0.1203130985899742 -0.35955571918490481 0 -0.11384267237711319 -0.38219851895920232 0 -0.10849363524981311 -0.36442991456039969 0 -0.096157591159299352 -0.35547454281719221 0 -0.10176491866177829 -0.38015793077534599 0 -0.096157591159299352 -0.35547454281719221 0 -0.10176491866177829 -0.38015793077534599 0 -0.096157591159299352 -0.35547454281719221 0 -0.10176491866177829 -0.38015793077534599 0 -0.085276019388031976 -0.37619188405436782 0 -0.096157591159299352 -0.35547454281719221 0 -0.10964553082547281 -0.34513317088572909 0 -0.090550263656820479 -0.33079115485903843 0 -0.10849363524981311 -0.36442991456039969 0 -0.096157591159299352 -0.35547454281719221 0 -0.10964553082547281 -0.34513317088572909 0 -0.1203130985899742 -0.35955571918490481 0 -0.10849363524981311 -0.36442991456039969 0 -0.10964553082547281 -0.34513317088572909 0 -0.12678352480283511 -0.3369129194106073 0 -0.1203130985899742 -0.35955571918490481 0 -0.10964553082547281 -0.34513317088572909 0 -0.12678352480283511 -0.3369129194106073 0 -0.1203130985899742 -0.35955571918490481 0 -0.12678352480283511 -0.3369129194106073 0 -0.10964553082547281 -0.34513317088572909 0 -0.1112875311940303 -0.32576775904759792 0 -0.1327552185807534 -0.31482398186879779 0 -0.12678352480283511 -0.3369129194106073 0 -0.1112875311940303 -0.32576775904759792 0 -0.1327552185807534 -0.31482398186879779 0 -0.1112875311940303 -0.32576775904759792 0 -0.11567190875339491 -0.3081878681979589 0 -0.1112875311940303 -0.32576775904759792 0 -0.1011365257202933 -0.31403431577096802 0 -0.11567190875339491 -0.3081878681979589 0 -0.1112875311940303 -0.32576775904759792 0 -0.1011365257202933 -0.31403431577096802 0 -0.090550263656820479 -0.33079115485903843 0 -0.10964553082547281 -0.34513317088572909 0 -0.1112875311940303 -0.32576775904759792 0 -0.090550263656820479 -0.33079115485903843 0 -0.096157591159299352 -0.35547454281719221 0 -0.090550263656820479 -0.33079115485903843 0 -0.096157591159299352 -0.35547454281719221 0 -0.090550263656820479 -0.33079115485903843 0 -0.073144777225565616 -0.33606175945158517 0 -0.090550263656820479 -0.33079115485903843 0 -0.084942936154341619 -0.30610776690088481 0 -0.090550263656820479 -0.33079115485903843 0 -0.073144777225565616 -0.33606175945158517 0 -0.084942936154341619 -0.30610776690088481 0 -0.1011365257202933 -0.31403431577096802 0 -0.090550263656820479 -0.33079115485903843 0 -0.084942936154341619 -0.30610776690088481 0 -0.073144777225565616 -0.33606175945158517 0 -0.084942936154341619 -0.30610776690088481 0 -0.060613113796085999 -0.32288269869712272 0 -0.073144777225565616 -0.33606175945158517 0 -0.076755031766953086 -0.35884624094615858 0 -0.063306301319701316 -0.35299520754669739 0 -0.076755031766953086 -0.35884624094615858 0 -0.063306301319701316 -0.35299520754669739 0 -0.065890469742167113 -0.37350781086095058 0 -0.076755031766953086 -0.35884624094615858 0 -0.065890469742167113 -0.37350781086095058 0 -0.085276019388031976 -0.37619188405436782 0 -0.096157591159299352 -0.35547454281719221 0 -0.076755031766953086 -0.35884624094615858 0 -0.085276019388031976 -0.37619188405436782 0 -0.096157591159299352 -0.35547454281719221 0 -0.073144777225565616 -0.33606175945158517 0 -0.076755031766953086 -0.35884624094615858 0 -0.097628444613881649 -0.25834262822693399 0 -0.1173011125765811 -0.2721428964285707 0 -0.097628444613881649 -0.25834262822693399 0 -0.1187556211832122 -0.25814451816493872 0 -0.1098930818979398 -0.24798588601512411 0 -0.13218950310710981 -0.25272660122947088 0 -0.1187556211832122 -0.25814451816493872 0 -0.1098930818979398 -0.24798588601512411 0 -0.097628444613881649 -0.25834262822693399 0 -0.1187556211832122 -0.25814451816493872 0 -0.1173011125765811 -0.2721428964285707 0 -0.13218950310710981 -0.25272660122947088 0 -0.1098930818979398 -0.24798588601512411 0 -0.12600056203783161 -0.26301541000095829 0 -0.1187556211832122 -0.25814451816493872 0 -0.1173011125765811 -0.2721428964285707 0 -0.097628444613881649 -0.25834262822693399 0 -0.1173011125765811 -0.2721428964285707 0 -0.090762408808148426 -0.27102181932101072 0 -0.1173011125765811 -0.2721428964285707 0 -0.096655829275762523 -0.28444542957314378 0 -0.090762408808148426 -0.27102181932101072 0 -0.096655829275762523 -0.28444542957314378 0 -0.10322998884287909 -0.29931702984935987 0 -0.084942936154341619 -0.30610776690088481 0 -0.096655829275762523 -0.28444542957314378 0 -0.11725087491461519 -0.29108504565108578 0 -0.10322998884287909 -0.29931702984935987 0 -0.13697378053928061 -0.28594316463020741 0 -0.1173011125765811 -0.2721428964285707 0 -0.11725087491461519 -0.29108504565108578 0 -0.1173011125765811 -0.2721428964285707 0 -0.096655829275762523 -0.28444542957314378 0 -0.11725087491461519 -0.29108504565108578 0 -0.11725087491461519 -0.29108504565108578 0 -0.11567190875339491 -0.3081878681979589 0 -0.10322998884287909 -0.29931702984935987 0 -0.1304175251842298 -0.30012492429455973 0 -0.11725087491461519 -0.29108504565108578 0 -0.11567190875339491 -0.3081878681979589 0 -0.1011365257202933 -0.31403431577096802 0 -0.10322998884287909 -0.29931702984935987 0 -0.084942936154341619 -0.30610776690088481 0 -0.1011365257202933 -0.31403431577096802 0 -0.11567190875339491 -0.3081878681979589 0 -0.10322998884287909 -0.29931702984935987 0 -0.084942936154341619 -0.30610776690088481 0 -0.066237696895848033 -0.30175990202967712 0 -0.078368201618682937 -0.28822753231137022 0 -0.084942936154341619 -0.30610776690088481 0 -0.066237696895848033 -0.30175990202967712 0 -0.060613113796085999 -0.32288269869712272 0 -0.066237696895848033 -0.30175990202967712 0 -0.078368201618682937 -0.28822753231137022 0 -0.057136779716869042 -0.28712205926022771 0 -0.078368201618682937 -0.28822753231137022 0 -0.072744725061100565 -0.27289296274949931 0 -0.057136779716869042 -0.28712205926022771 0 -0.096655829275762523 -0.28444542957314378 0 -0.084942936154341619 -0.30610776690088481 0 -0.078368201618682937 -0.28822753231137022 0 -0.096655829275762523 -0.28444542957314378 0 -0.078368201618682937 -0.28822753231137022 0 -0.090762408808148426 -0.27102181932101072 0 -0.078368201618682937 -0.28822753231137022 0 -0.090762408808148426 -0.27102181932101072 0 -0.072744725061100565 -0.27289296274949931 0 -0.090762408808148426 -0.27102181932101072 0 -0.072744725061100565 -0.27289296274949931 0 -0.081281336266817772 -0.26097832242812891 0 -0.072744725061100565 -0.27289296274949931 0 -0.067161912638977472 -0.25903173736147111 0 -0.055745381016590281 -0.2682223094504298 0 -0.072744725061100565 -0.27289296274949931 0 -0.067161912638977472 -0.25903173736147111 0 -0.081281336266817772 -0.26097832242812891 0 -0.067161912638977472 -0.25903173736147111 0 -0.081281336266817772 -0.26097832242812891 0 -0.077955776651182085 -0.24454236002529731 0 -0.067161912638977472 -0.25903173736147111 0 -0.056939497423126581 -0.24878681181634871 0 -0.077955776651182085 -0.24454236002529731 0 -0.097628444613881649 -0.25834262822693399 0 -0.081281336266817772 -0.26097832242812891 0 -0.077955776651182085 -0.24454236002529731 0 -0.097628444613881649 -0.25834262822693399 0 -0.090762408808148426 -0.27102181932101072 0 -0.081281336266817772 -0.26097832242812891 0 -0.097628444613881649 -0.25834262822693399 0 -0.077955776651182085 -0.24454236002529731 0 -0.025857267464119819 -0.25506418495113531 0 -0.050191684441297867 -0.2485850187836515 0 -0.034199021844566052 -0.25740496373097072 0 -0.056939497423126581 -0.24878681181634871 0 -0.034199021844566052 -0.25740496373097072 0 -0.041398382443623198 -0.25192549838374201 0 -0.056939497423126581 -0.24878681181634871 0 -0.041398382443623198 -0.25192549838374201 0 -0.025857267464119819 -0.25506418495113531 0 -0.050191684441297867 -0.2485850187836515 0 -0.034199021844566052 -0.25740496373097072 0 -0.048255079716108998 -0.25800015923011232 0 -0.056939497423126581 -0.24878681181634871 0 -0.034199021844566052 -0.25740496373097072 0 -0.041398382443623198 -0.25192549838374201 0 -0.025857267464119819 -0.25506418495113531 0 -0.041398382443623198 -0.25192549838374201 0 -0.025857267464119819 -0.25506418495113531 0 -0.034199021844566052 -0.25740496373097072 0 -0.037307574571523318 -0.26201401924185519 0 -0.024854767991187229 -0.26705994663832661 0 -0.037307574571523318 -0.26201401924185519 0 -0.048255079716108998 -0.25800015923011232 0 -0.046606779304586107 -0.26584835010199509 0 -0.034199021844566052 -0.25740496373097072 0 -0.037307574571523318 -0.26201401924185519 0 -0.048255079716108998 -0.25800015923011232 0 -0.05702546769870083 -0.25851025446459042 0 -0.048255079716108998 -0.25800015923011232 0 -0.056939497423126581 -0.24878681181634871 0 -0.041398382443623198 -0.25192549838374201 0 -0.056939497423126581 -0.24878681181634871 0 -0.067161912638977472 -0.25903173736147111 0 -0.05702546769870083 -0.25851025446459042 0 -0.056939497423126581 -0.24878681181634871 0 -0.067161912638977472 -0.25903173736147111 0 -0.05702546769870083 -0.25851025446459042 0 -0.055745381016590281 -0.2682223094504298 0 -0.05702546769870083 -0.25851025446459042 0 -0.048255079716108998 -0.25800015923011232 0 -0.055745381016590281 -0.2682223094504298 0 -0.048255079716108998 -0.25800015923011232 0 -0.055745381016590281 -0.2682223094504298 0 -0.046606779304586107 -0.26584835010199509 0 -0.055745381016590281 -0.2682223094504298 0 -0.045119081914121867 -0.27515691248558288 0 -0.046606779304586107 -0.26584835010199509 0 -0.055745381016590281 -0.2682223094504298 0 -0.045119081914121867 -0.27515691248558288 0 -0.057136779716869042 -0.28712205926022771 0 -0.072744725061100565 -0.27289296274949931 0 -0.055745381016590281 -0.2682223094504298 0 -0.057136779716869042 -0.28712205926022771 0 -0.037307574571523318 -0.26201401924185519 0 -0.034478529498429812 -0.28951379058442123 0 -0.037307574571523318 -0.26201401924185519 0 -0.034478529498429812 -0.28951379058442123 0 -0.024854767991187229 -0.26705994663832661 0 -0.037307574571523318 -0.26201401924185519 0 -0.045119081914121867 -0.27515691248558288 0 -0.034478529498429812 -0.28951379058442123 0 -0.037307574571523318 -0.26201401924185519 0 -0.045119081914121867 -0.27515691248558288 0 -0.046606779304586107 -0.26584835010199509 0 -0.045119081914121867 -0.27515691248558288 0 -0.034478529498429812 -0.28951379058442123 0 -0.057136779716869042 -0.28712205926022771 0 -0.034478529498429812 -0.28951379058442123 0 -0.057136779716869042 -0.28712205926022771 0 -0.05012745319326059 -0.30445945297878008 0 -0.066237696895848033 -0.30175990202967712 0 -0.05012745319326059 -0.30445945297878008 0 -0.060613113796085999 -0.32288269869712272 0 -0.066237696895848033 -0.30175990202967712 0 -0.057136779716869042 -0.28712205926022771 0 -0.05012745319326059 -0.30445945297878008 0 -0.034478529498429812 -0.28951379058442123 0 -0.05012745319326059 -0.30445945297878008 0 -0.031649484425336299 -0.31701356192698721 0 -0.034478529498429812 -0.28951379058442123 0 -0.031649484425336299 -0.31701356192698721 0 -0.034478529498429812 -0.28951379058442123 0 -0.020284114256294641 -0.29759304008048471 0 -0.031649484425336299 -0.31701356192698721 0 -0.020284114256294641 -0.29759304008048471 0 -0.01007927323019326 -0.3103345258507364 0 -0.031649484425336299 -0.31701356192698721 0 -0.020284114256294641 -0.29759304008048471 0 -0.01007927323019326 -0.3103345258507364 0 -0.0080748459131490501 -0.2914060437848453 0 -0.01007927323019326 -0.3103345258507364 0 -0.0080748459131490501 -0.2914060437848453 0 0.0017563221397047381 -0.2997067901486577 0 -0.020284114256294641 -0.29759304008048471 0 -0.0080748459131490501 -0.2914060437848453 0 -0.017138438214364771 -0.27969727825543328 0 -0.0080748459131490501 -0.2914060437848453 0 -0.002848760243290064 -0.27761611820401882 0 0.0066437179820165657 -0.2861171845936395 0 -0.0080748459131490501 -0.2914060437848453 0 -0.017138438214364771 -0.27969727825543328 0 -0.002848760243290064 -0.27761611820401882 0 -0.034478529498429812 -0.28951379058442123 0 -0.020284114256294641 -0.29759304008048471 0 -0.017138438214364771 -0.27969727825543328 0 -0.034478529498429812 -0.28951379058442123 0 -0.024854767991187229 -0.26705994663832661 0 -0.017138438214364771 -0.27969727825543328 0 -0.024854767991187229 -0.26705994663832661 0 -0.01588915841142927 -0.27169793716392882 0 -0.01145854626600548 -0.26602311564559261 0 -0.024854767991187229 -0.26705994663832661 0 -0.01588915841142927 -0.27169793716392882 0 -0.017138438214364771 -0.27969727825543328 0 -0.017138438214364771 -0.27969727825543328 0 -0.011833725783772399 -0.27375861231724341 0 -0.002848760243290064 -0.27761611820401882 0 -0.01145854626600548 -0.26602311564559261 0 0.01128192931255503 -0.27464126756021451 0 -0.002848760243290064 -0.27761611820401882 0 -0.01145854626600548 -0.26602311564559261 0 0.01128192931255503 -0.27464126756021451 0 -0.01588915841142927 -0.27169793716392882 0 -0.017138438214364771 -0.27969727825543328 0 -0.011833725783772399 -0.27375861231724341 0 -0.011833725783772399 -0.27375861231724341 0 -0.002848760243290064 -0.27761611820401882 0 -0.01145854626600548 -0.26602311564559261 0 -0.01588915841142927 -0.27169793716392882 0 -0.011833725783772399 -0.27375861231724341 0 -0.01145854626600548 -0.26602311564559261 0 -0.01269776775011346 -0.25850600500130039 0 -0.0051360078472848583 -0.25701396995817721 0 0.0057158633005241696 -0.26337829885565528 0 -0.01145854626600548 -0.26602311564559261 0 -0.01269776775011346 -0.25850600500130039 0 0.0057158633005241696 -0.26337829885565528 0 -0.01269776775011346 -0.25850600500130039 0 0.0057158633005241696 -0.26337829885565528 0 -0.0009620894167222515 -0.25496392916579452 0 -0.0051360078472848583 -0.25701396995817721 0 0.0057158633005241696 -0.26337829885565528 0 -0.0071971320314794382 -0.2528457057960789 0 -0.01082738352359053 -0.24876902592697839 0 -0.0029313858115674811 -0.24854412401401971 0 -0.0009620894167222515 -0.25496392916579452 0 -0.0071971320314794382 -0.2528457057960789 0 -0.0029313858115674811 -0.24854412401401971 0 -0.0009620894167222515 -0.25496392916579452 0 -0.0051360078472848583 -0.25701396995817721 0 -0.0071971320314794382 -0.2528457057960789 0 -0.0051360078472848583 -0.25701396995817721 0 -0.0071971320314794382 -0.2528457057960789 0 -0.0094143843739788544 -0.25459574361389747 0 -0.0071971320314794382 -0.2528457057960789 0 -0.0094143843739788544 -0.25459574361389747 0 -0.01082738352359053 -0.24876902592697839 0 -0.01269776775011346 -0.25850600500130039 0 -0.0094143843739788544 -0.25459574361389747 0 -0.01082738352359053 -0.24876902592697839 0 -0.01269776775011346 -0.25850600500130039 0 -0.0051360078472848583 -0.25701396995817721 0 -0.0094143843739788544 -0.25459574361389747 0 -0.01269776775011346 -0.25850600500130039 0 -0.025857267464119819 -0.25506418495113531 0 -0.034199021844566052 -0.25740496373097072 0 -0.01145854626600548 -0.26602311564559261 0 -0.025857267464119819 -0.25506418495113531 0 -0.01269776775011346 -0.25850600500130039 0 -0.025857267464119819 -0.25506418495113531 0 -0.02368513365757598 -0.23851275990414511 0 -0.034199021844566052 -0.25740496373097072 0 -0.024854767991187229 -0.26705994663832661 0 -0.01145854626600548 -0.26602311564559261 0 -0.034199021844566052 -0.25740496373097072 0 -0.01145854626600548 -0.26602311564559261 0 -0.01145854626600548 -0.26602311564559261 0 -0.01269776775011346 -0.25850600500130039 0 -0.025857267464119819 -0.25506418495113531 0 -0.046940286889098168 -0.35955036210978841 0 -0.050269733973634309 -0.3392354021108881 0 -0.02882043935224279 -0.34451333326955308 0 -0.046940286889098168 -0.35955036210978841 0 -0.02882043935224279 -0.34451333326955308 0 -0.026419717968229769 -0.36867473508972981 0 -0.046940286889098168 -0.35955036210978841 0 -0.026419717968229769 -0.36867473508972981 0 -0.046935058978613817 -0.3783756837809118 0 -0.065890469742167113 -0.37350781086095058 0 -0.046940286889098168 -0.35955036210978841 0 -0.046935058978613817 -0.3783756837809118 0 -0.063306301319701316 -0.35299520754669739 0 -0.065890469742167113 -0.37350781086095058 0 -0.046940286889098168 -0.35955036210978841 0 -0.063306301319701316 -0.35299520754669739 0 -0.046940286889098168 -0.35955036210978841 0 -0.050269733973634309 -0.3392354021108881 0 -0.073144777225565616 -0.33606175945158517 0 -0.063306301319701316 -0.35299520754669739 0 -0.050269733973634309 -0.3392354021108881 0 -0.073144777225565616 -0.33606175945158517 0 -0.050269733973634309 -0.3392354021108881 0 -0.060613113796085999 -0.32288269869712272 0 -0.050269733973634309 -0.3392354021108881 0 -0.060613113796085999 -0.32288269869712272 0 -0.031649484425336299 -0.31701356192698721 0 -0.05012745319326059 -0.30445945297878008 0 -0.060613113796085999 -0.32288269869712272 0 -0.031649484425336299 -0.31701356192698721 0 -0.050269733973634309 -0.3392354021108881 0 -0.031649484425336299 -0.31701356192698721 0 -0.02882043935224279 -0.34451333326955308 0 -0.031649484425336299 -0.31701356192698721 0 -0.02882043935224279 -0.34451333326955308 0 -0.031649484425336299 -0.31701356192698721 0 -0.0038616663111063101 -0.33241552487502413 0 -0.02882043935224279 -0.34451333326955308 0 -0.01007927323019326 -0.3103345258507364 0 -0.031649484425336299 -0.31701356192698721 0 -0.0038616663111063101 -0.33241552487502413 0 -0.01007927323019326 -0.3103345258507364 0 -0.0038616663111063101 -0.33241552487502413 0 0.0094652366165251054 -0.31053241408104548 0 -0.0038616663111063101 -0.33241552487502413 0 -0.0043130761299947744 -0.35643483176966217 0 -0.02882043935224279 -0.34451333326955308 0 -0.0043130761299947744 -0.35643483176966217 0 -0.02882043935224279 -0.34451333326955308 0 -0.026419717968229769 -0.36867473508972981 0 -0.0043130761299947744 -0.35643483176966217 0 -0.026419717968229769 -0.36867473508972981 0 -0.0064694903547723136 -0.38059021958606692 0 -0.0064694903547723136 -0.38059021958606692 0 -0.0080625817845775948 -0.40608726553411861 0 -0.026496984295852101 -0.39226102623928111 0 -0.0064694903547723136 -0.38059021958606692 0 -0.0080625817845775948 -0.40608726553411861 0 0.009690974369139977 -0.39295199195252922 0 -0.0080625817845775948 -0.40608726553411861 0 -0.026496984295852101 -0.39226102623928111 0 -0.029852467816379728 -0.41236872525256307 0 -0.026419717968229769 -0.36867473508972981 0 -0.0064694903547723136 -0.38059021958606692 0 -0.026496984295852101 -0.39226102623928111 0 -0.026496984295852101 -0.39226102623928111 0 -0.048213792324517578 -0.39768762776665978 0 -0.046935058978613817 -0.3783756837809118 0 -0.026419717968229769 -0.36867473508972981 0 -0.026496984295852101 -0.39226102623928111 0 -0.046935058978613817 -0.3783756837809118 0 -0.026496984295852101 -0.39226102623928111 0 -0.048213792324517578 -0.39768762776665978 0 -0.029852467816379728 -0.41236872525256307 0 -0.048213792324517578 -0.39768762776665978 0 -0.065379196062645584 -0.39052657147488062 0 -0.06528413140028641 -0.40548789039177052 0 -0.048213792324517578 -0.39768762776665978 0 -0.046935058978613817 -0.3783756837809118 0 -0.065379196062645584 -0.39052657147488062 0 -0.065890469742167113 -0.37350781086095058 0 -0.046935058978613817 -0.3783756837809118 0 -0.065379196062645584 -0.39052657147488062 0 -0.052630130657334448 -0.42871109396582502 0 -0.036803499053157718 -0.43392585985635063 0 -0.055908543568221357 -0.44353945242809251 0 -0.052630130657334448 -0.42871109396582502 0 -0.048282499091199083 -0.41684649723306111 0 -0.065713266975248902 -0.42040157794015642 0 -0.052630130657334448 -0.42871109396582502 0 -0.055908543568221357 -0.44353945242809251 0 -0.077753046024815156 -0.43509142098737241 0 -0.048282499091199083 -0.41684649723306111 0 -0.06528413140028641 -0.40548789039177052 0 -0.065713266975248902 -0.42040157794015642 0 -0.048213792324517578 -0.39768762776665978 0 -0.048282499091199083 -0.41684649723306111 0 -0.06528413140028641 -0.40548789039177052 0 -0.048213792324517578 -0.39768762776665978 0 -0.048282499091199083 -0.41684649723306111 0 -0.029852467816379728 -0.41236872525256307 0 -0.048282499091199083 -0.41684649723306111 0 -0.036803499053157718 -0.43392585985635063 0 -0.029852467816379728 -0.41236872525256307 0 -0.052630130657334448 -0.42871109396582502 0 -0.048282499091199083 -0.41684649723306111 0 -0.036803499053157718 -0.43392585985635063 0 -0.036803499053157718 -0.43392585985635063 0 -0.01686747062211669 -0.42668809062348251 0 -0.022482277956740859 -0.44034230556013138 0 -0.036803499053157718 -0.43392585985635063 0 -0.01686747062211669 -0.42668809062348251 0 -0.029852467816379728 -0.41236872525256307 0 -0.0080625817845775948 -0.40608726553411861 0 -0.01686747062211669 -0.42668809062348251 0 -0.029852467816379728 -0.41236872525256307 0 -0.0080625817845775948 -0.40608726553411861 0 -0.01686747062211669 -0.42668809062348251 0 0.01224976062295041 -0.42183763890738629 0 -0.01686747062211669 -0.42668809062348251 0 -0.008216644178786571 -0.4466179140804285 0 0.01224976062295041 -0.42183763890738629 0 -0.008216644178786571 -0.4466179140804285 0 -0.0021957942935651631 -0.46571035637089769 0 -0.016151777162071251 -0.46269316979172348 0 -0.0021957942935651631 -0.46571035637089769 0 -0.016151777162071251 -0.46269316979172348 0 -0.01292321871024151 -0.47600360382280887 0 -0.008216644178786571 -0.4466179140804285 0 -0.016151777162071251 -0.46269316979172348 0 -0.028753682251359231 -0.45370767630375852 0 -0.016151777162071251 -0.46269316979172348 0 -0.030722049445265721 -0.46513815794063051 0 -0.025757536927686689 -0.47561542944709773 0 -0.016151777162071251 -0.46269316979172348 0 -0.030722049445265721 -0.46513815794063051 0 -0.028753682251359231 -0.45370767630375852 0 -0.036803499053157718 -0.43392585985635063 0 -0.028753682251359231 -0.45370767630375852 0 -0.022482277956740859 -0.44034230556013138 0 -0.01686747062211669 -0.42668809062348251 0 -0.008216644178786571 -0.4466179140804285 0 -0.022482277956740859 -0.44034230556013138 0 -0.008216644178786571 -0.4466179140804285 0 -0.028753682251359231 -0.45370767630375852 0 -0.022482277956740859 -0.44034230556013138 0 -0.011489863113854141 -0.5 0 -0.010144146689038991 -0.48941639725935437 0 0.012735562036971701 -0.48508522326900949 0 -0.010144146689038991 -0.48941639725935437 0 -0.00065605929082254884 -0.47874224407546379 0 -0.01292321871024151 -0.47600360382280887 0 -0.010144146689038991 -0.48941639725935437 0 -0.01292321871024151 -0.47600360382280887 0 -0.022633997898264431 -0.48384402599231691 0 -0.0021957942935651631 -0.46571035637089769 0 -0.00065605929082254884 -0.47874224407546379 0 -0.01292321871024151 -0.47600360382280887 0 -0.016151777162071251 -0.46269316979172348 0 -0.01292321871024151 -0.47600360382280887 0 -0.025757536927686689 -0.47561542944709773 0 -0.025757536927686689 -0.47561542944709773 0 -0.022633997898264431 -0.48384402599231691 0 -0.032724513000240443 -0.48384135401243772 0 -0.01292321871024151 -0.47600360382280887 0 -0.025757536927686689 -0.47561542944709773 0 -0.022633997898264431 -0.48384402599231691 0 -0.011489863113854141 -0.5 0 -0.010144146689038991 -0.48941639725935437 0 -0.033023855415049652 -0.49374757124969931 0 -0.010144146689038991 -0.48941639725935437 0 -0.022633997898264431 -0.48384402599231691 0 -0.033023855415049652 -0.49374757124969931 0 -0.011489863113854141 -0.5 0 -0.041002190054857779 -0.5 0 -0.033023855415049652 -0.49374757124969931 0 -0.010144146689038991 -0.48941639725935437 0 -0.033023855415049652 -0.49374757124969931 0 -0.022633997898264431 -0.48384402599231691 0 -0.033023855415049652 -0.49374757124969931 0 -0.032724513000240443 -0.48384135401243772 0 -0.041002190054857779 -0.5 0 -0.040644419244316249 -0.48874723383863622 0 -0.055758353525359711 -0.48944453406372251 0 -0.041002190054857779 -0.5 0 -0.033023855415049652 -0.49374757124969931 0 -0.040644419244316249 -0.48874723383863622 0 -0.033023855415049652 -0.49374757124969931 0 -0.040644419244316249 -0.48874723383863622 0 -0.032724513000240443 -0.48384135401243772 0 -0.040644419244316249 -0.48874723383863622 0 -0.040713184226073652 -0.47670270986732172 0 -0.055758353525359711 -0.48944453406372251 0 -0.040644419244316249 -0.48874723383863622 0 -0.040713184226073652 -0.47670270986732172 0 -0.032724513000240443 -0.48384135401243772 0 -0.025757536927686689 -0.47561542944709773 0 -0.040713184226073652 -0.47670270986732172 0 -0.032724513000240443 -0.48384135401243772 0 -0.030722049445265721 -0.46513815794063051 0 -0.025757536927686689 -0.47561542944709773 0 -0.040713184226073652 -0.47670270986732172 0 -0.040713184226073652 -0.47670270986732172 0 -0.05604151524233808 -0.47085547185542692 0 -0.042137987481662489 -0.46199998676314519 0 -0.040713184226073652 -0.47670270986732172 0 -0.05604151524233808 -0.47085547185542692 0 -0.055758353525359711 -0.48944453406372251 0 -0.05604151524233808 -0.47085547185542692 0 -0.055758353525359711 -0.48944453406372251 0 -0.068357021366280857 -0.47830767763467641 0 -0.041002190054857779 -0.5 0 -0.055758353525359711 -0.48944453406372251 0 -0.070514516995861642 -0.5 0 -0.036803499053157718 -0.43392585985635063 0 -0.028753682251359231 -0.45370767630375852 0 -0.042591220718736618 -0.44931976272637059 0 -0.036803499053157718 -0.43392585985635063 0 -0.042591220718736618 -0.44931976272637059 0 -0.055908543568221357 -0.44353945242809251 0 -0.028753682251359231 -0.45370767630375852 0 -0.042591220718736618 -0.44931976272637059 0 -0.042137987481662489 -0.46199998676314519 0 -0.030722049445265721 -0.46513815794063051 0 -0.028753682251359231 -0.45370767630375852 0 -0.042137987481662489 -0.46199998676314519 0 -0.030722049445265721 -0.46513815794063051 0 -0.040713184226073652 -0.47670270986732172 0 -0.042137987481662489 -0.46199998676314519 0 -0.042591220718736618 -0.44931976272637059 0 -0.042137987481662489 -0.46199998676314519 0 -0.054601469153056192 -0.45704509188174619 0 -0.05604151524233808 -0.47085547185542692 0 -0.054601469153056192 -0.45704509188174619 0 -0.071896784036839162 -0.45711427830285839 0 -0.05604151524233808 -0.47085547185542692 0 -0.042137987481662489 -0.46199998676314519 0 -0.054601469153056192 -0.45704509188174619 0 -0.054601469153056192 -0.45704509188174619 0 -0.055908543568221357 -0.44353945242809251 0 -0.071896784036839162 -0.45711427830285839 0 -0.042591220718736618 -0.44931976272637059 0 -0.054601469153056192 -0.45704509188174619 0 -0.055908543568221357 -0.44353945242809251 0 -0.055908543568221357 -0.44353945242809251 0 -0.071896784036839162 -0.45711427830285839 0 -0.077753046024815156 -0.43509142098737241 0 -0.071896784036839162 -0.45711427830285839 0 -0.087573937031005744 -0.47412410395137422 0 -0.093954286744555499 -0.45179652052777369 0 -0.087573937031005744 -0.47412410395137422 0 -0.093954286744555499 -0.45179652052777369 0 -0.071896784036839162 -0.45711427830285839 0 -0.093954286744555499 -0.45179652052777369 0 -0.077753046024815156 -0.43509142098737241 0 -0.093954286744555499 -0.45179652052777369 0 -0.10033463645810529 -0.42946893710417328 0 -0.077753046024815156 -0.43509142098737241 0 -0.055758353525359711 -0.48944453406372251 0 -0.070514516995861642 -0.5 0 -0.068357021366280857 -0.47830767763467641 0 -0.05604151524233808 -0.47085547185542692 0 -0.071896784036839162 -0.45711427830285839 0 -0.068357021366280857 -0.47830767763467641 0 -0.071896784036839162 -0.45711427830285839 0 -0.068357021366280857 -0.47830767763467641 0 -0.087573937031005744 -0.47412410395137422 0 -0.070514516995861642 -0.5 0 -0.068357021366280857 -0.47830767763467641 0 -0.087573937031005744 -0.47412410395137422 0 -0.070514516995861642 -0.5 0 -0.087573937031005744 -0.47412410395137422 0 -0.10002684393686551 -0.5 0 -0.087573937031005744 -0.47412410395137422 0 -0.10002684393686551 -0.5 0 -0.10780494223314389 -0.47765854937150709 0 -0.087573937031005744 -0.47412410395137422 0 -0.10780494223314389 -0.47765854937150709 0 -0.1029954147344513 -0.46359439800738522 0 -0.12605423818426559 -0.48707922202292669 0 -0.10780494223314389 -0.47765854937150709 0 -0.1201929706126502 -0.46127799294672761 0 -0.12605423818426559 -0.48707922202292669 0 -0.1201929706126502 -0.46127799294672761 0 -0.12605423818426559 -0.48707922202292669 0 -0.10002684393686551 -0.5 0 -0.10780494223314389 -0.47765854937150709 0 -0.1295391708778694 -0.5 0 -0.12605423818426559 -0.48707922202292669 0 -0.10002684393686551 -0.5 0 -0.093954286744555499 -0.45179652052777369 0 -0.10033463645810529 -0.42946893710417328 0 -0.10636180231815941 -0.44832292249131772 0 -0.11433170304103479 -0.43547676387052858 0 -0.10033463645810529 -0.42946893710417328 0 -0.10636180231815941 -0.44832292249131772 0 -0.093954286744555499 -0.45179652052777369 0 -0.10033463645810529 -0.42946893710417328 0 -0.087573937031005744 -0.47412410395137422 0 -0.093954286744555499 -0.45179652052777369 0 -0.1029954147344513 -0.46359439800738522 0 -0.10636180231815941 -0.44832292249131772 0 -0.093954286744555499 -0.45179652052777369 0 -0.1029954147344513 -0.46359439800738522 0 -0.10780494223314389 -0.47765854937150709 0 -0.1029954147344513 -0.46359439800738522 0 -0.1201929706126502 -0.46127799294672761 0 -0.10636180231815941 -0.44832292249131772 0 -0.1029954147344513 -0.46359439800738522 0 -0.1201929706126502 -0.46127799294672761 0 -0.13671083813600751 -0.45044361347006462 0 -0.1201929706126502 -0.46127799294672761 0 -0.11433170304103479 -0.43547676387052858 0 -0.10636180231815941 -0.44832292249131772 0 -0.1201929706126502 -0.46127799294672761 0 -0.11433170304103479 -0.43547676387052858 0 -0.13671083813600751 -0.45044361347006462 0 -0.1225906368027144 -0.43005957413219659 0 -0.11433170304103479 -0.43547676387052858 0 -0.1201929706126502 -0.46127799294672761 0 -0.11433170304103479 -0.43547676387052858 0 -0.1225906368027144 -0.43005957413219659 0 -0.11433170304103479 -0.43547676387052858 0 -0.10847043546942051 -0.40967553479432928 0 -0.11433170304103479 -0.43547676387052858 0 -0.10847043546942051 -0.40967553479432928 0 -0.12908399078123631 -0.42243277819987513 0 -0.1225906368027144 -0.43005957413219659 0 -0.12315425937001 -0.41747458531602638 0 -0.11433170304103479 -0.43547676387052858 0 -0.10033463645810529 -0.42946893710417328 0 -0.10847043546942051 -0.40967553479432928 0 -0.10033463645810529 -0.42946893710417328 0 -0.094107383989168333 -0.41562629379671062 0 -0.1067149861716557 -0.40714135368057303 0 -0.10033463645810529 -0.42946893710417328 0 -0.1067149861716557 -0.40714135368057303 0 -0.10847043546942051 -0.40967553479432928 0 -0.10033463645810529 -0.42946893710417328 0 -0.1067149861716557 -0.40714135368057303 0 -0.094107383989168333 -0.41562629379671062 0 -0.1067149861716557 -0.40714135368057303 0 -0.093615658715422545 -0.40476526464288082 0 -0.10847043546942051 -0.40967553479432928 0 -0.1105756132387118 -0.40676785322215941 0 -0.1073722461642546 -0.40484131873350049 0 -0.10847043546942051 -0.40967553479432928 0 -0.1073722461642546 -0.40484131873350049 0 -0.1067149861716557 -0.40714135368057303 0 -0.10847043546942051 -0.40967553479432928 0 -0.1073722461642546 -0.40484131873350049 0 -0.1067149861716557 -0.40714135368057303 0 -0.10847043546942051 -0.40967553479432928 0 -0.1225906368027144 -0.43005957413219659 0 -0.1163272184937543 -0.41351727508190028 0 -0.12315425937001 -0.41747458531602638 0 -0.10847043546942051 -0.40967553479432928 0 -0.1125412123036873 -0.40894162881917728 0 -0.1163272184937543 -0.41351727508190028 0 -0.1125412123036873 -0.40894162881917728 0 -0.1105756132387118 -0.40676785322215941 0 -0.1147915820128618 -0.40580585217832088 0 -0.1225906368027144 -0.43005957413219659 0 -0.10847043546942051 -0.40967553479432928 0 -0.1163272184937543 -0.41351727508190028 0 -0.10847043546942051 -0.40967553479432928 0 -0.1125412123036873 -0.40894162881917728 0 -0.1105756132387118 -0.40676785322215941 0 -0.1225906368027144 -0.43005957413219659 0 -0.10847043546942051 -0.40967553479432928 0 -0.1125412123036873 -0.40894162881917728 0 -0.1163272184937543 -0.41351727508190028 0 -0.1147915820128618 -0.40580585217832088 0 -0.1225700411049412 -0.40994677461386392 0 -0.1219584454402414 -0.40406961642135292 0 -0.1147915820128618 -0.40580585217832088 0 -0.1163272184937543 -0.41351727508190028 0 -0.1225700411049412 -0.40994677461386392 0 -0.1147915820128618 -0.40580585217832088 0 -0.1163272184937543 -0.41351727508190028 0 -0.12315425937001 -0.41747458531602638 0 -0.1225700411049412 -0.40994677461386392 0 -0.1273295258527142 -0.39594401256049883 0 -0.1219584454402414 -0.40406961642135292 0 -0.1190781430676657 -0.39944145851713192 0 -0.11305295545189779 -0.39895005080087959 0 -0.11384267237711319 -0.38219851895920232 0 -0.1073722461642546 -0.40484131873350049 0 -0.1295768038857959 -0.40463739140698729 0 -0.1225700411049412 -0.40994677461386392 0 -0.1219584454402414 -0.40406961642135292 0 -0.1182582065806136 -0.392437760624607 0 -0.11305295545189779 -0.39895005080087959 0 -0.11384267237711319 -0.38219851895920232 0 -0.11384267237711319 -0.38219851895920232 0 -0.1073722461642546 -0.40484131873350049 0 -0.1219584454402414 -0.40406961642135292 0 -0.1190781430676657 -0.39944145851713192 0 -0.1147915820128618 -0.40580585217832088 0 -0.1273295258527142 -0.39594401256049883 0 -0.1190781430676657 -0.39944145851713192 0 -0.1182582065806136 -0.392437760624607 0 -0.1190781430676657 -0.39944145851713192 0 -0.1182582065806136 -0.392437760624607 0 -0.11305295545189779 -0.39895005080087959 0 -0.1105756132387118 -0.40676785322215941 0 -0.1114480992169309 -0.40409126873371493 0 -0.1073722461642546 -0.40484131873350049 0 -0.1105756132387118 -0.40676785322215941 0 -0.1114480992169309 -0.40409126873371493 0 -0.1147915820128618 -0.40580585217832088 0 -0.11305295545189779 -0.39895005080087959 0 -0.1114480992169309 -0.40409126873371493 0 -0.1147915820128618 -0.40580585217832088 0 -0.11305295545189779 -0.39895005080087959 0 -0.1114480992169309 -0.40409126873371493 0 -0.1073722461642546 -0.40484131873350049 0 -0.1190781430676657 -0.39944145851713192 0 -0.11305295545189779 -0.39895005080087959 0 -0.1147915820128618 -0.40580585217832088 0 -0.12625141541498519 -0.38197991289387551 0 -0.1182582065806136 -0.392437760624607 0 -0.11384267237711319 -0.38219851895920232 0 -0.12625141541498519 -0.38197991289387551 0 -0.1273295258527142 -0.39594401256049883 0 -0.1182582065806136 -0.392437760624607 0 -0.11384267237711319 -0.38219851895920232 0 -0.10176491866177829 -0.38015793077534599 0 -0.1073722461642546 -0.40484131873350049 0 -0.10176491866177829 -0.38015793077534599 0 -0.095995502779844255 -0.39166661886747001 0 -0.085276019388031976 -0.37619188405436782 0 -0.10849363524981311 -0.36442991456039969 0 -0.11384267237711319 -0.38219851895920232 0 -0.10176491866177829 -0.38015793077534599 0 -0.10176491866177829 -0.38015793077534599 0 -0.1073722461642546 -0.40484131873350049 0 -0.095995502779844255 -0.39166661886747001 0 -0.10176491866177829 -0.38015793077534599 0 -0.1073722461642546 -0.40484131873350049 0 -0.1067149861716557 -0.40714135368057303 0 -0.1073722461642546 -0.40484131873350049 0 -0.095995502779844255 -0.39166661886747001 0 -0.1067149861716557 -0.40714135368057303 0 -0.1073722461642546 -0.40484131873350049 0 -0.1067149861716557 -0.40714135368057303 0 -0.095995502779844255 -0.39166661886747001 0 -0.1067149861716557 -0.40714135368057303 0 -0.095995502779844255 -0.39166661886747001 0 -0.093615658715422545 -0.40476526464288082 0 -0.093615658715422545 -0.40476526464288082 0 -0.081664681120336771 -0.39582842074610342 0 -0.082451352827770552 -0.41163664718976212 0 -0.095995502779844255 -0.39166661886747001 0 -0.093615658715422545 -0.40476526464288082 0 -0.081664681120336771 -0.39582842074610342 0 -0.095995502779844255 -0.39166661886747001 0 -0.081664681120336771 -0.39582842074610342 0 -0.085276019388031976 -0.37619188405436782 0 -0.081664681120336771 -0.39582842074610342 0 -0.085276019388031976 -0.37619188405436782 0 -0.074552591578295357 -0.38401367178407558 0 -0.095995502779844255 -0.39166661886747001 0 -0.085276019388031976 -0.37619188405436782 0 -0.081664681120336771 -0.39582842074610342 0 -0.065379196062645584 -0.39052657147488062 0 -0.074552591578295357 -0.38401367178407558 0 -0.065890469742167113 -0.37350781086095058 0 -0.085276019388031976 -0.37619188405436782 0 -0.074552591578295357 -0.38401367178407558 0 -0.065890469742167113 -0.37350781086095058 0 -0.065379196062645584 -0.39052657147488062 0 -0.074552591578295357 -0.38401367178407558 0 -0.081664681120336771 -0.39582842074610342 0 -0.06528413140028641 -0.40548789039177052 0 -0.082451352827770552 -0.41163664718976212 0 -0.081664681120336771 -0.39582842074610342 0 -0.065379196062645584 -0.39052657147488062 0 -0.06528413140028641 -0.40548789039177052 0 -0.065713266975248902 -0.42040157794015642 0 -0.085028608260126398 -0.42320905853578622 0 -0.082451352827770552 -0.41163664718976212 0 -0.06528413140028641 -0.40548789039177052 0 -0.065713266975248902 -0.42040157794015642 0 -0.082451352827770552 -0.41163664718976212 0 -0.065713266975248902 -0.42040157794015642 0 -0.077753046024815156 -0.43509142098737241 0 -0.085028608260126398 -0.42320905853578622 0 -0.052630130657334448 -0.42871109396582502 0 -0.065713266975248902 -0.42040157794015642 0 -0.077753046024815156 -0.43509142098737241 0 -0.10033463645810529 -0.42946893710417328 0 -0.077753046024815156 -0.43509142098737241 0 -0.085028608260126398 -0.42320905853578622 0 -0.10033463645810529 -0.42946893710417328 0 -0.094107383989168333 -0.41562629379671062 0 -0.085028608260126398 -0.42320905853578622 0 -0.094107383989168333 -0.41562629379671062 0 -0.085028608260126398 -0.42320905853578622 0 -0.082451352827770552 -0.41163664718976212 0 -0.094107383989168333 -0.41562629379671062 0 -0.093615658715422545 -0.40476526464288082 0 -0.082451352827770552 -0.41163664718976212 0 -0.080832567710134945 -0.085265223789800185 0 -0.09573268077664969 -0.090624673380050064 0 -0.094924188455715333 -0.074372309221374736 0 -0.080832567710134945 -0.085265223789800185 0 -0.0944050220014645 -0.1050702242089397 0 -0.09573268077664969 -0.090624673380050064 0 -0.094924188455715333 -0.074372309221374736 0 -0.077079431972146645 -0.050953682142663811 0 -0.080832567710134945 -0.085265223789800185 0 -0.077460787511610923 -0.070469280456870842 0 -0.094924188455715333 -0.074372309221374736 0 -0.077460787511610923 -0.070469280456870842 0 -0.094924188455715333 -0.074372309221374736 0 -0.078535685693175539 -0.061573663464548622 0 -0.080832567710134945 -0.085265223789800185 0 -0.072736864716213656 -0.076885636419884412 0 -0.077460787511610923 -0.070469280456870842 0 -0.072736864716213656 -0.076885636419884412 0 -0.077460787511610923 -0.070469280456870842 0 -0.067174029152377468 -0.071022972744677337 0 -0.077460787511610923 -0.070469280456870842 0 -0.067174029152377468 -0.071022972744677337 0 -0.070308423821052124 -0.061023041189074957 0 -0.077460787511610923 -0.070469280456870842 0 -0.078535685693175539 -0.061573663464548622 0 -0.070308423821052124 -0.061023041189074957 0 -0.067174029152377468 -0.071022972744677337 0 -0.070308423821052124 -0.061023041189074957 0 -0.060830035872249492 -0.064558057335980773 0 -0.072736864716213656 -0.076885636419884412 0 -0.067174029152377468 -0.071022972744677337 0 -0.063732237529271596 -0.080733089011810297 0 -0.067174029152377468 -0.071022972744677337 0 -0.063732237529271596 -0.080733089011810297 0 -0.058000192015007383 -0.073011667883306972 0 -0.080832567710134945 -0.085265223789800185 0 -0.063732237529271596 -0.080733089011810297 0 -0.066023591375222151 -0.09957098179305135 0 -0.080832567710134945 -0.085265223789800185 0 -0.072736864716213656 -0.076885636419884412 0 -0.063732237529271596 -0.080733089011810297 0 -0.066023591375222151 -0.09957098179305135 0 -0.069466171350113709 -0.1135628440840601 0 -0.0944050220014645 -0.1050702242089397 0 -0.066023591375222151 -0.09957098179305135 0 -0.069466171350113709 -0.1135628440840601 0 -0.054384952187449757 -0.110609208962567 0 -0.077516787342341589 -0.1242022911324857 0 -0.069466171350113709 -0.1135628440840601 0 -0.059238207921678762 -0.13024384051707169 0 -0.077516787342341589 -0.1242022911324857 0 -0.093262550211769629 -0.1231040070079162 0 -0.0944050220014645 -0.1050702242089397 0 -0.077516787342341589 -0.1242022911324857 0 -0.069466171350113709 -0.1135628440840601 0 -0.0944050220014645 -0.1050702242089397 0 -0.066023591375222151 -0.09957098179305135 0 -0.0944050220014645 -0.1050702242089397 0 -0.080832567710134945 -0.085265223789800185 0 -0.066023591375222151 -0.09957098179305135 0 -0.0944050220014645 -0.1050702242089397 0 -0.0944050220014645 -0.1050702242089397 0 -0.1071147179002416 -0.1244919901550422 0 -0.11276894493928399 -0.097790936300085646 0 -0.0944050220014645 -0.1050702242089397 0 -0.11276894493928399 -0.097790936300085646 0 -0.09573268077664969 -0.090624673380050064 0 -0.093262550211769629 -0.1231040070079162 0 -0.0944050220014645 -0.1050702242089397 0 -0.1071147179002416 -0.1244919901550422 0 -0.1071147179002416 -0.1244919901550422 0 -0.11276894493928399 -0.097790936300085646 0 -0.1306137014228527 -0.1212095633787966 0 -0.11276894493928399 -0.097790936300085646 0 -0.1306137014228527 -0.1212095633787966 0 -0.112702195828283 -0.076339248342475546 0 -0.13438499311011279 -0.096174695905308166 0 -0.11276894493928399 -0.097790936300085646 0 -0.112702195828283 -0.076339248342475546 0 -0.13438499311011279 -0.096174695905308166 0 -0.11276894493928399 -0.097790936300085646 0 -0.094924188455715333 -0.074372309221374736 0 -0.112702195828283 -0.076339248342475546 0 -0.11276894493928399 -0.097790936300085646 0 -0.094924188455715333 -0.074372309221374736 0 -0.11276894493928399 -0.097790936300085646 0 -0.09573268077664969 -0.090624673380050064 0 -0.094924188455715333 -0.074372309221374736 0 -0.094924188455715333 -0.074372309221374736 0 -0.1026030192468113 -0.064894788769428779 0 -0.112702195828283 -0.076339248342475546 0 -0.094924188455715333 -0.074372309221374736 0 -0.1026030192468113 -0.064894788769428779 0 -0.090333769324138391 -0.059362086744932152 0 -0.1026030192468113 -0.064894788769428779 0 -0.112702195828283 -0.076339248342475546 0 -0.1158705629695205 -0.060236298698018297 0 -0.112702195828283 -0.076339248342475546 0 -0.1158705629695205 -0.060236298698018297 0 -0.13497135686491851 -0.078315161523928284 0 -0.1158705629695205 -0.060236298698018297 0 -0.1150956899200111 -0.045830426672337207 0 -0.1070798181065768 -0.041876824406217303 0 -0.1158705629695205 -0.060236298698018297 0 -0.1150956899200111 -0.045830426672337207 0 -0.12809376798702951 -0.047905065599393698 0 -0.1163329610324388 -0.034474533447810513 0 -0.12530131535501859 -0.034952786400489197 0 -0.12809376798702951 -0.047905065599393698 0 -0.11023593420079281 -0.033339602888773932 0 -0.1150956899200111 -0.045830426672337207 0 -0.12809376798702951 -0.047905065599393698 0 -0.11023593420079281 -0.033339602888773932 0 -0.1163329610324388 -0.034474533447810513 0 -0.12809376798702951 -0.047905065599393698 0 -0.11023593420079281 -0.033339602888773932 0 -0.12809376798702951 -0.047905065599393698 0 -0.1163329610324388 -0.034474533447810513 0 -0.1221370268088495 -0.025998648103035 0 -0.12530131535501859 -0.034952786400489197 0 -0.11023593420079281 -0.033339602888773932 0 -0.1150956899200111 -0.045830426672337207 0 -0.1070798181065768 -0.041876824406217303 0 -0.11023593420079281 -0.033339602888773932 0 -0.1163329610324388 -0.034474533447810513 0 -0.097427134368436918 -0.027820357899848831 0 -0.11023593420079281 -0.033339602888773932 0 -0.1070798181065768 -0.041876824406217303 0 -0.097427134368436918 -0.027820357899848831 0 -0.1070798181065768 -0.041876824406217303 0 -0.096769769074122519 -0.04215743587210824 0 -0.097427134368436918 -0.027820357899848831 0 -0.1158705629695205 -0.060236298698018297 0 -0.1070798181065768 -0.041876824406217303 0 -0.096769769074122519 -0.04215743587210824 0 -0.1026030192468113 -0.064894788769428779 0 -0.1158705629695205 -0.060236298698018297 0 -0.099264754381345577 -0.055060356505970513 0 -0.1158705629695205 -0.060236298698018297 0 -0.096769769074122519 -0.04215743587210824 0 -0.099264754381345577 -0.055060356505970513 0 -0.096769769074122519 -0.04215743587210824 0 -0.099264754381345577 -0.055060356505970513 0 -0.090746651292135133 -0.048651172445365112 0 -0.1158705629695205 -0.060236298698018297 0 -0.096769769074122519 -0.04215743587210824 0 -0.1026030192468113 -0.064894788769428779 0 -0.099264754381345577 -0.055060356505970513 0 -0.090333769324138391 -0.059362086744932152 0 -0.1029392013539359 -0.0085751277431150782 0 -0.12735709500343681 0.004015926865657337 0 -0.1236693299605585 -0.0137973575501921 0 -0.1110604598185659 -0.0207882196779367 0 -0.1029392013539359 -0.0085751277431150782 0 -0.1236693299605585 -0.0137973575501921 0 -0.1029392013539359 -0.0085751277431150782 0 -0.12735709500343681 0.004015926865657337 0 -0.1236693299605585 -0.0137973575501921 0 -0.1110604598185659 -0.0207882196779367 0 -0.1221370268088495 -0.025998648103035 0 -0.1163329610324388 -0.034474533447810513 0 -0.1221370268088495 -0.025998648103035 0 -0.11173939550707281 -0.027270439782157759 0 -0.1110604598185659 -0.0207882196779367 0 -0.1221370268088495 -0.025998648103035 0 -0.11173939550707281 -0.027270439782157759 0 -0.1163329610324388 -0.034474533447810513 0 -0.097427134368436918 -0.027820357899848831 0 -0.1110604598185659 -0.0207882196779367 0 -0.097427134368436918 -0.027820357899848831 0 -0.1029392013539359 -0.0085751277431150782 0 -0.1163329610324388 -0.034474533447810513 0 -0.11173939550707281 -0.027270439782157759 0 -0.097427134368436918 -0.027820357899848831 0 -0.1110604598185659 -0.0207882196779367 0 -0.11173939550707281 -0.027270439782157759 0 -0.097427134368436918 -0.027820357899848831 0 -0.1029392013539359 -0.0085751277431150782 0 -0.086097875964997059 -0.0058870606910941042 0 -0.078521307704434995 -0.021166182351887271 0 -0.1029392013539359 -0.0085751277431150782 0 -0.078521307704434995 -0.021166182351887271 0 -0.1029392013539359 -0.0085751277431150782 0 -0.086097875964997059 -0.0058870606910941042 0 -0.091682611010439896 0.0063963380850077774 0 -0.086097875964997059 -0.0058870606910941042 0 -0.073830544796709738 -0.0078542708917730738 0 -0.078933949510919491 0.00072378658541613432 0 -0.086097875964997059 -0.0058870606910941042 0 -0.078521307704434995 -0.021166182351887271 0 -0.073830544796709738 -0.0078542708917730738 0 -0.097427134368436918 -0.027820357899848831 0 -0.078521307704434995 -0.021166182351887271 0 -0.097427134368436918 -0.027820357899848831 0 -0.078521307704434995 -0.021166182351887271 0 -0.077668975178724509 -0.024078573046198169 0 -0.097427134368436918 -0.027820357899848831 0 -0.1029392013539359 -0.0085751277431150782 0 -0.078521307704434995 -0.021166182351887271 0 -0.078521307704434995 -0.021166182351887271 0 -0.055132092173872667 -0.033226800447327051 0 -0.05822397002114936 -0.01402224463886402 0 -0.078521307704434995 -0.021166182351887271 0 -0.055132092173872667 -0.033226800447327051 0 -0.077668975178724509 -0.024078573046198169 0 -0.075465350998538308 -0.032772608828030472 0 -0.055132092173872667 -0.033226800447327051 0 -0.078521307704434995 -0.021166182351887271 0 -0.077668975178724509 -0.024078573046198169 0 -0.055132092173872667 -0.033226800447327051 0 -0.078521307704434995 -0.021166182351887271 0 -0.05822397002114936 -0.01402224463886402 0 -0.078521307704434995 -0.021166182351887271 0 -0.073830544796709738 -0.0078542708917730738 0 -0.05822397002114936 -0.01402224463886402 0 -0.073830544796709738 -0.0078542708917730738 0 -0.05822397002114936 -0.01402224463886402 0 -0.068462160169621672 0.0025537029525893409 0 -0.073830544796709738 -0.0078542708917730738 0 -0.078933949510919491 0.00072378658541613432 0 -0.068462160169621672 0.0025537029525893409 0 -0.094924188455715333 -0.074372309221374736 0 -0.090333769324138391 -0.059362086744932152 0 -0.077079431972146645 -0.050953682142663811 0 -0.094924188455715333 -0.074372309221374736 0 -0.078535685693175539 -0.061573663464548622 0 -0.077079431972146645 -0.050953682142663811 0 -0.084868245962835154 -0.053326759561897898 0 -0.090333769324138391 -0.059362086744932152 0 -0.077079431972146645 -0.050953682142663811 0 -0.084868245962835154 -0.053326759561897898 0 -0.080876314157704687 -0.04955372347343575 0 -0.082849096915408454 -0.045583035938281863 0 -0.080876314157704687 -0.04955372347343575 0 -0.078708481780428496 -0.048351416250899462 0 -0.082849096915408454 -0.045583035938281863 0 -0.080876314157704687 -0.04955372347343575 0 -0.078708481780428496 -0.048351416250899462 0 -0.077079431972146645 -0.050953682142663811 0 -0.084868245962835154 -0.053326759561897898 0 -0.080876314157704687 -0.04955372347343575 0 -0.077079431972146645 -0.050953682142663811 0 -0.084868245962835154 -0.053326759561897898 0 -0.090746651292135133 -0.048651172445365112 0 -0.082849096915408454 -0.045583035938281863 0 -0.084868245962835154 -0.053326759561897898 0 -0.090333769324138391 -0.059362086744932152 0 -0.090746651292135133 -0.048651172445365112 0 -0.099264754381345577 -0.055060356505970513 0 -0.090333769324138391 -0.059362086744932152 0 -0.090746651292135133 -0.048651172445365112 0 -0.096769769074122519 -0.04215743587210824 0 -0.088481073739883592 -0.043344290748051233 0 -0.083558777677868248 -0.036985518736449702 0 -0.096769769074122519 -0.04215743587210824 0 -0.097427134368436918 -0.027820357899848831 0 -0.077668975178724509 -0.024078573046198169 0 -0.096769769074122519 -0.04215743587210824 0 -0.077668975178724509 -0.024078573046198169 0 -0.083558777677868248 -0.036985518736449702 0 -0.096769769074122519 -0.04215743587210824 0 -0.077668975178724509 -0.024078573046198169 0 -0.090746651292135133 -0.048651172445365112 0 -0.088481073739883592 -0.043344290748051233 0 -0.082849096915408454 -0.045583035938281863 0 -0.096769769074122519 -0.04215743587210824 0 -0.090746651292135133 -0.048651172445365112 0 -0.088481073739883592 -0.043344290748051233 0 -0.077668975178724509 -0.024078573046198169 0 -0.083558777677868248 -0.036985518736449702 0 -0.075465350998538308 -0.032772608828030472 0 -0.083558777677868248 -0.036985518736449702 0 -0.082849096915408454 -0.045583035938281863 0 -0.075062618692292638 -0.040325846155841297 0 -0.088481073739883592 -0.043344290748051233 0 -0.083558777677868248 -0.036985518736449702 0 -0.082849096915408454 -0.045583035938281863 0 -0.082849096915408454 -0.045583035938281863 0 -0.078067002861142085 -0.04575568247049161 0 -0.075062618692292638 -0.040325846155841297 0 -0.078708481780428496 -0.048351416250899462 0 -0.082849096915408454 -0.045583035938281863 0 -0.078067002861142085 -0.04575568247049161 0 -0.075647814056438792 -0.048762431536943832 0 -0.055132092173872667 -0.033226800447327051 0 -0.078067002861142085 -0.04575568247049161 0 -0.075062618692292638 -0.040325846155841297 0 -0.075647814056438792 -0.048762431536943832 0 -0.075062618692292638 -0.040325846155841297 0 -0.075465350998538308 -0.032772608828030472 0 -0.055132092173872667 -0.033226800447327051 0 -0.075647814056438792 -0.048762431536943832 0 -0.061428605263776047 -0.046553119166432878 0 -0.055132092173872667 -0.033226800447327051 0 -0.075062618692292638 -0.040325846155841297 0 -0.075647814056438792 -0.048762431536943832 0 -0.055132092173872667 -0.033226800447327051 0 -0.083558777677868248 -0.036985518736449702 0 -0.075062618692292638 -0.040325846155841297 0 -0.075465350998538308 -0.032772608828030472 0 -0.065722760200719738 -0.052253177456942877 0 -0.075647814056438792 -0.048762431536943832 0 -0.061428605263776047 -0.046553119166432878 0 -0.065722760200719738 -0.052253177456942877 0 -0.07269306068786438 -0.052406879740114577 0 -0.069833853901725543 -0.055329661047837618 0 -0.065722760200719738 -0.052253177456942877 0 -0.07269306068786438 -0.052406879740114577 0 -0.075647814056438792 -0.048762431536943832 0 -0.07269306068786438 -0.052406879740114577 0 -0.073703714626092445 -0.056102563442451223 0 -0.069833853901725543 -0.055329661047837618 0 -0.07269306068786438 -0.052406879740114577 0 -0.077079431972146645 -0.050953682142663811 0 -0.073703714626092445 -0.056102563442451223 0 -0.078708481780428496 -0.048351416250899462 0 -0.077079431972146645 -0.050953682142663811 0 -0.075647814056438792 -0.048762431536943832 0 -0.07269306068786438 -0.052406879740114577 0 -0.077079431972146645 -0.050953682142663811 0 -0.075647814056438792 -0.048762431536943832 0 -0.078708481780428496 -0.048351416250899462 0 -0.078067002861142085 -0.04575568247049161 0 -0.075647814056438792 -0.048762431536943832 0 -0.078535685693175539 -0.061573663464548622 0 -0.073703714626092445 -0.056102563442451223 0 -0.070308423821052124 -0.061023041189074957 0 -0.078535685693175539 -0.061573663464548622 0 -0.077079431972146645 -0.050953682142663811 0 -0.073703714626092445 -0.056102563442451223 0 -0.073703714626092445 -0.056102563442451223 0 -0.070308423821052124 -0.061023041189074957 0 -0.069833853901725543 -0.055329661047837618 0 -0.070308423821052124 -0.061023041189074957 0 -0.064391701294429504 -0.057679717025484439 0 -0.060830035872249492 -0.064558057335980773 0 -0.070308423821052124 -0.061023041189074957 0 -0.069833853901725543 -0.055329661047837618 0 -0.064391701294429504 -0.057679717025484439 0 -0.065722760200719738 -0.052253177456942877 0 -0.069833853901725543 -0.055329661047837618 0 -0.064391701294429504 -0.057679717025484439 0 -0.064391701294429504 -0.057679717025484439 0 -0.055978059279945473 -0.056388284161067823 0 -0.060830035872249492 -0.064558057335980773 0 -0.065722760200719738 -0.052253177456942877 0 -0.064391701294429504 -0.057679717025484439 0 -0.055978059279945473 -0.056388284161067823 0 -0.055978059279945473 -0.056388284161067823 0 -0.041230103293456458 -0.058058117591144771 0 -0.049479852383656611 -0.067543566470139038 0 -0.055978059279945473 -0.056388284161067823 0 -0.049741921456861897 -0.048697412542500033 0 -0.041230103293456458 -0.058058117591144771 0 -0.055978059279945473 -0.056388284161067823 0 -0.049741921456861897 -0.048697412542500033 0 -0.061428605263776047 -0.046553119166432878 0 -0.065722760200719738 -0.052253177456942877 0 -0.055978059279945473 -0.056388284161067823 0 -0.061428605263776047 -0.046553119166432878 0 -0.049741921456861897 -0.048697412542500033 0 -0.061428605263776047 -0.046553119166432878 0 -0.055132092173872667 -0.033226800447327051 0 -0.049741921456861897 -0.048697412542500033 0 -0.055132092173872667 -0.033226800447327051 0 -0.032367863380537598 -0.044965144957206583 0 -0.055132092173872667 -0.033226800447327051 0 -0.032367863380537598 -0.044965144957206583 0 -0.055132092173872667 -0.033226800447327051 0 -0.032367863380537598 -0.044965144957206583 0 -0.031233838643279398 -0.031193199633022049 0 -0.049741921456861897 -0.048697412542500033 0 -0.032367863380537598 -0.044965144957206583 0 -0.041230103293456458 -0.058058117591144771 0 -0.032367863380537598 -0.044965144957206583 0 -0.041230103293456458 -0.058058117591144771 0 -0.026902341230915561 -0.060374551747501753 0 -0.05822397002114936 -0.01402224463886402 0 -0.057836245250817257 0.0062936453779614283 0 -0.044352522143416888 0.0050416822031405977 0 -0.05822397002114936 -0.01402224463886402 0 -0.037926632337863607 -0.0068783069258408786 0 -0.05822397002114936 -0.01402224463886402 0 -0.068462160169621672 0.0025537029525893409 0 -0.057836245250817257 0.0062936453779614283 0 -0.055132092173872667 -0.033226800447327051 0 -0.05822397002114936 -0.01402224463886402 0 -0.036243114184870161 -0.018923029155399909 0 -0.055132092173872667 -0.033226800447327051 0 -0.036243114184870161 -0.018923029155399909 0 -0.031233838643279398 -0.031193199633022049 0 -0.055132092173872667 -0.033226800447327051 0 -0.036243114184870161 -0.018923029155399909 0 -0.05822397002114936 -0.01402224463886402 0 -0.036243114184870161 -0.018923029155399909 0 -0.037926632337863607 -0.0068783069258408786 0 -0.05822397002114936 -0.01402224463886402 0 -0.037926632337863607 -0.0068783069258408786 0 -0.044352522143416888 0.0050416822031405977 0 -0.036243114184870161 -0.018923029155399909 0 -0.037926632337863607 -0.0068783069258408786 0 -0.029121832422534862 -0.0067169982391169078 0 -0.037926632337863607 -0.0068783069258408786 0 -0.029539197120254941 -0.00051038393964639519 0 -0.029121832422534862 -0.0067169982391169078 0 -0.037926632337863607 -0.0068783069258408786 0 -0.029539197120254941 -0.00051038393964639519 0 -0.03614709390981162 0.0015378833132510439 0 -0.037926632337863607 -0.0068783069258408786 0 -0.03614709390981162 0.0015378833132510439 0 -0.044352522143416888 0.0050416822031405977 0 -0.036243114184870161 -0.018923029155399909 0 -0.017354136195868258 -0.0046192578634720229 0 -0.01819617019275287 -0.0061732580868559192 0 -0.036243114184870161 -0.018923029155399909 0 -0.017354136195868258 -0.0046192578634720229 0 -0.029121832422534862 -0.0067169982391169078 0 -0.036243114184870161 -0.018923029155399909 0 -0.01819617019275287 -0.0061732580868559192 0 -0.019637671972121611 -0.02148729346067638 0 -0.036243114184870161 -0.018923029155399909 0 -0.017354136195868258 -0.0046192578634720229 0 -0.017354136195868258 -0.0046192578634720229 0 -0.01819617019275287 -0.0061732580868559192 0 -0.013500839782477779 -0.0058155532537883976 0 -0.017354136195868258 -0.0046192578634720229 0 -0.01819617019275287 -0.0061732580868559192 0 -0.017354136195868258 -0.0046192578634720229 0 -0.024546082273817361 -0.00265401331122534 0 -0.02112675760807068 0.0030512678310729521 0 -0.024546082273817361 -0.00265401331122534 0 -0.029539197120254941 -0.00051038393964639519 0 -0.02112675760807068 0.0030512678310729521 0 -0.017354136195868258 -0.0046192578634720229 0 -0.024546082273817361 -0.00265401331122534 0 -0.029121832422534862 -0.0067169982391169078 0 -0.024546082273817361 -0.00265401331122534 0 -0.029539197120254941 -0.00051038393964639519 0 -0.029121832422534862 -0.0067169982391169078 0 -0.01819617019275287 -0.0061732580868559192 0 -0.019637671972121611 -0.02148729346067638 0 -0.011008321991883009 -0.01057962122923565 0 -0.036243114184870161 -0.018923029155399909 0 -0.019637671972121611 -0.02148729346067638 0 -0.031233838643279398 -0.031193199633022049 0 -0.019637671972121611 -0.02148729346067638 0 -0.031233838643279398 -0.031193199633022049 0 -0.016064986363794779 -0.036441041599790329 0 -0.0077215053668332834 -0.022860670268973711 0 -0.00118246574067416 -0.01324232368796026 0 0.0015263381015913891 -0.033415212413580753 0 -0.0077215053668332834 -0.022860670268973711 0 -0.016064986363794779 -0.036441041599790329 0 0.0015263381015913891 -0.033415212413580753 0 -0.019637671972121611 -0.02148729346067638 0 -0.0077215053668332834 -0.022860670268973711 0 -0.016064986363794779 -0.036441041599790329 0 -0.019637671972121611 -0.02148729346067638 0 -0.0077215053668332834 -0.022860670268973711 0 -0.011008321991883009 -0.01057962122923565 0 -0.011008321991883009 -0.01057962122923565 0 -0.00118246574067416 -0.01324232368796026 0 -0.0072764121498596901 -0.0036325873431357339 0 -0.0077215053668332834 -0.022860670268973711 0 -0.011008321991883009 -0.01057962122923565 0 -0.00118246574067416 -0.01324232368796026 0 -0.00118246574067416 -0.01324232368796026 0 -0.0072764121498596901 -0.0036325873431357339 0 0.0012074066645448821 -0.00065723147797176382 0 -0.0072764121498596901 -0.0036325873431357339 0 -0.013500839782477779 -0.0058155532537883976 0 -0.013607688627124061 -0.00178224205395049 0 -0.011008321991883009 -0.01057962122923565 0 -0.0072764121498596901 -0.0036325873431357339 0 -0.013500839782477779 -0.0058155532537883976 0 -0.01819617019275287 -0.0061732580868559192 0 -0.011008321991883009 -0.01057962122923565 0 -0.013500839782477779 -0.0058155532537883976 0 -0.017354136195868258 -0.0046192578634720229 0 -0.013500839782477779 -0.0058155532537883976 0 -0.013607688627124061 -0.00178224205395049 0 -0.017354136195868258 -0.0046192578634720229 0 -0.013607688627124061 -0.00178224205395049 0 -0.032367863380537598 -0.044965144957206583 0 -0.0096036345872028556 -0.056703489467087059 0 -0.032367863380537598 -0.044965144957206583 0 -0.026902341230915561 -0.060374551747501753 0 -0.0096036345872028556 -0.056703489467087059 0 -0.032367863380537598 -0.044965144957206583 0 -0.031233838643279398 -0.031193199633022049 0 -0.016064986363794779 -0.036441041599790329 0 -0.032367863380537598 -0.044965144957206583 0 -0.016064986363794779 -0.036441041599790329 0 -0.0096036345872028556 -0.056703489467087059 0 -0.0096036345872028556 -0.056703489467087059 0 0.0015263381015913891 -0.033415212413580753 0 -0.016064986363794779 -0.036441041599790329 0 -0.0096036345872028556 -0.056703489467087059 0 0.0015263381015913891 -0.033415212413580753 0 -0.0096036345872028556 -0.056703489467087059 0 0.0015263381015913891 -0.033415212413580753 0 0.007298405735321048 -0.051477207310420908 0 -0.0096036345872028556 -0.056703489467087059 0 0.0052181775422467033 -0.064346337314722044 0 -0.0096036345872028556 -0.056703489467087059 0 -0.0043762627118289626 -0.071729097412358583 0 0.0052181775422467033 -0.064346337314722044 0 -0.0043762627118289626 -0.071729097412358583 0 -0.0092607301227374331 -0.088572496961274561 0 -0.01646375475339092 -0.071057556949349329 0 -0.0096036345872028556 -0.056703489467087059 0 -0.01646375475339092 -0.071057556949349329 0 -0.0096036345872028556 -0.056703489467087059 0 -0.0043762627118289626 -0.071729097412358583 0 -0.01646375475339092 -0.071057556949349329 0 -0.0092607301227374331 -0.088572496961274561 0 -0.00044729776891663488 -0.1011528385718463 0 0.0042106568376920582 -0.081118225430045127 0 -0.0043762627118289626 -0.071729097412358583 0 -0.0092607301227374331 -0.088572496961274561 0 0.0042106568376920582 -0.081118225430045127 0 -0.0092607301227374331 -0.088572496961274561 0 -0.037642160748979789 -0.094071739377162955 0 -0.0092607301227374331 -0.088572496961274561 0 -0.023323874919582349 -0.085411624431610003 0 -0.01646375475339092 -0.071057556949349329 0 -0.0092607301227374331 -0.088572496961274561 0 -0.023323874919582349 -0.085411624431610003 0 -0.037642160748979789 -0.094071739377162955 0 -0.023323874919582349 -0.085411624431610003 0 -0.01646375475339092 -0.071057556949349329 0 -0.023323874919582349 -0.085411624431610003 0 -0.01646375475339092 -0.071057556949349329 0 -0.034846350139989962 -0.07108844977272101 0 -0.026902341230915561 -0.060374551747501753 0 -0.01646375475339092 -0.071057556949349329 0 -0.034846350139989962 -0.07108844977272101 0 -0.026902341230915561 -0.060374551747501753 0 -0.0096036345872028556 -0.056703489467087059 0 -0.01646375475339092 -0.071057556949349329 0 -0.041230103293456458 -0.058058117591144771 0 -0.026902341230915561 -0.060374551747501753 0 -0.034846350139989962 -0.07108844977272101 0 -0.041230103293456458 -0.058058117591144771 0 -0.034846350139989962 -0.07108844977272101 0 -0.049479852383656611 -0.067543566470139038 0 -0.034846350139989962 -0.07108844977272101 0 -0.048784805137481749 -0.081200653853927454 0 -0.049479852383656611 -0.067543566470139038 0 -0.023323874919582349 -0.085411624431610003 0 -0.034846350139989962 -0.07108844977272101 0 -0.036149297736508462 -0.082943116858855345 0 -0.023323874919582349 -0.085411624431610003 0 -0.036149297736508462 -0.082943116858855345 0 -0.037642160748979789 -0.094071739377162955 0 -0.036149297736508462 -0.082943116858855345 0 -0.048784805137481749 -0.081200653853927454 0 -0.037642160748979789 -0.094071739377162955 0 -0.034846350139989962 -0.07108844977272101 0 -0.036149297736508462 -0.082943116858855345 0 -0.048784805137481749 -0.081200653853927454 0 -0.063732237529271596 -0.080733089011810297 0 -0.066023591375222151 -0.09957098179305135 0 -0.048784805137481749 -0.081200653853927454 0 -0.066023591375222151 -0.09957098179305135 0 -0.048784805137481749 -0.081200653853927454 0 -0.037642160748979789 -0.094071739377162955 0 -0.063732237529271596 -0.080733089011810297 0 -0.048784805137481749 -0.081200653853927454 0 -0.058000192015007383 -0.073011667883306972 0 -0.055978059279945473 -0.056388284161067823 0 -0.060830035872249492 -0.064558057335980773 0 -0.049479852383656611 -0.067543566470139038 0 -0.058000192015007383 -0.073011667883306972 0 -0.060830035872249492 -0.064558057335980773 0 -0.049479852383656611 -0.067543566470139038 0 -0.067174029152377468 -0.071022972744677337 0 -0.058000192015007383 -0.073011667883306972 0 -0.060830035872249492 -0.064558057335980773 0 -0.048784805137481749 -0.081200653853927454 0 -0.058000192015007383 -0.073011667883306972 0 -0.049479852383656611 -0.067543566470139038 0 -0.069466171350113709 -0.1135628440840601 0 -0.054384952187449757 -0.110609208962567 0 -0.059238207921678762 -0.13024384051707169 0 -0.054384952187449757 -0.110609208962567 0 -0.059238207921678762 -0.13024384051707169 0 -0.032945469352336033 -0.1293562392835419 0 -0.066023591375222151 -0.09957098179305135 0 -0.054384952187449757 -0.110609208962567 0 -0.037642160748979789 -0.094071739377162955 0 -0.066023591375222151 -0.09957098179305135 0 -0.037642160748979789 -0.094071739377162955 0 -0.054384952187449757 -0.110609208962567 0 -0.037642160748979789 -0.094071739377162955 0 -0.035661083064217503 -0.11124856921529409 0 -0.054384952187449757 -0.110609208962567 0 -0.032945469352336033 -0.1293562392835419 0 -0.054384952187449757 -0.110609208962567 0 -0.035661083064217503 -0.11124856921529409 0 -0.032945469352336033 -0.1293562392835419 0 -0.01767174996810443 -0.1109570892379047 0 -0.012892303975098539 -0.12786221844410239 0 -0.032945469352336033 -0.1293562392835419 0 -0.035661083064217503 -0.11124856921529409 0 -0.01767174996810443 -0.1109570892379047 0 -0.032945469352336033 -0.1293562392835419 0 -0.0092607301227374331 -0.088572496961274561 0 -0.037642160748979789 -0.094071739377162955 0 -0.01767174996810443 -0.1109570892379047 0 -0.037642160748979789 -0.094071739377162955 0 -0.035661083064217503 -0.11124856921529409 0 -0.01767174996810443 -0.1109570892379047 0 -0.01767174996810443 -0.1109570892379047 0 -0.00044729776891663488 -0.1011528385718463 0 0.005085065621477718 -0.1151057880332567 0 -0.0092607301227374331 -0.088572496961274561 0 -0.01767174996810443 -0.1109570892379047 0 -0.00044729776891663488 -0.1011528385718463 0 -0.01767174996810443 -0.1109570892379047 0 -0.012892303975098539 -0.12786221844410239 0 0.005085065621477718 -0.1151057880332567 0 -0.012892303975098539 -0.12786221844410239 0 0.0027021066240326768 -0.1317064378292063 0 0.005085065621477718 -0.1151057880332567 0 -0.011505986517222349 -0.14810326960451681 0 -0.033736789854580403 -0.16402697950055581 0 -0.032945469352336033 -0.1293562392835419 0 -0.012892303975098539 -0.12786221844410239 0 -0.011505986517222349 -0.14810326960451681 0 0.0027021066240326768 -0.1317064378292063 0 -0.011505986517222349 -0.14810326960451681 0 -0.032945469352336033 -0.1293562392835419 0 -0.012892303975098539 -0.12786221844410239 0 -0.011505986517222349 -0.14810326960451681 0 -0.032945469352336033 -0.1293562392835419 0 -0.011505986517222349 -0.14810326960451681 0 0.009933496317892726 -0.16685029992549011 0 -0.011505986517222349 -0.14810326960451681 0 -0.0085976242789068957 -0.177408956520272 0 0.009933496317892726 -0.16685029992549011 0 -0.0085976242789068957 -0.177408956520272 0 -0.003739977245034012 -0.19168309442994089 0 -0.02712874487570623 -0.18796761311505439 0 -0.0085976242789068957 -0.177408956520272 0 -0.003739977245034012 -0.19168309442994089 0 0.0034571977838801569 -0.17702496179755631 0 -0.0085976242789068957 -0.177408956520272 0 -0.02712874487570623 -0.18796761311505439 0 -0.0085976242789068957 -0.177408956520272 0 -0.033736789854580403 -0.16402697950055581 0 -0.02712874487570623 -0.18796761311505439 0 -0.011505986517222349 -0.14810326960451681 0 -0.0085976242789068957 -0.177408956520272 0 -0.033736789854580403 -0.16402697950055581 0 -0.033736789854580403 -0.16402697950055581 0 -0.041678182321736049 -0.18065303021324261 0 -0.02712874487570623 -0.18796761311505439 0 -0.033736789854580403 -0.16402697950055581 0 -0.041678182321736049 -0.18065303021324261 0 -0.060187329084152079 -0.17209125852752319 0 -0.041678182321736049 -0.18065303021324261 0 -0.060187329084152079 -0.17209125852752319 0 -0.045659865472505487 -0.198526269709837 0 -0.060187329084152079 -0.17209125852752319 0 -0.045659865472505487 -0.198526269709837 0 -0.033736789854580403 -0.16402697950055581 0 -0.060187329084152079 -0.17209125852752319 0 -0.051699405537506939 -0.14899167338562519 0 -0.060187329084152079 -0.17209125852752319 0 -0.051699405537506939 -0.14899167338562519 0 -0.072389231474787458 -0.1492400490994332 0 -0.051699405537506939 -0.14899167338562519 0 -0.059238207921678762 -0.13024384051707169 0 -0.072389231474787458 -0.1492400490994332 0 -0.033736789854580403 -0.16402697950055581 0 -0.051699405537506939 -0.14899167338562519 0 -0.032945469352336033 -0.1293562392835419 0 -0.051699405537506939 -0.14899167338562519 0 -0.059238207921678762 -0.13024384051707169 0 -0.032945469352336033 -0.1293562392835419 0 -0.025857267464119819 -0.25506418495113531 0 -0.02368513365757598 -0.23851275990414511 0 -0.036167443228362108 -0.24337299090061551 0 -0.01269776775011346 -0.25850600500130039 0 -0.02368513365757598 -0.23851275990414511 0 -0.01269776775011346 -0.25850600500130039 0 -0.02368513365757598 -0.23851275990414511 0 -0.01082738352359053 -0.24876902592697839 0 -0.02368513365757598 -0.23851275990414511 0 -0.0067432183097289999 -0.239968376336817 0 -0.0090267388034834407 -0.23007068799598671 0 -0.02368513365757598 -0.23851275990414511 0 -0.01082738352359053 -0.24876902592697839 0 -0.0067432183097289999 -0.239968376336817 0 -0.01082738352359053 -0.24876902592697839 0 -0.0029313858115674811 -0.24854412401401971 0 -0.0067432183097289999 -0.239968376336817 0 -0.0029313858115674811 -0.24854412401401971 0 -0.0067432183097289999 -0.239968376336817 0 0.0026199421412959989 -0.2430643023623929 0 -0.0067432183097289999 -0.239968376336817 0 0.0026199421412959989 -0.2430643023623929 0 0.0017465435191736189 -0.23378549097037141 0 -0.0067432183097289999 -0.239968376336817 0 -0.0090267388034834407 -0.23007068799598671 0 0.0017465435191736189 -0.23378549097037141 0 -0.0090267388034834407 -0.23007068799598671 0 -0.00080535468136348092 -0.21995366459000901 0 -0.01839049427805331 -0.2195873775130934 0 -0.0090267388034834407 -0.23007068799598671 0 -0.00080535468136348092 -0.21995366459000901 0 0.0017465435191736189 -0.23378549097037141 0 -0.02368513365757598 -0.23851275990414511 0 -0.0090267388034834407 -0.23007068799598671 0 -0.01839049427805331 -0.2195873775130934 0 -0.02368513365757598 -0.23851275990414511 0 -0.01839049427805331 -0.2195873775130934 0 -0.034672499565036527 -0.2185195148069887 0 -0.02368513365757598 -0.23851275990414511 0 -0.034672499565036527 -0.2185195148069887 0 -0.01839049427805331 -0.2195873775130934 0 -0.027127261386640289 -0.20489204062456881 0 -0.034672499565036527 -0.2185195148069887 0 -0.01839049427805331 -0.2195873775130934 0 -0.027127261386640289 -0.20489204062456881 0 -0.01084996336714465 -0.20584666152463099 0 -0.00080535468136348092 -0.21995366459000901 0 -0.01839049427805331 -0.2195873775130934 0 -0.01084996336714465 -0.20584666152463099 0 -0.00080535468136348092 -0.21995366459000901 0 -0.01084996336714465 -0.20584666152463099 0 0.01016515501406726 -0.20926501301563591 0 -0.01084996336714465 -0.20584666152463099 0 -0.003739977245034012 -0.19168309442994089 0 0.01016515501406726 -0.20926501301563591 0 -0.01084996336714465 -0.20584666152463099 0 -0.003739977245034012 -0.19168309442994089 0 -0.02712874487570623 -0.18796761311505439 0 -0.027127261386640289 -0.20489204062456881 0 -0.01084996336714465 -0.20584666152463099 0 -0.02712874487570623 -0.18796761311505439 0 -0.041678182321736049 -0.18065303021324261 0 -0.02712874487570623 -0.18796761311505439 0 -0.045659865472505487 -0.198526269709837 0 -0.02712874487570623 -0.18796761311505439 0 -0.045659865472505487 -0.198526269709837 0 -0.027127261386640289 -0.20489204062456881 0 -0.02712874487570623 -0.18796761311505439 0 -0.045659865472505487 -0.198526269709837 0 -0.045659865472505487 -0.198526269709837 0 -0.067682806497079445 -0.21107449474949169 0 -0.062708331551170268 -0.19442045911658551 0 -0.060187329084152079 -0.17209125852752319 0 -0.045659865472505487 -0.198526269709837 0 -0.062708331551170268 -0.19442045911658551 0 -0.045659865472505487 -0.198526269709837 0 -0.067682806497079445 -0.21107449474949169 0 -0.045659865472505487 -0.198526269709837 0 -0.054546183461555722 -0.22015285450131489 0 -0.067682806497079445 -0.21107449474949169 0 -0.045659865472505487 -0.198526269709837 0 -0.034672499565036527 -0.2185195148069887 0 -0.054546183461555722 -0.22015285450131489 0 -0.045659865472505487 -0.198526269709837 0 -0.034672499565036527 -0.2185195148069887 0 -0.027127261386640289 -0.20489204062456881 0 -0.045659865472505487 -0.198526269709837 0 -0.034672499565036527 -0.2185195148069887 0 -0.034672499565036527 -0.2185195148069887 0 -0.044145410485190079 -0.23242073182379891 0 -0.054546183461555722 -0.22015285450131489 0 -0.02368513365757598 -0.23851275990414511 0 -0.034672499565036527 -0.2185195148069887 0 -0.044145410485190079 -0.23242073182379891 0 -0.044145410485190079 -0.23242073182379891 0 -0.054546183461555722 -0.22015285450131489 0 -0.061280333386656921 -0.23284462843810469 0 -0.061280333386656921 -0.23284462843810469 0 -0.050191684441297867 -0.2485850187836515 0 -0.071591358857016049 -0.2429226102204386 0 -0.050191684441297867 -0.2485850187836515 0 -0.071591358857016049 -0.2429226102204386 0 -0.056939497423126581 -0.24878681181634871 0 -0.050191684441297867 -0.2485850187836515 0 -0.071591358857016049 -0.2429226102204386 0 -0.044145410485190079 -0.23242073182379891 0 -0.061280333386656921 -0.23284462843810469 0 -0.050191684441297867 -0.2485850187836515 0 -0.041398382443623198 -0.25192549838374201 0 -0.056939497423126581 -0.24878681181634871 0 -0.050191684441297867 -0.2485850187836515 0 -0.044145410485190079 -0.23242073182379891 0 -0.050191684441297867 -0.2485850187836515 0 -0.036167443228362108 -0.24337299090061551 0 -0.02368513365757598 -0.23851275990414511 0 -0.044145410485190079 -0.23242073182379891 0 -0.036167443228362108 -0.24337299090061551 0 -0.025857267464119819 -0.25506418495113531 0 -0.050191684441297867 -0.2485850187836515 0 -0.036167443228362108 -0.24337299090061551 0 -0.097628444613881649 -0.25834262822693399 0 -0.087470553331264578 -0.24262075389877999 0 -0.077955776651182085 -0.24454236002529731 0 -0.087470553331264578 -0.24262075389877999 0 -0.087928467376508473 -0.23859976953689591 0 -0.1005617376665941 -0.23997685579502359 0 -0.087928467376508473 -0.23859976953689591 0 -0.07453604668454375 -0.2421434382925548 0 -0.07383618536286593 -0.22753148747966839 0 -0.087928467376508473 -0.23859976953689591 0 -0.07453604668454375 -0.2421434382925548 0 -0.087928467376508473 -0.23859976953689591 0 -0.077955776651182085 -0.24454236002529731 0 -0.07453604668454375 -0.2421434382925548 0 -0.087470553331264578 -0.24262075389877999 0 -0.087928467376508473 -0.23859976953689591 0 -0.077955776651182085 -0.24454236002529731 0 -0.087470553331264578 -0.24262075389877999 0 -0.077955776651182085 -0.24454236002529731 0 -0.056939497423126581 -0.24878681181634871 0 -0.077955776651182085 -0.24454236002529731 0 -0.071591358857016049 -0.2429226102204386 0 -0.056939497423126581 -0.24878681181634871 0 -0.077955776651182085 -0.24454236002529731 0 -0.077955776651182085 -0.24454236002529731 0 -0.071591358857016049 -0.2429226102204386 0 -0.07453604668454375 -0.2421434382925548 0 -0.077955776651182085 -0.24454236002529731 0 -0.07453604668454375 -0.2421434382925548 0 -0.071591358857016049 -0.2429226102204386 0 -0.07453604668454375 -0.2421434382925548 0 -0.056939497423126581 -0.24878681181634871 0 -0.071591358857016049 -0.2429226102204386 0 -0.061280333386656921 -0.23284462843810469 0 -0.071591358857016049 -0.2429226102204386 0 -0.07453604668454375 -0.2421434382925548 0 -0.061280333386656921 -0.23284462843810469 0 -0.07453604668454375 -0.2421434382925548 0 -0.07383618536286593 -0.22753148747966839 0 -0.089705747521653334 -0.22362271978914661 0 -0.067682806497079445 -0.21107449474949169 0 -0.054546183461555722 -0.22015285450131489 0 -0.061280333386656921 -0.23284462843810469 0 -0.07383618536286593 -0.22753148747966839 0 -0.054546183461555722 -0.22015285450131489 0 -0.07383618536286593 -0.22753148747966839 0 -0.067682806497079445 -0.21107449474949169 0 -0.061280333386656921 -0.23284462843810469 0 -0.07453604668454375 -0.2421434382925548 0 -0.07383618536286593 -0.22753148747966839 0 -0.087928467376508473 -0.23859976953689591 0 -0.07383618536286593 -0.22753148747966839 0 -0.089705747521653334 -0.22362271978914661 0 -0.087928467376508473 -0.23859976953689591 0 -0.089705747521653334 -0.22362271978914661 0 -0.1005617376665941 -0.23997685579502359 0 -0.089705747521653334 -0.22362271978914661 0 -0.067682806497079445 -0.21107449474949169 0 -0.089705747521653334 -0.22362271978914661 0 -0.084027466008495671 -0.20735524824550181 0 -0.09921486728828334 -0.20109800384388701 0 -0.089705747521653334 -0.22362271978914661 0 -0.084027466008495671 -0.20735524824550181 0 -0.067682806497079445 -0.21107449474949169 0 -0.084027466008495671 -0.20735524824550181 0 -0.067682806497079445 -0.21107449474949169 0 -0.079506442726966622 -0.19362577459948219 0 -0.067682806497079445 -0.21107449474949169 0 -0.062708331551170268 -0.19442045911658551 0 -0.079506442726966622 -0.19362577459948219 0 -0.079506442726966622 -0.19362577459948219 0 -0.09921486728828334 -0.20109800384388701 0 -0.089369030920126963 -0.1732707743578942 0 -0.084027466008495671 -0.20735524824550181 0 -0.079506442726966622 -0.19362577459948219 0 -0.09921486728828334 -0.20109800384388701 0 -0.09921486728828334 -0.20109800384388701 0 -0.1156293974943295 -0.1822747327150937 0 -0.1210853022939376 -0.205467400633562 0 -0.1156293974943295 -0.1822747327150937 0 -0.13505851963374399 -0.18906788910329131 0 -0.09921486728828334 -0.20109800384388701 0 -0.1210853022939376 -0.205467400633562 0 -0.1156293974943295 -0.1822747327150937 0 -0.1210853022939376 -0.205467400633562 0 -0.10755849924533691 -0.2178899443088799 0 -0.11989889803527461 -0.22145143588075511 0 -0.1210853022939376 -0.205467400633562 0 -0.11989889803527461 -0.22145143588075511 0 -0.13086176299679239 -0.21746526838305219 0 -0.089705747521653334 -0.22362271978914661 0 -0.09921486728828334 -0.20109800384388701 0 -0.10755849924533691 -0.2178899443088799 0 -0.09921486728828334 -0.20109800384388701 0 -0.1210853022939376 -0.205467400633562 0 -0.10755849924533691 -0.2178899443088799 0 -0.089705747521653334 -0.22362271978914661 0 -0.11172868854622731 -0.23617094482880149 0 -0.1005617376665941 -0.23997685579502359 0 -0.089705747521653334 -0.22362271978914661 0 -0.11172868854622731 -0.23617094482880149 0 -0.089705747521653334 -0.22362271978914661 0 -0.10755849924533691 -0.2178899443088799 0 -0.11172868854622731 -0.23617094482880149 0 -0.11989889803527461 -0.22145143588075511 0 -0.11172868854622731 -0.23617094482880149 0 -0.127825895831608 -0.22987551408160201 0 -0.10755849924533691 -0.2178899443088799 0 -0.11989889803527461 -0.22145143588075511 0 -0.11172868854622731 -0.23617094482880149 0 -0.13218950310710981 -0.25272660122947088 0 -0.1218823470606431 -0.24640061544388489 0 -0.1098930818979398 -0.24798588601512411 0 -0.11172868854622731 -0.23617094482880149 0 -0.13375162957080131 -0.24871916986845621 0 -0.11172868854622731 -0.23617094482880149 0 -0.1218823470606431 -0.24640061544388489 0 -0.13375162957080131 -0.24871916986845621 0 -0.11172868854622731 -0.23617094482880149 0 -0.13375162957080131 -0.24871916986845621 0 -0.127825895831608 -0.22987551408160201 0 -0.11172868854622731 -0.23617094482880149 0 -0.1218823470606431 -0.24640061544388489 0 -0.1098930818979398 -0.24798588601512411 0 -0.097628444613881649 -0.25834262822693399 0 -0.087470553331264578 -0.24262075389877999 0 -0.1098930818979398 -0.24798588601512411 0 -0.087470553331264578 -0.24262075389877999 0 -0.1098930818979398 -0.24798588601512411 0 -0.1005617376665941 -0.23997685579502359 0 -0.087470553331264578 -0.24262075389877999 0 -0.1098930818979398 -0.24798588601512411 0 -0.11172868854622731 -0.23617094482880149 0 -0.1098930818979398 -0.24798588601512411 0 -0.1005617376665941 -0.23997685579502359 0 -0.087470553331264578 -0.24262075389877999 0 -0.1005617376665941 -0.23997685579502359 0 -0.072389231474787458 -0.1492400490994332 0 -0.089369030920126963 -0.1732707743578942 0 -0.096011965921864201 -0.14265464397282879 0 -0.077516787342341589 -0.1242022911324857 0 -0.093262550211769629 -0.1231040070079162 0 -0.096011965921864201 -0.14265464397282879 0 -0.077516787342341589 -0.1242022911324857 0 -0.072389231474787458 -0.1492400490994332 0 -0.096011965921864201 -0.14265464397282879 0 -0.077516787342341589 -0.1242022911324857 0 -0.059238207921678762 -0.13024384051707169 0 -0.072389231474787458 -0.1492400490994332 0 -0.060187329084152079 -0.17209125852752319 0 -0.072389231474787458 -0.1492400490994332 0 -0.089369030920126963 -0.1732707743578942 0 -0.060187329084152079 -0.17209125852752319 0 -0.079506442726966622 -0.19362577459948219 0 -0.089369030920126963 -0.1732707743578942 0 -0.060187329084152079 -0.17209125852752319 0 -0.062708331551170268 -0.19442045911658551 0 -0.079506442726966622 -0.19362577459948219 0 -0.089369030920126963 -0.1732707743578942 0 -0.1107512355661594 -0.16096683979900789 0 -0.096011965921864201 -0.14265464397282879 0 -0.09921486728828334 -0.20109800384388701 0 -0.089369030920126963 -0.1732707743578942 0 -0.1156293974943295 -0.1822747327150937 0 -0.089369030920126963 -0.1732707743578942 0 -0.1156293974943295 -0.1822747327150937 0 -0.1107512355661594 -0.16096683979900789 0 -0.1156293974943295 -0.1822747327150937 0 -0.13204392770037571 -0.1634514615863005 0 -0.1156293974943295 -0.1822747327150937 0 -0.1107512355661594 -0.16096683979900789 0 -0.13204392770037571 -0.1634514615863005 0 -0.1107512355661594 -0.16096683979900789 0 -0.12070185579410091 -0.1431825863629223 0 -0.13204392770037571 -0.1634514615863005 0 -0.1107512355661594 -0.16096683979900789 0 -0.12070185579410091 -0.1431825863629223 0 -0.096011965921864201 -0.14265464397282879 0 -0.1071147179002416 -0.1244919901550422 0 -0.12070185579410091 -0.1431825863629223 0 -0.096011965921864201 -0.14265464397282879 0 -0.093262550211769629 -0.1231040070079162 0 -0.1071147179002416 -0.1244919901550422 0 -0.096011965921864201 -0.14265464397282879 0 -0.1071147179002416 -0.1244919901550422 0 -0.12070185579410091 -0.1431825863629223 0 -0.1306137014228527 -0.1212095633787966 0 -0.12070185579410091 -0.1431825863629223 0 -0.14845845790642179 -0.14462819045750719 0 -0.1306137014228527 -0.1212095633787966 0 -0.14845845790642179 -0.14462819045750719 0 -0.1306137014228527 -0.1212095633787966 0 -0.15036797716661271 -0.14243845987679379 0 -0.14845845790642179 -0.14462819045750719 0 -0.1306137014228527 -0.1212095633787966 0 -0.15406265534163929 -0.1294064941378926 0 -0.15036797716661271 -0.14243845987679379 0 -0.1306137014228527 -0.1212095633787966 0 -0.15406265534163929 -0.1294064941378926 0 -0.15036797716661271 -0.14243845987679379 0 -0.1564494690737798 -0.13971242061594299 0 -0.1543278084257422 -0.1453912472931165 0 -0.14845845790642179 -0.14462819045750719 0 -0.15894149653025619 -0.15184230729274609 0 -0.15519343748037609 -0.14309809199123349 0 -0.15036797716661271 -0.14243845987679379 0 -0.1564494690737798 -0.13971242061594299 0 -0.1543278084257422 -0.1453912472931165 0 -0.15519343748037609 -0.14309809199123349 0 -0.15036797716661271 -0.14243845987679379 0 -0.1543278084257422 -0.1453912472931165 0 -0.15036797716661271 -0.14243845987679379 0 -0.14845845790642179 -0.14462819045750719 0 -0.15036797716661271 -0.14243845987679379 0 -0.14845845790642179 -0.14462819045750719 0 -0.12070185579410091 -0.1431825863629223 0 -0.14845845790642179 -0.14462819045750719 0 -0.13204392770037571 -0.1634514615863005 0 -0.14845845790642179 -0.14462819045750719 0 -0.13204392770037571 -0.1634514615863005 0 -0.13204392770037571 -0.1634514615863005 0 -0.1475860696211248 -0.17640031700015249 0 -0.13505851963374399 -0.18906788910329131 0 -0.1156293974943295 -0.1822747327150937 0 -0.13204392770037571 -0.1634514615863005 0 -0.13505851963374399 -0.18906788910329131 0 -0.1475860696211248 -0.17640031700015249 0 -0.1655722477793394 -0.1670875310098065 0 -0.15496537504316019 -0.19429807729602311 0 -0.1475860696211248 -0.17640031700015249 0 -0.13505851963374399 -0.18906788910329131 0 -0.15496537504316019 -0.19429807729602311 0 -0.1475860696211248 -0.17640031700015249 0 -0.14862352044039201 -0.16347018067920821 0 -0.1655722477793394 -0.1670875310098065 0 -0.14845845790642179 -0.14462819045750719 0 -0.13204392770037571 -0.1634514615863005 0 -0.14862352044039201 -0.16347018067920821 0 -0.14845845790642179 -0.14462819045750719 0 -0.14862352044039201 -0.16347018067920821 0 -0.1655722477793394 -0.1670875310098065 0 -0.13204392770037571 -0.1634514615863005 0 -0.1475860696211248 -0.17640031700015249 0 -0.14862352044039201 -0.16347018067920821 0 -0.1655722477793394 -0.1670875310098065 0 -0.1716614177265566 -0.15146656102038991 0 -0.1655722477793394 -0.1670875310098065 0 -0.15894149653025619 -0.15184230729274609 0 -0.1716614177265566 -0.15146656102038991 0 -0.1655722477793394 -0.1670875310098065 0 -0.17557921295501691 -0.18022020591375351 0 -0.1689483943248192 -0.19264195369377959 0 -0.1655722477793394 -0.1670875310098065 0 -0.15496537504316019 -0.19429807729602311 0 -0.1689483943248192 -0.19264195369377959 0 -0.1655722477793394 -0.1670875310098065 0 -0.15496537504316019 -0.19429807729602311 0 -0.1655722477793394 -0.1670875310098065 0 -0.17557921295501691 -0.18022020591375351 0 -0.17557921295501691 -0.18022020591375351 0 -0.18239484980351819 -0.16464781923938721 0 -0.1907059301477185 -0.18468107337543721 0 -0.1655722477793394 -0.1670875310098065 0 -0.17557921295501691 -0.18022020591375351 0 -0.18239484980351819 -0.16464781923938721 0 -0.1655722477793394 -0.1670875310098065 0 -0.18239484980351819 -0.16464781923938721 0 -0.1716614177265566 -0.15146656102038991 0 -0.18239484980351819 -0.16464781923938721 0 -0.1716614177265566 -0.15146656102038991 0 -0.1894311146879058 -0.1465309504005988 0 -0.17775058767377289 -0.13584559103097291 0 -0.1716614177265566 -0.15146656102038991 0 -0.1894311146879058 -0.1465309504005988 0 -0.17775058767377289 -0.13584559103097291 0 -0.1716614177265566 -0.15146656102038991 0 -0.17775058767377289 -0.13584559103097291 0 -0.1894311146879058 -0.1465309504005988 0 -0.17775058767377289 -0.13584559103097291 0 -0.19823449762692411 -0.13229999761030051 0 -0.18534812722118199 -0.1163550958908785 0 -0.17775058767377289 -0.13584559103097291 0 -0.18534812722118199 -0.1163550958908785 0 -0.15406265534163929 -0.1294064941378926 0 -0.16394560233522651 -0.1386698702264933 0 -0.15606779039194271 -0.1160101434681408 0 -0.17775058767377289 -0.13584559103097291 0 -0.16394560233522651 -0.1386698702264933 0 -0.15606779039194271 -0.1160101434681408 0 -0.17775058767377289 -0.13584559103097291 0 -0.15606779039194271 -0.1160101434681408 0 -0.15406265534163929 -0.1294064941378926 0 -0.16394560233522651 -0.1386698702264933 0 -0.1564494690737798 -0.13971242061594299 0 -0.16394560233522651 -0.1386698702264933 0 -0.1564494690737798 -0.13971242061594299 0 -0.15962849525536979 -0.1448502401790808 0 -0.14845845790642179 -0.14462819045750719 0 -0.1655722477793394 -0.1670875310098065 0 -0.14845845790642179 -0.14462819045750719 0 -0.1655722477793394 -0.1670875310098065 0 -0.15894149653025619 -0.15184230729274609 0 -0.15519343748037609 -0.14309809199123349 0 -0.1564494690737798 -0.13971242061594299 0 -0.15962849525536979 -0.1448502401790808 0 -0.1543278084257422 -0.1453912472931165 0 -0.15519343748037609 -0.14309809199123349 0 -0.15962849525536979 -0.1448502401790808 0 -0.1543278084257422 -0.1453912472931165 0 -0.15962849525536979 -0.1448502401790808 0 -0.15894149653025619 -0.15184230729274609 0 -0.15962849525536979 -0.1448502401790808 0 -0.15894149653025619 -0.15184230729274609 0 -0.1716614177265566 -0.15146656102038991 0 -0.17775058767377289 -0.13584559103097291 0 -0.16394560233522651 -0.1386698702264933 0 -0.1716614177265566 -0.15146656102038991 0 -0.16394560233522651 -0.1386698702264933 0 -0.15962849525536979 -0.1448502401790808 0 -0.1716614177265566 -0.15146656102038991 0 -0.1534429259631987 -0.25724555178864622 0 -0.15289321433053751 -0.246830478479277 0 -0.1378886282313006 -0.2381062402767252 0 -0.1534429259631987 -0.25724555178864622 0 -0.1378886282313006 -0.2381062402767252 0 -0.15348527020851541 -0.23913552791147211 0 -0.1378886282313006 -0.2381062402767252 0 -0.15430752157141919 -0.22794821467022949 0 -0.15289321433053751 -0.246830478479277 0 -0.15348527020851541 -0.23913552791147211 0 -0.1601832428566283 -0.24550858739866141 0 -0.15289321433053751 -0.246830478479277 0 -0.15348527020851541 -0.23913552791147211 0 -0.1378886282313006 -0.2381062402767252 0 -0.1459019403517107 -0.25564217047089421 0 -0.13375162957080131 -0.24871916986845621 0 -0.1378886282313006 -0.2381062402767252 0 -0.13375162957080131 -0.24871916986845621 0 -0.1378886282313006 -0.2381062402767252 0 -0.127825895831608 -0.22987551408160201 0 -0.13375162957080131 -0.24871916986845621 0 -0.1378886282313006 -0.2381062402767252 0 -0.13218950310710981 -0.25272660122947088 0 -0.1218823470606431 -0.24640061544388489 0 -0.13375162957080131 -0.24871916986845621 0 -0.127825895831608 -0.22987551408160201 0 -0.14435850230698141 -0.22150862358223991 0 -0.13086176299679239 -0.21746526838305219 0 -0.1378886282313006 -0.2381062402767252 0 -0.127825895831608 -0.22987551408160201 0 -0.14435850230698141 -0.22150862358223991 0 -0.11989889803527461 -0.22145143588075511 0 -0.127825895831608 -0.22987551408160201 0 -0.13086176299679239 -0.21746526838305219 0 -0.1378886282313006 -0.2381062402767252 0 -0.14435850230698141 -0.22150862358223991 0 -0.14435850230698141 -0.22150862358223991 0 -0.15430752157141919 -0.22794821467022949 0 -0.16410544360365359 -0.21493654602220469 0 -0.1378886282313006 -0.2381062402767252 0 -0.14435850230698141 -0.22150862358223991 0 -0.15430752157141919 -0.22794821467022949 0 -0.14435850230698141 -0.22150862358223991 0 -0.15496537504316019 -0.19429807729602311 0 -0.14435850230698141 -0.22150862358223991 0 -0.1373527607074172 -0.20563907323320921 0 -0.15496537504316019 -0.19429807729602311 0 -0.14435850230698141 -0.22150862358223991 0 -0.15496537504316019 -0.19429807729602311 0 -0.16410544360365359 -0.21493654602220469 0 -0.14435850230698141 -0.22150862358223991 0 -0.1373527607074172 -0.20563907323320921 0 -0.13086176299679239 -0.21746526838305219 0 -0.1210853022939376 -0.205467400633562 0 -0.1373527607074172 -0.20563907323320921 0 -0.13086176299679239 -0.21746526838305219 0 -0.1210853022939376 -0.205467400633562 0 -0.1373527607074172 -0.20563907323320921 0 -0.13505851963374399 -0.18906788910329131 0 -0.1373527607074172 -0.20563907323320921 0 -0.13505851963374399 -0.18906788910329131 0 -0.15496537504316019 -0.19429807729602311 0 -0.1689483943248192 -0.19264195369377959 0 -0.17994482166635981 -0.2014366202218163 0 -0.16410544360365359 -0.21493654602220469 0 -0.15496537504316019 -0.19429807729602311 0 -0.1689483943248192 -0.19264195369377959 0 -0.16410544360365359 -0.21493654602220469 0 -0.17557921295501691 -0.18022020591375351 0 -0.1689483943248192 -0.19264195369377959 0 -0.17994482166635981 -0.2014366202218163 0 -0.17557921295501691 -0.18022020591375351 0 -0.17994482166635981 -0.2014366202218163 0 -0.1907059301477185 -0.18468107337543721 0 -0.17994482166635981 -0.2014366202218163 0 -0.1784102433228649 -0.21681777692650089 0 -0.16410544360365359 -0.21493654602220469 0 -0.17994482166635981 -0.2014366202218163 0 -0.18904495760185211 -0.20873870471059999 0 -0.19252771524915421 -0.19930647688205899 0 -0.17994482166635981 -0.2014366202218163 0 -0.1784102433228649 -0.21681777692650089 0 -0.18904495760185211 -0.20873870471059999 0 -0.1784102433228649 -0.21681777692650089 0 -0.19175951728552271 -0.21959172261586679 0 -0.18904495760185211 -0.20873870471059999 0 -0.15430752157141919 -0.22794821467022949 0 -0.16410544360365359 -0.21493654602220469 0 -0.16877954452522659 -0.2255120540677526 0 -0.15430752157141919 -0.22794821467022949 0 -0.16877954452522659 -0.2255120540677526 0 -0.16324537569009509 -0.2357306359809743 0 -0.15348527020851541 -0.23913552791147211 0 -0.15430752157141919 -0.22794821467022949 0 -0.16324537569009509 -0.2357306359809743 0 -0.16877954452522659 -0.2255120540677526 0 -0.17781387366555559 -0.23090770197000129 0 -0.16324537569009509 -0.2357306359809743 0 -0.1784102433228649 -0.21681777692650089 0 -0.16410544360365359 -0.21493654602220469 0 -0.16877954452522659 -0.2255120540677526 0 -0.1784102433228649 -0.21681777692650089 0 -0.16877954452522659 -0.2255120540677526 0 -0.17781387366555559 -0.23090770197000129 0 -0.1784102433228649 -0.21681777692650089 0 -0.17781387366555559 -0.23090770197000129 0 -0.19175951728552271 -0.21959172261586679 0 -0.17781387366555559 -0.23090770197000129 0 -0.1805311654956796 -0.2411950136452527 0 -0.19410287643929239 -0.23312434657521411 0 -0.17781387366555559 -0.23090770197000129 0 -0.1805311654956796 -0.2411950136452527 0 -0.16955513552828311 -0.24305067226283769 0 -0.17679077873490559 -0.25046109420941731 0 -0.1805311654956796 -0.2411950136452527 0 -0.18863044441395099 -0.24733650333174401 0 -0.17679077873490559 -0.25046109420941731 0 -0.1805311654956796 -0.2411950136452527 0 -0.16955513552828311 -0.24305067226283769 0 -0.16709258238786229 -0.25188408856254202 0 -0.17679077873490559 -0.25046109420941731 0 -0.16955513552828311 -0.24305067226283769 0 -0.16709258238786229 -0.25188408856254202 0 -0.16955513552828311 -0.24305067226283769 0 -0.1601832428566283 -0.24550858739866141 0 -0.17781387366555559 -0.23090770197000129 0 -0.16955513552828311 -0.24305067226283769 0 -0.16324537569009509 -0.2357306359809743 0 -0.16955513552828311 -0.24305067226283769 0 -0.16324537569009509 -0.2357306359809743 0 -0.1601832428566283 -0.24550858739866141 0 -0.15348527020851541 -0.23913552791147211 0 -0.16324537569009509 -0.2357306359809743 0 -0.1601832428566283 -0.24550858739866141 0 -0.1593809120407062 -0.25278805690175971 0 -0.15289321433053751 -0.246830478479277 0 -0.1601832428566283 -0.24550858739866141 0 -0.20565562739327201 -0.24334207984173631 0 -0.19410287643929239 -0.23312434657521411 0 -0.21201774175915139 -0.2290986139018284 0 -0.21472073189145299 -0.25725591714607071 0 -0.20565562739327201 -0.24334207984173631 0 -0.22837296648480071 -0.23789375384220129 0 -0.20565562739327201 -0.24334207984173631 0 -0.21201774175915139 -0.2290986139018284 0 -0.22837296648480071 -0.23789375384220129 0 -0.20565562739327201 -0.24334207984173631 0 -0.18863044441395099 -0.24733650333174401 0 -0.19410287643929239 -0.23312434657521411 0 -0.1805311654956796 -0.2411950136452527 0 -0.18863044441395099 -0.24733650333174401 0 -0.19410287643929239 -0.23312434657521411 0 -0.17781387366555559 -0.23090770197000129 0 -0.19410287643929239 -0.23312434657521411 0 -0.19175951728552271 -0.21959172261586679 0 -0.19410287643929239 -0.23312434657521411 0 -0.19175951728552271 -0.21959172261586679 0 -0.20443040571370949 -0.21985141578154491 0 -0.21201774175915139 -0.2290986139018284 0 -0.20443040571370949 -0.21985141578154491 0 -0.22630383013383959 -0.21240708539258099 0 -0.19410287643929239 -0.23312434657521411 0 -0.21201774175915139 -0.2290986139018284 0 -0.20443040571370949 -0.21985141578154491 0 -0.20157622681128409 -0.2075672839719423 0 -0.21557055542943429 -0.1904257004922347 0 -0.22630383013383959 -0.21240708539258099 0 -0.20157622681128409 -0.2075672839719423 0 -0.22630383013383959 -0.21240708539258099 0 -0.20443040571370949 -0.21985141578154491 0 -0.20157622681128409 -0.2075672839719423 0 -0.22630383013383959 -0.21240708539258099 0 -0.19175951728552271 -0.21959172261586679 0 -0.20443040571370949 -0.21985141578154491 0 -0.20157622681128409 -0.2075672839719423 0 -0.19175951728552271 -0.21959172261586679 0 -0.20157622681128409 -0.2075672839719423 0 -0.19175951728552271 -0.21959172261586679 0 -0.18904495760185211 -0.20873870471059999 0 -0.20157622681128409 -0.2075672839719423 0 -0.18904495760185211 -0.20873870471059999 0 -0.20157622681128409 -0.2075672839719423 0 -0.19252771524915421 -0.19930647688205899 0 -0.17994482166635981 -0.2014366202218163 0 -0.19252771524915421 -0.19930647688205899 0 -0.1907059301477185 -0.18468107337543721 0 -0.20157622681128409 -0.2075672839719423 0 -0.19252771524915421 -0.19930647688205899 0 -0.20187756758401409 -0.19506767240709361 0 -0.19252771524915421 -0.19930647688205899 0 -0.20187756758401409 -0.19506767240709361 0 -0.1907059301477185 -0.18468107337543721 0 -0.20157622681128409 -0.2075672839719423 0 -0.21557055542943429 -0.1904257004922347 0 -0.20187756758401409 -0.19506767240709361 0 -0.21557055542943429 -0.1904257004922347 0 -0.2038146335316797 -0.1820121315948606 0 -0.20157622681128409 -0.2075672839719423 0 -0.20187756758401409 -0.19506767240709361 0 -0.21557055542943429 -0.1904257004922347 0 -0.21557055542943429 -0.1904257004922347 0 -0.23533053747689989 -0.1962925907305976 0 -0.22630383013383959 -0.21240708539258099 0 -0.23533053747689989 -0.1962925907305976 0 -0.25103143345639523 -0.21724688681321891 0 -0.25418198431724581 -0.18809916394242601 0 -0.22630383013383959 -0.21240708539258099 0 -0.25103143345639523 -0.21724688681321891 0 -0.23533053747689989 -0.1962925907305976 0 -0.22630383013383959 -0.21240708539258099 0 -0.25103143345639523 -0.21724688681321891 0 -0.21201774175915139 -0.2290986139018284 0 -0.22630383013383959 -0.21240708539258099 0 -0.22837296648480071 -0.23789375384220129 0 -0.22630383013383959 -0.21240708539258099 0 -0.22837296648480071 -0.23789375384220129 0 -0.25103143345639523 -0.21724688681321891 0 -0.22837296648480071 -0.23789375384220129 0 -0.25431856302814809 -0.24833495949118861 0 -0.25103143345639523 -0.21724688681321891 0 -0.2335542019388327 -0.26090262277066528 0 -0.22837296648480071 -0.23789375384220129 0 -0.25431856302814809 -0.24833495949118861 0 -0.20708483324238849 -0.15128624944667929 0 -0.22647357207813959 -0.15205360930679629 0 -0.2195633859389316 -0.1340578990397249 0 -0.20708483324238849 -0.15128624944667929 0 -0.19823449762692411 -0.13229999761030051 0 -0.2195633859389316 -0.1340578990397249 0 -0.19823449762692411 -0.13229999761030051 0 -0.2195633859389316 -0.1340578990397249 0 -0.21022893699736381 -0.1097241998529486 0 -0.17775058767377289 -0.13584559103097291 0 -0.19823449762692411 -0.13229999761030051 0 -0.1894311146879058 -0.1465309504005988 0 -0.20708483324238849 -0.15128624944667929 0 -0.1894311146879058 -0.1465309504005988 0 -0.19351686899232889 -0.15854259719770419 0 -0.20708483324238849 -0.15128624944667929 0 -0.19823449762692411 -0.13229999761030051 0 -0.1894311146879058 -0.1465309504005988 0 -0.20708483324238849 -0.15128624944667929 0 -0.19351686899232889 -0.15854259719770419 0 -0.19880271024428661 -0.17007658736909009 0 -0.18239484980351819 -0.16464781923938721 0 -0.1894311146879058 -0.1465309504005988 0 -0.19351686899232889 -0.15854259719770419 0 -0.18239484980351819 -0.16464781923938721 0 -0.19351686899232889 -0.15854259719770419 0 -0.19880271024428661 -0.17007658736909009 0 -0.18239484980351819 -0.16464781923938721 0 -0.19880271024428661 -0.17007658736909009 0 -0.1907059301477185 -0.18468107337543721 0 -0.19880271024428661 -0.17007658736909009 0 -0.1907059301477185 -0.18468107337543721 0 -0.2038146335316797 -0.1820121315948606 0 -0.20187756758401409 -0.19506767240709361 0 -0.1907059301477185 -0.18468107337543721 0 -0.2038146335316797 -0.1820121315948606 0 -0.21557055542943429 -0.1904257004922347 0 -0.2038146335316797 -0.1820121315948606 0 -0.21355186476225221 -0.16985639920369799 0 -0.19880271024428661 -0.17007658736909009 0 -0.2038146335316797 -0.1820121315948606 0 -0.21355186476225221 -0.16985639920369799 0 -0.20708483324238849 -0.15128624944667929 0 -0.21355186476225221 -0.16985639920369799 0 -0.22647357207813959 -0.15205360930679629 0 -0.20708483324238849 -0.15128624944667929 0 -0.19880271024428661 -0.17007658736909009 0 -0.21355186476225221 -0.16985639920369799 0 -0.22956488404758479 -0.1732841170125273 0 -0.2435592126657353 -0.1561425335328199 0 -0.22647357207813959 -0.15205360930679629 0 -0.21355186476225221 -0.16985639920369799 0 -0.22956488404758479 -0.1732841170125273 0 -0.22647357207813959 -0.15205360930679629 0 -0.21557055542943429 -0.1904257004922347 0 -0.21355186476225221 -0.16985639920369799 0 -0.22956488404758479 -0.1732841170125273 0 -0.21557055542943429 -0.1904257004922347 0 -0.22956488404758479 -0.1732841170125273 0 -0.21557055542943429 -0.1904257004922347 0 -0.23533053747689989 -0.1962925907305976 0 -0.22956488404758479 -0.1732841170125273 0 -0.23533053747689989 -0.1962925907305976 0 -0.22956488404758479 -0.1732841170125273 0 -0.25418198431724581 -0.18809916394242601 0 -0.22956488404758479 -0.1732841170125273 0 -0.25418198431724581 -0.18809916394242601 0 -0.2565438833259911 -0.1687602707777138 0 -0.22956488404758479 -0.1732841170125273 0 -0.2435592126657353 -0.1561425335328199 0 -0.22956488404758479 -0.1732841170125273 0 -0.2435592126657353 -0.1561425335328199 0 -0.2565438833259911 -0.1687602707777138 0 -0.2435592126657353 -0.1561425335328199 0 -0.22647357207813959 -0.15205360930679629 0 -0.2432602079730701 -0.13485583854350039 0 -0.22647357207813959 -0.15205360930679629 0 -0.2195633859389316 -0.1340578990397249 0 -0.2432602079730701 -0.13485583854350039 0 -0.2195633859389316 -0.1340578990397249 0 -0.2432602079730701 -0.13485583854350039 0 -0.23065476516460279 -0.11957242830579699 0 -0.2432602079730701 -0.13485583854350039 0 -0.2499653418643101 -0.1102460646797562 0 -0.23065476516460279 -0.11957242830579699 0 -0.2499653418643101 -0.1102460646797562 0 -0.2308399038819596 -0.1034577205422559 0 -0.23065476516460279 -0.11957242830579699 0 -0.2308399038819596 -0.1034577205422559 0 -0.25308440776240432 -0.086371671251396109 0 -0.2499653418643101 -0.1102460646797562 0 -0.2308399038819596 -0.1034577205422559 0 -0.25308440776240432 -0.086371671251396109 0 -0.2308399038819596 -0.1034577205422559 0 -0.21022893699736381 -0.1097241998529486 0 -0.21520721362926831 -0.098298511723915558 0 -0.2308399038819596 -0.1034577205422559 0 -0.22013457808717909 -0.089221868029860679 0 -0.21520721362926831 -0.098298511723915558 0 -0.2308399038819596 -0.1034577205422559 0 -0.23065476516460279 -0.11957242830579699 0 -0.21022893699736381 -0.1097241998529486 0 -0.2195633859389316 -0.1340578990397249 0 -0.23065476516460279 -0.11957242830579699 0 -0.21022893699736381 -0.1097241998529486 0 -0.2335598957907816 -0.079883889973887123 0 -0.24475965461883589 -0.059498385283178377 0 -0.2582325144520296 -0.070050845257802419 0 -0.2335598957907816 -0.079883889973887123 0 -0.2582325144520296 -0.070050845257802419 0 -0.25308440776240432 -0.086371671251396109 0 -0.2308399038819596 -0.1034577205422559 0 -0.2335598957907816 -0.079883889973887123 0 -0.25308440776240432 -0.086371671251396109 0 -0.2308399038819596 -0.1034577205422559 0 -0.22013457808717909 -0.089221868029860679 0 -0.2335598957907816 -0.079883889973887123 0 -0.22013457808717909 -0.089221868029860679 0 -0.2335598957907816 -0.079883889973887123 0 -0.21963876375789801 -0.077814354495200549 0 -0.2335598957907816 -0.079883889973887123 0 -0.21595644614104051 -0.065738508165203102 0 -0.24475965461883589 -0.059498385283178377 0 -0.21595644614104051 -0.065738508165203102 0 -0.24475965461883589 -0.059498385283178377 0 -0.2335598957907816 -0.079883889973887123 0 -0.21963876375789801 -0.077814354495200549 0 -0.21595644614104051 -0.065738508165203102 0 -0.20438945881064449 -0.068244458930106389 0 -0.21100771399754009 -0.086966924160961745 0 -0.21595644614104051 -0.065738508165203102 0 -0.21100771399754009 -0.086966924160961745 0 -0.20438945881064449 -0.068244458930106389 0 -0.21595644614104051 -0.065738508165203102 0 -0.21100771399754009 -0.086966924160961745 0 -0.21963876375789801 -0.077814354495200549 0 -0.21595644614104051 -0.065738508165203102 0 -0.21100771399754009 -0.086966924160961745 0 -0.20438945881064449 -0.068244458930106389 0 -0.21595644614104051 -0.065738508165203102 0 -0.20438945881064449 -0.068244458930106389 0 -0.21595644614104051 -0.065738508165203102 0 -0.20711132549122371 -0.057203435059411119 0 -0.20438945881064449 -0.068244458930106389 0 -0.21100771399754009 -0.086966924160961745 0 -0.19851231957361129 -0.085310821531315487 0 -0.22013457808717909 -0.089221868029860679 0 -0.21963876375789801 -0.077814354495200549 0 -0.21100771399754009 -0.086966924160961745 0 -0.22013457808717909 -0.089221868029860679 0 -0.21100771399754009 -0.086966924160961745 0 -0.21520721362926831 -0.098298511723915558 0 -0.21100771399754009 -0.086966924160961745 0 -0.19851231957361129 -0.085310821531315487 0 -0.20550431009004061 -0.095676697317907802 0 -0.21100771399754009 -0.086966924160961745 0 -0.21520721362926831 -0.098298511723915558 0 -0.20550431009004061 -0.095676697317907802 0 -0.19851231957361129 -0.085310821531315487 0 -0.18118326058104209 -0.08825419183970401 0 -0.18409944718507371 -0.07264022497537044 0 -0.19851231957361129 -0.085310821531315487 0 -0.19294566676858971 -0.096864600750783431 0 -0.18118326058104209 -0.08825419183970401 0 -0.19851231957361129 -0.085310821531315487 0 -0.20550431009004061 -0.095676697317907802 0 -0.19294566676858971 -0.096864600750783431 0 -0.20438945881064449 -0.068244458930106389 0 -0.19851231957361129 -0.085310821531315487 0 -0.18409944718507371 -0.07264022497537044 0 -0.20438945881064449 -0.068244458930106389 0 -0.18409944718507371 -0.07264022497537044 0 -0.18769526278089041 -0.057829612445021099 0 -0.20438945881064449 -0.068244458930106389 0 -0.18409944718507371 -0.07264022497537044 0 -0.21022893699736381 -0.1097241998529486 0 -0.21520721362926831 -0.098298511723915558 0 -0.20550431009004061 -0.095676697317907802 0 -0.21022893699736381 -0.1097241998529486 0 -0.20550431009004061 -0.095676697317907802 0 -0.19294566676858971 -0.096864600750783431 0 -0.19294566676858971 -0.096864600750783431 0 -0.18534812722118199 -0.1163550958908785 0 -0.21022893699736381 -0.1097241998529486 0 -0.19294566676858971 -0.096864600750783431 0 -0.18534812722118199 -0.1163550958908785 0 -0.19823449762692411 -0.13229999761030051 0 -0.21022893699736381 -0.1097241998529486 0 -0.18534812722118199 -0.1163550958908785 0 -0.18534812722118199 -0.1163550958908785 0 -0.17423934197139679 -0.1017815859784342 0 -0.15606779039194271 -0.1160101434681408 0 -0.17775058767377289 -0.13584559103097291 0 -0.18534812722118199 -0.1163550958908785 0 -0.15606779039194271 -0.1160101434681408 0 -0.16057304666404501 -0.10079887419961479 0 -0.17423934197139679 -0.1017815859784342 0 -0.15606779039194271 -0.1160101434681408 0 -0.16057304666404501 -0.10079887419961479 0 -0.16746185343044401 -0.091445336260546128 0 -0.1570966781871318 -0.090327755750333361 0 -0.16057304666404501 -0.10079887419961479 0 -0.17423934197139679 -0.1017815859784342 0 -0.16746185343044401 -0.091445336260546128 0 -0.17423934197139679 -0.1017815859784342 0 -0.18118326058104209 -0.08825419183970401 0 -0.16746185343044401 -0.091445336260546128 0 -0.19294566676858971 -0.096864600750783431 0 -0.18534812722118199 -0.1163550958908785 0 -0.17423934197139679 -0.1017815859784342 0 -0.19294566676858971 -0.096864600750783431 0 -0.17423934197139679 -0.1017815859784342 0 -0.18118326058104209 -0.08825419183970401 0 -0.18118326058104209 -0.08825419183970401 0 -0.18409944718507371 -0.07264022497537044 0 -0.16915717098214109 -0.081397787743409861 0 -0.18118326058104209 -0.08825419183970401 0 -0.16746185343044401 -0.091445336260546128 0 -0.16915717098214109 -0.081397787743409861 0 -0.18409944718507371 -0.07264022497537044 0 -0.1702117591297739 -0.06777753321031553 0 -0.16380943555950259 -0.077035991020633382 0 -0.18409944718507371 -0.07264022497537044 0 -0.16380943555950259 -0.077035991020633382 0 -0.16915717098214109 -0.081397787743409861 0 -0.18409944718507371 -0.07264022497537044 0 -0.17187825396406881 -0.057945450019426657 0 -0.18769526278089041 -0.057829612445021099 0 -0.18409944718507371 -0.07264022497537044 0 -0.16380943555950259 -0.077035991020633382 0 -0.18409944718507371 -0.07264022497537044 0 -0.1702117591297739 -0.06777753321031553 0 -0.17187825396406881 -0.057945450019426657 0 -0.16380943555950259 -0.077035991020633382 0 -0.16105989981045041 -0.063488466825831633 0 -0.14595160177326619 -0.062470528310013429 0 -0.1702117591297739 -0.06777753321031553 0 -0.16105989981045041 -0.063488466825831633 0 -0.17187825396406881 -0.057945450019426657 0 -0.1702117591297739 -0.06777753321031553 0 -0.16380943555950259 -0.077035991020633382 0 -0.16105989981045041 -0.063488466825831633 0 -0.16380943555950259 -0.077035991020633382 0 -0.16109871639751261 -0.084134952385501949 0 -0.14796844382834351 -0.080467891152587012 0 -0.16746185343044401 -0.091445336260546128 0 -0.16915717098214109 -0.081397787743409861 0 -0.16109871639751261 -0.084134952385501949 0 -0.16380943555950259 -0.077035991020633382 0 -0.16915717098214109 -0.081397787743409861 0 -0.16109871639751261 -0.084134952385501949 0 -0.16380943555950259 -0.077035991020633382 0 -0.16915717098214109 -0.081397787743409861 0 -0.16746185343044401 -0.091445336260546128 0 -0.16109871639751261 -0.084134952385501949 0 -0.1570966781871318 -0.090327755750333361 0 -0.16380943555950259 -0.077035991020633382 0 -0.14796844382834351 -0.080467891152587012 0 -0.14796844382834351 -0.080467891152587012 0 -0.13497135686491851 -0.078315161523928284 0 -0.1484932433812913 -0.094043062253026791 0 -0.1570966781871318 -0.090327755750333361 0 -0.14796844382834351 -0.080467891152587012 0 -0.1484932433812913 -0.094043062253026791 0 -0.16109871639751261 -0.084134952385501949 0 -0.1570966781871318 -0.090327755750333361 0 -0.14796844382834351 -0.080467891152587012 0 -0.16380943555950259 -0.077035991020633382 0 -0.14796844382834351 -0.080467891152587012 0 -0.14595160177326619 -0.062470528310013429 0 -0.16380943555950259 -0.077035991020633382 0 -0.14595160177326619 -0.062470528310013429 0 -0.14796844382834351 -0.080467891152587012 0 -0.13497135686491851 -0.078315161523928284 0 -0.14595160177326619 -0.062470528310013429 0 -0.1158705629695205 -0.060236298698018297 0 -0.13497135686491851 -0.078315161523928284 0 -0.1158705629695205 -0.060236298698018297 0 -0.13497135686491851 -0.078315161523928284 0 -0.13122182239868371 -0.062231763532838429 0 -0.13497135686491851 -0.078315161523928284 0 -0.13122182239868371 -0.062231763532838429 0 -0.14595160177326619 -0.062470528310013429 0 -0.112702195828283 -0.076339248342475546 0 -0.13497135686491851 -0.078315161523928284 0 -0.13438499311011279 -0.096174695905308166 0 -0.13497135686491851 -0.078315161523928284 0 -0.13438499311011279 -0.096174695905308166 0 -0.1484932433812913 -0.094043062253026791 0 -0.11276894493928399 -0.097790936300085646 0 -0.13438499311011279 -0.096174695905308166 0 -0.1306137014228527 -0.1212095633787966 0 -0.13438499311011279 -0.096174695905308166 0 -0.1306137014228527 -0.1212095633787966 0 -0.15606779039194271 -0.1160101434681408 0 -0.15406265534163929 -0.1294064941378926 0 -0.1306137014228527 -0.1212095633787966 0 -0.15606779039194271 -0.1160101434681408 0 -0.13438499311011279 -0.096174695905308166 0 -0.15606779039194271 -0.1160101434681408 0 -0.1484932433812913 -0.094043062253026791 0 -0.16057304666404501 -0.10079887419961479 0 -0.15606779039194271 -0.1160101434681408 0 -0.1484932433812913 -0.094043062253026791 0 -0.13438499311011279 -0.096174695905308166 0 -0.15606779039194271 -0.1160101434681408 0 -0.16057304666404501 -0.10079887419961479 0 -0.1570966781871318 -0.090327755750333361 0 -0.1484932433812913 -0.094043062253026791 0 -0.14513665439653431 -0.02122229521611602 0 -0.15148395360685291 -0.031475856168514699 0 -0.16129500549156001 -0.024264335985147129 0 -0.14513665439653431 -0.02122229521611602 0 -0.1346415055917565 -0.031432898451717602 0 -0.15148395360685291 -0.031475856168514699 0 -0.14513665439653431 -0.02122229521611602 0 -0.15327979458335059 -0.01391829646419882 0 -0.16129500549156001 -0.024264335985147129 0 -0.1412848112475209 -0.008091449167619497 0 -0.15773416148281841 -0.0035868741371463562 0 -0.14801408494475049 0.0031182785745780331 0 -0.15327979458335059 -0.01391829646419882 0 -0.1412848112475209 -0.008091449167619497 0 -0.15773416148281841 -0.0035868741371463562 0 -0.14513665439653431 -0.02122229521611602 0 -0.15327979458335059 -0.01391829646419882 0 -0.1412848112475209 -0.008091449167619497 0 -0.1236693299605585 -0.0137973575501921 0 -0.1412848112475209 -0.008091449167619497 0 -0.12735709500343681 0.004015926865657337 0 -0.1412848112475209 -0.008091449167619497 0 -0.12735709500343681 0.004015926865657337 0 -0.14801408494475049 0.0031182785745780331 0 -0.1236693299605585 -0.0137973575501921 0 -0.1412848112475209 -0.008091449167619497 0 -0.13426109495296229 -0.02049569832685658 0 -0.1236693299605585 -0.0137973575501921 0 -0.1221370268088495 -0.025998648103035 0 -0.13426109495296229 -0.02049569832685658 0 -0.14513665439653431 -0.02122229521611602 0 -0.1412848112475209 -0.008091449167619497 0 -0.13426109495296229 -0.02049569832685658 0 -0.14513665439653431 -0.02122229521611602 0 -0.13426109495296229 -0.02049569832685658 0 -0.1346415055917565 -0.031432898451717602 0 -0.1221370268088495 -0.025998648103035 0 -0.12530131535501859 -0.034952786400489197 0 -0.1346415055917565 -0.031432898451717602 0 -0.1221370268088495 -0.025998648103035 0 -0.13426109495296229 -0.02049569832685658 0 -0.1346415055917565 -0.031432898451717602 0 -0.12530131535501859 -0.034952786400489197 0 -0.1346415055917565 -0.031432898451717602 0 -0.12809376798702951 -0.047905065599393698 0 -0.1346415055917565 -0.031432898451717602 0 -0.12809376798702951 -0.047905065599393698 0 -0.14629371500633531 -0.042796653234188263 0 -0.12809376798702951 -0.047905065599393698 0 -0.14595160177326619 -0.062470528310013429 0 -0.12809376798702951 -0.047905065599393698 0 -0.14595160177326619 -0.062470528310013429 0 -0.14629371500633531 -0.042796653234188263 0 -0.13122182239868371 -0.062231763532838429 0 -0.12809376798702951 -0.047905065599393698 0 -0.14595160177326619 -0.062470528310013429 0 -0.1158705629695205 -0.060236298698018297 0 -0.13122182239868371 -0.062231763532838429 0 -0.12809376798702951 -0.047905065599393698 0 -0.14595160177326619 -0.062470528310013429 0 -0.14629371500633531 -0.042796653234188263 0 -0.15696853651444401 -0.052603520026387289 0 -0.16105989981045041 -0.063488466825831633 0 -0.14595160177326619 -0.062470528310013429 0 -0.15696853651444401 -0.052603520026387289 0 -0.15148395360685291 -0.031475856168514699 0 -0.14629371500633531 -0.042796653234188263 0 -0.16402488563849801 -0.041062174760887443 0 -0.1346415055917565 -0.031432898451717602 0 -0.15148395360685291 -0.031475856168514699 0 -0.14629371500633531 -0.042796653234188263 0 -0.14629371500633531 -0.042796653234188263 0 -0.16402488563849801 -0.041062174760887443 0 -0.15696853651444401 -0.052603520026387289 0 -0.15148395360685291 -0.031475856168514699 0 -0.16402488563849801 -0.041062174760887443 0 -0.16129500549156001 -0.024264335985147129 0 -0.16402488563849801 -0.041062174760887443 0 -0.17409393016306191 -0.030370879776367592 0 -0.16129500549156001 -0.024264335985147129 0 -0.16402488563849801 -0.041062174760887443 0 -0.15696853651444401 -0.052603520026387289 0 -0.17187825396406881 -0.057945450019426657 0 -0.16105989981045041 -0.063488466825831633 0 -0.15696853651444401 -0.052603520026387289 0 -0.17187825396406881 -0.057945450019426657 0 -0.16402488563849801 -0.041062174760887443 0 -0.17187825396406881 -0.057945450019426657 0 -0.18133558272394029 -0.043618149437272283 0 -0.17187825396406881 -0.057945450019426657 0 -0.18133558272394029 -0.043618149437272283 0 -0.18769526278089041 -0.057829612445021099 0 -0.18133558272394029 -0.043618149437272283 0 -0.17409393016306191 -0.030370879776367592 0 -0.18915768363079971 -0.025155098795753519 0 -0.16402488563849801 -0.041062174760887443 0 -0.18133558272394029 -0.043618149437272283 0 -0.17409393016306191 -0.030370879776367592 0 -0.17409393016306191 -0.030370879776367592 0 -0.17549551533112251 -0.014893414490097231 0 -0.18915768363079971 -0.025155098795753519 0 -0.16129500549156001 -0.024264335985147129 0 -0.16350931143073591 -0.01273440345064396 0 -0.17549551533112251 -0.014893414490097231 0 -0.17409393016306191 -0.030370879776367592 0 -0.16129500549156001 -0.024264335985147129 0 -0.17549551533112251 -0.014893414490097231 0 -0.15327979458335059 -0.01391829646419882 0 -0.16129500549156001 -0.024264335985147129 0 -0.16350931143073591 -0.01273440345064396 0 -0.15773416148281841 -0.0035868741371463562 0 -0.16716832075785379 -0.0032078365625175 0 -0.1619193683370386 0.0066468078375689294 0 -0.15773416148281841 -0.0035868741371463562 0 -0.16350931143073591 -0.01273440345064396 0 -0.16716832075785379 -0.0032078365625175 0 -0.15327979458335059 -0.01391829646419882 0 -0.15773416148281841 -0.0035868741371463562 0 -0.16350931143073591 -0.01273440345064396 0 -0.16350931143073591 -0.01273440345064396 0 -0.16716832075785379 -0.0032078365625175 0 -0.17549551533112251 -0.014893414490097231 0 -0.17549551533112251 -0.014893414490097231 0 -0.18154179604087481 -0.0036104187285780349 0 -0.18915768363079971 -0.025155098795753519 0 -0.18154179604087481 -0.0036104187285780349 0 -0.18915768363079971 -0.025155098795753519 0 -0.17549551533112251 -0.014893414490097231 0 -0.17584419881677341 0.0071523107965592754 0 -0.17549551533112251 -0.014893414490097231 0 -0.18154179604087481 -0.0036104187285780349 0 -0.17584419881677341 0.0071523107965592754 0 -0.16716832075785379 -0.0032078365625175 0 -0.17549551533112251 -0.014893414490097231 0 -0.17584419881677341 0.0071523107965592754 0 -0.18154179604087481 -0.0036104187285780349 0 -0.19066530249761049 -0.0041303576494283751 0 -0.18915768363079971 -0.025155098795753519 0 -0.18154179604087481 -0.0036104187285780349 0 -0.19066530249761049 -0.0041303576494283751 0 -0.18717715497560061 0.0062623078557712403 0 -0.19066530249761049 -0.0041303576494283751 0 -0.1989264366345522 -0.0080023544535597537 0 -0.18915768363079971 -0.025155098795753519 0 -0.19066530249761049 -0.0041303576494283751 0 -0.1989264366345522 -0.0080023544535597537 0 -0.1965234412062255 0.0098537758749781944 0 -0.1989264366345522 -0.0080023544535597537 0 -0.2007918169376324 -0.0191738513677071 0 -0.20680177871376751 -0.0119671669755851 0 -0.18915768363079971 -0.025155098795753519 0 -0.2007918169376324 -0.0191738513677071 0 -0.21013076049929519 -0.028334228638799381 0 -0.1989264366345522 -0.0080023544535597537 0 -0.18915768363079971 -0.025155098795753519 0 -0.2007918169376324 -0.0191738513677071 0 -0.2007918169376324 -0.0191738513677071 0 -0.21013076049929519 -0.028334228638799381 0 -0.20680177871376751 -0.0119671669755851 0 -0.21013076049929519 -0.028334228638799381 0 -0.21702438745170211 -0.0043907958627755336 0 -0.21921501925093501 -0.017985606360015789 0 -0.21013076049929519 -0.028334228638799381 0 -0.21702438745170211 -0.0043907958627755336 0 -0.21013076049929519 -0.028334228638799381 0 -0.22271521407306469 -0.037269361340154371 0 -0.21921501925093501 -0.017985606360015789 0 -0.21013076049929519 -0.028334228638799381 0 -0.21702438745170211 -0.0043907958627755336 0 -0.20680177871376751 -0.0119671669755851 0 -0.1989264366345522 -0.0080023544535597537 0 -0.20680177871376751 -0.0119671669755851 0 -0.20713549204565579 6.5395444916274768e-05 0 -0.21702438745170211 -0.0043907958627755336 0 -0.20680177871376751 -0.0119671669755851 0 -0.20713549204565579 6.5395444916274768e-05 0 -0.20438945881064449 -0.068244458930106389 0 -0.1967735712207245 -0.046699778862929052 0 -0.20438945881064449 -0.068244458930106389 0 -0.18769526278089041 -0.057829612445021099 0 -0.1967735712207245 -0.046699778862929052 0 -0.20438945881064449 -0.068244458930106389 0 -0.1967735712207245 -0.046699778862929052 0 -0.20711132549122371 -0.057203435059411119 0 -0.18133558272394029 -0.043618149437272283 0 -0.18769526278089041 -0.057829612445021099 0 -0.1967735712207245 -0.046699778862929052 0 -0.18133558272394029 -0.043618149437272283 0 -0.18915768363079971 -0.025155098795753519 0 -0.1967735712207245 -0.046699778862929052 0 -0.18915768363079971 -0.025155098795753519 0 -0.1967735712207245 -0.046699778862929052 0 -0.18915768363079971 -0.025155098795753519 0 -0.21013076049929519 -0.028334228638799381 0 -0.1967735712207245 -0.046699778862929052 0 -0.21013076049929519 -0.028334228638799381 0 -0.21132582579248671 -0.048130994279405613 0 -0.22271521407306469 -0.037269361340154371 0 -0.21013076049929519 -0.028334228638799381 0 -0.1967735712207245 -0.046699778862929052 0 -0.21132582579248671 -0.048130994279405613 0 -0.21595644614104051 -0.065738508165203102 0 -0.21132582579248671 -0.048130994279405613 0 -0.22271521407306469 -0.037269361340154371 0 -0.21595644614104051 -0.065738508165203102 0 -0.21132582579248671 -0.048130994279405613 0 -0.20711132549122371 -0.057203435059411119 0 -0.1967735712207245 -0.046699778862929052 0 -0.21132582579248671 -0.048130994279405613 0 -0.20711132549122371 -0.057203435059411119 0 -0.21595644614104051 -0.065738508165203102 0 -0.2284172135094342 -0.053659916570315727 0 -0.24475965461883589 -0.059498385283178377 0 -0.21595644614104051 -0.065738508165203102 0 -0.2284172135094342 -0.053659916570315727 0 -0.22271521407306469 -0.037269361340154371 0 -0.21595644614104051 -0.065738508165203102 0 -0.22271521407306469 -0.037269361340154371 0 -0.2284172135094342 -0.053659916570315727 0 -0.22271521407306469 -0.037269361340154371 0 -0.23903543051913109 -0.043198085603962481 0 -0.22271521407306469 -0.037269361340154371 0 -0.23903543051913109 -0.043198085603962481 0 -0.24161885061771041 -0.026720350447010301 0 -0.23903543051913109 -0.043198085603962481 0 -0.24161885061771041 -0.026720350447010301 0 -0.25766621977661042 -0.038842414379153638 0 -0.23903543051913109 -0.043198085603962481 0 -0.24475965461883589 -0.059498385283178377 0 -0.25766621977661042 -0.038842414379153638 0 -0.2284172135094342 -0.053659916570315727 0 -0.23903543051913109 -0.043198085603962481 0 -0.24475965461883589 -0.059498385283178377 0 -0.22947398200509031 -0.0088002145151058891 0 -0.22867745033346079 0.0038692188645070222 0 -0.2401015516947359 0.00075261550232862703 0 -0.21702438745170211 -0.0043907958627755336 0 -0.22947398200509031 -0.0088002145151058891 0 -0.22867745033346079 0.0038692188645070222 0 -0.21702438745170211 -0.0043907958627755336 0 -0.22947398200509031 -0.0088002145151058891 0 -0.21921501925093501 -0.017985606360015789 0 -0.22271521407306469 -0.037269361340154371 0 -0.22947398200509031 -0.0088002145151058891 0 -0.21921501925093501 -0.017985606360015789 0 -0.22271521407306469 -0.037269361340154371 0 -0.22947398200509031 -0.0088002145151058891 0 -0.22271521407306469 -0.037269361340154371 0 -0.22947398200509031 -0.0088002145151058891 0 -0.24161885061771041 -0.026720350447010301 0 -0.22947398200509031 -0.0088002145151058891 0 -0.24161885061771041 -0.026720350447010301 0 -0.2437457614006571 -0.011962382738850049 0 -0.24161885061771041 -0.026720350447010301 0 -0.2437457614006571 -0.011962382738850049 0 -0.2598032925822476 -0.0188915667982569 0 -0.22947398200509031 -0.0088002145151058891 0 -0.2437457614006571 -0.011962382738850049 0 -0.2401015516947359 0.00075261550232862703 0 -0.2437457614006571 -0.011962382738850049 0 -0.25267499080189931 -0.0034516002120552492 0 -0.2401015516947359 0.00075261550232862703 0 -0.25267499080189931 -0.0034516002120552492 0 -0.2598032925822476 -0.0188915667982569 0 -0.26909988492935111 -0.0018655285383734981 0 -0.2437457614006571 -0.011962382738850049 0 -0.25267499080189931 -0.0034516002120552492 0 -0.2598032925822476 -0.0188915667982569 0 -0.2598032925822476 -0.0188915667982569 0 -0.27267419604841259 -0.026924212746328481 0 -0.25766621977661042 -0.038842414379153638 0 -0.24161885061771041 -0.026720350447010301 0 -0.2598032925822476 -0.0188915667982569 0 -0.25766621977661042 -0.038842414379153638 0 -0.2598032925822476 -0.0188915667982569 0 -0.27267419604841259 -0.026924212746328481 0 -0.27804425228895369 -0.016131696666228459 0 -0.27267419604841259 -0.026924212746328481 0 -0.27804425228895369 -0.016131696666228459 0 -0.28378415359151371 -0.031280105512012511 0 -0.27804425228895369 -0.016131696666228459 0 -0.26909988492935111 -0.0018655285383734981 0 -0.2917254884257266 -0.0017566381736345419 0 -0.2598032925822476 -0.0188915667982569 0 -0.27804425228895369 -0.016131696666228459 0 -0.26909988492935111 -0.0018655285383734981 0 -0.27804425228895369 -0.016131696666228459 0 -0.2917254884257266 -0.0017566381736345419 0 -0.2928870998243559 -0.020527937726781 0 -0.27804425228895369 -0.016131696666228459 0 -0.2928870998243559 -0.020527937726781 0 -0.28378415359151371 -0.031280105512012511 0 -0.2928870998243559 -0.020527937726781 0 -0.29943422057661201 -0.032203920876667472 0 -0.28378415359151371 -0.031280105512012511 0 -0.2928870998243559 -0.020527937726781 0 -0.31144738423897378 -0.02126732740536201 0 -0.29943422057661201 -0.032203920876667472 0 -0.31144738423897378 -0.02126732740536201 0 -0.31110423911055801 -0.035316851109560482 0 -0.29943422057661201 -0.032203920876667472 0 -0.2917254884257266 -0.0017566381736345419 0 -0.31144738423897378 -0.02126732740536201 0 -0.31177688145040278 0.0050359958776742568 0 -0.2917254884257266 -0.0017566381736345419 0 -0.2928870998243559 -0.020527937726781 0 -0.31144738423897378 -0.02126732740536201 0 -0.2917254884257266 -0.0017566381736345419 0 -0.31144738423897378 -0.02126732740536201 0 -0.30323190850646392 -0.052883144282766713 0 -0.3023660715744253 -0.047018139519123002 0 -0.29757341552329353 -0.05219957266967655 0 -0.29931176789370939 -0.061629941742321552 0 -0.30659897303184058 -0.057135789817405573 0 -0.30728911182784302 -0.064893595009923935 0 -0.30323190850646392 -0.052883144282766713 0 -0.29931176789370939 -0.061629941742321552 0 -0.30659897303184058 -0.057135789817405573 0 -0.30323190850646392 -0.052883144282766713 0 -0.29757341552329353 -0.05219957266967655 0 -0.29931176789370939 -0.061629941742321552 0 -0.30659897303184058 -0.057135789817405573 0 -0.30728911182784302 -0.064893595009923935 0 -0.31405483352543062 -0.056831087900065053 0 -0.30323190850646392 -0.052883144282766713 0 -0.3023660715744253 -0.047018139519123002 0 -0.31025625293594222 -0.050033124508212908 0 -0.30659897303184058 -0.057135789817405573 0 -0.31025625293594222 -0.050033124508212908 0 -0.31405483352543062 -0.056831087900065053 0 -0.30323190850646392 -0.052883144282766713 0 -0.30659897303184058 -0.057135789817405573 0 -0.31025625293594222 -0.050033124508212908 0 -0.3023660715744253 -0.047018139519123002 0 -0.31110423911055801 -0.035316851109560482 0 -0.29943422057661201 -0.032203920876667472 0 -0.3023660715744253 -0.047018139519123002 0 -0.29943422057661201 -0.032203920876667472 0 -0.29166722635019171 -0.038853801873014321 0 -0.29943422057661201 -0.032203920876667472 0 -0.29166722635019171 -0.038853801873014321 0 -0.28378415359151371 -0.031280105512012511 0 -0.3023660715744253 -0.047018139519123002 0 -0.29166722635019171 -0.038853801873014321 0 -0.28390051605192418 -0.042754285685484159 0 -0.29166722635019171 -0.038853801873014321 0 -0.28378415359151371 -0.031280105512012511 0 -0.28390051605192418 -0.042754285685484159 0 -0.3023660715744253 -0.047018139519123002 0 -0.28390051605192418 -0.042754285685484159 0 -0.27356286309663053 -0.053258262401150697 0 -0.3023660715744253 -0.047018139519123002 0 -0.27356286309663053 -0.053258262401150697 0 -0.29757341552329353 -0.05219957266967655 0 -0.27356286309663053 -0.053258262401150697 0 -0.27532891164284878 -0.069285621960536392 0 -0.29757341552329353 -0.05219957266967655 0 -0.27532891164284878 -0.069285621960536392 0 -0.3023660715744253 -0.047018139519123002 0 -0.29757341552329353 -0.05219957266967655 0 -0.27356286309663053 -0.053258262401150697 0 -0.29757341552329353 -0.05219957266967655 0 -0.29931176789370939 -0.061629941742321552 0 -0.27532891164284878 -0.069285621960536392 0 -0.27267419604841259 -0.026924212746328481 0 -0.27375437843427658 -0.039043607324579933 0 -0.25766621977661042 -0.038842414379153638 0 -0.27356286309663053 -0.053258262401150697 0 -0.27375437843427658 -0.039043607324579933 0 -0.25766621977661042 -0.038842414379153638 0 -0.28378415359151371 -0.031280105512012511 0 -0.28390051605192418 -0.042754285685484159 0 -0.27375437843427658 -0.039043607324579933 0 -0.27267419604841259 -0.026924212746328481 0 -0.28378415359151371 -0.031280105512012511 0 -0.27375437843427658 -0.039043607324579933 0 -0.28390051605192418 -0.042754285685484159 0 -0.27356286309663053 -0.053258262401150697 0 -0.27375437843427658 -0.039043607324579933 0 -0.24475965461883589 -0.059498385283178377 0 -0.27356286309663053 -0.053258262401150697 0 -0.2582325144520296 -0.070050845257802419 0 -0.24475965461883589 -0.059498385283178377 0 -0.27356286309663053 -0.053258262401150697 0 -0.24475965461883589 -0.059498385283178377 0 -0.27356286309663053 -0.053258262401150697 0 -0.25766621977661042 -0.038842414379153638 0 -0.2582325144520296 -0.070050845257802419 0 -0.25308440776240432 -0.086371671251396109 0 -0.27532891164284878 -0.069285621960536392 0 -0.25308440776240432 -0.086371671251396109 0 -0.27532891164284878 -0.069285621960536392 0 -0.25308440776240432 -0.086371671251396109 0 -0.27361062541114611 -0.085405998149086934 0 -0.26907394573302829 -0.10103393024372311 0 -0.27361062541114611 -0.085405998149086934 0 -0.26907394573302829 -0.10103393024372311 0 -0.28494676303449051 -0.09097811142482605 0 -0.25308440776240432 -0.086371671251396109 0 -0.27361062541114611 -0.085405998149086934 0 -0.27532891164284878 -0.069285621960536392 0 -0.27356286309663053 -0.053258262401150697 0 -0.2582325144520296 -0.070050845257802419 0 -0.27532891164284878 -0.069285621960536392 0 -0.27361062541114611 -0.085405998149086934 0 -0.27532891164284878 -0.069285621960536392 0 -0.28561909888295839 -0.079360655864953042 0 -0.2432602079730701 -0.13485583854350039 0 -0.2499653418643101 -0.1102460646797562 0 -0.26490928006600228 -0.12397715003998409 0 -0.2499653418643101 -0.1102460646797562 0 -0.26490928006600228 -0.12397715003998409 0 -0.26907394573302829 -0.10103393024372311 0 -0.2499653418643101 -0.1102460646797562 0 -0.25308440776240432 -0.086371671251396109 0 -0.26907394573302829 -0.10103393024372311 0 -0.26907394573302829 -0.10103393024372311 0 -0.28789548083438649 -0.11161882002010511 0 -0.28494676303449051 -0.09097811142482605 0 -0.26490928006600228 -0.12397715003998409 0 -0.28789548083438649 -0.11161882002010511 0 -0.28428672055728371 -0.13281235115180859 0 -0.26490928006600228 -0.12397715003998409 0 -0.26907394573302829 -0.10103393024372311 0 -0.28789548083438649 -0.11161882002010511 0 -0.28789548083438649 -0.11161882002010511 0 -0.28428672055728371 -0.13281235115180859 0 -0.30877835781368662 -0.12931532841693749 0 -0.28789548083438649 -0.11161882002010511 0 -0.29765529442092259 -0.094840601490837839 0 -0.28494676303449051 -0.09097811142482605 0 -0.30761934067920371 -0.1042503242997595 0 -0.29765529442092259 -0.094840601490837839 0 -0.30832877355579341 -0.086934752854072747 0 -0.30761934067920371 -0.1042503242997595 0 -0.30832877355579341 -0.086934752854072747 0 -0.31968159473222052 -0.091584555267719248 0 -0.28789548083438649 -0.11161882002010511 0 -0.30761934067920371 -0.1042503242997595 0 -0.29765529442092259 -0.094840601490837839 0 -0.28789548083438649 -0.11161882002010511 0 -0.30761934067920371 -0.1042503242997595 0 -0.30877835781368662 -0.12931532841693749 0 -0.29931176789370939 -0.061629941742321552 0 -0.27532891164284878 -0.069285621960536392 0 -0.29568251685582603 -0.071589435967753134 0 -0.27532891164284878 -0.069285621960536392 0 -0.29568251685582603 -0.071589435967753134 0 -0.28561909888295839 -0.079360655864953042 0 -0.29568251685582603 -0.071589435967753134 0 -0.28561909888295839 -0.079360655864953042 0 -0.29849490204505058 -0.081938345925378783 0 -0.27361062541114611 -0.085405998149086934 0 -0.28561909888295839 -0.079360655864953042 0 -0.28494676303449051 -0.09097811142482605 0 -0.29765529442092259 -0.094840601490837839 0 -0.28494676303449051 -0.09097811142482605 0 -0.29849490204505058 -0.081938345925378783 0 -0.28561909888295839 -0.079360655864953042 0 -0.28494676303449051 -0.09097811142482605 0 -0.29849490204505058 -0.081938345925378783 0 -0.29849490204505058 -0.081938345925378783 0 -0.30832877355579341 -0.086934752854072747 0 -0.3066986514807607 -0.074546990101646726 0 -0.29765529442092259 -0.094840601490837839 0 -0.29849490204505058 -0.081938345925378783 0 -0.30832877355579341 -0.086934752854072747 0 -0.30832877355579341 -0.086934752854072747 0 -0.3066986514807607 -0.074546990101646726 0 -0.31636087034116728 -0.076704125898778439 0 -0.3066986514807607 -0.074546990101646726 0 -0.31411021802290889 -0.069356746280106005 0 -0.31636087034116728 -0.076704125898778439 0 -0.29568251685582603 -0.071589435967753134 0 -0.29849490204505058 -0.081938345925378783 0 -0.3066986514807607 -0.074546990101646726 0 -0.29568251685582603 -0.071589435967753134 0 -0.3066986514807607 -0.074546990101646726 0 -0.30728911182784302 -0.064893595009923935 0 -0.29931176789370939 -0.061629941742321552 0 -0.29568251685582603 -0.071589435967753134 0 -0.30728911182784302 -0.064893595009923935 0 -0.3066986514807607 -0.074546990101646726 0 -0.30728911182784302 -0.064893595009923935 0 -0.31411021802290889 -0.069356746280106005 0 -0.30728911182784302 -0.064893595009923935 0 -0.31630436981946819 -0.062936971351065629 0 -0.31411021802290889 -0.069356746280106005 0 -0.31630436981946819 -0.062936971351065629 0 -0.31411021802290889 -0.069356746280106005 0 -0.32389808664530562 -0.067702049039115322 0 -0.31630436981946819 -0.062936971351065629 0 -0.32389808664530562 -0.067702049039115322 0 -0.32481687078849097 -0.058022226865728103 0 -0.32389808664530562 -0.067702049039115322 0 -0.3259684841043719 -0.075020057435826168 0 -0.31636087034116728 -0.076704125898778439 0 -0.31411021802290889 -0.069356746280106005 0 -0.32389808664530562 -0.067702049039115322 0 -0.31636087034116728 -0.076704125898778439 0 -0.30832877355579341 -0.086934752854072747 0 -0.32608803180755441 -0.084321365842938284 0 -0.30832877355579341 -0.086934752854072747 0 -0.31968159473222052 -0.091584555267719248 0 -0.32608803180755441 -0.084321365842938284 0 -0.30832877355579341 -0.086934752854072747 0 -0.31636087034116728 -0.076704125898778439 0 -0.32608803180755441 -0.084321365842938284 0 -0.31968159473222052 -0.091584555267719248 0 -0.32608803180755441 -0.084321365842938284 0 -0.3259684841043719 -0.075020057435826168 0 -0.31636087034116728 -0.076704125898778439 0 -0.32608803180755441 -0.084321365842938284 0 -0.31968159473222052 -0.091584555267719248 0 -0.32608803180755441 -0.084321365842938284 0 -0.34030971713070318 -0.087052614945596102 0 -0.32608803180755441 -0.084321365842938284 0 -0.34030971713070318 -0.087052614945596102 0 -0.34745734249292459 -0.081176736816750444 0 -0.32608803180755441 -0.084321365842938284 0 -0.33752694762346008 -0.07135268896247253 0 -0.34745734249292459 -0.081176736816750444 0 -0.32608803180755441 -0.084321365842938284 0 -0.34745734249292459 -0.081176736816750444 0 -0.33752694762346008 -0.07135268896247253 0 -0.3489658634393657 -0.058384012082006782 0 -0.33645864726091979 -0.05858208772264157 0 -0.33752694762346008 -0.07135268896247253 0 -0.3489658634393657 -0.058384012082006782 0 -0.32389808664530562 -0.067702049039115322 0 -0.33752694762346008 -0.07135268896247253 0 -0.33645864726091979 -0.05858208772264157 0 -0.3259684841043719 -0.075020057435826168 0 -0.32608803180755441 -0.084321365842938284 0 -0.33752694762346008 -0.07135268896247253 0 -0.32608803180755441 -0.084321365842938284 0 -0.33752694762346008 -0.07135268896247253 0 -0.32389808664530562 -0.067702049039115322 0 -0.3259684841043719 -0.075020057435826168 0 -0.33752694762346008 -0.07135268896247253 0 -0.32454403747219479 -0.1081839716812668 0 -0.30877835781368662 -0.12931532841693749 0 -0.30761934067920371 -0.1042503242997595 0 -0.32454403747219479 -0.1081839716812668 0 -0.30877835781368662 -0.12931532841693749 0 -0.32454403747219479 -0.1081839716812668 0 -0.33570809008837621 -0.11845594114356341 0 -0.30877835781368662 -0.12931532841693749 0 -0.30761934067920371 -0.1042503242997595 0 -0.31968159473222052 -0.091584555267719248 0 -0.32454403747219479 -0.1081839716812668 0 -0.34030971713070318 -0.087052614945596102 0 -0.32454403747219479 -0.1081839716812668 0 -0.34278855512837281 -0.1049294584887832 0 -0.31968159473222052 -0.091584555267719248 0 -0.34030971713070318 -0.087052614945596102 0 -0.32454403747219479 -0.1081839716812668 0 -0.34030971713070318 -0.087052614945596102 0 -0.32454403747219479 -0.1081839716812668 0 -0.32454403747219479 -0.1081839716812668 0 -0.34278855512837281 -0.1049294584887832 0 -0.33570809008837621 -0.11845594114356341 0 -0.33570809008837621 -0.11845594114356341 0 -0.35404294059136687 -0.1217835462641018 0 -0.33688620478323589 -0.13358080389391511 0 -0.34278855512837281 -0.1049294584887832 0 -0.35404294059136687 -0.1217835462641018 0 -0.35932798989652742 -0.1047455147758234 0 -0.34278855512837281 -0.1049294584887832 0 -0.33570809008837621 -0.11845594114356341 0 -0.35404294059136687 -0.1217835462641018 0 -0.34278855512837281 -0.1049294584887832 0 -0.35932798989652742 -0.1047455147758234 0 -0.35079718399447979 -0.093651592615473511 0 -0.34030971713070318 -0.087052614945596102 0 -0.34278855512837281 -0.1049294584887832 0 -0.35079718399447979 -0.093651592615473511 0 -0.35932798989652742 -0.1047455147758234 0 -0.35079718399447979 -0.093651592615473511 0 -0.36132419909701757 -0.091459041133748031 0 -0.35932798989652742 -0.1047455147758234 0 -0.37367929427193591 -0.1014825750548952 0 -0.37212838853434238 -0.11808059788504249 0 -0.35932798989652742 -0.1047455147758234 0 -0.37367929427193591 -0.1014825750548952 0 -0.36132419909701757 -0.091459041133748031 0 -0.35404294059136687 -0.1217835462641018 0 -0.37212838853434238 -0.11808059788504249 0 -0.37028068739271691 -0.13083580994494901 0 -0.35404294059136687 -0.1217835462641018 0 -0.35932798989652742 -0.1047455147758234 0 -0.37212838853434238 -0.11808059788504249 0 -0.35069420168351129 -0.07223638641294812 0 -0.34745734249292459 -0.081176736816750444 0 -0.36882665317829499 -0.078032107790563188 0 -0.36882665317829499 -0.078032107790563188 0 -0.3489658634393657 -0.058384012082006782 0 -0.35069420168351129 -0.07223638641294812 0 -0.36882665317829499 -0.078032107790563188 0 -0.3489658634393657 -0.058384012082006782 0 -0.33752694762346008 -0.07135268896247253 0 -0.35069420168351129 -0.07223638641294812 0 -0.3489658634393657 -0.058384012082006782 0 -0.33752694762346008 -0.07135268896247253 0 -0.35069420168351129 -0.07223638641294812 0 -0.34745734249292459 -0.081176736816750444 0 -0.34745734249292459 -0.081176736816750444 0 -0.36882665317829499 -0.078032107790563188 0 -0.34745734249292459 -0.081176736816750444 0 -0.36132419909701757 -0.091459041133748031 0 -0.36882665317829499 -0.078032107790563188 0 -0.34030971713070318 -0.087052614945596102 0 -0.34745734249292459 -0.081176736816750444 0 -0.35079718399447979 -0.093651592615473511 0 -0.34745734249292459 -0.081176736816750444 0 -0.35079718399447979 -0.093651592615473511 0 -0.36132419909701757 -0.091459041133748031 0 -0.37367929427193591 -0.1014825750548952 0 -0.36132419909701757 -0.091459041133748031 0 -0.36882665317829499 -0.078032107790563188 0 -0.36882665317829499 -0.078032107790563188 0 -0.36862349457690058 -0.057461967220355487 0 -0.3489658634393657 -0.058384012082006782 0 -0.36882665317829499 -0.078032107790563188 0 -0.36862349457690058 -0.057461967220355487 0 -0.37947166312044489 -0.067272628224985004 0 -0.36862349457690058 -0.057461967220355487 0 -0.3489658634393657 -0.058384012082006782 0 -0.36066681755822472 -0.045118253717945672 0 -0.36862349457690058 -0.057461967220355487 0 -0.37355784227175309 -0.045246792894939887 0 -0.3815482533063424 -0.052412606119804542 0 -0.36862349457690058 -0.057461967220355487 0 -0.36066681755822472 -0.045118253717945672 0 -0.37355784227175309 -0.045246792894939887 0 -0.3489658634393657 -0.058384012082006782 0 -0.36066681755822472 -0.045118253717945672 0 -0.3489658634393657 -0.058384012082006782 0 -0.34511111307690212 -0.046137334811030092 0 -0.36066681755822472 -0.045118253717945672 0 -0.35304062521722218 -0.036039659744318157 0 -0.3553139768507978 -0.023567241021099371 0 -0.33371347875736079 -0.040226824134751989 0 -0.34511111307690212 -0.046137334811030092 0 -0.35304062521722218 -0.036039659744318157 0 -0.33371347875736079 -0.040226824134751989 0 -0.34511111307690212 -0.046137334811030092 0 -0.35304062521722218 -0.036039659744318157 0 -0.36066681755822472 -0.045118253717945672 0 -0.36066681755822472 -0.045118253717945672 0 -0.37236777167708351 -0.031852495353884333 0 -0.35304062521722218 -0.036039659744318157 0 -0.37236777167708351 -0.031852495353884333 0 -0.35304062521722218 -0.036039659744318157 0 -0.36066681755822472 -0.045118253717945672 0 -0.37236777167708351 -0.031852495353884333 0 -0.36066681755822472 -0.045118253717945672 0 -0.37355784227175309 -0.045246792894939887 0 -0.37236777167708351 -0.031852495353884333 0 -0.37236777167708351 -0.031852495353884333 0 -0.3739022591900184 -0.02415390189740213 0 -0.36770044175442279 -0.02036669541201027 0 -0.37236777167708351 -0.031852495353884333 0 -0.36770044175442279 -0.02036669541201027 0 -0.3553139768507978 -0.023567241021099371 0 -0.36770044175442279 -0.02036669541201027 0 -0.35847393927256738 -0.010652033510738681 0 -0.38297625517291389 -0.017448943304264108 0 -0.35304062521722218 -0.036039659744318157 0 -0.37236777167708351 -0.031852495353884333 0 -0.3553139768507978 -0.023567241021099371 0 -0.3739022591900184 -0.02415390189740213 0 -0.36770044175442279 -0.02036669541201027 0 -0.38297625517291389 -0.017448943304264108 0 -0.36770044175442279 -0.02036669541201027 0 -0.35847393927256738 -0.010652033510738681 0 -0.3553139768507978 -0.023567241021099371 0 -0.35847393927256738 -0.010652033510738681 0 -0.38297625517291389 -0.017448943304264108 0 -0.37278444596104371 -0.0079457960458173115 0 -0.35847393927256738 -0.010652033510738681 0 -0.38297625517291389 -0.017448943304264108 0 -0.37474494217865062 -0.0022388935110706832 0 -0.37278444596104371 -0.0079457960458173115 0 -0.36307869926690151 -0.00068504054922277494 0 -0.37278444596104371 -0.0079457960458173115 0 -0.36307869926690151 -0.00068504054922277494 0 -0.35847393927256738 -0.010652033510738681 0 -0.36307869926690151 -0.00068504054922277494 0 -0.34718119132474479 -0.01384164818341615 0 -0.36064890389212972 0.0125435277679194 0 -0.36307869926690151 -0.00068504054922277494 0 -0.35847393927256738 -0.010652033510738681 0 -0.34718119132474479 -0.01384164818341615 0 -0.34718119132474479 -0.01384164818341615 0 -0.36064890389212972 0.0125435277679194 0 -0.34718119132474479 -0.01384164818341615 0 -0.3553139768507978 -0.023567241021099371 0 -0.33371347875736079 -0.040226824134751989 0 -0.35847393927256738 -0.010652033510738681 0 -0.34718119132474479 -0.01384164818341615 0 -0.3553139768507978 -0.023567241021099371 0 -0.34718119132474479 -0.01384164818341615 0 -0.33035884889608558 -0.02420969997450095 0 -0.33371347875736079 -0.040226824134751989 0 -0.34718119132474479 -0.01384164818341615 0 -0.33371347875736079 -0.040226824134751989 0 -0.34718119132474479 -0.01384164818341615 0 -0.32828291010712762 -0.0049346835118845543 0 -0.34055428987364128 0.0059527955302196532 0 -0.34718119132474479 -0.01384164818341615 0 -0.33035884889608558 -0.02420969997450095 0 -0.32828291010712762 -0.0049346835118845543 0 -0.31144738423897378 -0.02126732740536201 0 -0.32828291010712762 -0.0049346835118845543 0 -0.31177688145040278 0.0050359958776742568 0 -0.31144738423897378 -0.02126732740536201 0 -0.33116928005221918 -0.040778016637091109 0 -0.31144738423897378 -0.02126732740536201 0 -0.33035884889608558 -0.02420969997450095 0 -0.32828291010712762 -0.0049346835118845543 0 -0.31144738423897378 -0.02126732740536201 0 -0.33035884889608558 -0.02420969997450095 0 -0.33116928005221918 -0.040778016637091109 0 -0.3023660715744253 -0.047018139519123002 0 -0.31110423911055801 -0.035316851109560482 0 -0.33116928005221918 -0.040778016637091109 0 -0.3023660715744253 -0.047018139519123002 0 -0.31025625293594222 -0.050033124508212908 0 -0.33116928005221918 -0.040778016637091109 0 -0.3023660715744253 -0.047018139519123002 0 -0.33116928005221918 -0.040778016637091109 0 -0.31144738423897378 -0.02126732740536201 0 -0.31110423911055801 -0.035316851109560482 0 -0.33116928005221918 -0.040778016637091109 0 -0.31025625293594222 -0.050033124508212908 0 -0.31770057673851387 -0.05020147555903863 0 -0.33116928005221918 -0.040778016637091109 0 -0.31025625293594222 -0.050033124508212908 0 -0.31770057673851387 -0.05020147555903863 0 -0.31405483352543062 -0.056831087900065053 0 -0.31770057673851387 -0.05020147555903863 0 -0.31405483352543062 -0.056831087900065053 0 -0.31936567051967829 -0.054711673150449433 0 -0.31630436981946819 -0.062936971351065629 0 -0.31936567051967829 -0.054711673150449433 0 -0.32481687078849097 -0.058022226865728103 0 -0.30728911182784302 -0.064893595009923935 0 -0.31630436981946819 -0.062936971351065629 0 -0.31405483352543062 -0.056831087900065053 0 -0.31630436981946819 -0.062936971351065629 0 -0.31405483352543062 -0.056831087900065053 0 -0.31936567051967829 -0.054711673150449433 0 -0.31770057673851387 -0.05020147555903863 0 -0.32448711316898249 -0.050622394842538963 0 -0.33116928005221918 -0.040778016637091109 0 -0.31936567051967829 -0.054711673150449433 0 -0.32481687078849097 -0.058022226865728103 0 -0.32448711316898249 -0.050622394842538963 0 -0.31770057673851387 -0.05020147555903863 0 -0.31936567051967829 -0.054711673150449433 0 -0.32448711316898249 -0.050622394842538963 0 -0.32481687078849097 -0.058022226865728103 0 -0.32770904195502032 -0.053173566283506987 0 -0.32448711316898249 -0.050622394842538963 0 -0.32770904195502032 -0.053173566283506987 0 -0.32448711316898249 -0.050622394842538963 0 -0.32972533979495861 -0.048040159006195682 0 -0.3489658634393657 -0.058384012082006782 0 -0.34511111307690212 -0.046137334811030092 0 -0.3326728772282519 -0.042265511425067279 0 -0.32972533979495861 -0.048040159006195682 0 -0.33645864726091979 -0.05858208772264157 0 -0.3326728772282519 -0.042265511425067279 0 -0.3489658634393657 -0.058384012082006782 0 -0.3326728772282519 -0.042265511425067279 0 -0.32770904195502032 -0.053173566283506987 0 -0.32972533979495861 -0.048040159006195682 0 -0.33645864726091979 -0.05858208772264157 0 -0.3489658634393657 -0.058384012082006782 0 -0.33645864726091979 -0.05858208772264157 0 -0.3326728772282519 -0.042265511425067279 0 -0.32389808664530562 -0.067702049039115322 0 -0.32481687078849097 -0.058022226865728103 0 -0.33645864726091979 -0.05858208772264157 0 -0.32481687078849097 -0.058022226865728103 0 -0.32770904195502032 -0.053173566283506987 0 -0.33645864726091979 -0.05858208772264157 0 -0.34511111307690212 -0.046137334811030092 0 -0.33371347875736079 -0.040226824134751989 0 -0.3326728772282519 -0.042265511425067279 0 -0.33035884889608558 -0.02420969997450095 0 -0.33116928005221918 -0.040778016637091109 0 -0.33371347875736079 -0.040226824134751989 0 -0.35304062521722218 -0.036039659744318157 0 -0.33371347875736079 -0.040226824134751989 0 -0.32448711316898249 -0.050622394842538963 0 -0.32972533979495861 -0.048040159006195682 0 -0.33116928005221918 -0.040778016637091109 0 -0.33116928005221918 -0.040778016637091109 0 -0.3326728772282519 -0.042265511425067279 0 -0.32972533979495861 -0.048040159006195682 0 -0.3326728772282519 -0.042265511425067279 0 -0.32972533979495861 -0.048040159006195682 0 -0.33116928005221918 -0.040778016637091109 0 -0.3326728772282519 -0.042265511425067279 0 -0.33116928005221918 -0.040778016637091109 0 -0.33371347875736079 -0.040226824134751989 0 -0.33116928005221918 -0.040778016637091109 0 -0.33371347875736079 -0.040226824134751989 0 -0.3326728772282519 -0.042265511425067279 0 -0.33371347875736079 -0.040226824134751989 0 -0.3326728772282519 -0.042265511425067279 0 -0.2907170577323625 -0.25177677077710309 0 -0.30853150187083839 -0.25429835417001312 0 -0.30748271917561598 -0.2431056607245809 0 -0.30748271917561598 -0.2431056607245809 0 -0.3004866401015065 -0.2269264896544945 0 -0.32066485276457768 -0.2334308190911655 0 -0.2907170577323625 -0.25177677077710309 0 -0.30748271917561598 -0.2431056607245809 0 -0.3004866401015065 -0.2269264896544945 0 -0.30853150187083839 -0.25429835417001312 0 -0.30748271917561598 -0.2431056607245809 0 -0.32023222063025569 -0.2489608815952247 0 -0.3004866401015065 -0.2269264896544945 0 -0.27575903677895092 -0.22208668823385669 0 -0.3004866401015065 -0.2269264896544945 0 -0.27309361240676189 -0.24179026653703889 0 -0.27575903677895092 -0.22208668823385669 0 -0.3004866401015065 -0.2269264896544945 0 -0.27575903677895092 -0.22208668823385669 0 -0.29482007196541532 -0.2089319155152673 0 -0.2907170577323625 -0.25177677077710309 0 -0.3004866401015065 -0.2269264896544945 0 -0.27309361240676189 -0.24179026653703889 0 -0.27309361240676189 -0.24179026653703889 0 -0.25431856302814809 -0.24833495949118861 0 -0.25103143345639523 -0.21724688681321891 0 -0.27575903677895092 -0.22208668823385669 0 -0.25103143345639523 -0.21724688681321891 0 -0.27309361240676189 -0.24179026653703889 0 -0.27575903677895092 -0.22208668823385669 0 -0.25103143345639523 -0.21724688681321891 0 -0.27575903677895092 -0.22208668823385669 0 -0.25103143345639523 -0.21724688681321891 0 -0.27708552823660842 -0.19790031786117671 0 -0.25103143345639523 -0.21724688681321891 0 -0.25418198431724581 -0.18809916394242601 0 -0.27708552823660842 -0.19790031786117671 0 -0.27708552823660842 -0.19790031786117671 0 -0.29482007196541532 -0.2089319155152673 0 -0.30195969341908391 -0.19078830755985379 0 -0.29482007196541532 -0.2089319155152673 0 -0.30195969341908391 -0.19078830755985379 0 -0.32674672588845421 -0.2120308859258328 0 -0.3004866401015065 -0.2269264896544945 0 -0.29482007196541532 -0.2089319155152673 0 -0.32674672588845421 -0.2120308859258328 0 -0.27575903677895092 -0.22208668823385669 0 -0.27708552823660842 -0.19790031786117671 0 -0.29482007196541532 -0.2089319155152673 0 -0.30195969341908391 -0.19078830755985379 0 -0.30674796742087651 -0.1684647150882764 0 -0.32123008678095788 -0.18729232698745699 0 -0.30674796742087651 -0.1684647150882764 0 -0.2930126781551784 -0.15044668515260809 0 -0.3206808779707625 -0.15110047818677941 0 -0.27724699849667023 -0.17157804188827869 0 -0.2930126781551784 -0.15044668515260809 0 -0.30674796742087651 -0.1684647150882764 0 -0.27724699849667023 -0.17157804188827869 0 -0.2930126781551784 -0.15044668515260809 0 -0.27708552823660842 -0.19790031786117671 0 -0.30195969341908391 -0.19078830755985379 0 -0.27724699849667023 -0.17157804188827869 0 -0.30195969341908391 -0.19078830755985379 0 -0.30674796742087651 -0.1684647150882764 0 -0.27724699849667023 -0.17157804188827869 0 -0.25418198431724581 -0.18809916394242601 0 -0.27708552823660842 -0.19790031786117671 0 -0.27724699849667023 -0.17157804188827869 0 -0.25418198431724581 -0.18809916394242601 0 -0.2565438833259911 -0.1687602707777138 0 -0.27724699849667023 -0.17157804188827869 0 -0.2435592126657353 -0.1561425335328199 0 -0.2565438833259911 -0.1687602707777138 0 -0.26683780591716472 -0.14870377212940841 0 -0.27724699849667023 -0.17157804188827869 0 -0.26683780591716472 -0.14870377212940841 0 -0.2930126781551784 -0.15044668515260809 0 -0.2565438833259911 -0.1687602707777138 0 -0.27724699849667023 -0.17157804188827869 0 -0.26683780591716472 -0.14870377212940841 0 -0.2435592126657353 -0.1561425335328199 0 -0.2432602079730701 -0.13485583854350039 0 -0.26683780591716472 -0.14870377212940841 0 -0.2432602079730701 -0.13485583854350039 0 -0.26490928006600228 -0.12397715003998409 0 -0.26683780591716472 -0.14870377212940841 0 -0.26490928006600228 -0.12397715003998409 0 -0.26683780591716472 -0.14870377212940841 0 -0.28428672055728371 -0.13281235115180859 0 -0.28428672055728371 -0.13281235115180859 0 -0.2930126781551784 -0.15044668515260809 0 -0.30877835781368662 -0.12931532841693749 0 -0.26683780591716472 -0.14870377212940841 0 -0.28428672055728371 -0.13281235115180859 0 -0.2930126781551784 -0.15044668515260809 0 -0.2930126781551784 -0.15044668515260809 0 -0.30877835781368662 -0.12931532841693749 0 -0.3206808779707625 -0.15110047818677941 0 -0.2930126781551784 -0.15044668515260809 0 -0.30877835781368662 -0.12931532841693749 0 -0.33570809008837621 -0.11845594114356341 0 -0.30877835781368662 -0.12931532841693749 0 -0.33688620478323589 -0.13358080389391511 0 -0.30877835781368662 -0.12931532841693749 0 -0.3206808779707625 -0.15110047818677941 0 -0.33688620478323589 -0.13358080389391511 0 -0.3206808779707625 -0.15110047818677941 0 -0.33688620478323589 -0.13358080389391511 0 -0.34399943231138669 -0.15408109000358611 0 -0.33688620478323589 -0.13358080389391511 0 -0.35929992868189681 -0.1386942596847188 0 -0.35404294059136687 -0.1217835462641018 0 -0.33688620478323589 -0.13358080389391511 0 -0.35929992868189681 -0.1386942596847188 0 -0.35404294059136687 -0.1217835462641018 0 -0.35929992868189681 -0.1386942596847188 0 -0.37028068739271691 -0.13083580994494901 0 -0.35929992868189681 -0.1386942596847188 0 -0.37028068739271691 -0.13083580994494901 0 -0.3804539816512269 -0.14482329966991631 0 -0.35929992868189681 -0.1386942596847188 0 -0.3804539816512269 -0.14482329966991631 0 -0.35929992868189681 -0.1386942596847188 0 -0.3655172116091886 -0.15688196674787641 0 -0.3804539816512269 -0.14482329966991631 0 -0.3655172116091886 -0.15688196674787641 0 -0.3804539816512269 -0.14482329966991631 0 -0.3655172116091886 -0.15688196674787641 0 -0.37839901512320262 -0.15996290040625341 0 -0.3804539816512269 -0.14482329966991631 0 -0.33688620478323589 -0.13358080389391511 0 -0.35929992868189681 -0.1386942596847188 0 -0.34399943231138669 -0.15408109000358611 0 -0.35929992868189681 -0.1386942596847188 0 -0.34399943231138669 -0.15408109000358611 0 -0.3655172116091886 -0.15688196674787641 0 -0.34399943231138669 -0.15408109000358611 0 -0.35323542112630057 -0.1671812377988513 0 -0.3655172116091886 -0.15688196674787641 0 -0.3655172116091886 -0.15688196674787641 0 -0.37378547386561772 -0.17392500984250869 0 -0.37839901512320262 -0.15996290040625341 0 -0.35323542112630057 -0.1671812377988513 0 -0.3655172116091886 -0.15688196674787641 0 -0.37378547386561772 -0.17392500984250869 0 -0.37378547386561772 -0.17392500984250869 0 -0.35240556330307887 -0.18479875362473361 0 -0.36895563931783232 -0.19259611207654981 0 -0.35323542112630057 -0.1671812377988513 0 -0.37378547386561772 -0.17392500984250869 0 -0.35240556330307887 -0.18479875362473361 0 -0.35323542112630057 -0.1671812377988513 0 -0.35240556330307887 -0.18479875362473361 0 -0.33400288196205857 -0.17193246321376471 0 -0.35240556330307887 -0.18479875362473361 0 -0.33400288196205857 -0.17193246321376471 0 -0.33669316521431608 -0.19324526314955739 0 -0.33400288196205857 -0.17193246321376471 0 -0.32123008678095788 -0.18729232698745699 0 -0.33669316521431608 -0.19324526314955739 0 -0.3206808779707625 -0.15110047818677941 0 -0.34399943231138669 -0.15408109000358611 0 -0.33400288196205857 -0.17193246321376471 0 -0.34399943231138669 -0.15408109000358611 0 -0.35323542112630057 -0.1671812377988513 0 -0.33400288196205857 -0.17193246321376471 0 -0.30674796742087651 -0.1684647150882764 0 -0.3206808779707625 -0.15110047818677941 0 -0.33400288196205857 -0.17193246321376471 0 -0.30674796742087651 -0.1684647150882764 0 -0.33400288196205857 -0.17193246321376471 0 -0.32123008678095788 -0.18729232698745699 0 -0.30195969341908391 -0.19078830755985379 0 -0.32123008678095788 -0.18729232698745699 0 -0.32674672588845421 -0.2120308859258328 0 -0.32674672588845421 -0.2120308859258328 0 -0.35024140450074381 -0.20994798342056251 0 -0.32674672588845421 -0.2120308859258328 0 -0.33669316521431608 -0.19324526314955739 0 -0.35024140450074381 -0.20994798342056251 0 -0.32674672588845421 -0.2120308859258328 0 -0.35024140450074381 -0.20994798342056251 0 -0.3377174746324717 -0.2284461722996495 0 -0.32123008678095788 -0.18729232698745699 0 -0.32674672588845421 -0.2120308859258328 0 -0.33669316521431608 -0.19324526314955739 0 -0.35240556330307887 -0.18479875362473361 0 -0.36895563931783232 -0.19259611207654981 0 -0.35024140450074381 -0.20994798342056251 0 -0.35240556330307887 -0.18479875362473361 0 -0.33669316521431608 -0.19324526314955739 0 -0.35024140450074381 -0.20994798342056251 0 -0.36895563931783232 -0.19259611207654981 0 -0.37373608311303341 -0.20786508091529229 0 -0.35024140450074381 -0.20994798342056251 0 -0.37373608311303341 -0.20786508091529229 0 -0.35024140450074381 -0.20994798342056251 0 -0.37373608311303341 -0.20786508091529229 0 -0.35024140450074381 -0.20994798342056251 0 -0.36602803805366552 -0.21914337572849349 0 -0.37373608311303341 -0.20786508091529229 0 -0.36602803805366552 -0.21914337572849349 0 -0.37785639846487218 -0.21906994256996459 0 -0.35024140450074381 -0.20994798342056251 0 -0.357966965356528 -0.23170644806675769 0 -0.3377174746324717 -0.2284461722996495 0 -0.35024140450074381 -0.20994798342056251 0 -0.357966965356528 -0.23170644806675769 0 -0.36602803805366552 -0.21914337572849349 0 -0.357966965356528 -0.23170644806675769 0 -0.36602803805366552 -0.21914337572849349 0 -0.36983275924353248 -0.22875232439276311 0 -0.36602803805366552 -0.21914337572849349 0 -0.36983275924353248 -0.22875232439276311 0 -0.37785639846487218 -0.21906994256996459 0 -0.357966965356528 -0.23170644806675769 0 -0.36983275924353248 -0.22875232439276311 0 -0.37747963509906429 -0.24508953120583671 0 -0.35872453044413888 -0.25078889886649508 0 -0.357966965356528 -0.23170644806675769 0 -0.37747963509906429 -0.24508953120583671 0 -0.357966965356528 -0.23170644806675769 0 -0.34395992200845399 -0.24382677409400949 0 -0.3377174746324717 -0.2284461722996495 0 -0.35872453044413888 -0.25078889886649508 0 -0.357966965356528 -0.23170644806675769 0 -0.34395992200845399 -0.24382677409400949 0 -0.33345250408021371 -0.25331871279766999 0 -0.34395992200845399 -0.24382677409400949 0 -0.33132333615916232 -0.2411148243472106 0 -0.33345250408021371 -0.25331871279766999 0 -0.33132333615916232 -0.2411148243472106 0 -0.32023222063025569 -0.2489608815952247 0 -0.34395992200845399 -0.24382677409400949 0 -0.33132333615916232 -0.2411148243472106 0 -0.3377174746324717 -0.2284461722996495 0 -0.32674672588845421 -0.2120308859258328 0 -0.3377174746324717 -0.2284461722996495 0 -0.32066485276457768 -0.2334308190911655 0 -0.33132333615916232 -0.2411148243472106 0 -0.3377174746324717 -0.2284461722996495 0 -0.32066485276457768 -0.2334308190911655 0 -0.3004866401015065 -0.2269264896544945 0 -0.32674672588845421 -0.2120308859258328 0 -0.32066485276457768 -0.2334308190911655 0 -0.30748271917561598 -0.2431056607245809 0 -0.32066485276457768 -0.2334308190911655 0 -0.32023222063025569 -0.2489608815952247 0 -0.33132333615916232 -0.2411148243472106 0 -0.32066485276457768 -0.2334308190911655 0 -0.32023222063025569 -0.2489608815952247 0 -0.43445882011373449 -0.25478651907497341 0 -0.43806130733353449 -0.23541812032183559 0 -0.43445882011373449 -0.25478651907497341 0 -0.4258852610480256 -0.24284815888716721 0 -0.43806130733353449 -0.23541812032183559 0 -0.4258852610480256 -0.24284815888716721 0 -0.42538833238501789 -0.2333934851751748 0 -0.41698539980062188 -0.23875950084572559 0 -0.43445882011373449 -0.25478651907497341 0 -0.4258852610480256 -0.24284815888716721 0 -0.42335340856967768 -0.24893549408922019 0 -0.4258852610480256 -0.24284815888716721 0 -0.42538833238501789 -0.2333934851751748 0 -0.43806130733353449 -0.23541812032183559 0 -0.43091611572645672 -0.22699763907763329 0 -0.42538833238501789 -0.2333934851751748 0 -0.43806130733353449 -0.23541812032183559 0 -0.43091611572645672 -0.22699763907763329 0 -0.44166379455333399 -0.21604972156869759 0 -0.43806130733353449 -0.23541812032183559 0 -0.43091611572645672 -0.22699763907763329 0 -0.43133498143110582 -0.21921018883561361 0 -0.44166379455333399 -0.21604972156869759 0 -0.43133498143110582 -0.21921018883561361 0 -0.4232485836513401 -0.22477446532261011 0 -0.4232102070061276 -0.21869015764887889 0 -0.43091611572645672 -0.22699763907763329 0 -0.43133498143110582 -0.21921018883561361 0 -0.4232485836513401 -0.22477446532261011 0 -0.43091611572645672 -0.22699763907763329 0 -0.4232485836513401 -0.22477446532261011 0 -0.42538833238501789 -0.2333934851751748 0 -0.4232485836513401 -0.22477446532261011 0 -0.42538833238501789 -0.2333934851751748 0 -0.41731365953457839 -0.2310953018814938 0 -0.4232485836513401 -0.22477446532261011 0 -0.41731365953457839 -0.2310953018814938 0 -0.4121948509493269 -0.2247325638453028 0 -0.41731365953457839 -0.2310953018814938 0 -0.4080561583250083 -0.23272886934204159 0 -0.41698539980062188 -0.23875950084572559 0 -0.4232485836513401 -0.22477446532261011 0 -0.4121948509493269 -0.2247325638453028 0 -0.41685681033243982 -0.21746512418924929 0 -0.4232485836513401 -0.22477446532261011 0 -0.41685681033243982 -0.21746512418924929 0 -0.4232102070061276 -0.21869015764887889 0 -0.4121948509493269 -0.2247325638453028 0 -0.4080561583250083 -0.23272886934204159 0 -0.39971520205611372 -0.2221352637332015 0 -0.4121948509493269 -0.2247325638453028 0 -0.40807454407470489 -0.21592977391801271 0 -0.41685681033243982 -0.21746512418924929 0 -0.4121948509493269 -0.2247325638453028 0 -0.39971520205611372 -0.2221352637332015 0 -0.40807454407470489 -0.21592977391801271 0 -0.41731365953457839 -0.2310953018814938 0 -0.4121948509493269 -0.2247325638453028 0 -0.4080561583250083 -0.23272886934204159 0 -0.4080561583250083 -0.23272886934204159 0 -0.40983148527785651 -0.24118391776602099 0 -0.41698539980062188 -0.23875950084572559 0 -0.42538833238501789 -0.2333934851751748 0 -0.41731365953457839 -0.2310953018814938 0 -0.41698539980062188 -0.23875950084572559 0 -0.40983148527785651 -0.24118391776602099 0 -0.41698539980062188 -0.23875950084572559 0 -0.41627810448972868 -0.24641300060905449 0 -0.4258852610480256 -0.24284815888716721 0 -0.42335340856967768 -0.24893549408922019 0 -0.41627810448972868 -0.24641300060905449 0 -0.4258852610480256 -0.24284815888716721 0 -0.41698539980062188 -0.23875950084572559 0 -0.41627810448972868 -0.24641300060905449 0 -0.41679144862722167 -0.25169429778568547 0 -0.42335340856967768 -0.24893549408922019 0 -0.41627810448972868 -0.24641300060905449 0 -0.41385673751816382 -0.25312989710486528 0 -0.41627810448972868 -0.24641300060905449 0 -0.4086566941719203 -0.24778871483445111 0 -0.40983148527785651 -0.24118391776602099 0 -0.41627810448972868 -0.24641300060905449 0 -0.4086566941719203 -0.24778871483445111 0 -0.40282532782868952 -0.25224285689579767 0 -0.4086566941719203 -0.24778871483445111 0 -0.40022281387448849 -0.24084313907701979 0 -0.40983148527785651 -0.24118391776602099 0 -0.4086566941719203 -0.24778871483445111 0 -0.40022281387448849 -0.24084313907701979 0 -0.4080561583250083 -0.23272886934204159 0 -0.40983148527785651 -0.24118391776602099 0 -0.40022281387448849 -0.24084313907701979 0 -0.40022281387448849 -0.24084313907701979 0 -0.3903832871219331 -0.2411545733314838 0 -0.38772777019650018 -0.2315142496456449 0 -0.3938256931015453 -0.25037754026629511 0 -0.40022281387448849 -0.24084313907701979 0 -0.3903832871219331 -0.2411545733314838 0 -0.3938256931015453 -0.25037754026629511 0 -0.3903832871219331 -0.2411545733314838 0 -0.37747963509906429 -0.24508953120583671 0 -0.3903832871219331 -0.2411545733314838 0 -0.37747963509906429 -0.24508953120583671 0 -0.38772777019650018 -0.2315142496456449 0 -0.37747963509906429 -0.24508953120583671 0 -0.37785639846487218 -0.21906994256996459 0 -0.37747963509906429 -0.24508953120583671 0 -0.37785639846487218 -0.21906994256996459 0 -0.38772777019650018 -0.2315142496456449 0 -0.36983275924353248 -0.22875232439276311 0 -0.37747963509906429 -0.24508953120583671 0 -0.37785639846487218 -0.21906994256996459 0 -0.37785639846487218 -0.21906994256996459 0 -0.38772777019650018 -0.2315142496456449 0 -0.38790285805175961 -0.2167146319195192 0 -0.4080561583250083 -0.23272886934204159 0 -0.40022281387448849 -0.24084313907701979 0 -0.39971520205611372 -0.2221352637332015 0 -0.40022281387448849 -0.24084313907701979 0 -0.39971520205611372 -0.2221352637332015 0 -0.38772777019650018 -0.2315142496456449 0 -0.39971520205611372 -0.2221352637332015 0 -0.38790285805175961 -0.2167146319195192 0 -0.40022281387448849 -0.24084313907701979 0 -0.38772777019650018 -0.2315142496456449 0 -0.39971520205611372 -0.2221352637332015 0 -0.39971520205611372 -0.2221352637332015 0 -0.39723076172532301 -0.205782178410022 0 -0.40807454407470489 -0.21592977391801271 0 -0.39971520205611372 -0.2221352637332015 0 -0.39723076172532301 -0.205782178410022 0 -0.38790285805175961 -0.2167146319195192 0 -0.39723076172532301 -0.205782178410022 0 -0.41303892827123678 -0.21093405469715851 0 -0.40807454407470489 -0.21592977391801271 0 -0.37373608311303341 -0.20786508091529229 0 -0.39723076172532301 -0.205782178410022 0 -0.38370630256805799 -0.1971119561512929 0 -0.37373608311303341 -0.20786508091529229 0 -0.39723076172532301 -0.205782178410022 0 -0.38790285805175961 -0.2167146319195192 0 -0.37373608311303341 -0.20786508091529229 0 -0.39723076172532301 -0.205782178410022 0 -0.37373608311303341 -0.20786508091529229 0 -0.37785639846487218 -0.21906994256996459 0 -0.38790285805175961 -0.2167146319195192 0 -0.36895563931783232 -0.19259611207654981 0 -0.38370630256805799 -0.1971119561512929 0 -0.3831693110633177 -0.1873742460103984 0 -0.36895563931783232 -0.19259611207654981 0 -0.37373608311303341 -0.20786508091529229 0 -0.38370630256805799 -0.1971119561512929 0 -0.38370630256805799 -0.1971119561512929 0 -0.39543971762078378 -0.19194216334420211 0 -0.3831693110633177 -0.1873742460103984 0 -0.39723076172532301 -0.205782178410022 0 -0.38370630256805799 -0.1971119561512929 0 -0.39543971762078378 -0.19194216334420211 0 -0.39723076172532301 -0.205782178410022 0 -0.39543971762078378 -0.19194216334420211 0 -0.40534117689708921 -0.19634387975323889 0 -0.39543971762078378 -0.19194216334420211 0 -0.40534117689708921 -0.19634387975323889 0 -0.40730162077548249 -0.18407395049314179 0 -0.39723076172532301 -0.205782178410022 0 -0.40534117689708921 -0.19634387975323889 0 -0.42072544033761272 -0.20369927590475301 0 -0.42032122747045741 -0.1927313373696285 0 -0.42072544033761272 -0.20369927590475301 0 -0.40730162077548249 -0.18407395049314179 0 -0.42072544033761272 -0.20369927590475301 0 -0.40730162077548249 -0.18407395049314179 0 -0.40534117689708921 -0.19634387975323889 0 -0.42072544033761272 -0.20369927590475301 0 -0.40730162077548249 -0.18407395049314179 0 -0.39723076172532301 -0.205782178410022 0 -0.41303892827123678 -0.21093405469715851 0 -0.42072544033761272 -0.20369927590475301 0 -0.39723076172532301 -0.205782178410022 0 -0.42072544033761272 -0.20369927590475301 0 -0.41303892827123678 -0.21093405469715851 0 -0.40807454407470489 -0.21592977391801271 0 -0.41685681033243982 -0.21746512418924929 0 -0.41303892827123678 -0.21093405469715851 0 -0.41685681033243982 -0.21746512418924929 0 -0.42140045260962489 -0.21331085224804261 0 -0.41685681033243982 -0.21746512418924929 0 -0.42140045260962489 -0.21331085224804261 0 -0.4232102070061276 -0.21869015764887889 0 -0.41303892827123678 -0.21093405469715851 0 -0.42140045260962489 -0.21331085224804261 0 -0.42072544033761272 -0.20369927590475301 0 -0.42512182626149492 -0.2033095177213731 0 -0.43378961613155448 -0.20908682079381441 0 -0.44184138868315109 -0.20247798044170351 0 -0.42072544033761272 -0.20369927590475301 0 -0.42512182626149492 -0.2033095177213731 0 -0.43133498143110582 -0.21921018883561361 0 -0.42072544033761272 -0.20369927590475301 0 -0.42512182626149492 -0.2033095177213731 0 -0.43133498143110582 -0.21921018883561361 0 -0.42512182626149492 -0.2033095177213731 0 -0.43378961613155448 -0.20908682079381441 0 -0.43133498143110582 -0.21921018883561361 0 -0.42140045260962489 -0.21331085224804261 0 -0.4232102070061276 -0.21869015764887889 0 -0.43133498143110582 -0.21921018883561361 0 -0.42072544033761272 -0.20369927590475301 0 -0.43133498143110582 -0.21921018883561361 0 -0.42140045260962489 -0.21331085224804261 0 -0.42072544033761272 -0.20369927590475301 0 -0.43133498143110582 -0.21921018883561361 0 -0.43378961613155448 -0.20908682079381441 0 -0.44166379455333399 -0.21604972156869759 0 -0.42032122747045741 -0.1927313373696285 0 -0.44184138868315109 -0.20247798044170351 0 -0.42032122747045741 -0.1927313373696285 0 -0.43099962817645188 -0.18319011649723049 0 -0.43833565968517207 -0.19112957676178299 0 -0.42032122747045741 -0.1927313373696285 0 -0.42512182626149492 -0.2033095177213731 0 -0.44184138868315109 -0.20247798044170351 0 -0.42032122747045741 -0.1927313373696285 0 -0.43833565968517207 -0.19112957676178299 0 -0.44184138868315109 -0.20247798044170351 0 -0.42032122747045741 -0.1927313373696285 0 -0.42072544033761272 -0.20369927590475301 0 -0.42512182626149492 -0.2033095177213731 0 -0.42549584187692119 -0.17333418479170171 0 -0.43099962817645188 -0.18319011649723049 0 -0.41834400919125792 -0.18158621355319651 0 -0.42032122747045741 -0.1927313373696285 0 -0.43099962817645188 -0.18319011649723049 0 -0.41834400919125792 -0.18158621355319651 0 -0.43099962817645188 -0.18319011649723049 0 -0.43495901877196291 -0.17485617288990979 0 -0.44455133712372419 -0.18300714728765441 0 -0.42549584187692119 -0.17333418479170171 0 -0.43099962817645188 -0.18319011649723049 0 -0.43495901877196291 -0.17485617288990979 0 -0.42549584187692119 -0.17333418479170171 0 -0.43495901877196291 -0.17485617288990979 0 -0.43155613508544272 -0.1669321437644439 0 -0.43495901877196291 -0.17485617288990979 0 -0.43155613508544272 -0.1669321437644439 0 -0.44219215159727421 -0.16781727210851849 0 -0.43155613508544272 -0.1669321437644439 0 -0.43166640735559808 -0.1552039120346444 0 -0.44219215159727421 -0.16781727210851849 0 -0.43155613508544272 -0.1669321437644439 0 -0.4214232379976206 -0.16216052115063159 0 -0.43166640735559808 -0.1552039120346444 0 -0.42549584187692119 -0.17333418479170171 0 -0.43155613508544272 -0.1669321437644439 0 -0.4214232379976206 -0.16216052115063159 0 -0.42549584187692119 -0.17333418479170171 0 -0.4214232379976206 -0.16216052115063159 0 -0.41110577652129249 -0.1670682470007229 0 -0.4214232379976206 -0.16216052115063159 0 -0.41110577652129249 -0.1670682470007229 0 -0.40669002996807779 -0.1495058137550834 0 -0.41110577652129249 -0.1670682470007229 0 -0.41834400919125792 -0.18158621355319651 0 -0.40730162077548249 -0.18407395049314179 0 -0.42549584187692119 -0.17333418479170171 0 -0.41110577652129249 -0.1670682470007229 0 -0.41834400919125792 -0.18158621355319651 0 -0.42032122747045741 -0.1927313373696285 0 -0.41834400919125792 -0.18158621355319651 0 -0.40730162077548249 -0.18407395049314179 0 -0.39543971762078378 -0.19194216334420211 0 -0.40730162077548249 -0.18407395049314179 0 -0.39267839793348491 -0.17927693187167279 0 -0.40730162077548249 -0.18407395049314179 0 -0.39267839793348491 -0.17927693187167279 0 -0.39387780121335469 -0.16444862508152899 0 -0.40730162077548249 -0.18407395049314179 0 -0.39387780121335469 -0.16444862508152899 0 -0.37378547386561772 -0.17392500984250869 0 -0.36895563931783232 -0.19259611207654981 0 -0.3831693110633177 -0.1873742460103984 0 -0.37378547386561772 -0.17392500984250869 0 -0.39267839793348491 -0.17927693187167279 0 -0.3831693110633177 -0.1873742460103984 0 -0.37378547386561772 -0.17392500984250869 0 -0.39267839793348491 -0.17927693187167279 0 -0.39387780121335469 -0.16444862508152899 0 -0.39543971762078378 -0.19194216334420211 0 -0.39267839793348491 -0.17927693187167279 0 -0.3831693110633177 -0.1873742460103984 0 -0.37378547386561772 -0.17392500984250869 0 -0.37839901512320262 -0.15996290040625341 0 -0.39387780121335469 -0.16444862508152899 0 -0.37839901512320262 -0.15996290040625341 0 -0.39387780121335469 -0.16444862508152899 0 -0.3804539816512269 -0.14482329966991631 0 -0.41110577652129249 -0.1670682470007229 0 -0.39387780121335469 -0.16444862508152899 0 -0.40669002996807779 -0.1495058137550834 0 -0.41110577652129249 -0.1670682470007229 0 -0.40730162077548249 -0.18407395049314179 0 -0.39387780121335469 -0.16444862508152899 0 -0.39387780121335469 -0.16444862508152899 0 -0.3804539816512269 -0.14482329966991631 0 -0.40669002996807779 -0.1495058137550834 0 -0.3804539816512269 -0.14482329966991631 0 -0.39647179587780151 -0.13189450107720049 0 -0.40669002996807779 -0.1495058137550834 0 -0.3804539816512269 -0.14482329966991631 0 -0.40669002996807779 -0.1495058137550834 0 -0.39387780121335469 -0.16444862508152899 0 -0.3804539816512269 -0.14482329966991631 0 -0.3804539816512269 -0.14482329966991631 0 -0.38278168804071749 -0.12940228238898679 0 -0.39647179587780151 -0.13189450107720049 0 -0.3804539816512269 -0.14482329966991631 0 -0.39647179587780151 -0.13189450107720049 0 -0.37212838853434238 -0.11808059788504249 0 -0.37028068739271691 -0.13083580994494901 0 -0.38278168804071749 -0.12940228238898679 0 -0.37028068739271691 -0.13083580994494901 0 -0.3804539816512269 -0.14482329966991631 0 -0.38278168804071749 -0.12940228238898679 0 -0.38278168804071749 -0.12940228238898679 0 -0.39647179587780151 -0.13189450107720049 0 -0.39044023874876249 -0.11757149150947201 0 -0.39647179587780151 -0.13189450107720049 0 -0.40828286160401828 -0.1310364195873514 0 -0.40669002996807779 -0.1495058137550834 0 -0.39647179587780151 -0.13189450107720049 0 -0.40828286160401828 -0.1310364195873514 0 -0.41122993917504558 -0.1199812866788818 0 -0.39647179587780151 -0.13189450107720049 0 -0.41122993917504558 -0.1199812866788818 0 -0.40828286160401828 -0.1310364195873514 0 -0.41930562378398423 -0.12797048681614909 0 -0.41122993917504558 -0.1199812866788818 0 -0.41930562378398423 -0.12797048681614909 0 -0.41533589961201212 -0.13938201891822019 0 -0.4273858072007774 -0.14414008567558009 0 -0.40828286160401828 -0.1310364195873514 0 -0.41533589961201212 -0.13938201891822019 0 -0.40669002996807779 -0.1495058137550834 0 -0.40828286160401828 -0.1310364195873514 0 -0.41930562378398423 -0.12797048681614909 0 -0.41533589961201212 -0.13938201891822019 0 -0.40669002996807779 -0.1495058137550834 0 -0.43166640735559808 -0.1552039120346444 0 -0.4214232379976206 -0.16216052115063159 0 -0.40669002996807779 -0.1495058137550834 0 -0.43166640735559808 -0.1552039120346444 0 -0.41533589961201212 -0.13938201891822019 0 -0.40669002996807779 -0.1495058137550834 0 -0.4273858072007774 -0.14414008567558009 0 -0.40669002996807779 -0.1495058137550834 0 -0.4273858072007774 -0.14414008567558009 0 -0.43166640735559808 -0.1552039120346444 0 -0.43166640735559808 -0.1552039120346444 0 -0.43525592456887258 -0.14374997194848471 0 -0.44410307239699631 -0.15282998285397989 0 -0.4273858072007774 -0.14414008567558009 0 -0.43166640735559808 -0.1552039120346444 0 -0.43525592456887258 -0.14374997194848471 0 -0.41930562378398423 -0.12797048681614909 0 -0.43525592456887258 -0.14374997194848471 0 -0.41930562378398423 -0.12797048681614909 0 -0.4273858072007774 -0.14414008567558009 0 -0.43525592456887258 -0.14374997194848471 0 -0.41930562378398423 -0.12797048681614909 0 -0.4273858072007774 -0.14414008567558009 0 -0.41930562378398423 -0.12797048681614909 0 -0.43525592456887258 -0.14374997194848471 0 -0.43389101300267191 -0.13422730327376839 0 -0.41930562378398423 -0.12797048681614909 0 -0.43389101300267191 -0.13422730327376839 0 -0.4149348530849476 -0.1169905694289516 0 -0.43389101300267191 -0.13422730327376839 0 -0.4149348530849476 -0.1169905694289516 0 -0.43389101300267191 -0.13422730327376839 0 -0.43160182387889101 -0.1187955019330571 0 -0.44085253015216358 -0.1237950587173612 0 -0.43389101300267191 -0.13422730327376839 0 -0.44872577578551592 -0.13320174295465559 0 -0.452847172920396 -0.1514640371185853 0 -0.44872577578551592 -0.13320174295465559 0 -0.45896755277767909 -0.12575633132281341 0 -0.45000974795797011 -0.119430952696417 0 -0.44872577578551592 -0.13320174295465559 0 -0.45000974795797011 -0.119430952696417 0 -0.44085253015216358 -0.1237950587173612 0 -0.43389101300267191 -0.13422730327376839 0 -0.44872577578551592 -0.13320174295465559 0 -0.44085253015216358 -0.1237950587173612 0 -0.43525592456887258 -0.14374997194848471 0 -0.43389101300267191 -0.13422730327376839 0 -0.452847172920396 -0.1514640371185853 0 -0.43525592456887258 -0.14374997194848471 0 -0.44410307239699631 -0.15282998285397989 0 -0.452847172920396 -0.1514640371185853 0 -0.44872577578551592 -0.13320174295465559 0 -0.452847172920396 -0.1514640371185853 0 -0.456386085566235 -0.14096643446963419 0 -0.43389101300267191 -0.13422730327376839 0 -0.452847172920396 -0.1514640371185853 0 -0.44410307239699631 -0.15282998285397989 0 -0.452847172920396 -0.1514640371185853 0 -0.45664278474311831 -0.16090201031420531 0 -0.452847172920396 -0.1514640371185853 0 -0.456386085566235 -0.14096643446963419 0 -0.46738274896045578 -0.15003021006820461 0 -0.452847172920396 -0.1514640371185853 0 -0.46738274896045578 -0.15003021006820461 0 -0.45664278474311831 -0.16090201031420531 0 -0.456386085566235 -0.14096643446963419 0 -0.46738274896045578 -0.15003021006820461 0 -0.47200539146090159 -0.13839174763128981 0 -0.456386085566235 -0.14096643446963419 0 -0.47200539146090159 -0.13839174763128981 0 -0.47750202174635031 -0.1215216316744509 0 -0.456386085566235 -0.14096643446963419 0 -0.45896755277767909 -0.12575633132281341 0 -0.47750202174635031 -0.1215216316744509 0 -0.456386085566235 -0.14096643446963419 0 -0.47750202174635031 -0.1215216316744509 0 -0.44872577578551592 -0.13320174295465559 0 -0.456386085566235 -0.14096643446963419 0 -0.45896755277767909 -0.12575633132281341 0 -0.47200539146090159 -0.13839174763128981 0 -0.48675070957056549 -0.14104871431286931 0 -0.47750202174635031 -0.1215216316744509 0 -0.50000000000000011 -0.12648838757554831 0 -0.48675070957056549 -0.14104871431286931 0 -0.5 -0.15043640832747529 0 -0.50000000000000011 -0.12648838757554831 0 -0.48675070957056549 -0.14104871431286931 0 -0.47750202174635031 -0.1215216316744509 0 -0.48675070957056549 -0.14104871431286931 0 -0.5 -0.15043640832747529 0 -0.48062174440056549 -0.15969986187448909 0 -0.46738274896045578 -0.15003021006820461 0 -0.47200539146090159 -0.13839174763128981 0 -0.48675070957056549 -0.14104871431286931 0 -0.48675070957056549 -0.14104871431286931 0 -0.48062174440056549 -0.15969986187448909 0 -0.46738274896045578 -0.15003021006820461 0 -0.48675070957056549 -0.14104871431286931 0 -0.48062174440056549 -0.15969986187448909 0 -0.48062174440056549 -0.15969986187448909 0 -0.46548313673471758 -0.16971310035941381 0 -0.46753260370971428 -0.1600862956540782 0 -0.46738274896045578 -0.15003021006820461 0 -0.48062174440056549 -0.15969986187448909 0 -0.46753260370971428 -0.1600862956540782 0 -0.48062174440056549 -0.15969986187448909 0 -0.47449277923056221 -0.17835100943610771 0 -0.46548313673471758 -0.16971310035941381 0 -0.48062174440056549 -0.15969986187448909 0 -0.47449277923056221 -0.17835100943610771 0 -0.5 -0.15043640832747529 0 -0.48062174440056549 -0.15969986187448909 0 -0.49999999999999828 -0.17438442907940241 0 -0.48062174440056549 -0.15969986187448909 0 -0.49999999999999828 -0.17438442907940241 0 -0.47449277923056221 -0.17835100943610771 0 -0.49999999999999828 -0.17438442907940241 0 -0.47449277923056221 -0.17835100943610771 0 -0.49999999999999828 -0.17438442907940241 0 -0.47449277923056221 -0.17835100943610771 0 -0.48549376880548989 -0.19132810400505559 0 -0.47449277923056221 -0.17835100943610771 0 -0.46892716456320649 -0.19528781647494389 0 -0.47449277923056221 -0.17835100943610771 0 -0.45952205817714309 -0.18067907836188021 0 -0.46892716456320649 -0.19528781647494389 0 -0.45952205817714309 -0.18067907836188021 0 -0.46548313673471758 -0.16971310035941381 0 -0.45289664290439807 -0.17180374819378549 0 -0.47449277923056221 -0.17835100943610771 0 -0.45952205817714309 -0.18067907836188021 0 -0.47449277923056221 -0.17835100943610771 0 -0.45952205817714309 -0.18067907836188021 0 -0.46548313673471758 -0.16971310035941381 0 -0.46548313673471758 -0.16971310035941381 0 -0.46753260370971428 -0.1600862956540782 0 -0.45664278474311831 -0.16090201031420531 0 -0.46738274896045578 -0.15003021006820461 0 -0.46753260370971428 -0.1600862956540782 0 -0.45664278474311831 -0.16090201031420531 0 -0.46548313673471758 -0.16971310035941381 0 -0.45664278474311831 -0.16090201031420531 0 -0.45289664290439807 -0.17180374819378549 0 -0.45664278474311831 -0.16090201031420531 0 -0.45289664290439807 -0.17180374819378549 0 -0.44219215159727421 -0.16781727210851849 0 -0.43166640735559808 -0.1552039120346444 0 -0.45664278474311831 -0.16090201031420531 0 -0.44219215159727421 -0.16781727210851849 0 -0.43166640735559808 -0.1552039120346444 0 -0.45664278474311831 -0.16090201031420531 0 -0.43166640735559808 -0.1552039120346444 0 -0.44410307239699631 -0.15282998285397989 0 -0.45664278474311831 -0.16090201031420531 0 -0.43495901877196291 -0.17485617288990979 0 -0.44219215159727421 -0.16781727210851849 0 -0.44455133712372419 -0.18300714728765441 0 -0.43099962817645188 -0.18319011649723049 0 -0.44455133712372419 -0.18300714728765441 0 -0.43833565968517207 -0.19112957676178299 0 -0.45952205817714309 -0.18067907836188021 0 -0.44455133712372419 -0.18300714728765441 0 -0.45396471697207569 -0.194241302212698 0 -0.45952205817714309 -0.18067907836188021 0 -0.44455133712372419 -0.18300714728765441 0 -0.45952205817714309 -0.18067907836188021 0 -0.45289664290439807 -0.17180374819378549 0 -0.44455133712372419 -0.18300714728765441 0 -0.45289664290439807 -0.17180374819378549 0 -0.44219215159727421 -0.16781727210851849 0 -0.44455133712372419 -0.18300714728765441 0 -0.44455133712372419 -0.18300714728765441 0 -0.43833565968517207 -0.19112957676178299 0 -0.45396471697207569 -0.194241302212698 0 -0.43833565968517207 -0.19112957676178299 0 -0.44184138868315109 -0.20247798044170351 0 -0.45396471697207569 -0.194241302212698 0 -0.44184138868315109 -0.20247798044170351 0 -0.46336154989584488 -0.2122246235137781 0 -0.45396471697207569 -0.194241302212698 0 -0.44184138868315109 -0.20247798044170351 0 -0.46336154989584488 -0.2122246235137781 0 -0.45338394269579491 -0.2190794284651259 0 -0.43378961613155448 -0.20908682079381441 0 -0.44184138868315109 -0.20247798044170351 0 -0.44166379455333399 -0.21604972156869759 0 -0.44184138868315109 -0.20247798044170351 0 -0.44166379455333399 -0.21604972156869759 0 -0.45338394269579491 -0.2190794284651259 0 -0.44184138868315109 -0.20247798044170351 0 -0.46336154989584488 -0.2122246235137781 0 -0.46336154989584488 -0.2122246235137781 0 -0.46892716456320649 -0.19528781647494389 0 -0.46336154989584488 -0.2122246235137781 0 -0.45396471697207569 -0.194241302212698 0 -0.46892716456320649 -0.19528781647494389 0 -0.45952205817714309 -0.18067907836188021 0 -0.45396471697207569 -0.194241302212698 0 -0.46892716456320649 -0.19528781647494389 0 -0.47449277923056221 -0.17835100943610771 0 -0.46892716456320649 -0.19528781647494389 0 -0.48549376880548989 -0.19132810400505559 0 -0.46892716456320649 -0.19528781647494389 0 -0.48549376880548989 -0.19132810400505559 0 -0.47978640147694102 -0.20418872613165631 0 -0.5 -0.20182215567114031 0 -0.48549376880548989 -0.19132810400505559 0 -0.47978640147694102 -0.20418872613165631 0 -0.49999999999999828 -0.17438442907940241 0 -0.5 -0.20182215567114031 0 -0.48549376880548989 -0.19132810400505559 0 -0.5 -0.20182215567114031 0 -0.48114952412016337 -0.22028093099336349 0 -0.49893749834448198 -0.22833723847294871 0 -0.5 -0.20182215567114031 0 -0.47978640147694102 -0.20418872613165631 0 -0.48114952412016337 -0.22028093099336349 0 -0.46336154989584488 -0.2122246235137781 0 -0.48114952412016337 -0.22028093099336349 0 -0.46336154989584488 -0.2122246235137781 0 -0.47978640147694102 -0.20418872613165631 0 -0.48114952412016337 -0.22028093099336349 0 -0.46336154989584488 -0.2122246235137781 0 -0.46892716456320649 -0.19528781647494389 0 -0.47978640147694102 -0.20418872613165631 0 -0.46336154989584488 -0.2122246235137781 0 -0.48114952412016337 -0.22028093099336349 0 -0.46857810181099829 -0.22486784275082261 0 -0.48114952412016337 -0.22028093099336349 0 -0.48798868478634799 -0.231470988200419 0 -0.47142395938804471 -0.23802335247430181 0 -0.48114952412016337 -0.22028093099336349 0 -0.47142395938804471 -0.23802335247430181 0 -0.46857810181099829 -0.22486784275082261 0 -0.48114952412016337 -0.22028093099336349 0 -0.48798868478634799 -0.231470988200419 0 -0.49893749834448198 -0.22833723847294871 0 -0.48114952412016337 -0.22028093099336349 0 -0.49893749834448198 -0.22833723847294871 0 -0.48798868478634799 -0.231470988200419 0 -0.49893749834448198 -0.22833723847294871 0 -0.4875835208682564 -0.24248539692068891 0 -0.5 -0.25669760885461612 0 -0.49893749834448198 -0.22833723847294871 0 -0.4875835208682564 -0.24248539692068891 0 -0.48798868478634799 -0.231470988200419 0 -0.4875835208682564 -0.24248539692068891 0 -0.47142395938804471 -0.23802335247430181 0 -0.47878778985378329 -0.25835102983948688 0 -0.4875835208682564 -0.24248539692068891 0 -0.47142395938804471 -0.23802335247430181 0 -0.45662330498375908 -0.25656877445722759 0 -0.47142395938804471 -0.23802335247430181 0 -0.45034617445999431 -0.24335722649563979 0 -0.47142395938804471 -0.23802335247430181 0 -0.45735065046854989 -0.23051648340969341 0 -0.45034617445999431 -0.24335722649563979 0 -0.46336154989584488 -0.2122246235137781 0 -0.46857810181099829 -0.22486784275082261 0 -0.45735065046854989 -0.23051648340969341 0 -0.46336154989584488 -0.2122246235137781 0 -0.45735065046854989 -0.23051648340969341 0 -0.47142395938804471 -0.23802335247430181 0 -0.46857810181099829 -0.22486784275082261 0 -0.45735065046854989 -0.23051648340969341 0 -0.46336154989584488 -0.2122246235137781 0 -0.45338394269579491 -0.2190794284651259 0 -0.45735065046854989 -0.23051648340969341 0 -0.45338394269579491 -0.2190794284651259 0 -0.45735065046854989 -0.23051648340969341 0 -0.43806130733353449 -0.23541812032183559 0 -0.44166379455333399 -0.21604972156869759 0 -0.43806130733353449 -0.23541812032183559 0 -0.44166379455333399 -0.21604972156869759 0 -0.45338394269579491 -0.2190794284651259 0 -0.43806130733353449 -0.23541812032183559 0 -0.45735065046854989 -0.23051648340969341 0 -0.45034617445999431 -0.24335722649563979 0 -0.43806130733353449 -0.23541812032183559 0 -0.43445882011373449 -0.25478651907497341 0 -0.45034617445999431 -0.24335722649563979 0 -0.43806130733353449 -0.23541812032183559 0 -0.41324955929443102 -0.038374170610562031 0 -0.41005136228565903 -0.05540387285823338 0 -0.42435348212729052 -0.04457483879584373 0 -0.41324955929443102 -0.038374170610562031 0 -0.41005136228565903 -0.05540387285823338 0 -0.39900851660089293 -0.046429079601448257 0 -0.41324955929443102 -0.038374170610562031 0 -0.40747857107326091 -0.02424585309778798 0 -0.40045416304880688 -0.034240371911693122 0 -0.41005136228565903 -0.05540387285823338 0 -0.4246600563061857 -0.059067830999859447 0 -0.41422906440869389 -0.068128229862373102 0 -0.41005136228565903 -0.05540387285823338 0 -0.4246600563061857 -0.059067830999859447 0 -0.42435348212729052 -0.04457483879584373 0 -0.4246600563061857 -0.059067830999859447 0 -0.42435348212729052 -0.04457483879584373 0 -0.43957367317472601 -0.045089571971719818 0 -0.4246600563061857 -0.059067830999859447 0 -0.43957367317472601 -0.045089571971719818 0 -0.44544580640037118 -0.056213229689383748 0 -0.41324955929443102 -0.038374170610562031 0 -0.42435348212729052 -0.04457483879584373 0 -0.42981912379901888 -0.030443092666165631 0 -0.42435348212729052 -0.04457483879584373 0 -0.42981912379901888 -0.030443092666165631 0 -0.43957367317472601 -0.045089571971719818 0 -0.41302196833726168 -0.01226972299954816 0 -0.4392085005598273 -0.024676348383282701 0 -0.42659341977192161 -0.010103830507352861 0 -0.41302196833726168 -0.01226972299954816 0 -0.4392085005598273 -0.024676348383282701 0 -0.42981912379901888 -0.030443092666165631 0 -0.41673372021425997 -0.022240754673565791 0 -0.4392085005598273 -0.024676348383282701 0 -0.41302196833726168 -0.01226972299954816 0 -0.41673372021425997 -0.022240754673565791 0 -0.4392085005598273 -0.024676348383282701 0 -0.43741768347029059 -0.01288367903972009 0 -0.42659341977192161 -0.010103830507352861 0 -0.4392085005598273 -0.024676348383282701 0 -0.4441818909265971 -0.00998157505946092 0 -0.42578104856505677 0.0031949168855625672 0 -0.43741768347029059 -0.01288367903972009 0 -0.4441818909265971 -0.00998157505946092 0 -0.42578104856505677 0.0031949168855625672 0 -0.43741768347029059 -0.01288367903972009 0 -0.42659341977192161 -0.010103830507352861 0 -0.42578104856505677 0.0031949168855625672 0 -0.43741768347029059 -0.01288367903972009 0 -0.42578104856505677 0.0031949168855625672 0 -0.42659341977192161 -0.010103830507352861 0 -0.41753789792717189 -0.0038843189997757009 0 -0.42578104856505677 0.0031949168855625672 0 -0.42659341977192161 -0.010103830507352861 0 -0.41753789792717189 -0.0038843189997757009 0 -0.41302196833726168 -0.01226972299954816 0 -0.41753789792717189 -0.0038843189997757009 0 -0.41302196833726168 -0.01226972299954816 0 -0.40771050441737638 -0.0035262849216432719 0 -0.41753789792717189 -0.0038843189997757009 0 -0.40771050441737638 -0.0035262849216432719 0 -0.41105156913745711 0.0034129409419674369 0 -0.42981912379901888 -0.030443092666165631 0 -0.40747857107326091 -0.02424585309778798 0 -0.41324955929443102 -0.038374170610562031 0 -0.42981912379901888 -0.030443092666165631 0 -0.40747857107326091 -0.02424585309778798 0 -0.42981912379901888 -0.030443092666165631 0 -0.41673372021425997 -0.022240754673565791 0 -0.40747857107326091 -0.02424585309778798 0 -0.41302196833726168 -0.01226972299954816 0 -0.41673372021425997 -0.022240754673565791 0 -0.40747857107326091 -0.02424585309778798 0 -0.41673372021425997 -0.022240754673565791 0 -0.40747857107326091 -0.02424585309778798 0 -0.40747857107326091 -0.02424585309778798 0 -0.38992317137517202 -0.02804917422583518 0 -0.40747857107326091 -0.02424585309778798 0 -0.38992317137517202 -0.02804917422583518 0 -0.38297625517291389 -0.017448943304264108 0 -0.40747857107326091 -0.02424585309778798 0 -0.38992317137517202 -0.02804917422583518 0 -0.40045416304880688 -0.034240371911693122 0 -0.40747857107326091 -0.02424585309778798 0 -0.39567459441968961 -0.012635194689989219 0 -0.38297625517291389 -0.017448943304264108 0 -0.40747857107326091 -0.02424585309778798 0 -0.38297625517291389 -0.017448943304264108 0 -0.41302196833726168 -0.01226972299954816 0 -0.40747857107326091 -0.02424585309778798 0 -0.39567459441968961 -0.012635194689989219 0 -0.41302196833726168 -0.01226972299954816 0 -0.40771050441737638 -0.0035262849216432719 0 -0.38683543611469601 0.0001369023841863784 0 -0.41302196833726168 -0.01226972299954816 0 -0.39567459441968961 -0.012635194689989219 0 -0.38683543611469601 0.0001369023841863784 0 -0.41302196833726168 -0.01226972299954816 0 -0.38683543611469601 0.0001369023841863784 0 -0.40771050441737638 -0.0035262849216432719 0 -0.38683543611469601 0.0001369023841863784 0 -0.40226596945639398 0.0014711925349297271 0 -0.39567459441968961 -0.012635194689989219 0 -0.38502252263107412 -0.0084426060797158468 0 -0.38683543611469601 0.0001369023841863784 0 -0.39567459441968961 -0.012635194689989219 0 -0.38502252263107412 -0.0084426060797158468 0 -0.38297625517291389 -0.017448943304264108 0 -0.38502252263107412 -0.0084426060797158468 0 -0.38009964520605882 -0.0090403485437739461 0 -0.38297625517291389 -0.017448943304264108 0 -0.37278444596104371 -0.0079457960458173115 0 -0.38009964520605882 -0.0090403485437739461 0 -0.38297625517291389 -0.017448943304264108 0 -0.37474494217865062 -0.0022388935110706832 0 -0.38502252263107412 -0.0084426060797158468 0 -0.38683543611469601 0.0001369023841863784 0 -0.37474494217865062 -0.0022388935110706832 0 -0.38502252263107412 -0.0084426060797158468 0 -0.38009964520605882 -0.0090403485437739461 0 -0.37474494217865062 -0.0022388935110706832 0 -0.37278444596104371 -0.0079457960458173115 0 -0.38009964520605882 -0.0090403485437739461 0 -0.37236777167708351 -0.031852495353884333 0 -0.38992317137517202 -0.02804917422583518 0 -0.37990921189048049 -0.023302515363219579 0 -0.37236777167708351 -0.031852495353884333 0 -0.38992317137517202 -0.02804917422583518 0 -0.38992317137517202 -0.02804917422583518 0 -0.38297625517291389 -0.017448943304264108 0 -0.37990921189048049 -0.023302515363219579 0 -0.3739022591900184 -0.02415390189740213 0 -0.38297625517291389 -0.017448943304264108 0 -0.37990921189048049 -0.023302515363219579 0 -0.37236777167708351 -0.031852495353884333 0 -0.3739022591900184 -0.02415390189740213 0 -0.37990921189048049 -0.023302515363219579 0 -0.37236777167708351 -0.031852495353884333 0 -0.37990921189048049 -0.023302515363219579 0 -0.38458287424021398 -0.039388642062709187 0 -0.39900851660089293 -0.046429079601448257 0 -0.3815482533063424 -0.052412606119804542 0 -0.37355784227175309 -0.045246792894939887 0 -0.37236777167708351 -0.031852495353884333 0 -0.38458287424021398 -0.039388642062709187 0 -0.37236777167708351 -0.031852495353884333 0 -0.38992317137517202 -0.02804917422583518 0 -0.38458287424021398 -0.039388642062709187 0 -0.37355784227175309 -0.045246792894939887 0 -0.38458287424021398 -0.039388642062709187 0 -0.3815482533063424 -0.052412606119804542 0 -0.38458287424021398 -0.039388642062709187 0 -0.39900851660089293 -0.046429079601448257 0 -0.40045416304880688 -0.034240371911693122 0 -0.38992317137517202 -0.02804917422583518 0 -0.38458287424021398 -0.039388642062709187 0 -0.40045416304880688 -0.034240371911693122 0 -0.41324955929443102 -0.038374170610562031 0 -0.39900851660089293 -0.046429079601448257 0 -0.40045416304880688 -0.034240371911693122 0 -0.39900851660089293 -0.046429079601448257 0 -0.39626447370361728 -0.06091275685647668 0 -0.3815482533063424 -0.052412606119804542 0 -0.41005136228565903 -0.05540387285823338 0 -0.39626447370361728 -0.06091275685647668 0 -0.40517181862379281 -0.066558370858305557 0 -0.41005136228565903 -0.05540387285823338 0 -0.39900851660089293 -0.046429079601448257 0 -0.39626447370361728 -0.06091275685647668 0 -0.36862349457690058 -0.057461967220355487 0 -0.3815482533063424 -0.052412606119804542 0 -0.37947166312044489 -0.067272628224985004 0 -0.3815482533063424 -0.052412606119804542 0 -0.37947166312044489 -0.067272628224985004 0 -0.39260231949431601 -0.074533368335879327 0 -0.36882665317829499 -0.078032107790563188 0 -0.39260231949431601 -0.074533368335879327 0 -0.39626447370361728 -0.06091275685647668 0 -0.3815482533063424 -0.052412606119804542 0 -0.39260231949431601 -0.074533368335879327 0 -0.3815482533063424 -0.052412606119804542 0 -0.39260231949431601 -0.074533368335879327 0 -0.36882665317829499 -0.078032107790563188 0 -0.37947166312044489 -0.067272628224985004 0 -0.39260231949431601 -0.074533368335879327 0 -0.36882665317829499 -0.078032107790563188 0 -0.39260231949431601 -0.074533368335879327 0 -0.39002829617667018 -0.099006697234722524 0 -0.36882665317829499 -0.078032107790563188 0 -0.39002829617667018 -0.099006697234722524 0 -0.37367929427193591 -0.1014825750548952 0 -0.36882665317829499 -0.078032107790563188 0 -0.39002829617667018 -0.099006697234722524 0 -0.39260231949431601 -0.074533368335879327 0 -0.39002829617667018 -0.099006697234722524 0 -0.39510370691593599 -0.098958215311000047 0 -0.39260231949431601 -0.074533368335879327 0 -0.40274583300482147 -0.094831984843681591 0 -0.39260231949431601 -0.074533368335879327 0 -0.39510370691593599 -0.098958215311000047 0 -0.40274583300482147 -0.094831984843681591 0 -0.40361170428446441 -0.083317353290434007 0 -0.39260231949431601 -0.074533368335879327 0 -0.40274583300482147 -0.094831984843681591 0 -0.40361170428446441 -0.083317353290434007 0 -0.39867569396630093 -0.073639632925658519 0 -0.40696916935602839 -0.074517235882718885 0 -0.39867569396630093 -0.073639632925658519 0 -0.40517181862379281 -0.066558370858305557 0 -0.40696916935602839 -0.074517235882718885 0 -0.39626447370361728 -0.06091275685647668 0 -0.39867569396630093 -0.073639632925658519 0 -0.40517181862379281 -0.066558370858305557 0 -0.39626447370361728 -0.06091275685647668 0 -0.39867569396630093 -0.073639632925658519 0 -0.39260231949431601 -0.074533368335879327 0 -0.40361170428446441 -0.083317353290434007 0 -0.39867569396630093 -0.073639632925658519 0 -0.39260231949431601 -0.074533368335879327 0 -0.39867569396630093 -0.073639632925658519 0 -0.39260231949431601 -0.074533368335879327 0 -0.37212838853434238 -0.11808059788504249 0 -0.38278168804071749 -0.12940228238898679 0 -0.39044023874876249 -0.11757149150947201 0 -0.37367929427193591 -0.1014825750548952 0 -0.37212838853434238 -0.11808059788504249 0 -0.39044023874876249 -0.11757149150947201 0 -0.37367929427193591 -0.1014825750548952 0 -0.39044023874876249 -0.11757149150947201 0 -0.39002829617667018 -0.099006697234722524 0 -0.39510370691593599 -0.098958215311000047 0 -0.40274583300482147 -0.094831984843681591 0 -0.41288934651532883 -0.11513060135148299 0 -0.39002829617667018 -0.099006697234722524 0 -0.39510370691593599 -0.098958215311000047 0 -0.41122993917504558 -0.1199812866788818 0 -0.39510370691593599 -0.098958215311000047 0 -0.41288934651532883 -0.11513060135148299 0 -0.39647179587780151 -0.13189450107720049 0 -0.39044023874876249 -0.11757149150947201 0 -0.41122993917504558 -0.1199812866788818 0 -0.39002829617667018 -0.099006697234722524 0 -0.41122993917504558 -0.1199812866788818 0 -0.39044023874876249 -0.11757149150947201 0 -0.39002829617667018 -0.099006697234722524 0 -0.41122993917504558 -0.1199812866788818 0 -0.39510370691593599 -0.098958215311000047 0 -0.41122993917504558 -0.1199812866788818 0 -0.41288934651532883 -0.11513060135148299 0 -0.41930562378398423 -0.12797048681614909 0 -0.41122993917504558 -0.1199812866788818 0 -0.4149348530849476 -0.1169905694289516 0 -0.41930562378398423 -0.12797048681614909 0 -0.41122993917504558 -0.1199812866788818 0 -0.41930562378398423 -0.12797048681614909 0 -0.4149348530849476 -0.1169905694289516 0 -0.41122993917504558 -0.1199812866788818 0 -0.41288934651532883 -0.11513060135148299 0 -0.4149348530849476 -0.1169905694289516 0 -0.41122993917504558 -0.1199812866788818 0 -0.4149348530849476 -0.1169905694289516 0 -0.41288934651532883 -0.11513060135148299 0 -0.4149348530849476 -0.1169905694289516 0 -0.41288934651532883 -0.11513060135148299 0 -0.4149348530849476 -0.1169905694289516 0 -0.41458672172207622 -0.10427776634057311 0 -0.40274583300482147 -0.094831984843681591 0 -0.41288934651532883 -0.11513060135148299 0 -0.4149348530849476 -0.1169905694289516 0 -0.41458672172207622 -0.10427776634057311 0 -0.43059848591229039 -0.1043464168163742 0 -0.40274583300482147 -0.094831984843681591 0 -0.41288934651532883 -0.11513060135148299 0 -0.41458672172207622 -0.10427776634057311 0 -0.41458672172207622 -0.10427776634057311 0 -0.41348552386521947 -0.090840815536544176 0 -0.43025813067654672 -0.08737754853092726 0 -0.40274583300482147 -0.094831984843681591 0 -0.41458672172207622 -0.10427776634057311 0 -0.41348552386521947 -0.090840815536544176 0 -0.43059848591229039 -0.1043464168163742 0 -0.43025813067654672 -0.08737754853092726 0 -0.44626211873963212 -0.091702264203795431 0 -0.41458672172207622 -0.10427776634057311 0 -0.43059848591229039 -0.1043464168163742 0 -0.43025813067654672 -0.08737754853092726 0 -0.41458672172207622 -0.10427776634057311 0 -0.43025813067654672 -0.08737754853092726 0 -0.4149348530849476 -0.1169905694289516 0 -0.43059848591229039 -0.1043464168163742 0 -0.43160182387889101 -0.1187955019330571 0 -0.4149348530849476 -0.1169905694289516 0 -0.43059848591229039 -0.1043464168163742 0 -0.43389101300267191 -0.13422730327376839 0 -0.4149348530849476 -0.1169905694289516 0 -0.43160182387889101 -0.1187955019330571 0 -0.43059848591229039 -0.1043464168163742 0 -0.43160182387889101 -0.1187955019330571 0 -0.44003429013576911 -0.11331979272890801 0 -0.43160182387889101 -0.1187955019330571 0 -0.44085253015216358 -0.1237950587173612 0 -0.44003429013576911 -0.11331979272890801 0 -0.41422906440869389 -0.068128229862373102 0 -0.41539885585273961 -0.080089681603359497 0 -0.42594434486026628 -0.073522222089585226 0 -0.4246600563061857 -0.059067830999859447 0 -0.41422906440869389 -0.068128229862373102 0 -0.42594434486026628 -0.073522222089585226 0 -0.41005136228565903 -0.05540387285823338 0 -0.40517181862379281 -0.066558370858305557 0 -0.41422906440869389 -0.068128229862373102 0 -0.40517181862379281 -0.066558370858305557 0 -0.41422906440869389 -0.068128229862373102 0 -0.40696916935602839 -0.074517235882718885 0 -0.41422906440869389 -0.068128229862373102 0 -0.40696916935602839 -0.074517235882718885 0 -0.41539885585273961 -0.080089681603359497 0 -0.41348552386521947 -0.090840815536544176 0 -0.41539885585273961 -0.080089681603359497 0 -0.43025813067654672 -0.08737754853092726 0 -0.40361170428446441 -0.083317353290434007 0 -0.41348552386521947 -0.090840815536544176 0 -0.41539885585273961 -0.080089681603359497 0 -0.40361170428446441 -0.083317353290434007 0 -0.40696916935602839 -0.074517235882718885 0 -0.41539885585273961 -0.080089681603359497 0 -0.40361170428446441 -0.083317353290434007 0 -0.40274583300482147 -0.094831984843681591 0 -0.41348552386521947 -0.090840815536544176 0 -0.41539885585273961 -0.080089681603359497 0 -0.43025813067654672 -0.08737754853092726 0 -0.42594434486026628 -0.073522222089585226 0 -0.4246600563061857 -0.059067830999859447 0 -0.44592953963101739 -0.07047733072128165 0 -0.43025813067654672 -0.08737754853092726 0 -0.42594434486026628 -0.073522222089585226 0 -0.44592953963101739 -0.07047733072128165 0 -0.4246600563061857 -0.059067830999859447 0 -0.42594434486026628 -0.073522222089585226 0 -0.44592953963101739 -0.07047733072128165 0 -0.44592953963101739 -0.07047733072128165 0 -0.45893666683642192 -0.056450303318209168 0 -0.44592953963101739 -0.07047733072128165 0 -0.44626211873963212 -0.091702264203795431 0 -0.46192575156697407 -0.079058111591217034 0 -0.43025813067654672 -0.08737754853092726 0 -0.44592953963101739 -0.07047733072128165 0 -0.43025813067654672 -0.08737754853092726 0 -0.44592953963101739 -0.07047733072128165 0 -0.44626211873963212 -0.091702264203795431 0 -0.44626211873963212 -0.091702264203795431 0 -0.46631049206888459 -0.091444160656324658 0 -0.46192575156697407 -0.079058111591217034 0 -0.44626211873963212 -0.091702264203795431 0 -0.46192575156697407 -0.079058111591217034 0 -0.46631049206888459 -0.091444160656324658 0 -0.46192575156697407 -0.079058111591217034 0 -0.47702460168979111 -0.087157524427869615 0 -0.44592953963101739 -0.07047733072128165 0 -0.46192575156697407 -0.079058111591217034 0 -0.45893666683642192 -0.056450303318209168 0 -0.46192575156697407 -0.079058111591217034 0 -0.47491389520024407 -0.068573693827893439 0 -0.45893666683642192 -0.056450303318209168 0 -0.46192575156697407 -0.079058111591217034 0 -0.47491389520024407 -0.068573693827893439 0 -0.44592953963101739 -0.07047733072128165 0 -0.46192575156697407 -0.079058111591217034 0 -0.45000974795797011 -0.119430952696417 0 -0.44085253015216358 -0.1237950587173612 0 -0.44003429013576911 -0.11331979272890801 0 -0.45000974795797011 -0.119430952696417 0 -0.44003429013576911 -0.11331979272890801 0 -0.44926481423485548 -0.10476542824413421 0 -0.43059848591229039 -0.1043464168163742 0 -0.44626211873963212 -0.091702264203795431 0 -0.43059848591229039 -0.1043464168163742 0 -0.44626211873963212 -0.091702264203795431 0 -0.44926481423485548 -0.10476542824413421 0 -0.43059848591229039 -0.1043464168163742 0 -0.44003429013576911 -0.11331979272890801 0 -0.44926481423485548 -0.10476542824413421 0 -0.44626211873963212 -0.091702264203795431 0 -0.44926481423485548 -0.10476542824413421 0 -0.46153012095291662 -0.1019472767233552 0 -0.44626211873963212 -0.091702264203795431 0 -0.46631049206888459 -0.091444160656324658 0 -0.46153012095291662 -0.1019472767233552 0 -0.46631049206888459 -0.091444160656324658 0 -0.46153012095291662 -0.1019472767233552 0 -0.4710589232177344 -0.098453604121520433 0 -0.46153012095291662 -0.1019472767233552 0 -0.46221413283232399 -0.11366089481890911 0 -0.47430793409480421 -0.10627177682285049 0 -0.44926481423485548 -0.10476542824413421 0 -0.46153012095291662 -0.1019472767233552 0 -0.46221413283232399 -0.11366089481890911 0 -0.45896755277767909 -0.12575633132281341 0 -0.46221413283232399 -0.11366089481890911 0 -0.47750202174635031 -0.1215216316744509 0 -0.45000974795797011 -0.119430952696417 0 -0.44926481423485548 -0.10476542824413421 0 -0.46221413283232399 -0.11366089481890911 0 -0.45896755277767909 -0.12575633132281341 0 -0.45000974795797011 -0.119430952696417 0 -0.46221413283232399 -0.11366089481890911 0 -0.47750202174635031 -0.1215216316744509 0 -0.47430793409480421 -0.10627177682285049 0 -0.48673501487359588 -0.1010237797652184 0 -0.46221413283232399 -0.11366089481890911 0 -0.47750202174635031 -0.1215216316744509 0 -0.47430793409480421 -0.10627177682285049 0 -0.47430793409480421 -0.10627177682285049 0 -0.47745372589702628 -0.099742000537211661 0 -0.48673501487359588 -0.1010237797652184 0 -0.46153012095291662 -0.1019472767233552 0 -0.47430793409480421 -0.10627177682285049 0 -0.4710589232177344 -0.098453604121520433 0 -0.46631049206888459 -0.091444160656324658 0 -0.4710589232177344 -0.098453604121520433 0 -0.47771303140197108 -0.093218841439257433 0 -0.47430793409480421 -0.10627177682285049 0 -0.4710589232177344 -0.098453604121520433 0 -0.47745372589702628 -0.099742000537211661 0 -0.4710589232177344 -0.098453604121520433 0 -0.47745372589702628 -0.099742000537211661 0 -0.47771303140197108 -0.093218841439257433 0 -0.47745372589702628 -0.099742000537211661 0 -0.48673501487359588 -0.1010237797652184 0 -0.47771303140197108 -0.093218841439257433 0 -0.48673501487359588 -0.1010237797652184 0 -0.47771303140197108 -0.093218841439257433 0 -0.47702460168979111 -0.087157524427869615 0 -0.47750202174635031 -0.1215216316744509 0 -0.48673501487359588 -0.1010237797652184 0 -0.4986179579264654 -0.1020768288792674 0 -0.48673501487359588 -0.1010237797652184 0 -0.49842317329231273 -0.098636270432611556 0 -0.47702460168979111 -0.087157524427869615 0 -0.48673501487359588 -0.1010237797652184 0 -0.49842317329231273 -0.098636270432611556 0 -0.4986179579264654 -0.1020768288792674 0 -0.49999999999999939 -0.099482120969144883 0 -0.49842317329231273 -0.098636270432611556 0 -0.4986179579264654 -0.1020768288792674 0 -0.49842317329231273 -0.098636270432611556 0 -0.4986179579264654 -0.1020768288792674 0 -0.49999999999999939 -0.099482120969144883 0 -0.49842317329231273 -0.098636270432611556 0 -0.50000000000000011 -0.12648838757554831 0 -0.47750202174635031 -0.1215216316744509 0 -0.4986179579264654 -0.1020768288792674 0 -0.47750202174635031 -0.1215216316744509 0 -0.4986179579264654 -0.1020768288792674 0 -0.47491389520024407 -0.068573693827893439 0 -0.47702460168979111 -0.087157524427869615 0 -0.4847984782487687 -0.075944598732494498 0 -0.47491389520024407 -0.068573693827893439 0 -0.47702460168979111 -0.087157524427869615 0 -0.47967839073812912 -0.064727650616396362 0 -0.4847984782487687 -0.075944598732494498 0 -0.48794163871831331 -0.064119883023254248 0 -0.47967839073812912 -0.064727650616396362 0 -0.47491389520024407 -0.068573693827893439 0 -0.4847984782487687 -0.075944598732494498 0 -0.47967839073812912 -0.064727650616396362 0 -0.47491389520024407 -0.068573693827893439 0 -0.46192575156697407 -0.079058111591217034 0 -0.47702460168979111 -0.087157524427869615 0 -0.46192575156697407 -0.079058111591217034 0 -0.47491389520024407 -0.068573693827893439 0 -0.47702460168979111 -0.087157524427869615 0 -0.46631049206888459 -0.091444160656324658 0 -0.47771303140197108 -0.093218841439257433 0 -0.47702460168979111 -0.087157524427869615 0 -0.47771303140197108 -0.093218841439257433 0 -0.47702460168979111 -0.087157524427869615 0 -0.49842317329231273 -0.098636270432611556 0 -0.49712708577170861 -0.075742961183477536 0 -0.4847984782487687 -0.075944598732494498 0 -0.49999999999999939 -0.099482120969144883 0 -0.49842317329231273 -0.098636270432611556 0 -0.5 -0.078030389970551228 0 -0.49842317329231273 -0.098636270432611556 0 -0.49712708577170861 -0.075742961183477536 0 -0.49842317329231273 -0.098636270432611556 0 -0.5 -0.078030389970551228 0 -0.49712708577170861 -0.075742961183477536 0 -0.49842317329231273 -0.098636270432611556 0 -0.47702460168979111 -0.087157524427869615 0 -0.4847984782487687 -0.075944598732494498 0 -0.49842317329231273 -0.098636270432611556 0 -0.47702460168979111 -0.087157524427869615 0 -0.5 -0.078030389970551228 0 -0.49712708577170861 -0.075742961183477536 0 -0.49999999999999928 -0.056578658971957581 0 -0.49712708577170861 -0.075742961183477536 0 -0.49583099825110311 -0.052849651934343489 0 -0.49712708577170861 -0.075742961183477536 0 -0.48794163871831331 -0.064119883023254248 0 -0.49583099825110311 -0.052849651934343489 0 -0.49712708577170861 -0.075742961183477536 0 -0.4847984782487687 -0.075944598732494498 0 -0.48794163871831331 -0.064119883023254248 0 -0.49712708577170861 -0.075742961183477536 0 -0.49999999999999928 -0.056578658971957581 0 -0.49583099825110311 -0.052849651934343489 0 -0.49583099825110311 -0.052849651934343489 0 -0.47748890114140963 -0.036443372127734748 0 -0.48227324058185622 -0.051334552649559453 0 -0.49999999999999928 -0.056578658971957581 0 -0.49583099825110311 -0.052849651934343489 0 -0.49999999999999928 -0.056578658971957581 0 -0.50000000000000144 -0.053559852644015388 0 -0.49583099825110311 -0.052849651934343489 0 -0.48794163871831331 -0.064119883023254248 0 -0.49583099825110311 -0.052849651934343489 0 -0.48227324058185622 -0.051334552649559453 0 -0.50000000000000144 -0.053559852644015388 0 -0.49583099825110311 -0.052849651934343489 0 -0.48598145264485831 -0.02728491224803695 0 -0.49583099825110311 -0.052849651934343489 0 -0.47748890114140963 -0.036443372127734748 0 -0.48598145264485831 -0.02728491224803695 0 -0.50000000000000144 -0.053559852644015388 0 -0.48598145264485831 -0.02728491224803695 0 -0.50000000000000144 -0.053559852644015388 0 -0.48598145264485831 -0.02728491224803695 0 -0.5 -0.025161366008633609 0 -0.49583099825110311 -0.052849651934343489 0 -0.47748890114140963 -0.036443372127734748 0 -0.47748890114140963 -0.036443372127734748 0 -0.48598145264485831 -0.02728491224803695 0 -0.47748890114140963 -0.036443372127734748 0 -0.47194379404182718 -0.042423275915137587 0 -0.48227324058185622 -0.051334552649559453 0 -0.47748890114140963 -0.036443372127734748 0 -0.47194379404182718 -0.042423275915137587 0 -0.47748890114140963 -0.036443372127734748 0 -0.47194379404182718 -0.042423275915137587 0 -0.47056077858213702 -0.03024644074295027 0 -0.47194379404182718 -0.042423275915137587 0 -0.46539503278239303 -0.037082973767017267 0 -0.47056077858213702 -0.03024644074295027 0 -0.47194379404182718 -0.042423275915137587 0 -0.47056077858213702 -0.03024644074295027 0 -0.47748890114140963 -0.036443372127734748 0 -0.47056077858213702 -0.03024644074295027 0 -0.47748890114140963 -0.036443372127734748 0 -0.47056077858213702 -0.03024644074295027 0 -0.47745882259212458 -0.028728106929589409 0 -0.47967839073812912 -0.064727650616396362 0 -0.47491389520024407 -0.068573693827893439 0 -0.47194379404182718 -0.042423275915137587 0 -0.47967839073812912 -0.064727650616396362 0 -0.47194379404182718 -0.042423275915137587 0 -0.48227324058185622 -0.051334552649559453 0 -0.47491389520024407 -0.068573693827893439 0 -0.47194379404182718 -0.042423275915137587 0 -0.47967839073812912 -0.064727650616396362 0 -0.48794163871831331 -0.064119883023254248 0 -0.48227324058185622 -0.051334552649559453 0 -0.47491389520024407 -0.068573693827893439 0 -0.47194379404182718 -0.042423275915137587 0 -0.45893666683642192 -0.056450303318209168 0 -0.45893666683642192 -0.056450303318209168 0 -0.45743491846808387 -0.04563500224908737 0 -0.44544580640037118 -0.056213229689383748 0 -0.47194379404182718 -0.042423275915137587 0 -0.45893666683642192 -0.056450303318209168 0 -0.45743491846808387 -0.04563500224908737 0 -0.47194379404182718 -0.042423275915137587 0 -0.45893666683642192 -0.056450303318209168 0 -0.46539503278239303 -0.037082973767017267 0 -0.44890774518284438 -0.02927164544362729 0 -0.46539503278239303 -0.037082973767017267 0 -0.45215967652477718 -0.036640332234541717 0 -0.44890774518284438 -0.02927164544362729 0 -0.46539503278239303 -0.037082973767017267 0 -0.44890774518284438 -0.02927164544362729 0 -0.46189821575704781 -0.02986243911986371 0 -0.47194379404182718 -0.042423275915137587 0 -0.46539503278239303 -0.037082973767017267 0 -0.45743491846808387 -0.04563500224908737 0 -0.46539503278239303 -0.037082973767017267 0 -0.46189821575704781 -0.02986243911986371 0 -0.47056077858213702 -0.03024644074295027 0 -0.46539503278239303 -0.037082973767017267 0 -0.45743491846808387 -0.04563500224908737 0 -0.45215967652477718 -0.036640332234541717 0 -0.42981912379901888 -0.030443092666165631 0 -0.45215967652477718 -0.036640332234541717 0 -0.45743491846808387 -0.04563500224908737 0 -0.45215967652477718 -0.036640332234541717 0 -0.43957367317472601 -0.045089571971719818 0 -0.42981912379901888 -0.030443092666165631 0 -0.45215967652477718 -0.036640332234541717 0 -0.43957367317472601 -0.045089571971719818 0 -0.45743491846808387 -0.04563500224908737 0 -0.43957367317472601 -0.045089571971719818 0 -0.44544580640037118 -0.056213229689383748 0 -0.4246600563061857 -0.059067830999859447 0 -0.44592953963101739 -0.07047733072128165 0 -0.44544580640037118 -0.056213229689383748 0 -0.44592953963101739 -0.07047733072128165 0 -0.45893666683642192 -0.056450303318209168 0 -0.44544580640037118 -0.056213229689383748 0 -0.4441818909265971 -0.00998157505946092 0 -0.45588653083934588 0.00041698580085632909 0 -0.44737850259376799 0.0077656591989471307 0 -0.4441818909265971 -0.00998157505946092 0 -0.4570262928383732 -0.018140378997512391 0 -0.45633913854906122 -0.0094275687658610888 0 -0.4441818909265971 -0.00998157505946092 0 -0.45633913854906122 -0.0094275687658610888 0 -0.45588653083934588 0.00041698580085632909 0 -0.43741768347029059 -0.01288367903972009 0 -0.4441818909265971 -0.00998157505946092 0 -0.44890774518284438 -0.02927164544362729 0 -0.42981912379901888 -0.030443092666165631 0 -0.45215967652477718 -0.036640332234541717 0 -0.4392085005598273 -0.024676348383282701 0 -0.4441818909265971 -0.00998157505946092 0 -0.44890774518284438 -0.02927164544362729 0 -0.46258273328813732 -0.023158067004484729 0 -0.43741768347029059 -0.01288367903972009 0 -0.44890774518284438 -0.02927164544362729 0 -0.43741768347029059 -0.01288367903972009 0 -0.4392085005598273 -0.024676348383282701 0 -0.44890774518284438 -0.02927164544362729 0 -0.4392085005598273 -0.024676348383282701 0 -0.44890774518284438 -0.02927164544362729 0 -0.45215967652477718 -0.036640332234541717 0 -0.4392085005598273 -0.024676348383282701 0 -0.44890774518284438 -0.02927164544362729 0 -0.4441818909265971 -0.00998157505946092 0 -0.46258273328813732 -0.023158067004484729 0 -0.46258273328813732 -0.023158067004484729 0 -0.46826183959192841 -0.01000530680732737 0 -0.47056077858213702 -0.03024644074295027 0 -0.4441818909265971 -0.00998157505946092 0 -0.4570262928383732 -0.018140378997512391 0 -0.46258273328813732 -0.023158067004484729 0 -0.4570262928383732 -0.018140378997512391 0 -0.46258273328813732 -0.023158067004484729 0 -0.44890774518284438 -0.02927164544362729 0 -0.46189821575704781 -0.02986243911986371 0 -0.46258273328813732 -0.023158067004484729 0 -0.46258273328813732 -0.023158067004484729 0 -0.47056077858213702 -0.03024644074295027 0 -0.46189821575704781 -0.02986243911986371 0 -0.46258273328813732 -0.023158067004484729 0 -0.47056077858213702 -0.03024644074295027 0 -0.4570262928383732 -0.018140378997512391 0 -0.46258273328813732 -0.023158067004484729 0 -0.46826183959192841 -0.01000530680732737 0 -0.4570262928383732 -0.018140378997512391 0 -0.46826183959192841 -0.01000530680732737 0 -0.45633913854906122 -0.0094275687658610888 0 -0.46826183959192841 -0.01000530680732737 0 -0.45633913854906122 -0.0094275687658610888 0 -0.45588653083934588 0.00041698580085632909 0 -0.46826183959192841 -0.01000530680732737 0 -0.47597217662329228 -0.0085245425598697612 0 -0.4659629006017233 0.010235827128295859 0 -0.46826183959192841 -0.01000530680732737 0 -0.47597217662329228 -0.0085245425598697612 0 -0.47580415800009379 -0.02093770259963601 0 -0.47597217662329228 -0.0085245425598697612 0 -0.48922725890134677 -0.010453537226696331 0 -0.48082517856277007 0.001845263919603602 0 -0.47597217662329228 -0.0085245425598697612 0 -0.47580415800009379 -0.02093770259963601 0 -0.48598145264485831 -0.02728491224803695 0 -0.47597217662329228 -0.0085245425598697612 0 -0.48598145264485831 -0.02728491224803695 0 -0.46826183959192841 -0.01000530680732737 0 -0.47056077858213702 -0.03024644074295027 0 -0.47580415800009379 -0.02093770259963601 0 -0.47597217662329228 -0.0085245425598697612 0 -0.48598145264485831 -0.02728491224803695 0 -0.4893389393206713 -0.02366416211133009 0 -0.46826183959192841 -0.01000530680732737 0 -0.47056077858213702 -0.03024644074295027 0 -0.47056077858213702 -0.03024644074295027 0 -0.47580415800009379 -0.02093770259963601 0 -0.47745882259212458 -0.028728106929589409 0 -0.47580415800009379 -0.02093770259963601 0 -0.47745882259212458 -0.028728106929589409 0 -0.48598145264485831 -0.02728491224803695 0 -0.47748890114140963 -0.036443372127734748 0 -0.47745882259212458 -0.028728106929589409 0 -0.48598145264485831 -0.02728491224803695 0 -0.48598145264485831 -0.02728491224803695 0 -0.4893389393206713 -0.02366416211133009 0 -0.5 -0.025161366008633609 0 -0.48598145264485831 -0.02728491224803695 0 -0.4893389393206713 -0.02366416211133009 0 -0.4893389393206713 -0.02366416211133009 0 -0.5 -0.025161366008633609 0 -0.48922725890134677 -0.010453537226696331 0 -0.48922725890134677 -0.010453537226696331 0 -0.5 0.0032371206267481911 0 -0.48082517856277007 0.001845263919603602 0 -0.5 -0.025161366008633609 0 -0.48922725890134677 -0.010453537226696331 0 -0.5 0.0032371206267481911 0 -0.47597217662329228 -0.0085245425598697612 0 -0.4893389393206713 -0.02366416211133009 0 -0.48922725890134677 -0.010453537226696331 0 -0.5 0.0032371206267481911 0 -0.48596576445654982 0.01457961489688041 0 -0.48082517856277007 0.001845263919603602 0 -0.48596576445654982 0.01457961489688041 0 -0.47541999506787802 0.025418180444172121 0 -0.5 0.031635607262129987 0 -0.5 0.0032371206267481911 0 -0.48596576445654982 0.01457961489688041 0 -0.5 0.031635607262129987 0 -0.48596576445654982 0.01457961489688041 0 -0.47541999506787802 0.025418180444172121 0 -0.47401658579892991 0.013489912392399149 0 -0.47541999506787802 0.025418180444172121 0 -0.46963945276383978 0.01793989872667965 0 -0.47401658579892991 0.013489912392399149 0 -0.47597217662329228 -0.0085245425598697612 0 -0.48082517856277007 0.001845263919603602 0 -0.4659629006017233 0.010235827128295859 0 -0.47401658579892991 0.013489912392399149 0 -0.48082517856277007 0.001845263919603602 0 -0.4659629006017233 0.010235827128295859 0 -0.46963945276383978 0.01793989872667965 0 -0.47401658579892991 0.013489912392399149 0 -0.4659629006017233 0.010235827128295859 0 -0.47597217662329228 -0.0085245425598697612 0 -0.4659629006017233 0.010235827128295859 0 -0.48596576445654982 0.01457961489688041 0 -0.47401658579892991 0.013489912392399149 0 -0.48082517856277007 0.001845263919603602 0 -0.5 0.060034093897511798 0 -0.47816362815030861 0.043832779932641487 0 -0.48068047186290208 0.063626500276227002 0 -0.47541999506787802 0.025418180444172121 0 -0.5 0.031635607262129987 0 -0.47816362815030861 0.043832779932641487 0 -0.5 0.060034093897511798 0 -0.5 0.031635607262129987 0 -0.47816362815030861 0.043832779932641487 0 -0.47541999506787802 0.025418180444172121 0 -0.47816362815030861 0.043832779932641487 0 -0.46442391639916691 0.036471327701905212 0 -0.47816362815030861 0.043832779932641487 0 -0.46119618507356652 0.049359273152949731 0 -0.48068047186290208 0.063626500276227002 0 -0.46119618507356652 0.049359273152949731 0 -0.46103932749027238 0.064238871702306077 0 -0.48068047186290208 0.063626500276227002 0 -0.46119618507356652 0.049359273152949731 0 -0.44286953411296898 0.045255716157198693 0 -0.46103932749027238 0.064238871702306077 0 -0.47816362815030861 0.043832779932641487 0 -0.46119618507356652 0.049359273152949731 0 -0.46442391639916691 0.036471327701905212 0 -0.46119618507356652 0.049359273152949731 0 -0.46442391639916691 0.036471327701905212 0 -0.45082509298125129 0.038608595210277222 0 -0.46442391639916691 0.036471327701905212 0 -0.45082509298125129 0.038608595210277222 0 -0.4583939967914884 0.024422211169287101 0 -0.45082509298125129 0.038608595210277222 0 -0.4583939967914884 0.024422211169287101 0 -0.46119618507356652 0.049359273152949731 0 -0.45082509298125129 0.038608595210277222 0 -0.44286953411296898 0.045255716157198693 0 -0.45082509298125129 0.038608595210277222 0 -0.4405409619944019 0.035432846457562263 0 -0.4458839614772655 0.023387518650519249 0 -0.45082509298125129 0.038608595210277222 0 -0.4405409619944019 0.035432846457562263 0 -0.44286953411296898 0.045255716157198693 0 -0.4405409619944019 0.035432846457562263 0 -0.44286953411296898 0.045255716157198693 0 -0.43229092530358848 0.04451632412921195 0 -0.44286953411296898 0.045255716157198693 0 -0.44282721760043869 0.062046251170956107 0 -0.46103932749027238 0.064238871702306077 0 -0.44286953411296898 0.045255716157198693 0 -0.44282721760043869 0.062046251170956107 0 -0.43188097302969042 0.056955122555226501 0 -0.44286953411296898 0.045255716157198693 0 -0.46103932749027238 0.064238871702306077 0 -0.46826183959192841 -0.01000530680732737 0 -0.45588653083934588 0.00041698580085632909 0 -0.4659629006017233 0.010235827128295859 0 -0.46826183959192841 -0.01000530680732737 0 -0.4659629006017233 0.010235827128295859 0 -0.45609316173783881 0.014082317838893479 0 -0.45588653083934588 0.00041698580085632909 0 -0.4659629006017233 0.010235827128295859 0 -0.46963945276383978 0.01793989872667965 0 -0.4659629006017233 0.010235827128295859 0 -0.4583939967914884 0.024422211169287101 0 -0.4659629006017233 0.010235827128295859 0 -0.4583939967914884 0.024422211169287101 0 -0.47541999506787802 0.025418180444172121 0 -0.46963945276383978 0.01793989872667965 0 -0.4583939967914884 0.024422211169287101 0 -0.47541999506787802 0.025418180444172121 0 -0.46442391639916691 0.036471327701905212 0 -0.4583939967914884 0.024422211169287101 0 -0.45609316173783881 0.014082317838893479 0 -0.4659629006017233 0.010235827128295859 0 -0.4583939967914884 0.024422211169287101 0 -0.45609316173783881 0.014082317838893479 0 -0.4583939967914884 0.024422211169287101 0 -0.4458839614772655 0.023387518650519249 0 -0.45082509298125129 0.038608595210277222 0 -0.4583939967914884 0.024422211169287101 0 -0.4458839614772655 0.023387518650519249 0 -0.4405409619944019 0.035432846457562263 0 -0.4458839614772655 0.023387518650519249 0 -0.43566193494816191 0.02574822372494872 0 -0.4458839614772655 0.023387518650519249 0 -0.4359559447540089 0.01018896392150693 0 -0.43566193494816191 0.02574822372494872 0 -0.4441818909265971 -0.00998157505946092 0 -0.44737850259376799 0.0077656591989471307 0 -0.4359559447540089 0.01018896392150693 0 -0.4458839614772655 0.023387518650519249 0 -0.44737850259376799 0.0077656591989471307 0 -0.4359559447540089 0.01018896392150693 0 -0.45609316173783881 0.014082317838893479 0 -0.4458839614772655 0.023387518650519249 0 -0.44737850259376799 0.0077656591989471307 0 -0.45609316173783881 0.014082317838893479 0 -0.45588653083934588 0.00041698580085632909 0 -0.44737850259376799 0.0077656591989471307 0 -0.4441818909265971 -0.00998157505946092 0 -0.4359559447540089 0.01018896392150693 0 -0.42578104856505677 0.0031949168855625672 0 -0.42578104856505677 0.0031949168855625672 0 -0.41622595309658328 0.016397403714119251 0 -0.42870406893849561 0.019163111370922251 0 -0.4359559447540089 0.01018896392150693 0 -0.42578104856505677 0.0031949168855625672 0 -0.42870406893849561 0.019163111370922251 0 -0.41753789792717189 -0.0038843189997757009 0 -0.42578104856505677 0.0031949168855625672 0 -0.41105156913745711 0.0034129409419674369 0 -0.42578104856505677 0.0031949168855625672 0 -0.40852807671777941 0.0155494406680463 0 -0.41622595309658328 0.016397403714119251 0 -0.42578104856505677 0.0031949168855625672 0 -0.40852807671777941 0.0155494406680463 0 -0.41105156913745711 0.0034129409419674369 0 -0.42578104856505677 0.0031949168855625672 0 -0.40852807671777941 0.0155494406680463 0 -0.42578104856505677 0.0031949168855625672 0 -0.41622595309658328 0.016397403714119251 0 -0.40852807671777941 0.0155494406680463 0 -0.41105156913745711 0.0034129409419674369 0 -0.40262572535869262 0.0089097845909437267 0 -0.40771050441737638 -0.0035262849216432719 0 -0.41105156913745711 0.0034129409419674369 0 -0.40226596945639398 0.0014711925349297271 0 -0.40667085762811028 0.029599890542676258 0 -0.41622595309658328 0.016397403714119251 0 -0.42870406893849561 0.019163111370922251 0 -0.40667085762811028 0.029599890542676258 0 -0.42870406893849561 0.019163111370922251 0 -0.40667085762811028 0.029599890542676258 0 -0.41990433555607742 0.03061685230769556 0 -0.42870406893849561 0.019163111370922251 0 -0.40852807671777941 0.0155494406680463 0 -0.40667085762811028 0.029599890542676258 0 -0.41622595309658328 0.016397403714119251 0 -0.40667085762811028 0.029599890542676258 0 -0.41622595309658328 0.016397403714119251 0 -0.41990433555607742 0.03061685230769556 0 -0.4284463216954002 0.029357354603554459 0 -0.42870406893849561 0.019163111370922251 0 -0.4359559447540089 0.01018896392150693 0 -0.42870406893849561 0.019163111370922251 0 -0.43566193494816191 0.02574822372494872 0 -0.4284463216954002 0.029357354603554459 0 -0.42870406893849561 0.019163111370922251 0 -0.43566193494816191 0.02574822372494872 0 -0.4284463216954002 0.029357354603554459 0 -0.43566193494816191 0.02574822372494872 0 -0.43264023121812112 0.033917661463996759 0 -0.4405409619944019 0.035432846457562263 0 -0.43264023121812112 0.033917661463996759 0 -0.43229092530358848 0.04451632412921195 0 -0.43264023121812112 0.033917661463996759 0 -0.43229092530358848 0.04451632412921195 0 -0.42532103781614489 0.037340924150209003 0 -0.4405409619944019 0.035432846457562263 0 -0.43566193494816191 0.02574822372494872 0 -0.43264023121812112 0.033917661463996759 0 -0.43229092530358848 0.04451632412921195 0 -0.42532103781614489 0.037340924150209003 0 -0.42042490988599091 0.046091327469671317 0 -0.4284463216954002 0.029357354603554459 0 -0.43264023121812112 0.033917661463996759 0 -0.42532103781614489 0.037340924150209003 0 -0.41990433555607742 0.03061685230769556 0 -0.4284463216954002 0.029357354603554459 0 -0.42532103781614489 0.037340924150209003 0 -0.43229092530358848 0.04451632412921195 0 -0.43188097302969042 0.056955122555226501 0 -0.42585725303016408 0.051510102087770737 0 -0.44286953411296898 0.045255716157198693 0 -0.43229092530358848 0.04451632412921195 0 -0.43188097302969042 0.056955122555226501 0 -0.43229092530358848 0.04451632412921195 0 -0.42585725303016408 0.051510102087770737 0 -0.42042490988599091 0.046091327469671317 0 -0.43188097302969042 0.056955122555226501 0 -0.41883220390138681 0.058477634196973202 0 -0.43131469147834472 0.070632617455275076 0 -0.43188097302969042 0.056955122555226501 0 -0.42585725303016408 0.051510102087770737 0 -0.41883220390138681 0.058477634196973202 0 -0.41883220390138681 0.058477634196973202 0 -0.40840220717331749 0.048304634434869917 0 -0.39985653820026013 0.060860810446949978 0 -0.42585725303016408 0.051510102087770737 0 -0.41883220390138681 0.058477634196973202 0 -0.42042490988599091 0.046091327469671317 0 -0.41883220390138681 0.058477634196973202 0 -0.40840220717331749 0.048304634434869917 0 -0.42042490988599091 0.046091327469671317 0 -0.41990433555607742 0.03061685230769556 0 -0.42532103781614489 0.037340924150209003 0 -0.4122967326089878 0.037821593301397609 0 -0.42532103781614489 0.037340924150209003 0 -0.42042490988599091 0.046091327469671317 0 -0.4122967326089878 0.037821593301397609 0 -0.40840220717331749 0.048304634434869917 0 -0.4122967326089878 0.037821593301397609 0 -0.40579981868685489 0.041495006097714962 0 -0.40840220717331749 0.048304634434869917 0 -0.42042490988599091 0.046091327469671317 0 -0.4122967326089878 0.037821593301397609 0 -0.4122967326089878 0.037821593301397609 0 -0.40278544391907911 0.034968452634622761 0 -0.40579981868685489 0.041495006097714962 0 -0.40667085762811028 0.029599890542676258 0 -0.4122967326089878 0.037821593301397609 0 -0.40278544391907911 0.034968452634622761 0 -0.40667085762811028 0.029599890542676258 0 -0.41990433555607742 0.03061685230769556 0 -0.4122967326089878 0.037821593301397609 0 -0.40667085762811028 0.029599890542676258 0 -0.40278544391907911 0.034968452634622761 0 -0.40667085762811028 0.029599890542676258 0 -0.38856614517843069 0.038175802748282091 0 -0.40667085762811028 0.029599890542676258 0 -0.38856614517843069 0.038175802748282091 0 -0.39127510487050182 0.027903964450529759 0 -0.40667085762811028 0.029599890542676258 0 -0.40278544391907911 0.034968452634622761 0 -0.38856614517843069 0.038175802748282091 0 -0.40278544391907911 0.034968452634622761 0 -0.40579981868685489 0.041495006097714962 0 -0.3977250587697031 0.045015474274426849 0 -0.40840220717331749 0.048304634434869917 0 -0.40579981868685489 0.041495006097714962 0 -0.3977250587697031 0.045015474274426849 0 -0.40278544391907911 0.034968452634622761 0 -0.3977250587697031 0.045015474274426849 0 -0.38856614517843069 0.038175802748282091 0 -0.40840220717331749 0.048304634434869917 0 -0.3977250587697031 0.045015474274426849 0 -0.39985653820026013 0.060860810446949978 0 -0.3977250587697031 0.045015474274426849 0 -0.39985653820026013 0.060860810446949978 0 -0.38472691017257071 0.052921849058569698 0 -0.39985653820026013 0.060860810446949978 0 -0.38472691017257071 0.052921849058569698 0 -0.38510762700538009 0.066428587654483159 0 -0.38472691017257071 0.052921849058569698 0 -0.37046143272875132 0.04675171495388801 0 -0.37000681959492809 0.05831264468359916 0 -0.38472691017257071 0.052921849058569698 0 -0.38510762700538009 0.066428587654483159 0 -0.37000681959492809 0.05831264468359916 0 -0.38856614517843069 0.038175802748282091 0 -0.37871402691879819 0.03757115751491092 0 -0.37046143272875132 0.04675171495388801 0 -0.38856614517843069 0.038175802748282091 0 -0.37046143272875132 0.04675171495388801 0 -0.38472691017257071 0.052921849058569698 0 -0.38856614517843069 0.038175802748282091 0 -0.37046143272875132 0.04675171495388801 0 -0.38856614517843069 0.038175802748282091 0 -0.38315308642314733 0.033917821982192238 0 -0.39127510487050182 0.027903964450529759 0 -0.38856614517843069 0.038175802748282091 0 -0.38315308642314733 0.033917821982192238 0 -0.37871402691879819 0.03757115751491092 0 -0.3977250587697031 0.045015474274426849 0 -0.38472691017257071 0.052921849058569698 0 -0.38856614517843069 0.038175802748282091 0 -0.37871402691879819 0.03757115751491092 0 -0.3764786745208083 0.032098692741998169 0 -0.37046143272875132 0.04675171495388801 0 -0.38315308642314733 0.033917821982192238 0 -0.3764786745208083 0.032098692741998169 0 -0.38155727091044611 0.028316364585127811 0 -0.38315308642314733 0.033917821982192238 0 -0.37871402691879819 0.03757115751491092 0 -0.3764786745208083 0.032098692741998169 0 -0.3764786745208083 0.032098692741998169 0 -0.38155727091044611 0.028316364585127811 0 -0.37960108001976323 0.022263106047543741 0 -0.37960108001976323 0.022263106047543741 0 -0.37998819155715241 0.0057865511937031933 0 -0.37123175334181557 0.027162262264614271 0 -0.3764786745208083 0.032098692741998169 0 -0.37960108001976323 0.022263106047543741 0 -0.37123175334181557 0.027162262264614271 0 -0.38155727091044611 0.028316364585127811 0 -0.38533699425949169 0.022674384769296389 0 -0.37960108001976323 0.022263106047543741 0 -0.38155727091044611 0.028316364585127811 0 -0.38533699425949169 0.022674384769296389 0 -0.39127510487050182 0.027903964450529759 0 -0.38315308642314733 0.033917821982192238 0 -0.38155727091044611 0.028316364585127811 0 -0.39127510487050182 0.027903964450529759 0 -0.39054146691731162 0.018060194648231769 0 -0.38533699425949169 0.022674384769296389 0 -0.39127510487050182 0.027903964450529759 0 -0.38533699425949169 0.022674384769296389 0 -0.3837100485794358 0.01682829411504885 0 -0.37960108001976323 0.022263106047543741 0 -0.39054146691731162 0.018060194648231769 0 -0.38533699425949169 0.022674384769296389 0 -0.3837100485794358 0.01682829411504885 0 -0.3837100485794358 0.01682829411504885 0 -0.37960108001976323 0.022263106047543741 0 -0.37998819155715241 0.0057865511937031933 0 -0.37998819155715241 0.0057865511937031933 0 -0.38683543611469601 0.0001369023841863784 0 -0.36064890389212972 0.0125435277679194 0 -0.37998819155715241 0.0057865511937031933 0 -0.38683543611469601 0.0001369023841863784 0 -0.38901012294298121 0.0062908016400105649 0 -0.38683543611469601 0.0001369023841863784 0 -0.38901012294298121 0.0062908016400105649 0 -0.39501457079486157 0.0055715078560810288 0 -0.37998819155715241 0.0057865511937031933 0 -0.38901012294298121 0.0062908016400105649 0 -0.38744744785130802 0.01185902438546781 0 -0.3837100485794358 0.01682829411504885 0 -0.37998819155715241 0.0057865511937031933 0 -0.38744744785130802 0.01185902438546781 0 -0.38901012294298121 0.0062908016400105649 0 -0.38744744785130802 0.01185902438546781 0 -0.39422738021243581 0.01127211946813913 0 -0.39054146691731162 0.018060194648231769 0 -0.3837100485794358 0.01682829411504885 0 -0.38744744785130802 0.01185902438546781 0 -0.39054146691731162 0.018060194648231769 0 -0.39422738021243581 0.01127211946813913 0 -0.39743955081534421 0.016339100765178138 0 -0.39054146691731162 0.018060194648231769 0 -0.38744744785130802 0.01185902438546781 0 -0.39422738021243581 0.01127211946813913 0 -0.39422738021243581 0.01127211946813913 0 -0.39501457079486157 0.0055715078560810288 0 -0.40262572535869262 0.0089097845909437267 0 -0.39422738021243581 0.01127211946813913 0 -0.40262572535869262 0.0089097845909437267 0 -0.39743955081534421 0.016339100765178138 0 -0.38683543611469601 0.0001369023841863784 0 -0.39501457079486157 0.0055715078560810288 0 -0.40226596945639398 0.0014711925349297271 0 -0.38901012294298121 0.0062908016400105649 0 -0.39422738021243581 0.01127211946813913 0 -0.39501457079486157 0.0055715078560810288 0 -0.41105156913745711 0.0034129409419674369 0 -0.40226596945639398 0.0014711925349297271 0 -0.40262572535869262 0.0089097845909437267 0 -0.39501457079486157 0.0055715078560810288 0 -0.40226596945639398 0.0014711925349297271 0 -0.40262572535869262 0.0089097845909437267 0 -0.40852807671777941 0.0155494406680463 0 -0.40262572535869262 0.0089097845909437267 0 -0.39743955081534421 0.016339100765178138 0 -0.40852807671777941 0.0155494406680463 0 -0.39127510487050182 0.027903964450529759 0 -0.40852807671777941 0.0155494406680463 0 -0.40667085762811028 0.029599890542676258 0 -0.39127510487050182 0.027903964450529759 0 -0.40852807671777941 0.0155494406680463 0 -0.39127510487050182 0.027903964450529759 0 -0.39743955081534421 0.016339100765178138 0 -0.39054146691731162 0.018060194648231769 0 -0.39127510487050182 0.027903964450529759 0 -0.39743955081534421 0.016339100765178138 0 -0.39792088922733271 0.1160922105611595 0 -0.40104213778508202 0.092866093853817611 0 -0.41467909406405851 0.1139188519362445 0 -0.39792088922733271 0.1160922105611595 0 -0.3782625711058698 0.101617738696854 0 -0.40104213778508202 0.092866093853817611 0 -0.3782625711058698 0.101617738696854 0 -0.38372255811484618 0.13025780258704611 0 -0.3782625711058698 0.101617738696854 0 -0.38372255811484618 0.13025780258704611 0 -0.36747352968705388 0.12273486311700831 0 -0.39792088922733271 0.1160922105611595 0 -0.3782625711058698 0.101617738696854 0 -0.38372255811484618 0.13025780258704611 0 -0.39792088922733271 0.1160922105611595 0 -0.3782625711058698 0.101617738696854 0 -0.3782625711058698 0.101617738696854 0 -0.40104213778508202 0.092866093853817611 0 -0.37470600383380392 0.082961959162170973 0 -0.39520328107527708 0.075997639864115257 0 -0.40104213778508202 0.092866093853817611 0 -0.37470600383380392 0.082961959162170973 0 -0.3782625711058698 0.101617738696854 0 -0.37470600383380392 0.082961959162170973 0 -0.40104213778508202 0.092866093853817611 0 -0.37470600383380392 0.082961959162170973 0 -0.38510762700538009 0.066428587654483159 0 -0.37000681959492809 0.05831264468359916 0 -0.37470600383380392 0.082961959162170973 0 -0.38510762700538009 0.066428587654483159 0 -0.39520328107527708 0.075997639864115257 0 -0.37470600383380392 0.082961959162170973 0 -0.39985653820026013 0.060860810446949978 0 -0.39520328107527708 0.075997639864115257 0 -0.41322693425173768 0.074694678089132868 0 -0.39985653820026013 0.060860810446949978 0 -0.38510762700538009 0.066428587654483159 0 -0.39520328107527708 0.075997639864115257 0 -0.39520328107527708 0.075997639864115257 0 -0.40104213778508202 0.092866093853817611 0 -0.41322693425173768 0.074694678089132868 0 -0.40104213778508202 0.092866093853817611 0 -0.41322693425173768 0.074694678089132868 0 -0.42957324029363853 0.085693113452461764 0 -0.41883220390138681 0.058477634196973202 0 -0.41322693425173768 0.074694678089132868 0 -0.43131469147834472 0.070632617455275076 0 -0.41883220390138681 0.058477634196973202 0 -0.39985653820026013 0.060860810446949978 0 -0.41322693425173768 0.074694678089132868 0 -0.43131469147834472 0.070632617455275076 0 -0.42957324029363853 0.085693113452461764 0 -0.4470315618909167 0.073148927984774167 0 -0.41322693425173768 0.074694678089132868 0 -0.43131469147834472 0.070632617455275076 0 -0.42957324029363853 0.085693113452461764 0 -0.44282721760043869 0.062046251170956107 0 -0.43188097302969042 0.056955122555226501 0 -0.43131469147834472 0.070632617455275076 0 -0.42957324029363853 0.085693113452461764 0 -0.42737827173636012 0.1027702285454639 0 -0.44343173260412461 0.097571970950778963 0 -0.40104213778508202 0.092866093853817611 0 -0.42737827173636012 0.1027702285454639 0 -0.41467909406405851 0.1139188519362445 0 -0.40104213778508202 0.092866093853817611 0 -0.42737827173636012 0.1027702285454639 0 -0.40104213778508202 0.092866093853817611 0 -0.42957324029363853 0.085693113452461764 0 -0.42737827173636012 0.1027702285454639 0 -0.39792088922733271 0.1160922105611595 0 -0.41467909406405851 0.1139188519362445 0 -0.417579207348795 0.13056668242546571 0 -0.39792088922733271 0.1160922105611595 0 -0.417579207348795 0.13056668242546571 0 -0.41467909406405851 0.1139188519362445 0 -0.42608096723388439 0.1205091241492761 0 -0.417579207348795 0.13056668242546571 0 -0.42737827173636012 0.1027702285454639 0 -0.41467909406405851 0.1139188519362445 0 -0.42608096723388439 0.1205091241492761 0 -0.42737827173636012 0.1027702285454639 0 -0.42608096723388439 0.1205091241492761 0 -0.43826405507869293 0.1195835460605416 0 -0.42608096723388439 0.1205091241492761 0 -0.43826405507869293 0.1195835460605416 0 -0.43293323699752101 0.1317554923945817 0 -0.43826405507869293 0.1195835460605416 0 -0.45371440568763749 0.1126743632371118 0 -0.44901593584904892 0.12912088192892021 0 -0.42737827173636012 0.1027702285454639 0 -0.43826405507869293 0.1195835460605416 0 -0.45371440568763749 0.1126743632371118 0 -0.4523882543875366 0.10983005993361 0 -0.45371440568763749 0.1126743632371118 0 -0.42737827173636012 0.1027702285454639 0 -0.4523882543875366 0.10983005993361 0 -0.44343173260412461 0.097571970950778963 0 -0.42737827173636012 0.1027702285454639 0 -0.4523882543875366 0.10983005993361 0 -0.45371440568763749 0.1126743632371118 0 -0.42737827173636012 0.1027702285454639 0 -0.45371440568763749 0.1126743632371118 0 -0.44343173260412461 0.097571970950778963 0 -0.45084974973894648 0.096020795281878568 0 -0.45306155814551219 0.1028275296158008 0 -0.44343173260412461 0.097571970950778963 0 -0.45084974973894648 0.096020795281878568 0 -0.44733932132275389 0.088290098875458828 0 -0.4523882543875366 0.10983005993361 0 -0.44343173260412461 0.097571970950778963 0 -0.45306155814551219 0.1028275296158008 0 -0.4523882543875366 0.10983005993361 0 -0.45306155814551219 0.1028275296158008 0 -0.45661100561120399 0.109540819014999 0 -0.45306155814551219 0.1028275296158008 0 -0.46084618436187341 0.10490351706993729 0 -0.45661100561120399 0.109540819014999 0 -0.45306155814551219 0.1028275296158008 0 -0.46084618436187341 0.10490351706993729 0 -0.45799439118323759 0.099220837031069903 0 -0.46084618436187341 0.10490351706993729 0 -0.4635407771028337 0.1124237257980706 0 -0.45661100561120399 0.109540819014999 0 -0.45799439118323759 0.099220837031069903 0 -0.46723244863383712 0.097971273043108306 0 -0.45594156200913483 0.091684632610025046 0 -0.45084974973894648 0.096020795281878568 0 -0.45799439118323759 0.099220837031069903 0 -0.45594156200913483 0.091684632610025046 0 -0.45084974973894648 0.096020795281878568 0 -0.45306155814551219 0.1028275296158008 0 -0.45799439118323759 0.099220837031069903 0 -0.46084618436187341 0.10490351706993729 0 -0.45799439118323759 0.099220837031069903 0 -0.46723244863383712 0.097971273043108306 0 -0.46084618436187341 0.10490351706993729 0 -0.46723244863383712 0.097971273043108306 0 -0.46686982756835349 0.1074114054382402 0 -0.46084618436187341 0.10490351706993729 0 -0.46686982756835349 0.1074114054382402 0 -0.4635407771028337 0.1124237257980706 0 -0.45371440568763749 0.1126743632371118 0 -0.46425598871103851 0.13528374379222011 0 -0.4635407771028337 0.1124237257980706 0 -0.45674497769142258 0.1138140594952527 0 -0.46958882025875243 0.12035793204680111 0 -0.46686982756835349 0.1074114054382402 0 -0.4635407771028337 0.1124237257980706 0 -0.47044075898603932 0.11380610730348489 0 -0.4635407771028337 0.1124237257980706 0 -0.46958882025875243 0.12035793204680111 0 -0.47044075898603932 0.11380610730348489 0 -0.45674497769142258 0.1138140594952527 0 -0.45371440568763749 0.1126743632371118 0 -0.46425598871103851 0.13528374379222011 0 -0.45674497769142258 0.1138140594952527 0 -0.46958882025875243 0.12035793204680111 0 -0.46425598871103851 0.13528374379222011 0 -0.4523882543875366 0.10983005993361 0 -0.45661100561120399 0.109540819014999 0 -0.45371440568763749 0.1126743632371118 0 -0.45674497769142258 0.1138140594952527 0 -0.45661100561120399 0.109540819014999 0 -0.45371440568763749 0.1126743632371118 0 -0.45674497769142258 0.1138140594952527 0 -0.45371440568763749 0.1126743632371118 0 -0.4635407771028337 0.1124237257980706 0 -0.45674497769142258 0.1138140594952527 0 -0.45661100561120399 0.109540819014999 0 -0.44282721760043869 0.062046251170956107 0 -0.4470315618909167 0.073148927984774167 0 -0.46103932749027238 0.064238871702306077 0 -0.44282721760043869 0.062046251170956107 0 -0.43131469147834472 0.070632617455275076 0 -0.4470315618909167 0.073148927984774167 0 -0.42957324029363853 0.085693113452461764 0 -0.44343173260412461 0.097571970950778963 0 -0.44733932132275389 0.088290098875458828 0 -0.42957324029363853 0.085693113452461764 0 -0.4470315618909167 0.073148927984774167 0 -0.44733932132275389 0.088290098875458828 0 -0.4470315618909167 0.073148927984774167 0 -0.44733932132275389 0.088290098875458828 0 -0.46047789149500767 0.082617330138573752 0 -0.45084974973894648 0.096020795281878568 0 -0.44733932132275389 0.088290098875458828 0 -0.45594156200913483 0.091684632610025046 0 -0.44733932132275389 0.088290098875458828 0 -0.45594156200913483 0.091684632610025046 0 -0.46047789149500767 0.082617330138573752 0 -0.46723244863383712 0.097971273043108306 0 -0.45594156200913483 0.091684632610025046 0 -0.46047789149500767 0.082617330138573752 0 -0.46047789149500767 0.082617330138573752 0 -0.46103932749027238 0.064238871702306077 0 -0.47920912086757578 0.083222027247413538 0 -0.4470315618909167 0.073148927984774167 0 -0.46047789149500767 0.082617330138573752 0 -0.46103932749027238 0.064238871702306077 0 -0.46103932749027238 0.064238871702306077 0 -0.48068047186290208 0.063626500276227002 0 -0.47920912086757578 0.083222027247413538 0 -0.46103932749027238 0.064238871702306077 0 -0.47920912086757578 0.083222027247413538 0 -0.46723244863383712 0.097971273043108306 0 -0.46047789149500767 0.082617330138573752 0 -0.47920912086757578 0.083222027247413538 0 -0.48068047186290208 0.063626500276227002 0 -0.47920912086757578 0.083222027247413538 0 -0.5 0.088432580532893601 0 -0.47920912086757578 0.083222027247413538 0 -0.49737891424487929 0.102205182792521 0 -0.47920912086757578 0.083222027247413538 0 -0.5 0.088432580532893601 0 -0.49737891424487929 0.102205182792521 0 -0.5 0.060034093897511798 0 -0.48068047186290208 0.063626500276227002 0 -0.5 0.088432580532893601 0 -0.47827810320487629 0.116675775998883 0 -0.48837893466537508 0.1117690854599766 0 -0.4842723158563047 0.1301441798928954 0 -0.47827810320487629 0.116675775998883 0 -0.47512549980118862 0.10796659812409699 0 -0.48837893466537508 0.1117690854599766 0 -0.47827810320487629 0.116675775998883 0 -0.46958882025875243 0.12035793204680111 0 -0.4842723158563047 0.1301441798928954 0 -0.47827810320487629 0.116675775998883 0 -0.47044075898603932 0.11380610730348489 0 -0.47512549980118862 0.10796659812409699 0 -0.46686982756835349 0.1074114054382402 0 -0.47044075898603932 0.11380610730348489 0 -0.47512549980118862 0.10796659812409699 0 -0.47827810320487629 0.116675775998883 0 -0.46958882025875243 0.12035793204680111 0 -0.47044075898603932 0.11380610730348489 0 -0.46723244863383712 0.097971273043108306 0 -0.47512549980118862 0.10796659812409699 0 -0.48162445158666772 0.1005823670901454 0 -0.46723244863383712 0.097971273043108306 0 -0.47920912086757578 0.083222027247413538 0 -0.48162445158666772 0.1005823670901454 0 -0.46723244863383712 0.097971273043108306 0 -0.46686982756835349 0.1074114054382402 0 -0.47512549980118862 0.10796659812409699 0 -0.47512549980118862 0.10796659812409699 0 -0.48162445158666772 0.1005823670901454 0 -0.48837893466537508 0.1117690854599766 0 -0.48162445158666772 0.1005823670901454 0 -0.49737891424487929 0.102205182792521 0 -0.48837893466537508 0.1117690854599766 0 -0.47920912086757578 0.083222027247413538 0 -0.48162445158666772 0.1005823670901454 0 -0.49737891424487929 0.102205182792521 0 -0.5 0.088432580532893601 0 -0.49737891424487929 0.102205182792521 0 -0.5 0.1168310671682755 0 -0.49737891424487929 0.102205182792521 0 -0.5 0.1168310671682755 0 -0.48837893466537508 0.1117690854599766 0 -0.5 0.1168310671682755 0 -0.48837893466537508 0.1117690854599766 0 -0.4842723158563047 0.1301441798928954 0 -0.5 0.1168310671682755 0 -0.4842723158563047 0.1301441798928954 0 -0.5 0.14522955380365729 0 -0.46958882025875243 0.12035793204680111 0 -0.4842723158563047 0.1301441798928954 0 -0.46425598871103851 0.13528374379222011 0 -0.4842723158563047 0.1301441798928954 0 -0.47479757173443998 0.15789312434732811 0 -0.46425598871103851 0.13528374379222011 0 -0.47479757173443998 0.15789312434732811 0 -0.46425598871103851 0.13528374379222011 0 -0.4842723158563047 0.1301441798928954 0 -0.5 0.14522955380365729 0 -0.47479757173443998 0.15789312434732811 0 -0.5 0.14522955380365729 0 -0.49999999999999972 0.17362804043903909 0 -0.47479757173443998 0.15789312434732811 0 -0.49999999999999972 0.17362804043903909 0 -0.47479757173443998 0.15789312434732811 0 -0.49999999999999972 0.17362804043903909 0 -0.49200992699072321 0.1743962810239672 0 -0.47479757173443998 0.15789312434732811 0 -0.48341269367675271 0.17637066895233999 0 -0.49170634683837577 0.1941587336203292 0 -0.49368671912131301 0.1828531969182482 0 -0.49999999999999972 0.17362804043903909 0 -0.5 0.19278741936367841 0 -0.49368671912131301 0.1828531969182482 0 -0.48341269367675271 0.17637066895233999 0 -0.49170634683837577 0.1941587336203292 0 -0.49368671912131301 0.1828531969182482 0 -0.49999999999999972 0.17362804043903909 0 -0.49200992699072321 0.1743962810239672 0 -0.49200992699072321 0.1743962810239672 0 -0.48341269367675271 0.17637066895233999 0 -0.49368671912131301 0.1828531969182482 0 -0.49200992699072321 0.1743962810239672 0 -0.48341269367675271 0.17637066895233999 0 -0.48341269367675271 0.17637066895233999 0 -0.45591042926964898 0.18268667049205081 0 -0.47274380268756999 0.19288508587190861 0 -0.48341269367675271 0.17637066895233999 0 -0.45591042926964898 0.18268667049205081 0 -0.49200992699072321 0.1743962810239672 0 -0.48341269367675271 0.17637066895233999 0 -0.47479757173443998 0.15789312434732811 0 -0.48341269367675271 0.17637066895233999 0 -0.47479757173443998 0.15789312434732811 0 -0.48341269367675271 0.17637066895233999 0 -0.47479757173443998 0.15789312434732811 0 -0.45723956394668003 0.16387676974864759 0 -0.48341269367675271 0.17637066895233999 0 -0.45723956394668003 0.16387676974864759 0 -0.45591042926964898 0.18268667049205081 0 -0.45591042926964898 0.18268667049205081 0 -0.43992511097516529 0.17411109905454999 0 -0.4284081648625454 0.1890026720317621 0 -0.45591042926964898 0.18268667049205081 0 -0.4284081648625454 0.1890026720317621 0 -0.45723956394668003 0.16387676974864759 0 -0.45591042926964898 0.18268667049205081 0 -0.43992511097516529 0.17411109905454999 0 -0.45723956394668003 0.16387676974864759 0 -0.43992511097516529 0.17411109905454999 0 -0.43892522612619872 0.15930650560997939 0 -0.43892522612619872 0.15930650560997939 0 -0.43796764784210812 0.14528805014891141 0 -0.45386540436598038 0.14482430837095511 0 -0.45723956394668003 0.16387676974864759 0 -0.43892522612619872 0.15930650560997939 0 -0.45386540436598038 0.14482430837095511 0 -0.45386540436598038 0.14482430837095511 0 -0.43293323699752101 0.1317554923945817 0 -0.43826405507869293 0.1195835460605416 0 -0.44901593584904892 0.12912088192892021 0 -0.43293323699752101 0.1317554923945817 0 -0.43796764784210812 0.14528805014891141 0 -0.45386540436598038 0.14482430837095511 0 -0.43293323699752101 0.1317554923945817 0 -0.44901593584904892 0.12912088192892021 0 -0.45386540436598038 0.14482430837095511 0 -0.43293323699752101 0.1317554923945817 0 -0.45371440568763749 0.1126743632371118 0 -0.44901593584904892 0.12912088192892021 0 -0.46425598871103851 0.13528374379222011 0 -0.44901593584904892 0.12912088192892021 0 -0.46425598871103851 0.13528374379222011 0 -0.45386540436598038 0.14482430837095511 0 -0.47479757173443998 0.15789312434732811 0 -0.45723956394668003 0.16387676974864759 0 -0.45386540436598038 0.14482430837095511 0 -0.47479757173443998 0.15789312434732811 0 -0.46425598871103851 0.13528374379222011 0 -0.45386540436598038 0.14482430837095511 0 -0.47479757173443998 0.15789312434732811 0 -0.45386540436598038 0.14482430837095511 0 -0.48226153920099157 0.23766317590200001 0 -0.47864167104372218 0.246590621409366 0 -0.48932095354102823 0.25454658797793611 0 -0.47315400564016008 0.2364435414805684 0 -0.47864167104372218 0.246590621409366 0 -0.46938038244821267 0.25133041049185839 0 -0.47315400564016008 0.2364435414805684 0 -0.48226153920099157 0.23766317590200001 0 -0.47864167104372218 0.246590621409366 0 -0.49106398183666961 0.22759324404760359 0 -0.48932095354102823 0.25454658797793611 0 -0.5 0.23810140997737081 0 -0.49106398183666961 0.22759324404760359 0 -0.48932095354102823 0.25454658797793611 0 -0.48226153920099157 0.23766317590200001 0 -0.49106398183666961 0.22759324404760359 0 -0.48932095354102823 0.25454658797793611 0 -0.5 0.23810140997737081 0 -0.49106398183666961 0.22759324404760359 0 -0.50000000000000022 0.21194679828831781 0 -0.49106398183666961 0.22759324404760359 0 -0.47912708394337772 0.2231418845945258 0 -0.48726644121087642 0.21298690825741631 0 -0.48226153920099157 0.23766317590200001 0 -0.49106398183666961 0.22759324404760359 0 -0.47912708394337772 0.2231418845945258 0 -0.47315400564016008 0.2364435414805684 0 -0.48226153920099157 0.23766317590200001 0 -0.47912708394337772 0.2231418845945258 0 -0.47315400564016008 0.2364435414805684 0 -0.47912708394337772 0.2231418845945258 0 -0.46764368341616458 0.22415830119077751 0 -0.47912708394337772 0.2231418845945258 0 -0.47360767850491831 0.20951316246361981 0 -0.46764368341616458 0.22415830119077751 0 -0.47360767850491831 0.20951316246361981 0 -0.48726644121087642 0.21298690825741631 0 -0.49170634683837577 0.1941587336203292 0 -0.47912708394337772 0.2231418845945258 0 -0.47360767850491831 0.20951316246361981 0 -0.48726644121087642 0.21298690825741631 0 -0.49106398183666961 0.22759324404760359 0 -0.50000000000000022 0.21194679828831781 0 -0.48726644121087642 0.21298690825741631 0 -0.50000000000000022 0.21194679828831781 0 -0.48726644121087642 0.21298690825741631 0 -0.49170634683837577 0.1941587336203292 0 -0.50000000000000022 0.21194679828831781 0 -0.49170634683837577 0.1941587336203292 0 -0.50000000000000022 0.21194679828831781 0 -0.5 0.19278741936367841 0 -0.49170634683837577 0.1941587336203292 0 -0.49368671912131301 0.1828531969182482 0 -0.5 0.19278741936367841 0 -0.49170634683837577 0.1941587336203292 0 -0.48341269367675271 0.17637066895233999 0 -0.49170634683837577 0.1941587336203292 0 -0.47274380268756999 0.19288508587190861 0 -0.47360767850491831 0.20951316246361981 0 -0.49170634683837577 0.1941587336203292 0 -0.47274380268756999 0.19288508587190861 0 -0.47360767850491831 0.20951316246361981 0 -0.47274380268756999 0.19288508587190861 0 -0.45820261548712909 0.20353130823034371 0 -0.45591042926964898 0.18268667049205081 0 -0.47274380268756999 0.19288508587190861 0 -0.45820261548712909 0.20353130823034371 0 -0.45591042926964898 0.18268667049205081 0 -0.43516662619925378 0.20614333559983469 0 -0.4284081648625454 0.1890026720317621 0 -0.45591042926964898 0.18268667049205081 0 -0.45820261548712909 0.20353130823034371 0 -0.43516662619925378 0.20614333559983469 0 -0.44192508753596349 0.22328399916790689 0 -0.43516662619925378 0.20614333559983469 0 -0.45032248765871591 0.2151961798839368 0 -0.44192508753596349 0.22328399916790689 0 -0.43516662619925378 0.20614333559983469 0 -0.45032248765871591 0.2151961798839368 0 -0.45820261548712909 0.20353130823034371 0 -0.43516662619925378 0.20614333559983469 0 -0.45032248765871591 0.2151961798839368 0 -0.46109406183397039 0.21551848415653921 0 -0.45620465585954723 0.2251951411450015 0 -0.45032248765871591 0.2151961798839368 0 -0.45820261548712909 0.20353130823034371 0 -0.46109406183397039 0.21551848415653921 0 -0.47360767850491831 0.20951316246361981 0 -0.45820261548712909 0.20353130823034371 0 -0.46109406183397039 0.21551848415653921 0 -0.47360767850491831 0.20951316246361981 0 -0.46109406183397039 0.21551848415653921 0 -0.46764368341616458 0.22415830119077751 0 -0.47315400564016008 0.2364435414805684 0 -0.46764368341616458 0.22415830119077751 0 -0.45925329591452863 0.2407771106774913 0 -0.46764368341616458 0.22415830119077751 0 -0.45620465585954723 0.2251951411450015 0 -0.45925329591452863 0.2407771106774913 0 -0.46109406183397039 0.21551848415653921 0 -0.46764368341616458 0.22415830119077751 0 -0.45620465585954723 0.2251951411450015 0 -0.45032248765871591 0.2151961798839368 0 -0.45620465585954723 0.2251951411450015 0 -0.44192508753596349 0.22328399916790689 0 -0.44192508753596349 0.22328399916790689 0 -0.44062222049055039 0.24203477259657111 0 -0.43146145522804691 0.2313120115293863 0 -0.45620465585954723 0.2251951411450015 0 -0.44062222049055039 0.24203477259657111 0 -0.45620465585954723 0.2251951411450015 0 -0.44192508753596349 0.22328399916790689 0 -0.44062222049055039 0.24203477259657111 0 -0.44062222049055039 0.24203477259657111 0 -0.45046339488490522 0.249057113070103 0 -0.44442574262614493 0.25832327296872359 0 -0.44062222049055039 0.24203477259657111 0 -0.45046339488490522 0.249057113070103 0 -0.45925329591452863 0.2407771106774913 0 -0.45620465585954723 0.2251951411450015 0 -0.44062222049055039 0.24203477259657111 0 -0.45925329591452863 0.2407771106774913 0 -0.45046339488490522 0.249057113070103 0 -0.45925329591452863 0.2407771106774913 0 -0.45807104112411212 0.25534721177055669 0 -0.45925329591452863 0.2407771106774913 0 -0.46938038244821267 0.25133041049185839 0 -0.45807104112411212 0.25534721177055669 0 -0.47315400564016008 0.2364435414805684 0 -0.45925329591452863 0.2407771106774913 0 -0.46938038244821267 0.25133041049185839 0 -0.4198454647722451 0.23985190764030939 0 -0.40081965837488509 0.24074316727492401 0 -0.40585136056822319 0.25674789398696107 0 -0.4198454647722451 0.23985190764030939 0 -0.405480724964072 0.22581663549259839 0 -0.40081965837488509 0.24074316727492401 0 -0.44062222049055039 0.24203477259657111 0 -0.4198454647722451 0.23985190764030939 0 -0.42503978512155383 0.25887440404814072 0 -0.44062222049055039 0.24203477259657111 0 -0.4198454647722451 0.23985190764030939 0 -0.43146145522804691 0.2313120115293863 0 -0.4198454647722451 0.23985190764030939 0 -0.43146145522804691 0.2313120115293863 0 -0.42370673975344808 0.22056464269113771 0 -0.44192508753596349 0.22328399916790689 0 -0.43146145522804691 0.2313120115293863 0 -0.42370673975344808 0.22056464269113771 0 -0.4198454647722451 0.23985190764030939 0 -0.42370673975344808 0.22056464269113771 0 -0.405480724964072 0.22581663549259839 0 -0.42370673975344808 0.22056464269113771 0 -0.40708390191205951 0.20882890034131879 0 -0.405480724964072 0.22581663549259839 0 -0.42370673975344808 0.22056464269113771 0 -0.40708390191205951 0.20882890034131879 0 -0.42107335870595469 0.2022269477122331 0 -0.44192508753596349 0.22328399916790689 0 -0.42370673975344808 0.22056464269113771 0 -0.43516662619925378 0.20614333559983469 0 -0.42370673975344808 0.22056464269113771 0 -0.43516662619925378 0.20614333559983469 0 -0.42107335870595469 0.2022269477122331 0 -0.43516662619925378 0.20614333559983469 0 -0.4284081648625454 0.1890026720317621 0 -0.42107335870595469 0.2022269477122331 0 -0.43516662619925378 0.20614333559983469 0 -0.4284081648625454 0.1890026720317621 0 -0.4284081648625454 0.1890026720317621 0 -0.40915969581062839 0.19342315750049971 0 -0.4284081648625454 0.1890026720317621 0 -0.42107335870595469 0.2022269477122331 0 -0.40915969581062839 0.19342315750049971 0 -0.40708390191205951 0.20882890034131879 0 -0.42107335870595469 0.2022269477122331 0 -0.40915969581062839 0.19342315750049971 0 -0.40708390191205951 0.20882890034131879 0 -0.40915969581062839 0.19342315750049971 0 -0.38991122675871148 0.19784364296923759 0 -0.40915969581062839 0.19342315750049971 0 -0.38991122675871148 0.19784364296923759 0 -0.40915969581062839 0.19342315750049971 0 -0.38991122675871148 0.19784364296923759 0 -0.39569501158598158 0.17813944679546001 0 -0.39158905321283283 0.2136173787495643 0 -0.38435338999826391 0.22831720607051781 0 -0.36414166766971379 0.2074649771098355 0 -0.38991122675871148 0.19784364296923759 0 -0.39158905321283283 0.2136173787495643 0 -0.36414166766971379 0.2074649771098355 0 -0.40708390191205951 0.20882890034131879 0 -0.39158905321283283 0.2136173787495643 0 -0.405480724964072 0.22581663549259839 0 -0.40708390191205951 0.20882890034131879 0 -0.38991122675871148 0.19784364296923759 0 -0.39158905321283283 0.2136173787495643 0 -0.405480724964072 0.22581663549259839 0 -0.38435338999826391 0.22831720607051781 0 -0.40081965837488509 0.24074316727492401 0 -0.39158905321283283 0.2136173787495643 0 -0.405480724964072 0.22581663549259839 0 -0.38435338999826391 0.22831720607051781 0 -0.37619177155740557 0.24036243622333081 0 -0.38790582398472923 0.24962922847932231 0 -0.36318679658289171 0.25196182354824148 0 -0.38435338999826391 0.22831720607051781 0 -0.37619177155740557 0.24036243622333081 0 -0.38790582398472923 0.24962922847932231 0 -0.38435338999826391 0.22831720607051781 0 -0.38790582398472923 0.24962922847932231 0 -0.40081965837488509 0.24074316727492401 0 -0.38790582398472923 0.24962922847932231 0 -0.40081965837488509 0.24074316727492401 0 -0.40585136056822319 0.25674789398696107 0 -0.40926453963391513 0.14045102348790381 0 -0.42614672387873248 0.14526589422012931 0 -0.41883635224822963 0.16472684775983329 0 -0.40926453963391513 0.14045102348790381 0 -0.41883635224822963 0.16472684775983329 0 -0.40926453963391513 0.14045102348790381 0 -0.41883635224822963 0.16472684775983329 0 -0.40029434983296169 0.15790366282291429 0 -0.40926453963391513 0.14045102348790381 0 -0.417579207348795 0.13056668242546571 0 -0.40026410281127539 0.13237877311027449 0 -0.40926453963391513 0.14045102348790381 0 -0.417579207348795 0.13056668242546571 0 -0.42614672387873248 0.14526589422012931 0 -0.417579207348795 0.13056668242546571 0 -0.43293323699752101 0.1317554923945817 0 -0.42614672387873248 0.14526589422012931 0 -0.42608096723388439 0.1205091241492761 0 -0.417579207348795 0.13056668242546571 0 -0.43293323699752101 0.1317554923945817 0 -0.43796764784210812 0.14528805014891141 0 -0.43293323699752101 0.1317554923945817 0 -0.42614672387873248 0.14526589422012931 0 -0.43892522612619872 0.15930650560997939 0 -0.43796764784210812 0.14528805014891141 0 -0.42614672387873248 0.14526589422012931 0 -0.43892522612619872 0.15930650560997939 0 -0.42614672387873248 0.14526589422012931 0 -0.41883635224822963 0.16472684775983329 0 -0.43992511097516529 0.17411109905454999 0 -0.43892522612619872 0.15930650560997939 0 -0.41883635224822963 0.16472684775983329 0 -0.4284081648625454 0.1890026720317621 0 -0.41883635224822963 0.16472684775983329 0 -0.43992511097516529 0.17411109905454999 0 -0.4284081648625454 0.1890026720317621 0 -0.41883635224822963 0.16472684775983329 0 -0.40915969581062839 0.19342315750049971 0 -0.41883635224822963 0.16472684775983329 0 -0.39569501158598158 0.17813944679546001 0 -0.4284081648625454 0.1890026720317621 0 -0.40915969581062839 0.19342315750049971 0 -0.41883635224822963 0.16472684775983329 0 -0.40029434983296169 0.15790366282291429 0 -0.39569501158598158 0.17813944679546001 0 -0.38484252596519369 0.16167484958157691 0 -0.41883635224822963 0.16472684775983329 0 -0.40029434983296169 0.15790366282291429 0 -0.39569501158598158 0.17813944679546001 0 -0.39569501158598158 0.17813944679546001 0 -0.38484252596519369 0.16167484958157691 0 -0.36525228834216061 0.17922160577889321 0 -0.38991122675871148 0.19784364296923759 0 -0.39569501158598158 0.17813944679546001 0 -0.36525228834216061 0.17922160577889321 0 -0.39283331973148827 0.14452614648979731 0 -0.38372255811484618 0.13025780258704611 0 -0.36636290901460722 0.1509782344479508 0 -0.38484252596519369 0.16167484958157691 0 -0.39283331973148827 0.14452614648979731 0 -0.36636290901460722 0.1509782344479508 0 -0.40029434983296169 0.15790366282291429 0 -0.38484252596519369 0.16167484958157691 0 -0.39283331973148827 0.14452614648979731 0 -0.40926453963391513 0.14045102348790381 0 -0.40029434983296169 0.15790366282291429 0 -0.39283331973148827 0.14452614648979731 0 -0.39283331973148827 0.14452614648979731 0 -0.40026410281127539 0.13237877311027449 0 -0.38372255811484618 0.13025780258704611 0 -0.39792088922733271 0.1160922105611595 0 -0.417579207348795 0.13056668242546571 0 -0.40026410281127539 0.13237877311027449 0 -0.39792088922733271 0.1160922105611595 0 -0.40026410281127539 0.13237877311027449 0 -0.38372255811484618 0.13025780258704611 0 -0.40926453963391513 0.14045102348790381 0 -0.39283331973148827 0.14452614648979731 0 -0.40026410281127539 0.13237877311027449 0 -0.38372255811484618 0.13025780258704611 0 -0.36636290901460722 0.1509782344479508 0 -0.36747352968705388 0.12273486311700831 0 -0.36636290901460722 0.1509782344479508 0 -0.36747352968705388 0.12273486311700831 0 -0.35528769071996391 0.12689780186549679 0 -0.36636290901460722 0.1509782344479508 0 -0.36747352968705388 0.12273486311700831 0 -0.35528769071996391 0.12689780186549679 0 -0.33512599087492562 0.1447950320020088 0 -0.35528769071996391 0.12689780186549679 0 -0.35168351666373848 0.14314256241625531 0 -0.33512599087492562 0.1447950320020088 0 -0.35528769071996391 0.12689780186549679 0 -0.33512599087492562 0.1447950320020088 0 -0.34115039425197219 0.12498493974687711 0 -0.35528769071996391 0.12689780186549679 0 -0.35168351666373848 0.14314256241625531 0 -0.36636290901460722 0.1509782344479508 0 -0.35168351666373848 0.14314256241625531 0 -0.36636290901460722 0.1509782344479508 0 -0.34333519974196419 0.16612441953572921 0 -0.38484252596519369 0.16167484958157691 0 -0.36636290901460722 0.1509782344479508 0 -0.36525228834216061 0.17922160577889321 0 -0.36636290901460722 0.1509782344479508 0 -0.36525228834216061 0.17922160577889321 0 -0.36525228834216061 0.17922160577889321 0 -0.34333519974196419 0.16612441953572921 0 -0.34654591437965571 0.19533490523866279 0 -0.36636290901460722 0.1509782344479508 0 -0.36525228834216061 0.17922160577889321 0 -0.34333519974196419 0.16612441953572921 0 -0.34333519974196419 0.16612441953572921 0 -0.31496429102988749 0.16269226213852109 0 -0.33512599087492562 0.1447950320020088 0 -0.34333519974196419 0.16612441953572921 0 -0.34654591437965571 0.19533490523866279 0 -0.32412519241006588 0.1878495682783011 0 -0.31496429102988749 0.16269226213852109 0 -0.32412519241006588 0.1878495682783011 0 -0.34333519974196419 0.16612441953572921 0 -0.31496429102988749 0.16269226213852109 0 -0.32412519241006588 0.1878495682783011 0 -0.31303823693556859 0.17707572181323081 0 -0.31496429102988749 0.16269226213852109 0 -0.32412519241006588 0.1878495682783011 0 -0.31303823693556859 0.17707572181323081 0 -0.32412519241006588 0.1878495682783011 0 -0.3108046026399135 0.18379038091696129 0 -0.31496429102988749 0.16269226213852109 0 -0.31353256245119709 0.1587605055712967 0 -0.31354631638020197 0.13395604467094269 0 -0.33512599087492562 0.1447950320020088 0 -0.3122891553291075 0.14635758184588041 0 -0.31353256245119709 0.1587605055712967 0 -0.33512599087492562 0.1447950320020088 0 -0.3122891553291075 0.14635758184588041 0 -0.31496429102988749 0.16269226213852109 0 -0.31353256245119709 0.1587605055712967 0 -0.33512599087492562 0.1447950320020088 0 -0.31496429102988749 0.16269226213852109 0 -0.33512599087492562 0.1447950320020088 0 -0.31354631638020197 0.13395604467094269 0 -0.32917568526667751 0.12578156900391591 0 -0.33512599087492562 0.1447950320020088 0 -0.31354631638020197 0.13395604467094269 0 -0.32917568526667751 0.12578156900391591 0 -0.32114709127587232 0.11611322513389059 0 -0.32917568526667751 0.12578156900391591 0 -0.33512599087492562 0.1447950320020088 0 -0.34115039425197219 0.12498493974687711 0 -0.35168351666373848 0.14314256241625531 0 -0.34333519974196419 0.16612441953572921 0 -0.33512599087492562 0.1447950320020088 0 -0.36303104699726713 0.23570834844077809 0 -0.34244699517042121 0.23816418055786151 0 -0.36318679658289171 0.25196182354824148 0 -0.34244699517042121 0.23816418055786151 0 -0.36318679658289171 0.25196182354824148 0 -0.33952374355129727 0.25899057541505788 0 -0.37619177155740557 0.24036243622333081 0 -0.36303104699726713 0.23570834844077809 0 -0.36318679658289171 0.25196182354824148 0 -0.38435338999826391 0.22831720607051781 0 -0.37619177155740557 0.24036243622333081 0 -0.36303104699726713 0.23570834844077809 0 -0.38435338999826391 0.22831720607051781 0 -0.36303104699726713 0.23570834844077809 0 -0.36414166766971379 0.2074649771098355 0 -0.36303104699726713 0.23570834844077809 0 -0.36414166766971379 0.2074649771098355 0 -0.36303104699726713 0.23570834844077809 0 -0.35084793517488477 0.2210857468323085 0 -0.34244699517042121 0.23816418055786151 0 -0.36303104699726713 0.23570834844077809 0 -0.35084793517488477 0.2210857468323085 0 -0.36414166766971379 0.2074649771098355 0 -0.35084793517488477 0.2210857468323085 0 -0.36414166766971379 0.2074649771098355 0 -0.34654591437965571 0.19533490523866279 0 -0.36525228834216061 0.17922160577889321 0 -0.36414166766971379 0.2074649771098355 0 -0.38991122675871148 0.19784364296923759 0 -0.36525228834216061 0.17922160577889321 0 -0.36414166766971379 0.2074649771098355 0 -0.36525228834216061 0.17922160577889321 0 -0.36414166766971379 0.2074649771098355 0 -0.34654591437965571 0.19533490523866279 0 -0.32412519241006588 0.1878495682783011 0 -0.33328609379024349 0.2130068744180813 0 -0.34654591437965571 0.19533490523866279 0 -0.32412519241006588 0.1878495682783011 0 -0.33328609379024349 0.2130068744180813 0 -0.32412519241006588 0.1878495682783011 0 -0.33328609379024349 0.2130068744180813 0 -0.31080006153106382 0.20197173666100501 0 -0.32412519241006588 0.1878495682783011 0 -0.31080006153106382 0.20197173666100501 0 -0.3108046026399135 0.18379038091696129 0 -0.33328609379024349 0.2130068744180813 0 -0.31873218963182409 0.22654972870499029 0 -0.31080006153106382 0.20197173666100501 0 -0.35084793517488477 0.2210857468323085 0 -0.34654591437965571 0.19533490523866279 0 -0.33328609379024349 0.2130068744180813 0 -0.35084793517488477 0.2210857468323085 0 -0.33328609379024349 0.2130068744180813 0 -0.34244699517042121 0.23816418055786151 0 -0.33328609379024349 0.2130068744180813 0 -0.34244699517042121 0.23816418055786151 0 -0.33328609379024349 0.2130068744180813 0 -0.31873218963182409 0.22654972870499029 0 -0.34244699517042121 0.23816418055786151 0 -0.31873218963182409 0.22654972870499029 0 -0.32200613725511351 0.24850726385495631 0 -0.34244699517042121 0.23816418055786151 0 -0.31873218963182409 0.22654972870499029 0 -0.32200613725511351 0.24850726385495631 0 -0.30672251365844311 0.23743048015470111 0 -0.32200613725511351 0.24850726385495631 0 -0.34244699517042121 0.23816418055786151 0 -0.33952374355129727 0.25899057541505788 0 -0.29125564533142001 0.24067530578368901 0 -0.30672251365844311 0.23743048015470111 0 -0.30640548876467488 0.25787073169030861 0 -0.32200613725511351 0.24850726385495631 0 -0.30672251365844311 0.23743048015470111 0 -0.30640548876467488 0.25787073169030861 0 -0.29125564533142001 0.24067530578368901 0 -0.30672251365844311 0.23743048015470111 0 -0.29521310730918271 0.21354937073956171 0 -0.31873218963182409 0.22654972870499029 0 -0.30672251365844311 0.23743048015470111 0 -0.29521310730918271 0.21354937073956171 0 -0.29125564533142001 0.24067530578368901 0 -0.29521310730918271 0.21354937073956171 0 -0.29125564533142001 0.24067530578368901 0 -0.29521310730918271 0.21354937073956171 0 -0.27258595833473342 0.22149207507906341 0 -0.29521310730918271 0.21354937073956171 0 -0.28878760701375322 0.1984352968903606 0 -0.27490594785389072 0.20112241201531189 0 -0.31873218963182409 0.22654972870499029 0 -0.29521310730918271 0.21354937073956171 0 -0.31080006153106382 0.20197173666100501 0 -0.29521310730918271 0.21354937073956171 0 -0.29917056928694541 0.1864234356954344 0 -0.29521310730918271 0.21354937073956171 0 -0.31080006153106382 0.20197173666100501 0 -0.29917056928694541 0.1864234356954344 0 -0.31080006153106382 0.20197173666100501 0 -0.3108046026399135 0.18379038091696129 0 -0.29917056928694541 0.1864234356954344 0 -0.28878760701375322 0.1984352968903606 0 -0.29917056928694541 0.1864234356954344 0 -0.28955343229492791 0.1852490896997587 0 -0.29521310730918271 0.21354937073956171 0 -0.28878760701375322 0.1984352968903606 0 -0.29917056928694541 0.1864234356954344 0 -0.28878760701375322 0.1984352968903606 0 -0.27938784373491388 0.18917199981814359 0 -0.28955343229492791 0.1852490896997587 0 -0.27938784373491388 0.18917199981814359 0 -0.27490594785389072 0.20112241201531189 0 -0.26439180367967152 0.18225540552070321 0 -0.28878760701375322 0.1984352968903606 0 -0.27938784373491388 0.18917199981814359 0 -0.27490594785389072 0.20112241201531189 0 -0.27490594785389072 0.20112241201531189 0 -0.25370102580463139 0.2052288024824625 0 -0.26439180367967152 0.18225540552070321 0 -0.25370102580463139 0.2052288024824625 0 -0.26439180367967152 0.18225540552070321 0 -0.23359887481107691 0.1809086922627815 0 -0.27490594785389072 0.20112241201531189 0 -0.25370102580463139 0.2052288024824625 0 -0.27258595833473342 0.22149207507906341 0 -0.29521310730918271 0.21354937073956171 0 -0.27490594785389072 0.20112241201531189 0 -0.27258595833473342 0.22149207507906341 0 -0.29125564533142001 0.24067530578368901 0 -0.27258595833473342 0.22149207507906341 0 -0.26834113505385238 0.23837358332174549 0 -0.27258595833473342 0.22149207507906341 0 -0.25272375818517617 0.22994970808158929 0 -0.26834113505385238 0.23837358332174549 0 -0.25370102580463139 0.2052288024824625 0 -0.27258595833473342 0.22149207507906341 0 -0.25272375818517617 0.22994970808158929 0 -0.25272375818517617 0.22994970808158929 0 -0.25621817608628389 0.2460965770837312 0 -0.26834113505385238 0.23837358332174549 0 -0.25621817608628389 0.2460965770837312 0 -0.26834113505385238 0.23837358332174549 0 -0.26892213733164849 0.25365425058065472 0 -0.29125564533142001 0.24067530578368901 0 -0.26834113505385238 0.23837358332174549 0 -0.26892213733164849 0.25365425058065472 0 -0.29370567785695612 0.15770531643225719 0 -0.28412418886142132 0.16518528890623771 0 -0.28065913062351988 0.14575155473079041 0 -0.30159211447790629 0.14759241864651959 0 -0.29370567785695612 0.15770531643225719 0 -0.28065913062351988 0.14575155473079041 0 -0.29682817834931757 0.13068013418198679 0 -0.30159211447790629 0.14759241864651959 0 -0.28065913062351988 0.14575155473079041 0 -0.29682817834931757 0.13068013418198679 0 -0.28065913062351988 0.14575155473079041 0 -0.28285123447775751 0.1183560919224374 0 -0.31354631638020197 0.13395604467094269 0 -0.29682817834931757 0.13068013418198679 0 -0.30159211447790629 0.14759241864651959 0 -0.31354631638020197 0.13395604467094269 0 -0.3122891553291075 0.14635758184588041 0 -0.30159211447790629 0.14759241864651959 0 -0.31353256245119709 0.1587605055712967 0 -0.3122891553291075 0.14635758184588041 0 -0.30159211447790629 0.14759241864651959 0 -0.31496429102988749 0.16269226213852109 0 -0.31353256245119709 0.1587605055712967 0 -0.30488677357152572 0.1641353808659653 0 -0.30159211447790629 0.14759241864651959 0 -0.30488677357152572 0.1641353808659653 0 -0.29370567785695612 0.15770531643225719 0 -0.31353256245119709 0.1587605055712967 0 -0.30159211447790629 0.14759241864651959 0 -0.30488677357152572 0.1641353808659653 0 -0.31496429102988749 0.16269226213852109 0 -0.30225886166240762 0.17397067591913981 0 -0.31303823693556859 0.17707572181323081 0 -0.31496429102988749 0.16269226213852109 0 -0.30225886166240762 0.17397067591913981 0 -0.31496429102988749 0.16269226213852109 0 -0.30488677357152572 0.1641353808659653 0 -0.30225886166240762 0.17397067591913981 0 -0.30488677357152572 0.1641353808659653 0 -0.30225886166240762 0.17397067591913981 0 -0.29597535979189887 0.1670989905046398 0 -0.30488677357152572 0.1641353808659653 0 -0.29370567785695612 0.15770531643225719 0 -0.29597535979189887 0.1670989905046398 0 -0.31303823693556859 0.17707572181323081 0 -0.3108046026399135 0.18379038091696129 0 -0.30225886166240762 0.17397067591913981 0 -0.30225886166240762 0.17397067591913981 0 -0.29917056928694541 0.1864234356954344 0 -0.28955343229492791 0.1852490896997587 0 -0.3108046026399135 0.18379038091696129 0 -0.30225886166240762 0.17397067591913981 0 -0.29917056928694541 0.1864234356954344 0 -0.30225886166240762 0.17397067591913981 0 -0.28955343229492791 0.1852490896997587 0 -0.30225886166240762 0.17397067591913981 0 -0.28955343229492791 0.1852490896997587 0 -0.29024545837739651 0.173916500811098 0 -0.28955343229492791 0.1852490896997587 0 -0.29024545837739651 0.173916500811098 0 -0.27889874324695868 0.17762520371433099 0 -0.29024545837739651 0.173916500811098 0 -0.28412418886142132 0.16518528890623771 0 -0.27889874324695868 0.17762520371433099 0 -0.27938784373491388 0.18917199981814359 0 -0.28955343229492791 0.1852490896997587 0 -0.27889874324695868 0.17762520371433099 0 -0.29370567785695612 0.15770531643225719 0 -0.29597535979189887 0.1670989905046398 0 -0.28412418886142132 0.16518528890623771 0 -0.30225886166240762 0.17397067591913981 0 -0.29024545837739651 0.173916500811098 0 -0.29597535979189887 0.1670989905046398 0 -0.29024545837739651 0.173916500811098 0 -0.29597535979189887 0.1670989905046398 0 -0.28412418886142132 0.16518528890623771 0 -0.28412418886142132 0.16518528890623771 0 -0.26844272787379447 0.16268744982768751 0 -0.27889874324695868 0.17762520371433099 0 -0.28412418886142132 0.16518528890623771 0 -0.26844272787379447 0.16268744982768751 0 -0.28065913062351988 0.14575155473079041 0 -0.26844272787379447 0.16268744982768751 0 -0.27889874324695868 0.17762520371433099 0 -0.26439180367967152 0.18225540552070321 0 -0.27938784373491388 0.18917199981814359 0 -0.27889874324695868 0.17762520371433099 0 -0.26439180367967152 0.18225540552070321 0 -0.26844272787379447 0.16268744982768751 0 -0.26439180367967152 0.18225540552070321 0 -0.247018622616726 0.15992587597476091 0 -0.26844272787379447 0.16268744982768751 0 -0.25846103874104392 0.14702121199507179 0 -0.247018622616726 0.15992587597476091 0 -0.26844272787379447 0.16268744982768751 0 -0.25846103874104392 0.14702121199507179 0 -0.28065913062351988 0.14575155473079041 0 -0.25846103874104392 0.14702121199507179 0 -0.28065913062351988 0.14575155473079041 0 -0.25922316449870308 0.12628093809151891 0 -0.28065913062351988 0.14575155473079041 0 -0.25922316449870308 0.12628093809151891 0 -0.28285123447775751 0.1183560919224374 0 -0.25846103874104392 0.14702121199507179 0 -0.25922316449870308 0.12628093809151891 0 -0.2369615480924761 0.1404602413506009 0 -0.25922316449870308 0.12628093809151891 0 -0.25136603029008331 0.1103208693098497 0 -0.26687835675477128 0.1014348965859585 0 -0.25136603029008331 0.1103208693098497 0 -0.26687835675477128 0.1014348965859585 0 -0.24377998071086901 0.096378574065869249 0 -0.26687835675477128 0.1014348965859585 0 -0.28737892951993471 0.098967158637655914 0 -0.27569457229827071 0.081243623470509244 0 -0.26687835675477128 0.1014348965859585 0 -0.28285123447775751 0.1183560919224374 0 -0.28737892951993471 0.098967158637655914 0 -0.25922316449870308 0.12628093809151891 0 -0.26687835675477128 0.1014348965859585 0 -0.28285123447775751 0.1183560919224374 0 -0.29682817834931757 0.13068013418198679 0 -0.28285123447775751 0.1183560919224374 0 -0.30549209578720232 0.10774456093924389 0 -0.28285123447775751 0.1183560919224374 0 -0.28737892951993471 0.098967158637655914 0 -0.30549209578720232 0.10774456093924389 0 -0.28737892951993471 0.098967158637655914 0 -0.30549209578720232 0.10774456093924389 0 -0.29743787519420251 0.08153307720754506 0 -0.30549209578720232 0.10774456093924389 0 -0.29743787519420251 0.08153307720754506 0 -0.31354631638020197 0.13395604467094269 0 -0.29682817834931757 0.13068013418198679 0 -0.30549209578720232 0.10774456093924389 0 -0.31354631638020197 0.13395604467094269 0 -0.30549209578720232 0.10774456093924389 0 -0.29926204670725021 0.066629363318123747 0 -0.30931237829482389 0.073252958087475881 0 -0.31697319293959142 0.061410437985649477 0 -0.29926204670725021 0.066629363318123747 0 -0.30931237829482389 0.073252958087475881 0 -0.29743787519420251 0.08153307720754506 0 -0.30549209578720232 0.10774456093924389 0 -0.29743787519420251 0.08153307720754506 0 -0.31312795334666071 0.083579729522452809 0 -0.30931237829482389 0.073252958087475881 0 -0.29743787519420251 0.08153307720754506 0 -0.31312795334666071 0.083579729522452809 0 -0.28737892951993471 0.098967158637655914 0 -0.29743787519420251 0.08153307720754506 0 -0.27569457229827071 0.081243623470509244 0 -0.29743787519420251 0.08153307720754506 0 -0.28743776060402371 0.060458689408765323 0 -0.28938365460120269 0.05532159347584624 0 -0.29743787519420251 0.08153307720754506 0 -0.28938365460120269 0.05532159347584624 0 -0.29926204670725021 0.066629363318123747 0 -0.29743787519420251 0.08153307720754506 0 -0.28938365460120269 0.05532159347584624 0 -0.29743787519420251 0.08153307720754506 0 -0.27569457229827071 0.081243623470509244 0 -0.28743776060402371 0.060458689408765323 0 -0.27569457229827071 0.081243623470509244 0 -0.26257114212692878 0.06573449919026883 0 -0.28743776060402371 0.060458689408765323 0 -0.26257114212692878 0.06573449919026883 0 -0.28743776060402371 0.060458689408765323 0 -0.26687835675477128 0.1014348965859585 0 -0.25261226255175379 0.080423606239198905 0 -0.24377998071086901 0.096378574065869249 0 -0.26687835675477128 0.1014348965859585 0 -0.27569457229827071 0.081243623470509244 0 -0.25261226255175379 0.080423606239198905 0 -0.26257114212692878 0.06573449919026883 0 -0.23770452364983391 0.071010308971772351 0 -0.25261226255175379 0.080423606239198905 0 -0.26257114212692878 0.06573449919026883 0 -0.23770452364983391 0.071010308971772351 0 -0.27569457229827071 0.081243623470509244 0 -0.25261226255175379 0.080423606239198905 0 -0.26257114212692878 0.06573449919026883 0 -0.2522816967992324 0.037264740289820159 0 -0.27263172987273521 0.051913181220590639 0 -0.24906194248509719 0.058488871325365822 0 -0.26257114212692878 0.06573449919026883 0 -0.27263172987273521 0.051913181220590639 0 -0.24906194248509719 0.058488871325365822 0 -0.2522816967992324 0.037264740289820159 0 -0.2684979789729644 0.03593820420606865 0 -0.27263172987273521 0.051913181220590639 0 -0.2684979789729644 0.03593820420606865 0 -0.27263172987273521 0.051913181220590639 0 -0.28132943400820298 0.02911010974414751 0 -0.27263172987273521 0.051913181220590639 0 -0.28132943400820298 0.02911010974414751 0 -0.28938365460120269 0.05532159347584624 0 -0.26257114212692878 0.06573449919026883 0 -0.27263172987273521 0.051913181220590639 0 -0.28743776060402371 0.060458689408765323 0 -0.25267499080189931 -0.0034516002120552492 0 -0.26909988492935111 -0.0018655285383734981 0 -0.25157722050270093 0.012682655753942951 0 -0.26909988492935111 -0.0018655285383734981 0 -0.25157722050270093 0.012682655753942951 0 -0.27200359261247947 0.017754051058092819 0 -0.2522816967992324 0.037264740289820159 0 -0.25157722050270093 0.012682655753942951 0 -0.27200359261247947 0.017754051058092819 0 -0.2522816967992324 0.037264740289820159 0 -0.2684979789729644 0.03593820420606865 0 -0.27200359261247947 0.017754051058092819 0 -0.2522816967992324 0.037264740289820159 0 -0.27200359261247947 0.017754051058092819 0 -0.27200359261247947 0.017754051058092819 0 -0.28831373269731447 0.017122983851404761 0 -0.28132943400820298 0.02911010974414751 0 -0.2684979789729644 0.03593820420606865 0 -0.27200359261247947 0.017754051058092819 0 -0.28132943400820298 0.02911010974414751 0 -0.26909988492935111 -0.0018655285383734981 0 -0.2917254884257266 -0.0017566381736345419 0 -0.27200359261247947 0.017754051058092819 0 -0.2917254884257266 -0.0017566381736345419 0 -0.27200359261247947 0.017754051058092819 0 -0.28831373269731447 0.017122983851404761 0 -0.2917254884257266 -0.0017566381736345419 0 -0.28831373269731447 0.017122983851404761 0 -0.29997880334656019 0.01439552450637107 0 -0.2917254884257266 -0.0017566381736345419 0 -0.27200359261247947 0.017754051058092819 0 -0.28831373269731447 0.017122983851404761 0 -0.29656482898857922 0.02610767777843559 0 -0.29997880334656019 0.01439552450637107 0 -0.28831373269731447 0.017122983851404761 0 -0.28132943400820298 0.02911010974414751 0 -0.29656482898857922 0.02610767777843559 0 -0.28132943400820298 0.02911010974414751 0 -0.29656482898857922 0.02610767777843559 0 -0.29344050585463782 0.03493273697686209 0 -0.29656482898857922 0.02610767777843559 0 -0.31039051656375261 0.022327184027059441 0 -0.30541723396373921 0.038711125382435783 0 -0.31039051656375261 0.022327184027059441 0 -0.30541723396373921 0.038711125382435783 0 -0.32038394146944787 0.031620215762440292 0 -0.29656482898857922 0.02610767777843559 0 -0.31039051656375261 0.022327184027059441 0 -0.29997880334656019 0.01439552450637107 0 -0.31039051656375261 0.022327184027059441 0 -0.31177688145040278 0.0050359958776742568 0 -0.29997880334656019 0.01439552450637107 0 -0.2917254884257266 -0.0017566381736345419 0 -0.31177688145040278 0.0050359958776742568 0 -0.29997880334656019 0.01439552450637107 0 -0.27263172987273521 0.051913181220590639 0 -0.28743776060402371 0.060458689408765323 0 -0.28938365460120269 0.05532159347584624 0 -0.28938365460120269 0.05532159347584624 0 -0.29045052645802971 0.045802035002429492 0 -0.29738278035354182 0.050541329601553678 0 -0.28938365460120269 0.05532159347584624 0 -0.29738278035354182 0.050541329601553678 0 -0.29780899910201009 0.056562827273038227 0 -0.29926204670725021 0.066629363318123747 0 -0.28938365460120269 0.05532159347584624 0 -0.29780899910201009 0.056562827273038227 0 -0.28132943400820298 0.02911010974414751 0 -0.28938365460120269 0.05532159347584624 0 -0.29045052645802971 0.045802035002429492 0 -0.28132943400820298 0.02911010974414751 0 -0.28938365460120269 0.05532159347584624 0 -0.28132943400820298 0.02911010974414751 0 -0.29344050585463782 0.03493273697686209 0 -0.29045052645802971 0.045802035002429492 0 -0.29344050585463782 0.03493273697686209 0 -0.29045052645802971 0.045802035002429492 0 -0.30541723396373921 0.038711125382435783 0 -0.29045052645802971 0.045802035002429492 0 -0.30541723396373921 0.038711125382435783 0 -0.29738278035354182 0.050541329601553678 0 -0.29045052645802971 0.045802035002429492 0 -0.30541723396373921 0.038711125382435783 0 -0.29656482898857922 0.02610767777843559 0 -0.29344050585463782 0.03493273697686209 0 -0.30541723396373921 0.038711125382435783 0 -0.30541723396373921 0.038711125382435783 0 -0.30520751474604563 0.05375902269662923 0 -0.31780711793698518 0.045521831715634557 0 -0.29926204670725021 0.066629363318123747 0 -0.30520751474604563 0.05375902269662923 0 -0.31697319293959142 0.061410437985649477 0 -0.30541723396373921 0.038711125382435783 0 -0.30520751474604563 0.05375902269662923 0 -0.29738278035354182 0.050541329601553678 0 -0.30520751474604563 0.05375902269662923 0 -0.29738278035354182 0.050541329601553678 0 -0.29780899910201009 0.056562827273038227 0 -0.29926204670725021 0.066629363318123747 0 -0.30520751474604563 0.05375902269662923 0 -0.29780899910201009 0.056562827273038227 0 -0.32553678940662539 0.052415823907368687 0 -0.31780711793698518 0.045521831715634557 0 -0.33422422494732851 0.04449049745268327 0 -0.31697319293959142 0.061410437985649477 0 -0.32553678940662539 0.052415823907368687 0 -0.31780711793698518 0.045521831715634557 0 -0.30520751474604563 0.05375902269662923 0 -0.31697319293959142 0.061410437985649477 0 -0.31780711793698518 0.045521831715634557 0 -0.31697319293959142 0.061410437985649477 0 -0.32808937753058609 0.059947696530402161 0 -0.32553678940662539 0.052415823907368687 0 -0.31780711793698518 0.045521831715634557 0 -0.32038394146944787 0.031620215762440292 0 -0.33422422494732851 0.04449049745268327 0 -0.30541723396373921 0.038711125382435783 0 -0.31780711793698518 0.045521831715634557 0 -0.32038394146944787 0.031620215762440292 0 -0.30541723396373921 0.038711125382435783 0 -0.32038394146944787 0.031620215762440292 0 -0.32038394146944787 0.031620215762440292 0 -0.33422422494732851 0.04449049745268327 0 -0.33422422494732851 0.04449049745268327 0 -0.34051642268078958 0.02208187176518148 0 -0.34924074101412461 0.03711639968071382 0 -0.32038394146944787 0.031620215762440292 0 -0.33422422494732851 0.04449049745268327 0 -0.34051642268078958 0.02208187176518148 0 -0.33422422494732851 0.04449049745268327 0 -0.34715076893326918 0.04673829876922056 0 -0.34924074101412461 0.03711639968071382 0 -0.33422422494732851 0.04449049745268327 0 -0.34806450842520742 0.057360779142928031 0 -0.34715076893326918 0.04673829876922056 0 -0.33422422494732851 0.04449049745268327 0 -0.34806450842520742 0.057360779142928031 0 -0.33422422494732851 0.04449049745268327 0 -0.33482930480244999 0.055095026294593591 0 -0.34806450842520742 0.057360779142928031 0 -0.3407399656121517 0.06083029771636933 0 -0.33482930480244999 0.055095026294593591 0 -0.33440717105718593 0.063083878638897639 0 -0.3407399656121517 0.06083029771636933 0 -0.33482930480244999 0.055095026294593591 0 -0.34806450842520742 0.057360779142928031 0 -0.32808937753058609 0.059947696530402161 0 -0.33482930480244999 0.055095026294593591 0 -0.33440717105718593 0.063083878638897639 0 -0.32808937753058609 0.059947696530402161 0 -0.32553678940662539 0.052415823907368687 0 -0.33482930480244999 0.055095026294593591 0 -0.32553678940662539 0.052415823907368687 0 -0.33422422494732851 0.04449049745268327 0 -0.33482930480244999 0.055095026294593591 0 -0.31039051656375261 0.022327184027059441 0 -0.31177688145040278 0.0050359958776742568 0 -0.3261420213634148 0.01391490981329808 0 -0.32828291010712762 -0.0049346835118845543 0 -0.31177688145040278 0.0050359958776742568 0 -0.3261420213634148 0.01391490981329808 0 -0.31039051656375261 0.022327184027059441 0 -0.32038394146944787 0.031620215762440292 0 -0.3261420213634148 0.01391490981329808 0 -0.31039051656375261 0.022327184027059441 0 -0.32038394146944787 0.031620215762440292 0 -0.32038394146944787 0.031620215762440292 0 -0.34051642268078958 0.02208187176518148 0 -0.32038394146944787 0.031620215762440292 0 -0.3261420213634148 0.01391490981329808 0 -0.34051642268078958 0.02208187176518148 0 -0.3261420213634148 0.01391490981329808 0 -0.34051642268078958 0.02208187176518148 0 -0.34055428987364128 0.0059527955302196532 0 -0.32828291010712762 -0.0049346835118845543 0 -0.3261420213634148 0.01391490981329808 0 -0.34055428987364128 0.0059527955302196532 0 -0.34051642268078958 0.02208187176518148 0 -0.34055428987364128 0.0059527955302196532 0 -0.36064890389212972 0.0125435277679194 0 -0.34718119132474479 -0.01384164818341615 0 -0.34055428987364128 0.0059527955302196532 0 -0.36064890389212972 0.0125435277679194 0 -0.34051642268078958 0.02208187176518148 0 -0.36064890389212972 0.0125435277679194 0 -0.34051642268078958 0.02208187176518148 0 -0.35699945364537122 0.027147445145089769 0 -0.34924074101412461 0.03711639968071382 0 -0.34051642268078958 0.02208187176518148 0 -0.35699945364537122 0.027147445145089769 0 -0.36064890389212972 0.0125435277679194 0 -0.35699945364537122 0.027147445145089769 0 -0.36163302121541668 0.029781402687577421 0 -0.35940737946489582 0.035374977024224222 0 -0.37998819155715241 0.0057865511937031933 0 -0.36738966121720701 0.029980518529024301 0 -0.37123175334181557 0.027162262264614271 0 -0.37998819155715241 0.0057865511937031933 0 -0.36738966121720701 0.029980518529024301 0 -0.3645477689834325 0.020181962352102071 0 -0.37998819155715241 0.0057865511937031933 0 -0.36738966121720701 0.029980518529024301 0 -0.36273559053419291 0.026622670051971411 0 -0.36738966121720701 0.029980518529024301 0 -0.3645477689834325 0.020181962352102071 0 -0.35699945364537122 0.027147445145089769 0 -0.36163302121541668 0.029781402687577421 0 -0.36273559053419291 0.026622670051971411 0 -0.35699945364537122 0.027147445145089769 0 -0.36273559053419291 0.026622670051971411 0 -0.3645477689834325 0.020181962352102071 0 -0.36163302121541668 0.029781402687577421 0 -0.36273559053419291 0.026622670051971411 0 -0.36738966121720701 0.029980518529024301 0 -0.35699945364537122 0.027147445145089769 0 -0.3645477689834325 0.020181962352102071 0 -0.36064890389212972 0.0125435277679194 0 -0.3645477689834325 0.020181962352102071 0 -0.36064890389212972 0.0125435277679194 0 -0.37998819155715241 0.0057865511937031933 0 -0.3645477689834325 0.020181962352102071 0 -0.36064890389212972 0.0125435277679194 0 -0.38683543611469601 0.0001369023841863784 0 -0.36064890389212972 0.0125435277679194 0 -0.37474494217865062 -0.0022388935110706832 0 -0.38683543611469601 0.0001369023841863784 0 -0.36064890389212972 0.0125435277679194 0 -0.37474494217865062 -0.0022388935110706832 0 -0.36307869926690151 -0.00068504054922277494 0 -0.36064890389212972 0.0125435277679194 0 -0.35479113087726238 0.05417448586434577 0 -0.34715076893326918 0.04673829876922056 0 -0.35593663516940488 0.04278932274017315 0 -0.35479113087726238 0.05417448586434577 0 -0.35147867423579721 0.06053566178096708 0 -0.3622197730044176 0.060127746183944272 0 -0.35479113087726238 0.05417448586434577 0 -0.35147867423579721 0.06053566178096708 0 -0.35479113087726238 0.05417448586434577 0 -0.34806450842520742 0.057360779142928031 0 -0.35147867423579721 0.06053566178096708 0 -0.35479113087726238 0.05417448586434577 0 -0.34806450842520742 0.057360779142928031 0 -0.34806450842520742 0.057360779142928031 0 -0.35147867423579721 0.06053566178096708 0 -0.3447014191436914 0.063951910484466787 0 -0.34806450842520742 0.057360779142928031 0 -0.35147867423579721 0.06053566178096708 0 -0.3407399656121517 0.06083029771636933 0 -0.34806450842520742 0.057360779142928031 0 -0.3407399656121517 0.06083029771636933 0 -0.34806450842520742 0.057360779142928031 0 -0.3447014191436914 0.063951910484466787 0 -0.35479113087726238 0.05417448586434577 0 -0.34806450842520742 0.057360779142928031 0 -0.34715076893326918 0.04673829876922056 0 -0.34715076893326918 0.04673829876922056 0 -0.34924074101412461 0.03711639968071382 0 -0.35593663516940488 0.04278932274017315 0 -0.36738966121720701 0.029980518529024301 0 -0.35479113087726238 0.05417448586434577 0 -0.35593663516940488 0.04278932274017315 0 -0.35699945364537122 0.027147445145089769 0 -0.34924074101412461 0.03711639968071382 0 -0.35940737946489582 0.035374977024224222 0 -0.34924074101412461 0.03711639968071382 0 -0.35593663516940488 0.04278932274017315 0 -0.35940737946489582 0.035374977024224222 0 -0.36738966121720701 0.029980518529024301 0 -0.35479113087726238 0.05417448586434577 0 -0.36677646394688163 0.041367990420506082 0 -0.37123175334181557 0.027162262264614271 0 -0.37046143272875132 0.04675171495388801 0 -0.36738966121720701 0.029980518529024301 0 -0.35479113087726238 0.05417448586434577 0 -0.37123175334181557 0.027162262264614271 0 -0.36677646394688163 0.041367990420506082 0 -0.37046143272875132 0.04675171495388801 0 -0.3764786745208083 0.032098692741998169 0 -0.37123175334181557 0.027162262264614271 0 -0.37046143272875132 0.04675171495388801 0 -0.36163302121541668 0.029781402687577421 0 -0.36738966121720701 0.029980518529024301 0 -0.35940737946489582 0.035374977024224222 0 -0.36738966121720701 0.029980518529024301 0 -0.35593663516940488 0.04278932274017315 0 -0.35940737946489582 0.035374977024224222 0 -0.36738966121720701 0.029980518529024301 0 -0.37123175334181557 0.027162262264614271 0 -0.36677646394688163 0.041367990420506082 0 -0.36677646394688163 0.041367990420506082 0 -0.37046143272875132 0.04675171495388801 0 -0.36802302346639398 0.047906750352184523 0 -0.36677646394688163 0.041367990420506082 0 -0.36802302346639398 0.047906750352184523 0 -0.37046143272875132 0.04675171495388801 0 -0.37000681959492809 0.05831264468359916 0 -0.36802302346639398 0.047906750352184523 0 -0.37000681959492809 0.05831264468359916 0 -0.37046143272875132 0.04675171495388801 0 -0.36802302346639398 0.047906750352184523 0 -0.37000681959492809 0.05831264468359916 0 -0.37046143272875132 0.04675171495388801 0 -0.36802302346639398 0.047906750352184523 0 -0.35479113087726238 0.05417448586434577 0 -0.36802302346639398 0.047906750352184523 0 -0.35479113087726238 0.05417448586434577 0 -0.36802302346639398 0.047906750352184523 0 -0.3622197730044176 0.060127746183944272 0 -0.35479113087726238 0.05417448586434577 0 -0.36677646394688163 0.041367990420506082 0 -0.36802302346639398 0.047906750352184523 0 -0.36802302346639398 0.047906750352184523 0 -0.3622197730044176 0.060127746183944272 0 -0.37000681959492809 0.05831264468359916 0 -0.35147867423579721 0.06053566178096708 0 -0.36926886504626422 0.077079019973005369 0 -0.3622197730044176 0.060127746183944272 0 -0.37000681959492809 0.05831264468359916 0 -0.36926886504626422 0.077079019973005369 0 -0.37000681959492809 0.05831264468359916 0 -0.36926886504626422 0.077079019973005369 0 -0.37079498002478778 0.078498176574577722 0 -0.36926886504626422 0.077079019973005369 0 -0.34551673285671652 0.071984855543133663 0 -0.36912013352382872 0.080861301107253064 0 -0.37000681959492809 0.05831264468359916 0 -0.37079498002478778 0.078498176574577722 0 -0.37470600383380392 0.082961959162170973 0 -0.35147867423579721 0.06053566178096708 0 -0.3622197730044176 0.060127746183944272 0 -0.36926886504626422 0.077079019973005369 0 -0.37000681959492809 0.05831264468359916 0 -0.37470600383380392 0.082961959162170973 0 -0.37000681959492809 0.05831264468359916 0 -0.36926886504626422 0.077079019973005369 0 -0.36926886504626422 0.077079019973005369 0 -0.37079498002478778 0.078498176574577722 0 -0.34551673285671652 0.071984855543133663 0 -0.34763839367566191 0.079069075487607554 0 -0.36912013352382872 0.080861301107253064 0 -0.34551673285671652 0.071984855543133663 0 -0.36912013352382872 0.080861301107253064 0 -0.35147867423579721 0.06053566178096708 0 -0.36926886504626422 0.077079019973005369 0 -0.34551673285671652 0.071984855543133663 0 -0.34408269824063842 0.074738747125954852 0 -0.34763839367566191 0.079069075487607554 0 -0.34179116264722731 0.080399472229040897 0 -0.34408269824063842 0.074738747125954852 0 -0.34551673285671652 0.071984855543133663 0 -0.34763839367566191 0.079069075487607554 0 -0.34408269824063842 0.074738747125954852 0 -0.34551673285671652 0.071984855543133663 0 -0.35147867423579721 0.06053566178096708 0 -0.34551673285671652 0.071984855543133663 0 -0.3447014191436914 0.063951910484466787 0 -0.35147867423579721 0.06053566178096708 0 -0.34551673285671652 0.071984855543133663 0 -0.34763839367566191 0.079069075487607554 0 -0.36858415035949882 0.094491491786065696 0 -0.34763839367566191 0.079069075487607554 0 -0.36858415035949882 0.094491491786065696 0 -0.35198293914272999 0.094145145766245733 0 -0.34456144318064219 0.08667329674911145 0 -0.34763839367566191 0.079069075487607554 0 -0.35198293914272999 0.094145145766245733 0 -0.34456144318064219 0.08667329674911145 0 -0.35198293914272999 0.094145145766245733 0 -0.34431035454597703 0.093789606507308373 0 -0.34456144318064219 0.08667329674911145 0 -0.34763839367566191 0.079069075487607554 0 -0.34179116264722731 0.080399472229040897 0 -0.3782625711058698 0.101617738696854 0 -0.37470600383380392 0.082961959162170973 0 -0.36858415035949882 0.094491491786065696 0 -0.34763839367566191 0.079069075487607554 0 -0.36912013352382872 0.080861301107253064 0 -0.36858415035949882 0.094491491786065696 0 -0.36926886504626422 0.077079019973005369 0 -0.37079498002478778 0.078498176574577722 0 -0.36912013352382872 0.080861301107253064 0 -0.36926886504626422 0.077079019973005369 0 -0.36912013352382872 0.080861301107253064 0 -0.36912013352382872 0.080861301107253064 0 -0.37470600383380392 0.082961959162170973 0 -0.37079498002478778 0.078498176574577722 0 -0.36912013352382872 0.080861301107253064 0 -0.37470600383380392 0.082961959162170973 0 -0.36912013352382872 0.080861301107253064 0 -0.37470600383380392 0.082961959162170973 0 -0.36858415035949882 0.094491491786065696 0 -0.36912013352382872 0.080861301107253064 0 -0.36858415035949882 0.094491491786065696 0 -0.36858415035949882 0.094491491786065696 0 -0.36747352968705388 0.12273486311700831 0 -0.3782625711058698 0.101617738696854 0 -0.36858415035949882 0.094491491786065696 0 -0.36858415035949882 0.094491491786065696 0 -0.36006702585218792 0.10838608290929221 0 -0.35198293914272999 0.094145145766245733 0 -0.36858415035949882 0.094491491786065696 0 -0.36006702585218792 0.10838608290929221 0 -0.36747352968705388 0.12273486311700831 0 -0.3782625711058698 0.101617738696854 0 -0.36858415035949882 0.094491491786065696 0 -0.36747352968705388 0.12273486311700831 0 -0.36006702585218792 0.10838608290929221 0 -0.36747352968705388 0.12273486311700831 0 -0.35832203275528268 0.1183511860346923 0 -0.35528769071996391 0.12689780186549679 0 -0.36747352968705388 0.12273486311700831 0 -0.35832203275528268 0.1183511860346923 0 -0.35528769071996391 0.12689780186549679 0 -0.35832203275528268 0.1183511860346923 0 -0.35045988476192508 0.115385996246972 0 -0.36006702585218792 0.10838608290929221 0 -0.35832203275528268 0.1183511860346923 0 -0.35045988476192508 0.115385996246972 0 -0.35045988476192508 0.115385996246972 0 -0.34547580274860562 0.10394098399483009 0 -0.33570271963636877 0.11206429961599181 0 -0.35528769071996391 0.12689780186549679 0 -0.35045988476192508 0.115385996246972 0 -0.34115039425197219 0.12498493974687711 0 -0.36006702585218792 0.10838608290929221 0 -0.35198293914272999 0.094145145766245733 0 -0.34547580274860562 0.10394098399483009 0 -0.36006702585218792 0.10838608290929221 0 -0.35045988476192508 0.115385996246972 0 -0.34547580274860562 0.10394098399483009 0 -0.35198293914272999 0.094145145766245733 0 -0.34547580274860562 0.10394098399483009 0 -0.34431035454597703 0.093789606507308373 0 -0.34547580274860562 0.10394098399483009 0 -0.34431035454597703 0.093789606507308373 0 -0.335413749579693 0.097286071719103154 0 -0.34547580274860562 0.10394098399483009 0 -0.335413749579693 0.097286071719103154 0 -0.33570271963636877 0.11206429961599181 0 -0.335413749579693 0.097286071719103154 0 -0.33570271963636877 0.11206429961599181 0 -0.32444247844199348 0.1047035033472971 0 -0.35045988476192508 0.115385996246972 0 -0.34115039425197219 0.12498493974687711 0 -0.33570271963636877 0.11206429961599181 0 -0.32917568526667751 0.12578156900391591 0 -0.33570271963636877 0.11206429961599181 0 -0.32114709127587232 0.11611322513389059 0 -0.32917568526667751 0.12578156900391591 0 -0.34115039425197219 0.12498493974687711 0 -0.33570271963636877 0.11206429961599181 0 -0.31354631638020197 0.13395604467094269 0 -0.30549209578720232 0.10774456093924389 0 -0.32114709127587232 0.11611322513389059 0 -0.30549209578720232 0.10774456093924389 0 -0.32114709127587232 0.11611322513389059 0 -0.32444247844199348 0.1047035033472971 0 -0.33570271963636877 0.11206429961599181 0 -0.32114709127587232 0.11611322513389059 0 -0.32444247844199348 0.1047035033472971 0 -0.30549209578720232 0.10774456093924389 0 -0.32444247844199348 0.1047035033472971 0 -0.32445673593083119 0.090309359328255762 0 -0.30549209578720232 0.10774456093924389 0 -0.32445673593083119 0.090309359328255762 0 -0.31312795334666071 0.083579729522452809 0 -0.335413749579693 0.097286071719103154 0 -0.32444247844199348 0.1047035033472971 0 -0.32445673593083119 0.090309359328255762 0 -0.32445673593083119 0.090309359328255762 0 -0.3275606083710243 0.080211281293741998 0 -0.31312795334666071 0.083579729522452809 0 -0.3275606083710243 0.080211281293741998 0 -0.31312795334666071 0.083579729522452809 0 -0.31976082328641481 0.073112182403608325 0 -0.30931237829482389 0.073252958087475881 0 -0.31312795334666071 0.083579729522452809 0 -0.31976082328641481 0.073112182403608325 0 -0.30931237829482389 0.073252958087475881 0 -0.31697319293959142 0.061410437985649477 0 -0.31976082328641481 0.073112182403608325 0 -0.31697319293959142 0.061410437985649477 0 -0.31976082328641481 0.073112182403608325 0 -0.32886731949388731 0.069155273298144179 0 -0.31697319293959142 0.061410437985649477 0 -0.32808937753058609 0.059947696530402161 0 -0.32886731949388731 0.069155273298144179 0 -0.3275606083710243 0.080211281293741998 0 -0.31976082328641481 0.073112182403608325 0 -0.32886731949388731 0.069155273298144179 0 -0.32886731949388731 0.069155273298144179 0 -0.33770721458858299 0.069047958238937293 0 -0.336378655355973 0.076693290193422539 0 -0.3275606083710243 0.080211281293741998 0 -0.32886731949388731 0.069155273298144179 0 -0.336378655355973 0.076693290193422539 0 -0.33440717105718593 0.063083878638897639 0 -0.32886731949388731 0.069155273298144179 0 -0.33770721458858299 0.069047958238937293 0 -0.32808937753058609 0.059947696530402161 0 -0.33440717105718593 0.063083878638897639 0 -0.32886731949388731 0.069155273298144179 0 -0.3407399656121517 0.06083029771636933 0 -0.33440717105718593 0.063083878638897639 0 -0.33770721458858299 0.069047958238937293 0 -0.3407399656121517 0.06083029771636933 0 -0.3447014191436914 0.063951910484466787 0 -0.33770721458858299 0.069047958238937293 0 -0.34551673285671652 0.071984855543133663 0 -0.3447014191436914 0.063951910484466787 0 -0.33770721458858299 0.069047958238937293 0 -0.34408269824063842 0.074738747125954852 0 -0.33770721458858299 0.069047958238937293 0 -0.336378655355973 0.076693290193422539 0 -0.34408269824063842 0.074738747125954852 0 -0.34551673285671652 0.071984855543133663 0 -0.33770721458858299 0.069047958238937293 0 -0.34551673285671652 0.071984855543133663 0 -0.33770721458858299 0.069047958238937293 0 -0.34408269824063842 0.074738747125954852 0 -0.336378655355973 0.076693290193422539 0 -0.34179116264722731 0.080399472229040897 0 -0.336378655355973 0.076693290193422539 0 -0.34179116264722731 0.080399472229040897 0 -0.33708436589161489 0.085963183755354639 0 -0.34456144318064219 0.08667329674911145 0 -0.34179116264722731 0.080399472229040897 0 -0.33708436589161489 0.085963183755354639 0 -0.34456144318064219 0.08667329674911145 0 -0.34431035454597703 0.093789606507308373 0 -0.33708436589161489 0.085963183755354639 0 -0.34431035454597703 0.093789606507308373 0 -0.335413749579693 0.097286071719103154 0 -0.33708436589161489 0.085963183755354639 0 -0.335413749579693 0.097286071719103154 0 -0.32445673593083119 0.090309359328255762 0 -0.33708436589161489 0.085963183755354639 0 -0.32445673593083119 0.090309359328255762 0 -0.3275606083710243 0.080211281293741998 0 -0.33708436589161489 0.085963183755354639 0 -0.3275606083710243 0.080211281293741998 0 -0.336378655355973 0.076693290193422539 0 -0.33708436589161489 0.085963183755354639 0 -0.38891458820749281 0.47713565504117422 0 -0.42172655890518862 0.5 0 -0.3640375775585698 0.5 0 -0.38891458820749281 0.47713565504117422 0 -0.37103467036260362 0.45695891695805302 0 -0.36943712044780219 0.47475959506207249 0 -0.39694697642853649 0.45370639251272787 0 -0.37103467036260362 0.45695891695805302 0 -0.38891458820749281 0.47713565504117422 0 -0.39694697642853649 0.45370639251272787 0 -0.37103467036260362 0.45695891695805302 0 -0.38249991962136642 0.44345487931465249 0 -0.39694697642853649 0.45370639251272787 0 -0.37103467036260362 0.45695891695805302 0 -0.38249991962136642 0.44345487931465249 0 -0.39694697642853649 0.45370639251272787 0 -0.40464661760035381 0.43350824459614162 0 -0.38891458820749281 0.47713565504117422 0 -0.39694697642853649 0.45370639251272787 0 -0.41631826774707797 0.4711213942969617 0 -0.39694697642853649 0.45370639251272787 0 -0.42285928249446952 0.45045386806740279 0 -0.41631826774707797 0.4711213942969617 0 -0.42285928249446952 0.45045386806740279 0 -0.42501824733507809 0.43459816807542118 0 -0.40464661760035381 0.43350824459614162 0 -0.39694697642853649 0.45370639251272787 0 -0.42285928249446952 0.45045386806740279 0 -0.39694697642853649 0.45370639251272787 0 -0.42285928249446952 0.45045386806740279 0 -0.40464661760035381 0.43350824459614162 0 -0.42285928249446952 0.45045386806740279 0 -0.43521244088076849 0.46107148678855758 0 -0.44877158856040261 0.44720134362207808 0 -0.42285928249446952 0.45045386806740279 0 -0.44877158856040261 0.44720134362207808 0 -0.42285928249446952 0.45045386806740279 0 -0.43592409671607729 0.44045812782560079 0 -0.44877158856040261 0.44720134362207808 0 -0.42285928249446952 0.45045386806740279 0 -0.43592409671607729 0.44045812782560079 0 -0.42501824733507809 0.43459816807542118 0 -0.42285928249446952 0.45045386806740279 0 -0.43521244088076849 0.46107148678855758 0 -0.41631826774707797 0.4711213942969617 0 -0.41631826774707797 0.4711213942969617 0 -0.42172655890518862 0.5 0 -0.43935827984199688 0.47473889959161758 0 -0.43521244088076849 0.46107148678855758 0 -0.41631826774707797 0.4711213942969617 0 -0.43935827984199688 0.47473889959161758 0 -0.38891458820749281 0.47713565504117422 0 -0.41631826774707797 0.4711213942969617 0 -0.42172655890518862 0.5 0 -0.42172655890518862 0.5 0 -0.43935827984199688 0.47473889959161758 0 -0.47784082473980471 0.47626967285504462 0 -0.42172655890518862 0.5 0 -0.5 0.5 0 -0.47784082473980471 0.47626967285504462 0 -0.43935827984199688 0.47473889959161758 0 -0.47784082473980471 0.47626967285504462 0 -0.4487547857598953 0.46184192836472759 0 -0.5 0.5 0 -0.47784082473980471 0.47626967285504462 0 -0.49999999999999589 0.44077113011354369 0 -0.47784082473980471 0.47626967285504462 0 -0.47438579428019922 0.44398623686781052 0 -0.4627013265822788 0.4545376326069438 0 -0.47784082473980471 0.47626967285504462 0 -0.49999999999999589 0.44077113011354369 0 -0.47438579428019922 0.44398623686781052 0 -0.49999999999999589 0.44077113011354369 0 -0.47438579428019922 0.44398623686781052 0 -0.48180565015534738 0.42787197640755792 0 -0.49999999999999589 0.44077113011354369 0 -0.47438579428019922 0.44398623686781052 0 -0.47438579428019922 0.44398623686781052 0 -0.4627013265822788 0.4545376326069438 0 -0.44877158856040261 0.44720134362207808 0 -0.47438579428019922 0.44398623686781052 0 -0.44877158856040261 0.44720134362207808 0 -0.47438579428019922 0.44398623686781052 0 -0.44877158856040261 0.44720134362207808 0 -0.46289485375526918 0.43579199928955081 0 -0.44877158856040261 0.44720134362207808 0 -0.44878504691792248 0.43547483269414872 0 -0.46289485375526918 0.43579199928955081 0 -0.47784082473980471 0.47626967285504462 0 -0.4627013265822788 0.4545376326069438 0 -0.4487547857598953 0.46184192836472759 0 -0.4627013265822788 0.4545376326069438 0 -0.4487547857598953 0.46184192836472759 0 -0.44877158856040261 0.44720134362207808 0 -0.4487547857598953 0.46184192836472759 0 -0.44877158856040261 0.44720134362207808 0 -0.43521244088076849 0.46107148678855758 0 -0.4487547857598953 0.46184192836472759 0 -0.44877158856040261 0.44720134362207808 0 -0.43521244088076849 0.46107148678855758 0 -0.43935827984199688 0.47473889959161758 0 -0.4487547857598953 0.46184192836472759 0 -0.44877158856040261 0.44720134362207808 0 -0.44508566455651338 0.43839632914573512 0 -0.44878504691792248 0.43547483269414872 0 -0.44877158856040261 0.44720134362207808 0 -0.44878504691792248 0.43547483269414872 0 -0.43592409671607729 0.44045812782560079 0 -0.44877158856040261 0.44720134362207808 0 -0.44508566455651338 0.43839632914573512 0 -0.44531233658805403 0.42513554986162888 0 -0.44878504691792248 0.43547483269414872 0 -0.44880957839306629 0.41410011360809668 0 -0.44878504691792248 0.43547483269414872 0 -0.44880957839306629 0.41410011360809668 0 -0.43788570063392329 0.43164093021736671 0 -0.44531233658805403 0.42513554986162888 0 -0.44878504691792248 0.43547483269414872 0 -0.43592409671607729 0.44045812782560079 0 -0.44508566455651338 0.43839632914573512 0 -0.43788570063392329 0.43164093021736671 0 -0.44508566455651338 0.43839632914573512 0 -0.43788570063392329 0.43164093021736671 0 -0.44878504691792248 0.43547483269414872 0 -0.44508566455651338 0.43839632914573512 0 -0.44878504691792248 0.43547483269414872 0 -0.44531233658805403 0.42513554986162888 0 -0.44880957839306629 0.41410011360809668 0 -0.42391867717568832 0.41711337076656618 0 -0.44880957839306629 0.41410011360809668 0 -0.46585669794528167 0.42199291516666237 0 -0.4641229039382897 0.40091036417177778 0 -0.44878504691792248 0.43547483269414872 0 -0.46585669794528167 0.42199291516666237 0 -0.44878504691792248 0.43547483269414872 0 -0.44880957839306629 0.41410011360809668 0 -0.46585669794528167 0.42199291516666237 0 -0.44878504691792248 0.43547483269414872 0 -0.46585669794528167 0.42199291516666237 0 -0.46289485375526918 0.43579199928955081 0 -0.47438579428019922 0.44398623686781052 0 -0.46289485375526918 0.43579199928955081 0 -0.48180565015534738 0.42787197640755792 0 -0.46585669794528167 0.42199291516666237 0 -0.46289485375526918 0.43579199928955081 0 -0.48180565015534738 0.42787197640755792 0 -0.46585669794528167 0.42199291516666237 0 -0.48292834897264081 0.4085109976391762 0 -0.4641229039382897 0.40091036417177778 0 -0.46585669794528167 0.42199291516666237 0 -0.48292834897264081 0.4085109976391762 0 -0.46585669794528167 0.42199291516666237 0 -0.48180565015534738 0.42787197640755792 0 -0.48292834897264081 0.4085109976391762 0 -0.48292834897264081 0.4085109976391762 0 -0.5 0.41790010511261683 0 -0.5 0.39502908011169002 0 -0.48180565015534738 0.42787197640755792 0 -0.48292834897264081 0.4085109976391762 0 -0.5 0.41790010511261683 0 -0.49999999999999589 0.44077113011354369 0 -0.48180565015534738 0.42787197640755792 0 -0.5 0.41790010511261683 0 -0.48850556386005051 0.3766603246979251 0 -0.5 0.39502908011169002 0 -0.47832653283541199 0.38608194873200979 0 -0.48850556386005051 0.3766603246979251 0 -0.5 0.39502908011169002 0 -0.5 0.36887446842263683 0 -0.48292834897264081 0.4085109976391762 0 -0.5 0.39502908011169002 0 -0.47832653283541199 0.38608194873200979 0 -0.48292834897264081 0.4085109976391762 0 -0.5 0.39502908011169002 0 -0.48292834897264081 0.4085109976391762 0 -0.47832653283541199 0.38608194873200979 0 -0.4641229039382897 0.40091036417177778 0 -0.48850556386005051 0.3766603246979251 0 -0.47832653283541199 0.38608194873200979 0 -0.48259334700195489 0.36409898273387958 0 -0.47832653283541199 0.38608194873200979 0 -0.46059005399087027 0.38292215568240928 0 -0.4641229039382897 0.40091036417177778 0 -0.47832653283541199 0.38608194873200979 0 -0.46059005399087027 0.38292215568240928 0 -0.46572599417265398 0.36772482908493609 0 -0.44880957839306629 0.41410011360809668 0 -0.4641229039382897 0.40091036417177778 0 -0.44883410986820999 0.3927253945220448 0 -0.46059005399087027 0.38292215568240928 0 -0.4641229039382897 0.40091036417177778 0 -0.44883410986820999 0.3927253945220448 0 -0.44880957839306629 0.41410011360809668 0 -0.44883410986820999 0.3927253945220448 0 -0.43699833754743561 0.40294499431243458 0 -0.44880957839306629 0.41410011360809668 0 -0.44883410986820999 0.3927253945220448 0 -0.44883410986820999 0.3927253945220448 0 -0.43978391516082421 0.3912231797547942 0 -0.43699833754743561 0.40294499431243458 0 -0.44883410986820999 0.3927253945220448 0 -0.43978391516082421 0.3912231797547942 0 -0.44802713623065987 0.37645115623263098 0 -0.44883410986820999 0.3927253945220448 0 -0.44885864134335329 0.37135067543599282 0 -0.44883410986820999 0.3927253945220448 0 -0.44802713623065987 0.37645115623263098 0 -0.44885864134335329 0.37135067543599282 0 -0.43978391516082421 0.3912231797547942 0 -0.44802713623065987 0.37645115623263098 0 -0.42527607699699133 0.39277117395206662 0 -0.46059005399087027 0.38292215568240928 0 -0.44883410986820999 0.3927253945220448 0 -0.44885864134335329 0.37135067543599282 0 -0.44802713623065987 0.37645115623263098 0 -0.4250431626101242 0.37647010748543319 0 -0.42527607699699133 0.39277117395206662 0 -0.44802713623065987 0.37645115623263098 0 -0.42527607699699133 0.39277117395206662 0 -0.4250431626101242 0.37647010748543319 0 -0.4134887672477453 0.38574914578498593 0 -0.40122768387689522 0.38158953953487368 0 -0.4250431626101242 0.37647010748543319 0 -0.40122768387689522 0.38158953953487368 0 -0.4250431626101242 0.37647010748543319 0 -0.4134887672477453 0.38574914578498593 0 -0.42527607699699133 0.39277117395206662 0 -0.4250431626101242 0.37647010748543319 0 -0.40122768387689522 0.38158953953487368 0 -0.40086489287733429 0.37467411733839928 0 -0.4134887672477453 0.38574914578498593 0 -0.40798835104355652 0.39359067917546098 0 -0.40557429982823212 0.38794008425198068 0 -0.4134887672477453 0.38574914578498593 0 -0.40122768387689522 0.38158953953487368 0 -0.40557429982823212 0.38794008425198068 0 -0.40798835104355652 0.39359067917546098 0 -0.42527607699699133 0.39277117395206662 0 -0.40252501776332311 0.40909119167150271 0 -0.42527607699699133 0.39277117395206662 0 -0.40252501776332311 0.40909119167150271 0 -0.4134887672477453 0.38574914578498593 0 -0.40798835104355652 0.39359067917546098 0 -0.42527607699699133 0.39277117395206662 0 -0.42527607699699133 0.39277117395206662 0 -0.43699833754743561 0.40294499431243458 0 -0.42391867717568832 0.41711337076656618 0 -0.43978391516082421 0.3912231797547942 0 -0.42527607699699133 0.39277117395206662 0 -0.43699833754743561 0.40294499431243458 0 -0.44880957839306629 0.41410011360809668 0 -0.43699833754743561 0.40294499431243458 0 -0.42391867717568832 0.41711337076656618 0 -0.44531233658805403 0.42513554986162888 0 -0.42391867717568832 0.41711337076656618 0 -0.43788570063392329 0.43164093021736671 0 -0.44531233658805403 0.42513554986162888 0 -0.42391867717568832 0.41711337076656618 0 -0.43788570063392329 0.43164093021736671 0 -0.42391867717568832 0.41711337076656618 0 -0.42501824733507809 0.43459816807542118 0 -0.43592409671607729 0.44045812782560079 0 -0.43788570063392329 0.43164093021736671 0 -0.42501824733507809 0.43459816807542118 0 -0.42391867717568832 0.41711337076656618 0 -0.42501824733507809 0.43459816807542118 0 -0.40464661760035381 0.43350824459614162 0 -0.42527607699699133 0.39277117395206662 0 -0.42391867717568832 0.41711337076656618 0 -0.40252501776332311 0.40909119167150271 0 -0.42391867717568832 0.41711337076656618 0 -0.40252501776332311 0.40909119167150271 0 -0.40464661760035381 0.43350824459614162 0 -0.42391867717568832 0.41711337076656618 0 -0.40252501776332311 0.40909119167150271 0 -0.40252501776332311 0.40909119167150271 0 -0.37875820238401509 0.42613984176471847 0 -0.40252501776332311 0.40909119167150271 0 -0.40464661760035381 0.43350824459614162 0 -0.37875820238401509 0.42613984176471847 0 -0.38249991962136642 0.44345487931465249 0 -0.40464661760035381 0.43350824459614162 0 -0.37875820238401509 0.42613984176471847 0 -0.40252501776332311 0.40909119167150271 0 -0.37875820238401509 0.42613984176471847 0 -0.37769092578324193 0.39977892163450779 0 -0.37769092578324193 0.39977892163450779 0 -0.38963770449155072 0.39285491215608792 0 -0.37686086334024771 0.38257038446795849 0 -0.40252501776332311 0.40909119167150271 0 -0.37769092578324193 0.39977892163450779 0 -0.38963770449155072 0.39285491215608792 0 -0.40252501776332311 0.40909119167150271 0 -0.37769092578324193 0.39977892163450779 0 -0.37686086334024771 0.38257038446795849 0 -0.39363670834615189 0.38450398520198442 0 -0.40086489287733429 0.37467411733839928 0 -0.38963770449155072 0.39285491215608792 0 -0.37686086334024771 0.38257038446795849 0 -0.39363670834615189 0.38450398520198442 0 -0.37686086334024771 0.38257038446795849 0 -0.40086489287733429 0.37467411733839928 0 -0.37686086334024771 0.38257038446795849 0 -0.40086489287733429 0.37467411733839928 0 -0.39033592763893787 0.37070590072739279 0 -0.39363670834615189 0.38450398520198442 0 -0.40122768387689522 0.38158953953487368 0 -0.39959239714473138 0.39083097251260251 0 -0.38963770449155072 0.39285491215608792 0 -0.39363670834615189 0.38450398520198442 0 -0.39959239714473138 0.39083097251260251 0 -0.39363670834615189 0.38450398520198442 0 -0.40122768387689522 0.38158953953487368 0 -0.40086489287733429 0.37467411733839928 0 -0.40122768387689522 0.38158953953487368 0 -0.40557429982823212 0.38794008425198068 0 -0.39959239714473138 0.39083097251260251 0 -0.40798835104355652 0.39359067917546098 0 -0.40557429982823212 0.38794008425198068 0 -0.39959239714473138 0.39083097251260251 0 -0.40252501776332311 0.40909119167150271 0 -0.38963770449155072 0.39285491215608792 0 -0.39959239714473138 0.39083097251260251 0 -0.40798835104355652 0.39359067917546098 0 -0.40252501776332311 0.40909119167150271 0 -0.39959239714473138 0.39083097251260251 0 -0.3926828114571661 0.35541775914535301 0 -0.40105078960399698 0.34662517948293931 0 -0.40586906590548888 0.3393029225754271 0 -0.3926828114571661 0.35541775914535301 0 -0.39400561065841477 0.34382680172727831 0 -0.40586906590548888 0.3393029225754271 0 -0.3926828114571661 0.35541775914535301 0 -0.40586906590548888 0.3393029225754271 0 -0.3926828114571661 0.35541775914535301 0 -0.39969836615416421 0.35756427730283669 0 -0.39341808057325789 0.36431669671432632 0 -0.3926828114571661 0.35541775914535301 0 -0.40105078960399698 0.34662517948293931 0 -0.39969836615416421 0.35756427730283669 0 -0.3926828114571661 0.35541775914535301 0 -0.39400561065841477 0.34382680172727831 0 -0.38539473684528258 0.34837828204789067 0 -0.40105078960399698 0.34662517948293931 0 -0.40525205349158999 0.35429039595711992 0 -0.40888688292129022 0.34941903462410451 0 -0.40105078960399698 0.34662517948293931 0 -0.4080564418273247 0.34368885170405422 0 -0.40888688292129022 0.34941903462410451 0 -0.40105078960399698 0.34662517948293931 0 -0.40525205349158999 0.35429039595711992 0 -0.39969836615416421 0.35756427730283669 0 -0.40525205349158999 0.35429039595711992 0 -0.39969836615416421 0.35756427730283669 0 -0.40553625032349627 0.36037170931698131 0 -0.40553625032349627 0.36037170931698131 0 -0.40544017780568847 0.3661562974108753 0 -0.40025021147547779 0.36436392320030081 0 -0.40544017780568847 0.3661562974108753 0 -0.40025021147547779 0.36436392320030081 0 -0.397742957241214 0.36844985128713797 0 -0.39969836615416421 0.35756427730283669 0 -0.40553625032349627 0.36037170931698131 0 -0.40025021147547779 0.36436392320030081 0 -0.40544017780568847 0.3661562974108753 0 -0.40086489287733429 0.37467411733839928 0 -0.397742957241214 0.36844985128713797 0 -0.40086489287733429 0.37467411733839928 0 -0.397742957241214 0.36844985128713797 0 -0.39033592763893787 0.37070590072739279 0 -0.397742957241214 0.36844985128713797 0 -0.39341808057325789 0.36431669671432632 0 -0.39033592763893787 0.37070590072739279 0 -0.39969836615416421 0.35756427730283669 0 -0.40025021147547779 0.36436392320030081 0 -0.39341808057325789 0.36431669671432632 0 -0.40025021147547779 0.36436392320030081 0 -0.397742957241214 0.36844985128713797 0 -0.39341808057325789 0.36431669671432632 0 -0.3926828114571661 0.35541775914535301 0 -0.39341808057325789 0.36431669671432632 0 -0.37949655700884349 0.37153259571527891 0 -0.37949655700884349 0.37153259571527891 0 -0.37823932191431281 0.35548757599615399 0 -0.37024808467873749 0.36543132639488701 0 -0.3926828114571661 0.35541775914535301 0 -0.37949655700884349 0.37153259571527891 0 -0.37823932191431281 0.35548757599615399 0 -0.3926828114571661 0.35541775914535301 0 -0.37949655700884349 0.37153259571527891 0 -0.39341808057325789 0.36431669671432632 0 -0.39033592763893787 0.37070590072739279 0 -0.37949655700884349 0.37153259571527891 0 -0.37686086334024771 0.38257038446795849 0 -0.39033592763893787 0.37070590072739279 0 -0.37949655700884349 0.37153259571527891 0 -0.37823932191431281 0.35548757599615399 0 -0.38539473684528258 0.34837828204789067 0 -0.3787015959315434 0.33902802614693439 0 -0.3926828114571661 0.35541775914535301 0 -0.37823932191431281 0.35548757599615399 0 -0.38539473684528258 0.34837828204789067 0 -0.3787015959315434 0.33902802614693439 0 -0.37816355277066899 0.32985684687273281 0 -0.39158393304450312 0.32769252248945308 0 -0.39400561065841477 0.34382680172727831 0 -0.38539473684528258 0.34837828204789067 0 -0.3787015959315434 0.33902802614693439 0 -0.39158393304450312 0.32769252248945308 0 -0.37442838800096029 0.32044424157556423 0 -0.37816355277066899 0.32985684687273281 0 -0.39158393304450312 0.32769252248945308 0 -0.37442838800096029 0.32044424157556423 0 -0.38613629988198012 0.31665983269396758 0 -0.39158393304450312 0.32769252248945308 0 -0.37442838800096029 0.32044424157556423 0 -0.38613629988198012 0.31665983269396758 0 -0.37442838800096029 0.32044424157556423 0 -0.37415321332832258 0.31386652142517069 0 -0.39158393304450312 0.32769252248945308 0 -0.4039094095666334 0.320812311378052 0 -0.40925887999808552 0.33516025262174892 0 -0.38613629988198012 0.31665983269396758 0 -0.39830358576524327 0.31266849694114901 0 -0.39158393304450312 0.32769252248945308 0 -0.39830358576524327 0.31266849694114901 0 -0.39158393304450312 0.32769252248945308 0 -0.4039094095666334 0.320812311378052 0 -0.39830358576524327 0.31266849694114901 0 -0.4039094095666334 0.320812311378052 0 -0.40826549608127172 0.31275764886218971 0 -0.3787015959315434 0.33902802614693439 0 -0.40777024278950652 0.33697950655941222 0 -0.39158393304450312 0.32769252248945308 0 -0.40925887999808552 0.33516025262174892 0 -0.39158393304450312 0.32769252248945308 0 -0.40777024278950652 0.33697950655941222 0 -0.40925887999808552 0.33516025262174892 0 -0.3787015959315434 0.33902802614693439 0 -0.39158393304450312 0.32769252248945308 0 -0.40777024278950652 0.33697950655941222 0 -0.39400561065841477 0.34382680172727831 0 -0.3787015959315434 0.33902802614693439 0 -0.40777024278950652 0.33697950655941222 0 -0.39400561065841477 0.34382680172727831 0 -0.40586906590548888 0.3393029225754271 0 -0.40777024278950652 0.33697950655941222 0 -0.40105078960399698 0.34662517948293931 0 -0.40586906590548888 0.3393029225754271 0 -0.40105078960399698 0.34662517948293931 0 -0.40586906590548888 0.3393029225754271 0 -0.4080564418273247 0.34368885170405422 0 -0.4080564418273247 0.34368885170405422 0 -0.41125860555200922 0.34134685969384471 0 -0.40895905381070002 0.33957121871677393 0 -0.40586906590548888 0.3393029225754271 0 -0.4080564418273247 0.34368885170405422 0 -0.40895905381070002 0.33957121871677393 0 -0.4080564418273247 0.34368885170405422 0 -0.41125860555200922 0.34134685969384471 0 -0.41366919887348358 0.34576378073699821 0 -0.41125860555200922 0.34134685969384471 0 -0.41273643032526569 0.33662953043248711 0 -0.41433336845197538 0.3415594658204692 0 -0.41125860555200922 0.34134685969384471 0 -0.41433336845197538 0.3415594658204692 0 -0.41366919887348358 0.34576378073699821 0 -0.41125860555200922 0.34134685969384471 0 -0.41273643032526569 0.33662953043248711 0 -0.40895905381070002 0.33957121871677393 0 -0.41273643032526569 0.33662953043248711 0 -0.40777024278950652 0.33697950655941222 0 -0.41273643032526569 0.33662953043248711 0 -0.40895905381070002 0.33957121871677393 0 -0.40777024278950652 0.33697950655941222 0 -0.41273643032526569 0.33662953043248711 0 -0.40777024278950652 0.33697950655941222 0 -0.40925887999808552 0.33516025262174892 0 -0.40777024278950652 0.33697950655941222 0 -0.40925887999808552 0.33516025262174892 0 -0.40586906590548888 0.3393029225754271 0 -0.40895905381070002 0.33957121871677393 0 -0.40777024278950652 0.33697950655941222 0 -0.40586906590548888 0.3393029225754271 0 -0.40777024278950652 0.33697950655941222 0 -0.41273643032526569 0.33662953043248711 0 -0.40925887999808552 0.33516025262174892 0 -0.40925887999808552 0.33516025262174892 0 -0.42024067891477529 0.32173946694831868 0 -0.40925887999808552 0.33516025262174892 0 -0.42071708592719742 0.33131558094746122 0 -0.42024067891477529 0.32173946694831868 0 -0.41273643032526569 0.33662953043248711 0 -0.40925887999808552 0.33516025262174892 0 -0.42071708592719742 0.33131558094746122 0 -0.41273643032526569 0.33662953043248711 0 -0.4199209072431685 0.34318781838679219 0 -0.41433336845197538 0.3415594658204692 0 -0.4199209072431685 0.34318781838679219 0 -0.41433336845197538 0.3415594658204692 0 -0.41366919887348358 0.34576378073699821 0 -0.40925887999808552 0.33516025262174892 0 -0.41892768793075841 0.31754462100172592 0 -0.42141481873501418 0.31567829233095179 0 -0.40925887999808552 0.33516025262174892 0 -0.411263050936583 0.31954773430139438 0 -0.41892768793075841 0.31754462100172592 0 -0.40925887999808552 0.33516025262174892 0 -0.42141481873501418 0.31567829233095179 0 -0.40925887999808552 0.33516025262174892 0 -0.42024067891477529 0.32173946694831868 0 -0.42141481873501418 0.31567829233095179 0 -0.411263050936583 0.31954773430139438 0 -0.40826549608127172 0.31275764886218971 0 -0.41647318301620623 0.31168328686166002 0 -0.4039094095666334 0.320812311378052 0 -0.411263050936583 0.31954773430139438 0 -0.40826549608127172 0.31275764886218971 0 -0.4039094095666334 0.320812311378052 0 -0.40925887999808552 0.33516025262174892 0 -0.411263050936583 0.31954773430139438 0 -0.411263050936583 0.31954773430139438 0 -0.41892768793075841 0.31754462100172592 0 -0.41647318301620623 0.31168328686166002 0 -0.41892768793075841 0.31754462100172592 0 -0.42141481873501418 0.31567829233095179 0 -0.41892768793075841 0.31754462100172592 0 -0.42141481873501418 0.31567829233095179 0 -0.41647318301620623 0.31168328686166002 0 -0.42024067891477529 0.32173946694831868 0 -0.43790895006943947 0.32081412042189511 0 -0.43122247783146522 0.30831868127488848 0 -0.42024067891477529 0.32173946694831868 0 -0.42938605365092247 0.3272194948190838 0 -0.43790895006943947 0.32081412042189511 0 -0.42024067891477529 0.32173946694831868 0 -0.42141481873501418 0.31567829233095179 0 -0.43122247783146522 0.30831868127488848 0 -0.42024067891477529 0.32173946694831868 0 -0.43122247783146522 0.30831868127488848 0 -0.42071708592719742 0.33131558094746122 0 -0.42024067891477529 0.32173946694831868 0 -0.42938605365092247 0.3272194948190838 0 -0.42938605365092247 0.3272194948190838 0 -0.43674098495811231 0.33493788649063261 0 -0.43790895006943947 0.32081412042189511 0 -0.43790895006943947 0.32081412042189511 0 -0.4401847358662575 0.3127477530096977 0 -0.43122247783146522 0.30831868127488848 0 -0.41273643032526569 0.33662953043248711 0 -0.43674098495811231 0.33493788649063261 0 -0.42071708592719742 0.33131558094746122 0 -0.42938605365092247 0.3272194948190838 0 -0.43674098495811231 0.33493788649063261 0 -0.41273643032526569 0.33662953043248711 0 -0.4199209072431685 0.34318781838679219 0 -0.43385085243219867 0.34555045147446217 0 -0.41273643032526569 0.33662953043248711 0 -0.42071708592719742 0.33131558094746122 0 -0.43674098495811231 0.33493788649063261 0 -0.41273643032526569 0.33662953043248711 0 -0.43385085243219867 0.34555045147446217 0 -0.41273643032526569 0.33662953043248711 0 -0.43674098495811231 0.33493788649063261 0 -0.43385085243219867 0.34555045147446217 0 -0.43385085243219867 0.34555045147446217 0 -0.4302486007270056 0.35272204188882378 0 -0.42573384958437638 0.34916959158482058 0 -0.43385085243219867 0.34555045147446217 0 -0.43539550265875948 0.35741731211322858 0 -0.44110397924445488 0.35756373905142852 0 -0.43539550265875948 0.35741731211322858 0 -0.4302486007270056 0.35272204188882378 0 -0.42757171946388478 0.35850981688022993 0 -0.43385085243219867 0.34555045147446217 0 -0.43539550265875948 0.35741731211322858 0 -0.4302486007270056 0.35272204188882378 0 -0.4302486007270056 0.35272204188882378 0 -0.42480748600639012 0.35482075793933809 0 -0.42573384958437638 0.34916959158482058 0 -0.4302486007270056 0.35272204188882378 0 -0.42757171946388478 0.35850981688022993 0 -0.42480748600639012 0.35482075793933809 0 -0.42757171946388478 0.35850981688022993 0 -0.42480748600639012 0.35482075793933809 0 -0.42195212413097077 0.36043988011418487 0 -0.4199209072431685 0.34318781838679219 0 -0.43385085243219867 0.34555045147446217 0 -0.42573384958437638 0.34916959158482058 0 -0.42480748600639012 0.35482075793933809 0 -0.42573384958437638 0.34916959158482058 0 -0.41984140151311927 0.3495668882346864 0 -0.4199209072431685 0.34318781838679219 0 -0.42573384958437638 0.34916959158482058 0 -0.41984140151311927 0.3495668882346864 0 -0.4199209072431685 0.34318781838679219 0 -0.41984140151311927 0.3495668882346864 0 -0.41366919887348358 0.34576378073699821 0 -0.41984140151311927 0.3495668882346864 0 -0.41366919887348358 0.34576378073699821 0 -0.41404230344944593 0.35073751764187411 0 -0.42480748600639012 0.35482075793933809 0 -0.41984140151311927 0.3495668882346864 0 -0.41755863725870102 0.35684421707679032 0 -0.42480748600639012 0.35482075793933809 0 -0.41755863725870102 0.35684421707679032 0 -0.42195212413097077 0.36043988011418487 0 -0.41984140151311927 0.3495668882346864 0 -0.41755863725870102 0.35684421707679032 0 -0.41404230344944593 0.35073751764187411 0 -0.41755863725870102 0.35684421707679032 0 -0.41125051028190041 0.35540848222164118 0 -0.41404230344944593 0.35073751764187411 0 -0.41125051028190041 0.35540848222164118 0 -0.40888688292129022 0.34941903462410451 0 -0.41404230344944593 0.35073751764187411 0 -0.41755863725870102 0.35684421707679032 0 -0.41125051028190041 0.35540848222164118 0 -0.41142088061722581 0.36176204086772412 0 -0.40553625032349627 0.36037170931698131 0 -0.41125051028190041 0.35540848222164118 0 -0.41142088061722581 0.36176204086772412 0 -0.40525205349158999 0.35429039595711992 0 -0.40553625032349627 0.36037170931698131 0 -0.41125051028190041 0.35540848222164118 0 -0.40525205349158999 0.35429039595711992 0 -0.41125051028190041 0.35540848222164118 0 -0.40888688292129022 0.34941903462410451 0 -0.4080564418273247 0.34368885170405422 0 -0.40888688292129022 0.34941903462410451 0 -0.41366919887348358 0.34576378073699821 0 -0.40888688292129022 0.34941903462410451 0 -0.41366919887348358 0.34576378073699821 0 -0.41404230344944593 0.35073751764187411 0 -0.4250431626101242 0.37647010748543319 0 -0.40086489287733429 0.37467411733839928 0 -0.42486892241442098 0.36677785020884007 0 -0.40086489287733429 0.37467411733839928 0 -0.42486892241442098 0.36677785020884007 0 -0.40086489287733429 0.37467411733839928 0 -0.41378193274770297 0.36450427419225789 0 -0.42486892241442098 0.36677785020884007 0 -0.40544017780568847 0.3661562974108753 0 -0.40086489287733429 0.37467411733839928 0 -0.41378193274770297 0.36450427419225789 0 -0.40544017780568847 0.3661562974108753 0 -0.41142088061722581 0.36176204086772412 0 -0.41378193274770297 0.36450427419225789 0 -0.40553625032349627 0.36037170931698131 0 -0.40544017780568847 0.3661562974108753 0 -0.41142088061722581 0.36176204086772412 0 -0.41755863725870102 0.35684421707679032 0 -0.41378193274770297 0.36450427419225789 0 -0.42195212413097077 0.36043988011418487 0 -0.41378193274770297 0.36450427419225789 0 -0.42486892241442098 0.36677785020884007 0 -0.42195212413097077 0.36043988011418487 0 -0.41755863725870102 0.35684421707679032 0 -0.41142088061722581 0.36176204086772412 0 -0.41378193274770297 0.36450427419225789 0 -0.4250431626101242 0.37647010748543319 0 -0.44885864134335329 0.37135067543599282 0 -0.4250431626101242 0.37647010748543319 0 -0.42486892241442098 0.36677785020884007 0 -0.44885864134335329 0.37135067543599282 0 -0.42486892241442098 0.36677785020884007 0 -0.448872951951507 0.35888158307927881 0 -0.43539550265875948 0.35741731211322858 0 -0.42486892241442098 0.36677785020884007 0 -0.44110397924445488 0.35756373905142852 0 -0.43539550265875948 0.35741731211322858 0 -0.42757171946388478 0.35850981688022993 0 -0.42486892241442098 0.36677785020884007 0 -0.42757171946388478 0.35850981688022993 0 -0.42486892241442098 0.36677785020884007 0 -0.42195212413097077 0.36043988011418487 0 -0.42486892241442098 0.36677785020884007 0 -0.44885864134335329 0.37135067543599282 0 -0.448872951951507 0.35888158307927881 0 -0.44802713623065987 0.37645115623263098 0 -0.4250431626101242 0.37647010748543319 0 -0.44885864134335329 0.37135067543599282 0 -0.42486892241442098 0.36677785020884007 0 -0.44110397924445488 0.35756373905142852 0 -0.448872951951507 0.35888158307927881 0 -0.44885864134335329 0.37135067543599282 0 -0.448872951951507 0.35888158307927881 0 -0.44885864134335329 0.37135067543599282 0 -0.448872951951507 0.35888158307927881 0 -0.45634368000688869 0.36512471152292858 0 -0.43385085243219867 0.34555045147446217 0 -0.45496527453913199 0.35447137251643651 0 -0.44889299330712729 0.34242966823447613 0 -0.43385085243219867 0.34555045147446217 0 -0.45496527453913199 0.35447137251643651 0 -0.43385085243219867 0.34555045147446217 0 -0.44887533288597797 0.35680703170406669 0 -0.45496527453913199 0.35447137251643651 0 -0.43385085243219867 0.34555045147446217 0 -0.44110397924445488 0.35756373905142852 0 -0.44887533288597797 0.35680703170406669 0 -0.44110397924445488 0.35756373905142852 0 -0.44887533288597797 0.35680703170406669 0 -0.448872951951507 0.35888158307927881 0 -0.44887533288597797 0.35680703170406669 0 -0.448872951951507 0.35888158307927881 0 -0.44887533288597797 0.35680703170406669 0 -0.448872951951507 0.35888158307927881 0 -0.45496527453913199 0.35447137251643651 0 -0.448872951951507 0.35888158307927881 0 -0.45496527453913199 0.35447137251643651 0 -0.47186707529616939 0.3513175305497272 0 -0.448872951951507 0.35888158307927881 0 -0.47186707529616939 0.3513175305497272 0 -0.448872951951507 0.35888158307927881 0 -0.45634368000688869 0.36512471152292858 0 -0.47186707529616939 0.3513175305497272 0 -0.45911772068334677 0.34536620346235469 0 -0.45496527453913199 0.35447137251643651 0 -0.47186707529616939 0.3513175305497272 0 -0.45911772068334677 0.34536620346235469 0 -0.45496527453913199 0.35447137251643651 0 -0.44889299330712729 0.34242966823447613 0 -0.46572599417265398 0.36772482908493609 0 -0.45634368000688869 0.36512471152292858 0 -0.47186707529616939 0.3513175305497272 0 -0.46059005399087027 0.38292215568240928 0 -0.44885864134335329 0.37135067543599282 0 -0.46572599417265398 0.36772482908493609 0 -0.44885864134335329 0.37135067543599282 0 -0.46572599417265398 0.36772482908493609 0 -0.44885864134335329 0.37135067543599282 0 -0.46572599417265398 0.36772482908493609 0 -0.45634368000688869 0.36512471152292858 0 -0.47832653283541199 0.38608194873200979 0 -0.46572599417265398 0.36772482908493609 0 -0.48259334700195489 0.36409898273387958 0 -0.46572599417265398 0.36772482908493609 0 -0.48259334700195489 0.36409898273387958 0 -0.47186707529616939 0.3513175305497272 0 -0.46572599417265398 0.36772482908493609 0 -0.48259334700195489 0.36409898273387958 0 -0.47186707529616939 0.3513175305497272 0 -0.494861198640831 0.34375347802017348 0 -0.47186707529616939 0.3513175305497272 0 -0.48536711719674469 0.35339641184703091 0 -0.494861198640831 0.34375347802017348 0 -0.48259334700195489 0.36409898273387958 0 -0.47186707529616939 0.3513175305497272 0 -0.48536711719674469 0.35339641184703091 0 -0.48259334700195489 0.36409898273387958 0 -0.49214684784802371 0.35441565608434311 0 -0.48536711719674469 0.35339641184703091 0 -0.49214684784802371 0.35441565608434311 0 -0.5 0.36887446842263683 0 -0.5 0.34271985673358363 0 -0.49214684784802371 0.35441565608434311 0 -0.48536711719674469 0.35339641184703091 0 -0.494861198640831 0.34375347802017348 0 -0.49214684784802371 0.35441565608434311 0 -0.494861198640831 0.34375347802017348 0 -0.5 0.34271985673358363 0 -0.48850556386005051 0.3766603246979251 0 -0.48259334700195489 0.36409898273387958 0 -0.5 0.36887446842263683 0 -0.48259334700195489 0.36409898273387958 0 -0.49214684784802371 0.35441565608434311 0 -0.5 0.36887446842263683 0 -0.485708092488497 0.3189911195031831 0 -0.5 0.31656524504453032 0 -0.48475009422380527 0.3315545986069256 0 -0.485708092488497 0.3189911195031831 0 -0.5 0.31656524504453032 0 -0.48583489694974541 0.30845327583860088 0 -0.5 0.31656524504453032 0 -0.5 0.34271985673358363 0 -0.48475009422380527 0.3315545986069256 0 -0.494861198640831 0.34375347802017348 0 -0.5 0.34271985673358363 0 -0.48475009422380527 0.3315545986069256 0 -0.48475009422380527 0.3315545986069256 0 -0.46074553959095882 0.3332462425487791 0 -0.47186707529616939 0.3513175305497272 0 -0.494861198640831 0.34375347802017348 0 -0.48475009422380527 0.3315545986069256 0 -0.47186707529616939 0.3513175305497272 0 -0.48475009422380527 0.3315545986069256 0 -0.46074553959095882 0.3332462425487791 0 -0.48475009422380527 0.3315545986069256 0 -0.47224737878043732 0.31939135852267558 0 -0.46074553959095882 0.3332462425487791 0 -0.485708092488497 0.3189911195031831 0 -0.48475009422380527 0.3315545986069256 0 -0.47224737878043732 0.31939135852267558 0 -0.485708092488497 0.3189911195031831 0 -0.47224737878043732 0.31939135852267558 0 -0.48583489694974541 0.30845327583860088 0 -0.47224737878043732 0.31939135852267558 0 -0.46258830912673421 0.31343425170936878 0 -0.46074553959095882 0.3332462425487791 0 -0.46258830912673421 0.31343425170936878 0 -0.46074553959095882 0.3332462425487791 0 -0.45107709460752138 0.31557533431346357 0 -0.45911772068334677 0.34536620346235469 0 -0.47186707529616939 0.3513175305497272 0 -0.46074553959095882 0.3332462425487791 0 -0.45911772068334677 0.34536620346235469 0 -0.46074553959095882 0.3332462425487791 0 -0.44889299330712729 0.34242966823447613 0 -0.43674098495811231 0.33493788649063261 0 -0.46074553959095882 0.3332462425487791 0 -0.43674098495811231 0.33493788649063261 0 -0.46074553959095882 0.3332462425487791 0 -0.44889299330712729 0.34242966823447613 0 -0.43674098495811231 0.33493788649063261 0 -0.46074553959095882 0.3332462425487791 0 -0.43790895006943947 0.32081412042189511 0 -0.43674098495811231 0.33493788649063261 0 -0.43385085243219867 0.34555045147446217 0 -0.44889299330712729 0.34242966823447613 0 -0.46074553959095882 0.3332462425487791 0 -0.45107709460752138 0.31557533431346357 0 -0.43790895006943947 0.32081412042189511 0 -0.45107709460752138 0.31557533431346357 0 -0.43790895006943947 0.32081412042189511 0 -0.4401847358662575 0.3127477530096977 0 -0.44444415583193408 0.29216055381020578 0 -0.43122247783146522 0.30831868127488848 0 -0.44810052680614793 0.29565349026271098 0 -0.43122247783146522 0.30831868127488848 0 -0.44368336155109173 0.30649675881006838 0 -0.44810052680614793 0.29565349026271098 0 -0.43122247783146522 0.30831868127488848 0 -0.4401847358662575 0.3127477530096977 0 -0.44368336155109173 0.30649675881006838 0 -0.43122247783146522 0.30831868127488848 0 -0.44444415583193408 0.29216055381020578 0 -0.44810052680614793 0.29565349026271098 0 -0.43122247783146522 0.30831868127488848 0 -0.45107709460752138 0.31557533431346357 0 -0.4401847358662575 0.3127477530096977 0 -0.44368336155109173 0.30649675881006838 0 -0.44368336155109173 0.30649675881006838 0 -0.44996115485610377 0.3015940899144034 0 -0.4551770389262465 0.30483297142504889 0 -0.44368336155109173 0.30649675881006838 0 -0.44996115485610377 0.3015940899144034 0 -0.44810052680614793 0.29565349026271098 0 -0.45288369214092922 0.29939313915978533 0 -0.44996115485610377 0.3015940899144034 0 -0.44810052680614793 0.29565349026271098 0 -0.45288369214092922 0.29939313915978533 0 -0.44996115485610377 0.3015940899144034 0 -0.4551770389262465 0.30483297142504889 0 -0.45107709460752138 0.31557533431346357 0 -0.44368336155109173 0.30649675881006838 0 -0.4551770389262465 0.30483297142504889 0 -0.44702735364695217 0.27675533545947301 0 -0.43422108619098299 0.29621681389521232 0 -0.44444415583193408 0.29216055381020578 0 -0.44702735364695217 0.27675533545947301 0 -0.43422108619098299 0.29621681389521232 0 -0.44702735364695217 0.27675533545947301 0 -0.43274811138672559 0.28469846643612018 0 -0.43422108619098299 0.29621681389521232 0 -0.44810052680614793 0.29565349026271098 0 -0.4493542421043164 0.28919027156790111 0 -0.45395006383388498 0.28587005882998617 0 -0.44444415583193408 0.29216055381020578 0 -0.44810052680614793 0.29565349026271098 0 -0.4493542421043164 0.28919027156790111 0 -0.44444415583193408 0.29216055381020578 0 -0.4493542421043164 0.28919027156790111 0 -0.44702735364695217 0.27675533545947301 0 -0.4493542421043164 0.28919027156790111 0 -0.45395006383388498 0.28587005882998617 0 -0.44702735364695217 0.27675533545947301 0 -0.44810052680614793 0.29565349026271098 0 -0.45395006383388498 0.28587005882998617 0 -0.46497857578083068 0.28298829925053381 0 -0.44810052680614793 0.29565349026271098 0 -0.4593999708052337 0.29480301670676529 0 -0.46497857578083068 0.28298829925053381 0 -0.44810052680614793 0.29565349026271098 0 -0.46497857578083068 0.28298829925053381 0 -0.45288369214092922 0.29939313915978533 0 -0.44810052680614793 0.29565349026271098 0 -0.4593999708052337 0.29480301670676529 0 -0.4593999708052337 0.29480301670676529 0 -0.46827174088950307 0.29409138505043392 0 -0.46497857578083068 0.28298829925053381 0 -0.46258830912673421 0.31343425170936878 0 -0.45107709460752138 0.31557533431346357 0 -0.4551770389262465 0.30483297142504889 0 -0.45288369214092922 0.29939313915978533 0 -0.4593999708052337 0.29480301670676529 0 -0.4551770389262465 0.30483297142504889 0 -0.4593999708052337 0.29480301670676529 0 -0.4551770389262465 0.30483297142504889 0 -0.46625021185001803 0.30380681263807602 0 -0.4593999708052337 0.29480301670676529 0 -0.46827174088950307 0.29409138505043392 0 -0.46625021185001803 0.30380681263807602 0 -0.47224737878043732 0.31939135852267558 0 -0.46258830912673421 0.31343425170936878 0 -0.46625021185001803 0.30380681263807602 0 -0.46258830912673421 0.31343425170936878 0 -0.4551770389262465 0.30483297142504889 0 -0.46625021185001803 0.30380681263807602 0 -0.47551717359816043 0.30301602212345602 0 -0.4769183937012712 0.29196404103452073 0 -0.48583489694974541 0.30845327583860088 0 -0.47224737878043732 0.31939135852267558 0 -0.46625021185001803 0.30380681263807602 0 -0.47551717359816043 0.30301602212345602 0 -0.47224737878043732 0.31939135852267558 0 -0.47551717359816043 0.30301602212345602 0 -0.48583489694974541 0.30845327583860088 0 -0.46827174088950307 0.29409138505043392 0 -0.46625021185001803 0.30380681263807602 0 -0.47551717359816043 0.30301602212345602 0 -0.46827174088950307 0.29409138505043392 0 -0.46497857578083068 0.28298829925053381 0 -0.4769183937012712 0.29196404103452073 0 -0.4769183937012712 0.29196404103452073 0 -0.48757792524538679 0.2814999319082685 0 -0.48583489694974541 0.30845327583860088 0 -0.46827174088950307 0.29409138505043392 0 -0.47551717359816043 0.30301602212345602 0 -0.4769183937012712 0.29196404103452073 0 -0.46497857578083068 0.28298829925053381 0 -0.47783287987075052 0.28169384510791978 0 -0.4769183937012712 0.29196404103452073 0 -0.47783287987075052 0.28169384510791978 0 -0.4769183937012712 0.29196404103452073 0 -0.48757792524538679 0.2814999319082685 0 -0.5 0.29041063335547701 0 -0.48757792524538679 0.2814999319082685 0 -0.48583489694974541 0.30845327583860088 0 -0.48757792524538679 0.2814999319082685 0 -0.48583489694974541 0.30845327583860088 0 -0.5 0.31656524504453032 0 -0.5 0.29041063335547701 0 -0.48583489694974541 0.30845327583860088 0 -0.5 0.23810140997737081 0 -0.5 0.26425602166642381 0 -0.48932095354102823 0.25454658797793611 0 -0.48757792524538679 0.2814999319082685 0 -0.48932095354102823 0.25454658797793611 0 -0.48366697684514259 0.26703881783025729 0 -0.48757792524538679 0.2814999319082685 0 -0.5 0.26425602166642381 0 -0.48932095354102823 0.25454658797793611 0 -0.48757792524538679 0.2814999319082685 0 -0.48932095354102823 0.25454658797793611 0 -0.5 0.29041063335547701 0 -0.48757792524538679 0.2814999319082685 0 -0.5 0.26425602166642381 0 -0.46497857578083068 0.28298829925053381 0 -0.48185662475551339 0.27032310823835648 0 -0.46497857578083068 0.28298829925053381 0 -0.47783287987075052 0.28169384510791978 0 -0.48185662475551339 0.27032310823835648 0 -0.48366697684514259 0.26703881783025729 0 -0.45893043448094739 0.2699305570534084 0 -0.48757792524538679 0.2814999319082685 0 -0.48366697684514259 0.26703881783025729 0 -0.48185662475551339 0.27032310823835648 0 -0.48366697684514259 0.26703881783025729 0 -0.48185662475551339 0.27032310823835648 0 -0.47235815296560851 0.27257019559313889 0 -0.46497857578083068 0.28298829925053381 0 -0.48185662475551339 0.27032310823835648 0 -0.47235815296560851 0.27257019559313889 0 -0.48366697684514259 0.26703881783025729 0 -0.46959483388743167 0.25994315597580908 0 -0.45893043448094739 0.2699305570534084 0 -0.48366697684514259 0.26703881783025729 0 -0.47235815296560851 0.27257019559313889 0 -0.45893043448094739 0.2699305570534084 0 -0.47783287987075052 0.28169384510791978 0 -0.48757792524538679 0.2814999319082685 0 -0.48185662475551339 0.27032310823835648 0 -0.48932095354102823 0.25454658797793611 0 -0.48366697684514259 0.26703881783025729 0 -0.47792533453874358 0.25606878273296479 0 -0.48366697684514259 0.26703881783025729 0 -0.46959483388743167 0.25994315597580908 0 -0.47792533453874358 0.25606878273296479 0 -0.47864167104372218 0.246590621409366 0 -0.48932095354102823 0.25454658797793611 0 -0.47792533453874358 0.25606878273296479 0 -0.47864167104372218 0.246590621409366 0 -0.47792533453874358 0.25606878273296479 0 -0.46938038244821267 0.25133041049185839 0 -0.46959483388743167 0.25994315597580908 0 -0.47792533453874358 0.25606878273296479 0 -0.46938038244821267 0.25133041049185839 0 -0.46959483388743167 0.25994315597580908 0 -0.46938038244821267 0.25133041049185839 0 -0.45807104112411212 0.25534721177055669 0 -0.46959483388743167 0.25994315597580908 0 -0.45807104112411212 0.25534721177055669 0 -0.45893043448094739 0.2699305570534084 0 -0.45807104112411212 0.25534721177055669 0 -0.45893043448094739 0.2699305570534084 0 -0.44442574262614493 0.25832327296872359 0 -0.45395006383388498 0.28587005882998617 0 -0.46497857578083068 0.28298829925053381 0 -0.45893043448094739 0.2699305570534084 0 -0.45395006383388498 0.28587005882998617 0 -0.45893043448094739 0.2699305570534084 0 -0.44702735364695217 0.27675533545947301 0 -0.46497857578083068 0.28298829925053381 0 -0.47235815296560851 0.27257019559313889 0 -0.45893043448094739 0.2699305570534084 0 -0.45893043448094739 0.2699305570534084 0 -0.43419389211675241 0.27282229627655952 0 -0.45893043448094739 0.2699305570534084 0 -0.44442574262614493 0.25832327296872359 0 -0.43419389211675241 0.27282229627655952 0 -0.45893043448094739 0.2699305570534084 0 -0.44702735364695217 0.27675533545947301 0 -0.43419389211675241 0.27282229627655952 0 -0.44702735364695217 0.27675533545947301 0 -0.43419389211675241 0.27282229627655952 0 -0.43274811138672559 0.28469846643612018 0 -0.45046339488490522 0.249057113070103 0 -0.45807104112411212 0.25534721177055669 0 -0.44442574262614493 0.25832327296872359 0 -0.44062222049055039 0.24203477259657111 0 -0.44442574262614493 0.25832327296872359 0 -0.42503978512155383 0.25887440404814072 0 -0.44062222049055039 0.24203477259657111 0 -0.42503978512155383 0.25887440404814072 0 -0.44442574262614493 0.25832327296872359 0 -0.42503978512155383 0.25887440404814072 0 -0.43419389211675241 0.27282229627655952 0 -0.42503978512155383 0.25887440404814072 0 -0.40945734975255721 0.27571403549971041 0 -0.40585136056822319 0.25674789398696107 0 -0.4198454647722451 0.23985190764030939 0 -0.42503978512155383 0.25887440404814072 0 -0.40585136056822319 0.25674789398696107 0 -0.40945734975255721 0.27571403549971041 0 -0.43419389211675241 0.27282229627655952 0 -0.42503978512155383 0.25887440404814072 0 -0.40945734975255721 0.27571403549971041 0 -0.42503978512155383 0.25887440404814072 0 -0.40945734975255721 0.27571403549971041 0 -0.43419389211675241 0.27282229627655952 0 -0.40945734975255721 0.27571403549971041 0 -0.43419389211675241 0.27282229627655952 0 -0.4229835889384117 0.28415291652507912 0 -0.43419389211675241 0.27282229627655952 0 -0.43274811138672559 0.28469846643612018 0 -0.4229835889384117 0.28415291652507912 0 -0.43274811138672559 0.28469846643612018 0 -0.43422108619098299 0.29621681389521232 0 -0.42519236151645012 0.29288975242762622 0 -0.43274811138672559 0.28469846643612018 0 -0.42519236151645012 0.29288975242762622 0 -0.4229835889384117 0.28415291652507912 0 -0.42141481873501418 0.31567829233095179 0 -0.43422108619098299 0.29621681389521232 0 -0.42141481873501418 0.31567829233095179 0 -0.43422108619098299 0.29621681389521232 0 -0.42237726971740519 0.30236741203524931 0 -0.44444415583193408 0.29216055381020578 0 -0.43422108619098299 0.29621681389521232 0 -0.43122247783146522 0.30831868127488848 0 -0.42141481873501418 0.31567829233095179 0 -0.43422108619098299 0.29621681389521232 0 -0.43122247783146522 0.30831868127488848 0 -0.43422108619098299 0.29621681389521232 0 -0.42519236151645012 0.29288975242762622 0 -0.42237726971740519 0.30236741203524931 0 -0.42141481873501418 0.31567829233095179 0 -0.43122247783146522 0.30831868127488848 0 -0.42237726971740519 0.30236741203524931 0 -0.41647318301620623 0.31168328686166002 0 -0.40812109447663159 0.30329838776079099 0 -0.42141481873501418 0.31567829233095179 0 -0.42237726971740519 0.30236741203524931 0 -0.41647318301620623 0.31168328686166002 0 -0.42237726971740519 0.30236741203524931 0 -0.40812109447663159 0.30329838776079099 0 -0.41256551749876041 0.29129965580367562 0 -0.40826549608127172 0.31275764886218971 0 -0.41647318301620623 0.31168328686166002 0 -0.40812109447663159 0.30329838776079099 0 -0.40945734975255721 0.27571403549971041 0 -0.4229835889384117 0.28415291652507912 0 -0.41256551749876041 0.29129965580367562 0 -0.42519236151645012 0.29288975242762622 0 -0.4229835889384117 0.28415291652507912 0 -0.41256551749876041 0.29129965580367562 0 -0.42519236151645012 0.29288975242762622 0 -0.42237726971740519 0.30236741203524931 0 -0.41256551749876041 0.29129965580367562 0 -0.40945734975255721 0.27571403549971041 0 -0.39180528154043992 0.29479027846244049 0 -0.39350738277932218 0.27757861076756318 0 -0.40945734975255721 0.27571403549971041 0 -0.39180528154043992 0.29479027846244049 0 -0.40812109447663159 0.30329838776079099 0 -0.41256551749876041 0.29129965580367562 0 -0.39180528154043992 0.29479027846244049 0 -0.40945734975255721 0.27571403549971041 0 -0.41256551749876041 0.29129965580367562 0 -0.39180528154043992 0.29479027846244049 0 -0.38613629988198012 0.31665983269396758 0 -0.39830358576524327 0.31266849694114901 0 -0.39180528154043992 0.29479027846244049 0 -0.39830358576524327 0.31266849694114901 0 -0.40812109447663159 0.30329838776079099 0 -0.39180528154043992 0.29479027846244049 0 -0.39830358576524327 0.31266849694114901 0 -0.40826549608127172 0.31275764886218971 0 -0.40812109447663159 0.30329838776079099 0 -0.39180528154043992 0.29479027846244049 0 -0.37819889022761238 0.29924868842846319 0 -0.37415321332832258 0.31386652142517069 0 -0.38613629988198012 0.31665983269396758 0 -0.39180528154043992 0.29479027846244049 0 -0.37415321332832258 0.31386652142517069 0 -0.39180528154043992 0.29479027846244049 0 -0.37415321332832258 0.31386652142517069 0 -0.39180528154043992 0.29479027846244049 0 -0.37819889022761238 0.29924868842846319 0 -0.37870614451813112 0.28175948497688769 0 -0.39180528154043992 0.29479027846244049 0 -0.37870614451813112 0.28175948497688769 0 -0.39350738277932218 0.27757861076756318 0 -0.37870614451813112 0.28175948497688769 0 -0.37647038179830861 0.26645711442365799 0 -0.39350738277932218 0.27757861076756318 0 -0.37647038179830861 0.26645711442365799 0 -0.39336972403141229 0.26369738761855421 0 -0.39350738277932218 0.27757861076756318 0 -0.38790582398472923 0.24962922847932231 0 -0.37647038179830861 0.26645711442365799 0 -0.39336972403141229 0.26369738761855421 0 -0.38790582398472923 0.24962922847932231 0 -0.37647038179830861 0.26645711442365799 0 -0.36318679658289171 0.25196182354824148 0 -0.40945734975255721 0.27571403549971041 0 -0.40585136056822319 0.25674789398696107 0 -0.39336972403141229 0.26369738761855421 0 -0.38790582398472923 0.24962922847932231 0 -0.40585136056822319 0.25674789398696107 0 -0.39336972403141229 0.26369738761855421 0 -0.40945734975255721 0.27571403549971041 0 -0.39336972403141229 0.26369738761855421 0 -0.39350738277932218 0.27757861076756318 0 -0.40945734975255721 0.27571403549971041 0 -0.39350738277932218 0.27757861076756318 0 -0.35583614606747688 0.27501819518035592 0 -0.36318679658289171 0.25196182354824148 0 -0.33952374355129727 0.25899057541505788 0 -0.37647038179830861 0.26645711442365799 0 -0.35583614606747688 0.27501819518035592 0 -0.36318679658289171 0.25196182354824148 0 -0.37870614451813112 0.28175948497688769 0 -0.37647038179830861 0.26645711442365799 0 -0.35583614606747688 0.27501819518035592 0 -0.37819889022761238 0.29924868842846319 0 -0.37870614451813112 0.28175948497688769 0 -0.36775571630023218 0.2927315942663431 0 -0.37870614451813112 0.28175948497688769 0 -0.35583614606747688 0.27501819518035592 0 -0.36775571630023218 0.2927315942663431 0 -0.37819889022761238 0.29924868842846319 0 -0.36899777432263853 0.30469822459034263 0 -0.37415321332832258 0.31386652142517069 0 -0.36899777432263853 0.30469822459034263 0 -0.36272901898995358 0.31473918551029578 0 -0.37415321332832258 0.31386652142517069 0 -0.37819889022761238 0.29924868842846319 0 -0.36775571630023218 0.2927315942663431 0 -0.36899777432263853 0.30469822459034263 0 -0.36775571630023218 0.2927315942663431 0 -0.36899777432263853 0.30469822459034263 0 -0.35931620367806588 0.30475084950198522 0 -0.36775571630023218 0.2927315942663431 0 -0.35931620367806588 0.30475084950198522 0 -0.35261706249820868 0.29381533636168528 0 -0.36899777432263853 0.30469822459034263 0 -0.35931620367806588 0.30475084950198522 0 -0.36272901898995358 0.31473918551029578 0 -0.35931620367806588 0.30475084950198522 0 -0.35261706249820868 0.29381533636168528 0 -0.34344143829887858 0.30736403781452232 0 -0.35931620367806588 0.30475084950198522 0 -0.34344143829887858 0.30736403781452232 0 -0.35467675850453528 0.31743756764607989 0 -0.35931620367806588 0.30475084950198522 0 -0.35467675850453528 0.31743756764607989 0 -0.36272901898995358 0.31473918551029578 0 -0.35583614606747688 0.27501819518035592 0 -0.36775571630023218 0.2927315942663431 0 -0.35261706249820868 0.29381533636168528 0 -0.35583614606747688 0.27501819518035592 0 -0.35261706249820868 0.29381533636168528 0 -0.33673580814638959 0.28921200504521999 0 -0.35261706249820868 0.29381533636168528 0 -0.33673580814638959 0.28921200504521999 0 -0.34344143829887858 0.30736403781452232 0 -0.33673580814638959 0.28921200504521999 0 -0.32075162894010661 0.28280614760534989 0 -0.33379142081270979 0.2734424933293601 0 -0.34344143829887858 0.30736403781452232 0 -0.31699951866320542 0.30755322334125379 0 -0.34344143829887858 0.30736403781452232 0 -0.31699951866320542 0.30755322334125379 0 -0.33459812393413729 0.32207732583041709 0 -0.33673580814638959 0.28921200504521999 0 -0.34344143829887858 0.30736403781452232 0 -0.31699951866320542 0.30755322334125379 0 -0.33673580814638959 0.28921200504521999 0 -0.31699951866320542 0.30755322334125379 0 -0.32075162894010661 0.28280614760534989 0 -0.31699951866320542 0.30755322334125379 0 -0.32075162894010661 0.28280614760534989 0 -0.30493521127791462 0.28695781074044469 0 -0.32075162894010661 0.28280614760534989 0 -0.31931282352829687 0.26617321261290411 0 -0.33379142081270979 0.2734424933293601 0 -0.32075162894010661 0.28280614760534989 0 -0.31931282352829687 0.26617321261290411 0 -0.30493521127791462 0.28695781074044469 0 -0.35583614606747688 0.27501819518035592 0 -0.33673580814638959 0.28921200504521999 0 -0.33379142081270979 0.2734424933293601 0 -0.35583614606747688 0.27501819518035592 0 -0.33379142081270979 0.2734424933293601 0 -0.33952374355129727 0.25899057541505788 0 -0.31931282352829687 0.26617321261290411 0 -0.33379142081270979 0.2734424933293601 0 -0.33952374355129727 0.25899057541505788 0 -0.32200613725511351 0.24850726385495631 0 -0.31931282352829687 0.26617321261290411 0 -0.33952374355129727 0.25899057541505788 0 -0.32200613725511351 0.24850726385495631 0 -0.31931282352829687 0.26617321261290411 0 -0.30640548876467488 0.25787073169030861 0 -0.31931282352829687 0.26617321261290411 0 -0.30640548876467488 0.25787073169030861 0 -0.3010630097917536 0.27273037638764702 0 -0.31931282352829687 0.26617321261290411 0 -0.3010630097917536 0.27273037638764702 0 -0.30493521127791462 0.28695781074044469 0 -0.31931282352829687 0.26617321261290411 0 -0.30493521127791462 0.28695781074044469 0 -0.3010630097917536 0.27273037638764702 0 -0.29309283898050847 0.28048055459605348 0 -0.30493521127791462 0.28695781074044469 0 -0.3010630097917536 0.27273037638764702 0 -0.29309283898050847 0.28048055459605348 0 -0.28156868640737281 0.27216957229852412 0 -0.30640548876467488 0.25787073169030861 0 -0.3010630097917536 0.27273037638764702 0 -0.28156868640737281 0.27216957229852412 0 -0.30640548876467488 0.25787073169030861 0 -0.28156868640737281 0.27216957229852412 0 -0.28729818335365731 0.26780124082781631 0 -0.28156868640737281 0.27216957229852412 0 -0.28729818335365731 0.26780124082781631 0 -0.27880962639343299 0.26078065685839158 0 -0.29309283898050847 0.28048055459605348 0 -0.28156868640737281 0.27216957229852412 0 -0.28401529333418091 0.28255904946725641 0 -0.30640548876467488 0.25787073169030861 0 -0.28156868640737281 0.27216957229852412 0 -0.29125564533142001 0.24067530578368901 0 -0.30640548876467488 0.25787073169030861 0 -0.28729818335365731 0.26780124082781631 0 -0.29125564533142001 0.24067530578368901 0 -0.28729818335365731 0.26780124082781631 0 -0.27880962639343299 0.26078065685839158 0 -0.29125564533142001 0.24067530578368901 0 -0.28729818335365731 0.26780124082781631 0 -0.29125564533142001 0.24067530578368901 0 -0.26892213733164849 0.25365425058065472 0 -0.27880962639343299 0.26078065685839158 0 -0.26892213733164849 0.25365425058065472 0 -0.27880962639343299 0.26078065685839158 0 -0.26500347954306669 0.26960291480127369 0 -0.28156868640737281 0.27216957229852412 0 -0.25673188405007052 0.28646841290673969 0 -0.28156868640737281 0.27216957229852412 0 -0.26500347954306669 0.26960291480127369 0 -0.25673188405007052 0.28646841290673969 0 -0.28156868640737281 0.27216957229852412 0 -0.27880962639343299 0.26078065685839158 0 -0.26500347954306669 0.26960291480127369 0 -0.28156868640737281 0.27216957229852412 0 -0.27479408276187339 0.28687287199942368 0 -0.28401529333418091 0.28255904946725641 0 -0.26500347954306669 0.26960291480127369 0 -0.25265925142613249 0.26128234508680298 0 -0.25673188405007052 0.28646841290673969 0 -0.26892213733164849 0.25365425058065472 0 -0.26500347954306669 0.26960291480127369 0 -0.25265925142613249 0.26128234508680298 0 -0.25621817608628389 0.2460965770837312 0 -0.26892213733164849 0.25365425058065472 0 -0.25265925142613249 0.26128234508680298 0 -0.25505401324638421 0.30366623925853881 0 -0.26661761067819428 0.2958317928062858 0 -0.26721257633701828 0.30790943684761429 0 -0.25505401324638421 0.30366623925853881 0 -0.26721257633701828 0.30790943684761429 0 -0.25901197930261888 0.31383205914145501 0 -0.26721257633701828 0.30790943684761429 0 -0.25901197930261888 0.31383205914145501 0 -0.26528599585519008 0.31471464054907522 0 -0.25505401324638421 0.30366623925853881 0 -0.25901197930261888 0.31383205914145501 0 -0.24885494741763489 0.31718848033418301 0 -0.25505401324638421 0.30366623925853881 0 -0.25673188405007052 0.28646841290673969 0 -0.26661761067819428 0.2958317928062858 0 -0.26661761067819428 0.2958317928062858 0 -0.27573637841232751 0.29432500902679382 0 -0.27326763327687947 0.30016750757533939 0 -0.28156868640737281 0.27216957229852412 0 -0.25673188405007052 0.28646841290673969 0 -0.27479408276187339 0.28687287199942368 0 -0.26661761067819428 0.2958317928062858 0 -0.27479408276187339 0.28687287199942368 0 -0.27573637841232751 0.29432500902679382 0 -0.25673188405007052 0.28646841290673969 0 -0.26661761067819428 0.2958317928062858 0 -0.27479408276187339 0.28687287199942368 0 -0.27479408276187339 0.28687287199942368 0 -0.28401529333418091 0.28255904946725641 0 -0.28313816676434478 0.29069510378855717 0 -0.27479408276187339 0.28687287199942368 0 -0.27573637841232751 0.29432500902679382 0 -0.28313816676434478 0.29069510378855717 0 -0.27573637841232751 0.29432500902679382 0 -0.28086439858034518 0.29805776896436298 0 -0.28313816676434478 0.29069510378855717 0 -0.28086439858034518 0.29805776896436298 0 -0.27753065875984329 0.30327410754998058 0 -0.28274061889410179 0.30278083970340541 0 -0.27753065875984329 0.30327410754998058 0 -0.27514776209796898 0.30785266251660498 0 -0.28274061889410179 0.30278083970340541 0 -0.27753065875984329 0.30327410754998058 0 -0.27326763327687947 0.30016750757533939 0 -0.27348155140824082 0.30658246875079598 0 -0.28086439858034518 0.29805776896436298 0 -0.27753065875984329 0.30327410754998058 0 -0.27326763327687947 0.30016750757533939 0 -0.27573637841232751 0.29432500902679382 0 -0.28086439858034518 0.29805776896436298 0 -0.27326763327687947 0.30016750757533939 0 -0.26661761067819428 0.2958317928062858 0 -0.27326763327687947 0.30016750757533939 0 -0.26721257633701828 0.30790943684761429 0 -0.26721257633701828 0.30790943684761429 0 -0.27514776209796898 0.30785266251660498 0 -0.27123720609067609 0.3158529302113221 0 -0.26721257633701828 0.30790943684761429 0 -0.27348155140824082 0.30658246875079598 0 -0.27514776209796898 0.30785266251660498 0 -0.26721257633701828 0.30790943684761429 0 -0.27514776209796898 0.30785266251660498 0 -0.27326763327687947 0.30016750757533939 0 -0.26721257633701828 0.30790943684761429 0 -0.27348155140824082 0.30658246875079598 0 -0.27514776209796898 0.30785266251660498 0 -0.2851872012256097 0.31550597615259851 0 -0.27753065875984329 0.30327410754998058 0 -0.27348155140824082 0.30658246875079598 0 -0.27514776209796898 0.30785266251660498 0 -0.27348155140824082 0.30658246875079598 0 -0.27514776209796898 0.30785266251660498 0 -0.27514776209796898 0.30785266251660498 0 -0.2905575990275322 0.30774240886798532 0 -0.27514776209796898 0.30785266251660498 0 -0.2905575990275322 0.30774240886798532 0 -0.2851872012256097 0.31550597615259851 0 -0.2896026760048197 0.2969772506180926 0 -0.2905575990275322 0.30774240886798532 0 -0.30493521127791462 0.28695781074044469 0 -0.27514776209796898 0.30785266251660498 0 -0.28274061889410179 0.30278083970340541 0 -0.2905575990275322 0.30774240886798532 0 -0.2905575990275322 0.30774240886798532 0 -0.2851872012256097 0.31550597615259851 0 -0.28274061889410179 0.30278083970340541 0 -0.2896026760048197 0.2969772506180926 0 -0.2905575990275322 0.30774240886798532 0 -0.28086439858034518 0.29805776896436298 0 -0.28274061889410179 0.30278083970340541 0 -0.2896026760048197 0.2969772506180926 0 -0.28401529333418091 0.28255904946725641 0 -0.28313816676434478 0.29069510378855717 0 -0.29095683727235372 0.28753395384208091 0 -0.28086439858034518 0.29805776896436298 0 -0.2896026760048197 0.2969772506180926 0 -0.28313816676434478 0.29069510378855717 0 -0.2896026760048197 0.2969772506180926 0 -0.28313816676434478 0.29069510378855717 0 -0.29095683727235372 0.28753395384208091 0 -0.2896026760048197 0.2969772506180926 0 -0.29095683727235372 0.28753395384208091 0 -0.30493521127791462 0.28695781074044469 0 -0.29309283898050847 0.28048055459605348 0 -0.29095683727235372 0.28753395384208091 0 -0.30493521127791462 0.28695781074044469 0 -0.29309283898050847 0.28048055459605348 0 -0.28401529333418091 0.28255904946725641 0 -0.29095683727235372 0.28753395384208091 0 -0.31699951866320542 0.30755322334125379 0 -0.2905575990275322 0.30774240886798532 0 -0.30563014257680821 0.31779627416788381 0 -0.31699951866320542 0.30755322334125379 0 -0.2905575990275322 0.30774240886798532 0 -0.2905575990275322 0.30774240886798532 0 -0.30493521127791462 0.28695781074044469 0 -0.31699951866320542 0.30755322334125379 0 -0.2905575990275322 0.30774240886798532 0 -0.30493521127791462 0.28695781074044469 0 -0.30538608464820588 0.33090408634228141 0 -0.28942706780696309 0.31873813168532672 0 -0.30563014257680821 0.31779627416788381 0 -0.30538608464820588 0.33090408634228141 0 -0.31811651498789978 0.32488887006413791 0 -0.30563014257680821 0.31779627416788381 0 -0.30538608464820588 0.33090408634228141 0 -0.2937791937433501 0.31637108240395312 0 -0.30538608464820588 0.33090408634228141 0 -0.3017933608705089 0.344447887165377 0 -0.32134510148944728 0.34307004099923799 0 -0.30538608464820588 0.33090408634228141 0 -0.29093013722955491 0.33661105704622479 0 -0.3017933608705089 0.344447887165377 0 -0.30538608464820588 0.33090408634228141 0 -0.29093013722955491 0.33661105704622479 0 -0.2885751077852815 0.32830696870384862 0 -0.29093013722955491 0.33661105704622479 0 -0.28224162025157051 0.34582573333151501 0 -0.3017933608705089 0.344447887165377 0 -0.2885751077852815 0.32830696870384862 0 -0.28146834572906437 0.33465123959114113 0 -0.2790455690922089 0.3243844570517187 0 -0.29093013722955491 0.33661105704622479 0 -0.2885751077852815 0.32830696870384862 0 -0.28146834572906437 0.33465123959114113 0 -0.29093013722955491 0.33661105704622479 0 -0.28146834572906437 0.33465123959114113 0 -0.28224162025157051 0.34582573333151501 0 -0.30538608464820588 0.33090408634228141 0 -0.2885751077852815 0.32830696870384862 0 -0.28942706780696309 0.31873813168532672 0 -0.30538608464820588 0.33090408634228141 0 -0.28942706780696309 0.31873813168532672 0 -0.2937791937433501 0.31637108240395312 0 -0.28942706780696309 0.31873813168532672 0 -0.2937791937433501 0.31637108240395312 0 -0.2851872012256097 0.31550597615259851 0 -0.2905575990275322 0.30774240886798532 0 -0.30563014257680821 0.31779627416788381 0 -0.2937791937433501 0.31637108240395312 0 -0.2905575990275322 0.30774240886798532 0 -0.2937791937433501 0.31637108240395312 0 -0.2851872012256097 0.31550597615259851 0 -0.28942706780696309 0.31873813168532672 0 -0.2937791937433501 0.31637108240395312 0 -0.2885751077852815 0.32830696870384862 0 -0.28942706780696309 0.31873813168532672 0 -0.2790455690922089 0.3243844570517187 0 -0.28942706780696309 0.31873813168532672 0 -0.2790455690922089 0.3243844570517187 0 -0.2851872012256097 0.31550597615259851 0 -0.2790455690922089 0.3243844570517187 0 -0.28942706780696309 0.31873813168532672 0 -0.2851872012256097 0.31550597615259851 0 -0.2790455690922089 0.3243844570517187 0 -0.28942706780696309 0.31873813168532672 0 -0.2851872012256097 0.31550597615259851 0 -0.27514776209796898 0.30785266251660498 0 -0.2851872012256097 0.31550597615259851 0 -0.27699557949655113 0.31645322234696882 0 -0.2851872012256097 0.31550597615259851 0 -0.27699557949655113 0.31645322234696882 0 -0.2790455690922089 0.3243844570517187 0 -0.27514776209796898 0.30785266251660498 0 -0.27699557949655113 0.31645322234696882 0 -0.27123720609067609 0.3158529302113221 0 -0.27001263578126711 0.32263717043347712 0 -0.2790455690922089 0.3243844570517187 0 -0.25910260253645218 0.33523110656146687 0 -0.26721257633701828 0.30790943684761429 0 -0.27123720609067609 0.3158529302113221 0 -0.26528599585519008 0.31471464054907522 0 -0.27699557949655113 0.31645322234696882 0 -0.27123720609067609 0.3158529302113221 0 -0.27001263578126711 0.32263717043347712 0 -0.27123720609067609 0.3158529302113221 0 -0.26528599585519008 0.31471464054907522 0 -0.26368222169044719 0.32126413599590953 0 -0.27123720609067609 0.3158529302113221 0 -0.27001263578126711 0.32263717043347712 0 -0.26368222169044719 0.32126413599590953 0 -0.27699557949655113 0.31645322234696882 0 -0.27001263578126711 0.32263717043347712 0 -0.2790455690922089 0.3243844570517187 0 -0.2790455690922089 0.3243844570517187 0 -0.25910260253645218 0.33523110656146687 0 -0.2790455690922089 0.3243844570517187 0 -0.26824012707650141 0.34000504592112352 0 -0.28146834572906437 0.33465123959114113 0 -0.2790455690922089 0.3243844570517187 0 -0.26824012707650141 0.34000504592112352 0 -0.2790455690922089 0.3243844570517187 0 -0.26824012707650141 0.34000504592112352 0 -0.25910260253645218 0.33523110656146687 0 -0.28146834572906437 0.33465123959114113 0 -0.26824012707650141 0.34000504592112352 0 -0.28224162025157051 0.34582573333151501 0 -0.25910260253645218 0.33523110656146687 0 -0.25407523553642281 0.3497448278934856 0 -0.23915963598069589 0.34607775607121571 0 -0.25910260253645218 0.33523110656146687 0 -0.25407523553642281 0.3497448278934856 0 -0.26309588156361569 0.34576168367824162 0 -0.26824012707650141 0.34000504592112352 0 -0.25910260253645218 0.33523110656146687 0 -0.26309588156361569 0.34576168367824162 0 -0.25910260253645218 0.33523110656146687 0 -0.25451497659773847 0.32559442806853028 0 -0.24843663428782739 0.33758714710907461 0 -0.25451497659773847 0.32559442806853028 0 -0.25901197930261888 0.31383205914145501 0 -0.24885494741763489 0.31718848033418301 0 -0.25451497659773847 0.32559442806853028 0 -0.25901197930261888 0.31383205914145501 0 -0.26368222169044719 0.32126413599590953 0 -0.25901197930261888 0.31383205914145501 0 -0.26528599585519008 0.31471464054907522 0 -0.26368222169044719 0.32126413599590953 0 -0.27001263578126711 0.32263717043347712 0 -0.25910260253645218 0.33523110656146687 0 -0.26368222169044719 0.32126413599590953 0 -0.25910260253645218 0.33523110656146687 0 -0.25451497659773847 0.32559442806853028 0 -0.26368222169044719 0.32126413599590953 0 -0.26470209097228098 0.37140351159401941 0 -0.25562758441007077 0.36194187249828802 0 -0.266880351992417 0.3582272519812631 0 -0.26470209097228098 0.37140351159401941 0 -0.25213085833087667 0.37355178257669552 0 -0.25562758441007077 0.36194187249828802 0 -0.25213085833087667 0.37355178257669552 0 -0.25562758441007077 0.36194187249828802 0 -0.24329038266145239 0.36134909741814653 0 -0.25562758441007077 0.36194187249828802 0 -0.25407523553642281 0.3497448278934856 0 -0.24329038266145239 0.36134909741814653 0 -0.25407523553642281 0.3497448278934856 0 -0.26309588156361569 0.34576168367824162 0 -0.266880351992417 0.3582272519812631 0 -0.25562758441007077 0.36194187249828802 0 -0.25407523553642281 0.3497448278934856 0 -0.266880351992417 0.3582272519812631 0 -0.266880351992417 0.3582272519812631 0 -0.27640009279511962 0.35155878343443242 0 -0.28837447244510311 0.36628710188532532 0 -0.26309588156361569 0.34576168367824162 0 -0.266880351992417 0.3582272519812631 0 -0.27640009279511962 0.35155878343443242 0 -0.26824012707650141 0.34000504592112352 0 -0.26309588156361569 0.34576168367824162 0 -0.27640009279511962 0.35155878343443242 0 -0.26824012707650141 0.34000504592112352 0 -0.27640009279511962 0.35155878343443242 0 -0.28224162025157051 0.34582573333151501 0 -0.266880351992417 0.3582272519812631 0 -0.28837447244510311 0.36628710188532532 0 -0.266880351992417 0.3582272519812631 0 -0.28837447244510311 0.36628710188532532 0 -0.27747916353329311 0.37529003384729942 0 -0.26470209097228098 0.37140351159401941 0 -0.266880351992417 0.3582272519812631 0 -0.27747916353329311 0.37529003384729942 0 -0.28837447244510311 0.36628710188532532 0 -0.28714059247178902 0.37543321948423419 0 -0.27747916353329311 0.37529003384729942 0 -0.28837447244510311 0.36628710188532532 0 -0.28956810344150979 0.35324588380912608 0 -0.30292150033679799 0.36018321991941088 0 -0.28837447244510311 0.36628710188532532 0 -0.29874239202075642 0.37528196759933868 0 -0.28714059247178902 0.37543321948423419 0 -0.28224162025157051 0.34582573333151501 0 -0.3017933608705089 0.344447887165377 0 -0.28224162025157051 0.34582573333151501 0 -0.28956810344150979 0.35324588380912608 0 -0.3017933608705089 0.344447887165377 0 -0.27640009279511962 0.35155878343443242 0 -0.28224162025157051 0.34582573333151501 0 -0.28956810344150979 0.35324588380912608 0 -0.27640009279511962 0.35155878343443242 0 -0.28837447244510311 0.36628710188532532 0 -0.28956810344150979 0.35324588380912608 0 -0.3017933608705089 0.344447887165377 0 -0.31193410579265052 0.3536039280541286 0 -0.30292150033679799 0.36018321991941088 0 -0.28956810344150979 0.35324588380912608 0 -0.3017933608705089 0.344447887165377 0 -0.30292150033679799 0.36018321991941088 0 -0.3017933608705089 0.344447887165377 0 -0.32134510148944728 0.34307004099923799 0 -0.3017933608705089 0.344447887165377 0 -0.31193410579265052 0.3536039280541286 0 -0.32134510148944728 0.34307004099923799 0 -0.31193410579265052 0.3536039280541286 0 -0.30292150033679799 0.36018321991941088 0 -0.31340485972314069 0.36375751913665871 0 -0.28837447244510311 0.36628710188532532 0 -0.30292150033679799 0.36018321991941088 0 -0.30986859289778912 0.37434695178938759 0 -0.28837447244510311 0.36628710188532532 0 -0.30986859289778912 0.37434695178938759 0 -0.28837447244510311 0.36628710188532532 0 -0.30986859289778912 0.37434695178938759 0 -0.29874239202075642 0.37528196759933868 0 -0.30292150033679799 0.36018321991941088 0 -0.30986859289778912 0.37434695178938759 0 -0.31340485972314069 0.36375751913665871 0 -0.30986859289778912 0.37434695178938759 0 -0.31340485972314069 0.36375751913665871 0 -0.32167824364597858 0.36970754211250728 0 -0.31340485972314069 0.36375751913665871 0 -0.32243327870136801 0.35950699838777223 0 -0.32167824364597858 0.36970754211250728 0 -0.32243327870136801 0.35950699838777223 0 -0.32167824364597858 0.36970754211250728 0 -0.33132177355711989 0.36851943955526861 0 -0.32167824364597858 0.36970754211250728 0 -0.33132177355711989 0.36851943955526861 0 -0.33136271335047512 0.38240680169344993 0 -0.32243327870136801 0.35950699838777223 0 -0.33132177355711989 0.36851943955526861 0 -0.33989838930305449 0.35721367281084643 0 -0.33132177355711989 0.36851943955526861 0 -0.34304766554360439 0.37232322735168022 0 -0.33136271335047512 0.38240680169344993 0 -0.33132177355711989 0.36851943955526861 0 -0.34304766554360439 0.37232322735168022 0 -0.33989838930305449 0.35721367281084643 0 -0.33989838930305449 0.35721367281084643 0 -0.32134510148944728 0.34307004099923799 0 -0.33989838930305449 0.35721367281084643 0 -0.32134510148944728 0.34307004099923799 0 -0.3500233487104954 0.34104903357308669 0 -0.32243327870136801 0.35950699838777223 0 -0.33989838930305449 0.35721367281084643 0 -0.32134510148944728 0.34307004099923799 0 -0.31193410579265052 0.3536039280541286 0 -0.32243327870136801 0.35950699838777223 0 -0.32134510148944728 0.34307004099923799 0 -0.31193410579265052 0.3536039280541286 0 -0.31340485972314069 0.36375751913665871 0 -0.32243327870136801 0.35950699838777223 0 -0.30538608464820588 0.33090408634228141 0 -0.32134510148944728 0.34307004099923799 0 -0.30538608464820588 0.33090408634228141 0 -0.32134510148944728 0.34307004099923799 0 -0.31811651498789978 0.32488887006413791 0 -0.32134510148944728 0.34307004099923799 0 -0.31811651498789978 0.32488887006413791 0 -0.33459812393413729 0.32207732583041709 0 -0.31699951866320542 0.30755322334125379 0 -0.30563014257680821 0.31779627416788381 0 -0.31811651498789978 0.32488887006413791 0 -0.31699951866320542 0.30755322334125379 0 -0.31811651498789978 0.32488887006413791 0 -0.33459812393413729 0.32207732583041709 0 -0.32134510148944728 0.34307004099923799 0 -0.34342889555096417 0.33131534648734451 0 -0.3500233487104954 0.34104903357308669 0 -0.32134510148944728 0.34307004099923799 0 -0.33459812393413729 0.32207732583041709 0 -0.34342889555096417 0.33131534648734451 0 -0.32134510148944728 0.34307004099923799 0 -0.3500233487104954 0.34104903357308669 0 -0.3500233487104954 0.34104903357308669 0 -0.35650114511620551 0.33294276438790088 0 -0.36794029410566942 0.33226259727897972 0 -0.34342889555096417 0.33131534648734451 0 -0.3500233487104954 0.34104903357308669 0 -0.35650114511620551 0.33294276438790088 0 -0.33459812393413729 0.32207732583041709 0 -0.34342889555096417 0.33131534648734451 0 -0.35467675850453528 0.31743756764607989 0 -0.34344143829887858 0.30736403781452232 0 -0.33459812393413729 0.32207732583041709 0 -0.35467675850453528 0.31743756764607989 0 -0.35650114511620551 0.33294276438790088 0 -0.35467675850453528 0.31743756764607989 0 -0.36272901898995358 0.31473918551029578 0 -0.34342889555096417 0.33131534648734451 0 -0.35650114511620551 0.33294276438790088 0 -0.35467675850453528 0.31743756764607989 0 -0.35650114511620551 0.33294276438790088 0 -0.36272901898995358 0.31473918551029578 0 -0.37415321332832258 0.31386652142517069 0 -0.35650114511620551 0.33294276438790088 0 -0.37415321332832258 0.31386652142517069 0 -0.35650114511620551 0.33294276438790088 0 -0.37442838800096029 0.32044424157556423 0 -0.37415321332832258 0.31386652142517069 0 -0.37816355277066899 0.32985684687273281 0 -0.37442838800096029 0.32044424157556423 0 -0.36794029410566942 0.33226259727897972 0 -0.3787015959315434 0.33902802614693439 0 -0.3500233487104954 0.34104903357308669 0 -0.36794029410566942 0.33226259727897972 0 -0.35650114511620551 0.33294276438790088 0 -0.37442838800096029 0.32044424157556423 0 -0.36794029410566942 0.33226259727897972 0 -0.3787015959315434 0.33902802614693439 0 -0.3500233487104954 0.34104903357308669 0 -0.3787015959315434 0.33902802614693439 0 -0.37816355277066899 0.32985684687273281 0 -0.36794029410566942 0.33226259727897972 0 -0.3787015959315434 0.33902802614693439 0 -0.3500233487104954 0.34104903357308669 0 -0.36501658974902518 0.35367198233662939 0 -0.37823932191431281 0.35548757599615399 0 -0.3787015959315434 0.33902802614693439 0 -0.36501658974902518 0.35367198233662939 0 -0.37823932191431281 0.35548757599615399 0 -0.36501658974902518 0.35367198233662939 0 -0.37024808467873749 0.36543132639488701 0 -0.36501658974902518 0.35367198233662939 0 -0.37024808467873749 0.36543132639488701 0 -0.35845167711666143 0.37135730462245548 0 -0.37949655700884349 0.37153259571527891 0 -0.37024808467873749 0.36543132639488701 0 -0.36758280318953013 0.37627165255961892 0 -0.37024808467873749 0.36543132639488701 0 -0.35845167711666143 0.37135730462245548 0 -0.36758280318953013 0.37627165255961892 0 -0.36501658974902518 0.35367198233662939 0 -0.35845167711666143 0.37135730462245548 0 -0.35334750121980912 0.35582299833575448 0 -0.34304766554360439 0.37232322735168022 0 -0.33989838930305449 0.35721367281084643 0 -0.35845167711666143 0.37135730462245548 0 -0.33989838930305449 0.35721367281084643 0 -0.35845167711666143 0.37135730462245548 0 -0.35334750121980912 0.35582299833575448 0 -0.33989838930305449 0.35721367281084643 0 -0.35845167711666143 0.37135730462245548 0 -0.33989838930305449 0.35721367281084643 0 -0.3500233487104954 0.34104903357308669 0 -0.35334750121980912 0.35582299833575448 0 -0.3500233487104954 0.34104903357308669 0 -0.36501658974902518 0.35367198233662939 0 -0.35334750121980912 0.35582299833575448 0 -0.35285683380316007 0.39046665159751448 0 -0.36027192889352422 0.40897543894708011 0 -0.34270265381785459 0.40768080501023862 0 -0.34304766554360439 0.37232322735168022 0 -0.35845167711666143 0.37135730462245548 0 -0.35285683380316007 0.39046665159751448 0 -0.37686086334024771 0.38257038446795849 0 -0.35285683380316007 0.39046665159751448 0 -0.37686086334024771 0.38257038446795849 0 -0.35285683380316007 0.39046665159751448 0 -0.36758280318953013 0.37627165255961892 0 -0.35845167711666143 0.37135730462245548 0 -0.35285683380316007 0.39046665159751448 0 -0.36758280318953013 0.37627165255961892 0 -0.37686086334024771 0.38257038446795849 0 -0.37949655700884349 0.37153259571527891 0 -0.36758280318953013 0.37627165255961892 0 -0.37769092578324193 0.39977892163450779 0 -0.35285683380316007 0.39046665159751448 0 -0.37769092578324193 0.39977892163450779 0 -0.37686086334024771 0.38257038446795849 0 -0.35285683380316007 0.39046665159751448 0 -0.37769092578324193 0.39977892163450779 0 -0.35285683380316007 0.39046665159751448 0 -0.36027192889352422 0.40897543894708011 0 -0.37875820238401509 0.42613984176471847 0 -0.37769092578324193 0.39977892163450779 0 -0.36027192889352422 0.40897543894708011 0 -0.37875820238401509 0.42613984176471847 0 -0.36027192889352422 0.40897543894708011 0 -0.36048507512927641 0.42545129427310208 0 -0.37875820238401509 0.42613984176471847 0 -0.36048507512927641 0.42545129427310208 0 -0.35499138700470761 0.44318849185793469 0 -0.37875820238401509 0.42613984176471847 0 -0.35499138700470761 0.44318849185793469 0 -0.34691622899781399 0.42161541908905831 0 -0.33223168701086447 0.43660936806356893 0 -0.35499138700470761 0.44318849185793469 0 -0.36048507512927641 0.42545129427310208 0 -0.34691622899781399 0.42161541908905831 0 -0.35499138700470761 0.44318849185793469 0 -0.36027192889352422 0.40897543894708011 0 -0.34691622899781399 0.42161541908905831 0 -0.34270265381785459 0.40768080501023862 0 -0.36027192889352422 0.40897543894708011 0 -0.36048507512927641 0.42545129427310208 0 -0.34691622899781399 0.42161541908905831 0 -0.34270265381785459 0.40768080501023862 0 -0.32841174735063311 0.41773478988879181 0 -0.32505653004414181 0.39961172552874852 0 -0.34691622899781399 0.42161541908905831 0 -0.34270265381785459 0.40768080501023862 0 -0.32841174735063311 0.41773478988879181 0 -0.34691622899781399 0.42161541908905831 0 -0.32841174735063311 0.41773478988879181 0 -0.33223168701086447 0.43660936806356893 0 -0.32841174735063311 0.41773478988879181 0 -0.33223168701086447 0.43660936806356893 0 -0.31148998866141242 0.43181261152586448 0 -0.32841174735063311 0.41773478988879181 0 -0.31441363705571701 0.41408607272300291 0 -0.32505653004414181 0.39961172552874852 0 -0.32841174735063311 0.41773478988879181 0 -0.31441363705571701 0.41408607272300291 0 -0.31148998866141242 0.43181261152586448 0 -0.32505653004414181 0.39961172552874852 0 -0.31219235154091651 0.39185403334122892 0 -0.30619500853749271 0.39725637532293351 0 -0.32505653004414181 0.39961172552874852 0 -0.31778050989885959 0.38527433798844479 0 -0.31219235154091651 0.39185403334122892 0 -0.35285683380316007 0.39046665159751448 0 -0.32505653004414181 0.39961172552874852 0 -0.33136271335047512 0.38240680169344993 0 -0.35285683380316007 0.39046665159751448 0 -0.34270265381785459 0.40768080501023862 0 -0.32505653004414181 0.39961172552874852 0 -0.35285683380316007 0.39046665159751448 0 -0.32505653004414181 0.39961172552874852 0 -0.35285683380316007 0.39046665159751448 0 -0.33136271335047512 0.38240680169344993 0 -0.34304766554360439 0.37232322735168022 0 -0.35285683380316007 0.39046665159751448 0 -0.33136271335047512 0.38240680169344993 0 -0.30986859289778912 0.37434695178938759 0 -0.32167824364597858 0.36970754211250728 0 -0.33136271335047512 0.38240680169344993 0 -0.30986859289778912 0.37434695178938759 0 -0.33136271335047512 0.38240680169344993 0 -0.32505653004414181 0.39961172552874852 0 -0.33136271335047512 0.38240680169344993 0 -0.31778050989885959 0.38527433798844479 0 -0.30986859289778912 0.37434695178938759 0 -0.33136271335047512 0.38240680169344993 0 -0.31778050989885959 0.38527433798844479 0 -0.30986859289778912 0.37434695178938759 0 -0.31778050989885959 0.38527433798844479 0 -0.30574515252343709 0.38648905476423068 0 -0.30986859289778912 0.37434695178938759 0 -0.30574515252343709 0.38648905476423068 0 -0.29874239202075642 0.37528196759933868 0 -0.30574515252343709 0.38648905476423068 0 -0.29874239202075642 0.37528196759933868 0 -0.29146244090030071 0.40289140707507309 0 -0.31778050989885959 0.38527433798844479 0 -0.30574515252343709 0.38648905476423068 0 -0.31219235154091651 0.39185403334122892 0 -0.32505653004414181 0.39961172552874852 0 -0.30619500853749271 0.39725637532293351 0 -0.29725622628512233 0.40875679945997928 0 -0.32505653004414181 0.39961172552874852 0 -0.29725622628512233 0.40875679945997928 0 -0.30574515252343709 0.38648905476423068 0 -0.30619500853749271 0.39725637532293351 0 -0.29146244090030071 0.40289140707507309 0 -0.30574515252343709 0.38648905476423068 0 -0.31219235154091651 0.39185403334122892 0 -0.30619500853749271 0.39725637532293351 0 -0.30619500853749271 0.39725637532293351 0 -0.29146244090030071 0.40289140707507309 0 -0.29725622628512233 0.40875679945997928 0 -0.29146244090030071 0.40289140707507309 0 -0.2882496590958894 0.39023794275143442 0 -0.278827461574497 0.39790462172635238 0 -0.28396634188800352 0.38487377460497352 0 -0.2882496590958894 0.39023794275143442 0 -0.278827461574497 0.39790462172635238 0 -0.29146244090030071 0.40289140707507309 0 -0.278827461574497 0.39790462172635238 0 -0.27940045790464241 0.41220012044695847 0 -0.29874239202075642 0.37528196759933868 0 -0.29146244090030071 0.40289140707507309 0 -0.29874239202075642 0.37528196759933868 0 -0.29146244090030071 0.40289140707507309 0 -0.2882496590958894 0.39023794275143442 0 -0.29874239202075642 0.37528196759933868 0 -0.28396634188800352 0.38487377460497352 0 -0.28714059247178902 0.37543321948423419 0 -0.29874239202075642 0.37528196759933868 0 -0.28396634188800352 0.38487377460497352 0 -0.2882496590958894 0.39023794275143442 0 -0.28396634188800352 0.38487377460497352 0 -0.28714059247178902 0.37543321948423419 0 -0.27747916353329311 0.37529003384729942 0 -0.28396634188800352 0.38487377460497352 0 -0.27747916353329311 0.37529003384729942 0 -0.26775424033426293 0.38456849691175748 0 -0.28396634188800352 0.38487377460497352 0 -0.26775424033426293 0.38456849691175748 0 -0.278827461574497 0.39790462172635238 0 -0.26470209097228098 0.37140351159401941 0 -0.27747916353329311 0.37529003384729942 0 -0.26775424033426293 0.38456849691175748 0 -0.278827461574497 0.39790462172635238 0 -0.26298604578065232 0.3973558675440883 0 -0.2677584473194361 0.40899541659639099 0 -0.26775424033426293 0.38456849691175748 0 -0.278827461574497 0.39790462172635238 0 -0.26298604578065232 0.3973558675440883 0 -0.26298604578065232 0.3973558675440883 0 -0.25152819264859128 0.38883491631829081 0 -0.2490618870264745 0.40647588616764979 0 -0.26298604578065232 0.3973558675440883 0 -0.2677584473194361 0.40899541659639099 0 -0.2490618870264745 0.40647588616764979 0 -0.25213085833087667 0.37355178257669552 0 -0.26775424033426293 0.38456849691175748 0 -0.25152819264859128 0.38883491631829081 0 -0.26775424033426293 0.38456849691175748 0 -0.26298604578065232 0.3973558675440883 0 -0.25152819264859128 0.38883491631829081 0 -0.26470209097228098 0.37140351159401941 0 -0.25213085833087667 0.37355178257669552 0 -0.26775424033426293 0.38456849691175748 0 -0.2572482915111563 0.42152384209731297 0 -0.26330490497154813 0.43976041958731371 0 -0.24092688658692171 0.43286849171069308 0 -0.2572482915111563 0.42152384209731297 0 -0.27163392734069919 0.42205675226444578 0 -0.26330490497154813 0.43976041958731371 0 -0.2572482915111563 0.42152384209731297 0 -0.2677584473194361 0.40899541659639099 0 -0.2490618870264745 0.40647588616764979 0 -0.2572482915111563 0.42152384209731297 0 -0.2677584473194361 0.40899541659639099 0 -0.27163392734069919 0.42205675226444578 0 -0.27940045790464241 0.41220012044695847 0 -0.27163392734069919 0.42205675226444578 0 -0.28418248977984512 0.43050084655080739 0 -0.2677584473194361 0.40899541659639099 0 -0.27940045790464241 0.41220012044695847 0 -0.27163392734069919 0.42205675226444578 0 -0.278827461574497 0.39790462172635238 0 -0.2677584473194361 0.40899541659639099 0 -0.27940045790464241 0.41220012044695847 0 -0.27163392734069919 0.42205675226444578 0 -0.28418248977984512 0.43050084655080739 0 -0.26330490497154813 0.43976041958731371 0 -0.28418248977984512 0.43050084655080739 0 -0.29943060469912958 0.42576946359573847 0 -0.28981068171355151 0.44369098771903792 0 -0.29146244090030071 0.40289140707507309 0 -0.28418248977984512 0.43050084655080739 0 -0.29146244090030071 0.40289140707507309 0 -0.27940045790464241 0.41220012044695847 0 -0.28418248977984512 0.43050084655080739 0 -0.28418248977984512 0.43050084655080739 0 -0.29725622628512233 0.40875679945997928 0 -0.29943060469912958 0.42576946359573847 0 -0.29146244090030071 0.40289140707507309 0 -0.28418248977984512 0.43050084655080739 0 -0.29725622628512233 0.40875679945997928 0 -0.31441363705571701 0.41408607272300291 0 -0.32505653004414181 0.39961172552874852 0 -0.29725622628512233 0.40875679945997928 0 -0.31441363705571701 0.41408607272300291 0 -0.29725622628512233 0.40875679945997928 0 -0.29943060469912958 0.42576946359573847 0 -0.31441363705571701 0.41408607272300291 0 -0.29943060469912958 0.42576946359573847 0 -0.31148998866141242 0.43181261152586448 0 -0.29943060469912958 0.42576946359573847 0 -0.31148998866141242 0.43181261152586448 0 -0.28981068171355151 0.44369098771903792 0 -0.31148998866141242 0.43181261152586448 0 -0.30120616623050861 0.45239726712555162 0 -0.31718999816658727 0.45065056632578487 0 -0.31148998866141242 0.43181261152586448 0 -0.30120616623050861 0.45239726712555162 0 -0.31148998866141242 0.43181261152586448 0 -0.30120616623050861 0.45239726712555162 0 -0.28981068171355151 0.44369098771903792 0 -0.30120616623050861 0.45239726712555162 0 -0.29092234379960469 0.47298192272523881 0 -0.30745775624609217 0.47728579204436761 0 -0.30120616623050861 0.45239726712555162 0 -0.30745775624609217 0.47728579204436761 0 -0.31718999816658727 0.45065056632578487 0 -0.2852957606144535 0.45730244818253718 0 -0.28186649269177161 0.46567885888970018 0 -0.29092234379960469 0.47298192272523881 0 -0.30120616623050861 0.45239726712555162 0 -0.29092234379960469 0.47298192272523881 0 -0.30120616623050861 0.45239726712555162 0 -0.2852957606144535 0.45730244818253718 0 -0.29092234379960469 0.47298192272523881 0 -0.2852957606144535 0.45730244818253718 0 -0.28186649269177161 0.46567885888970018 0 -0.27690253865938408 0.45811028602654041 0 -0.28418248977984512 0.43050084655080739 0 -0.28981068171355151 0.44369098771903792 0 -0.27690253865938408 0.45811028602654041 0 -0.30120616623050861 0.45239726712555162 0 -0.2852957606144535 0.45730244818253718 0 -0.28981068171355151 0.44369098771903792 0 -0.2852957606144535 0.45730244818253718 0 -0.28981068171355151 0.44369098771903792 0 -0.27690253865938408 0.45811028602654041 0 -0.28418248977984512 0.43050084655080739 0 -0.27690253865938408 0.45811028602654041 0 -0.28418248977984512 0.43050084655080739 0 -0.27690253865938408 0.45811028602654041 0 -0.26330490497154813 0.43976041958731371 0 -0.2852957606144535 0.45730244818253718 0 -0.27690253865938408 0.45811028602654041 0 -0.28186649269177161 0.46567885888970018 0 -0.27690253865938408 0.45811028602654041 0 -0.27835780074514338 0.47366975871288508 0 -0.27690253865938408 0.45811028602654041 0 -0.25345677561811758 0.46036691342989022 0 -0.27690253865938408 0.45811028602654041 0 -0.25345677561811758 0.46036691342989022 0 -0.26590293397843329 0.47057525233348851 0 -0.25345677561811758 0.46036691342989022 0 -0.25315469521642581 0.4750486889203015 0 -0.26590293397843329 0.47057525233348851 0 -0.25345677561811758 0.46036691342989022 0 -0.26330490497154813 0.43976041958731371 0 -0.24129970279445639 0.44943490890582899 0 -0.27690253865938408 0.45811028602654041 0 -0.25345677561811758 0.46036691342989022 0 -0.26330490497154813 0.43976041958731371 0 -0.26169037092037989 0.4910190989046625 0 -0.25397816739109252 0.5 0 -0.27113802145370669 0.49283981386083792 0 -0.26169037092037989 0.4910190989046625 0 -0.25474868654415728 0.48692894813519849 0 -0.26689660829256312 0.48430763362261348 0 -0.26169037092037989 0.4910190989046625 0 -0.25397816739109252 0.5 0 -0.25474868654415728 0.48692894813519849 0 -0.25315469521642581 0.4750486889203015 0 -0.26689660829256312 0.48430763362261348 0 -0.25315469521642581 0.4750486889203015 0 -0.26689660829256312 0.48430763362261348 0 -0.26590293397843329 0.47057525233348851 0 -0.25474868654415728 0.48692894813519849 0 -0.25315469521642581 0.4750486889203015 0 -0.26689660829256312 0.48430763362261348 0 -0.27690253865938408 0.45811028602654041 0 -0.26590293397843329 0.47057525233348851 0 -0.26946370716205509 0.4860372782758946 0 -0.27690253865938408 0.45811028602654041 0 -0.26946370716205509 0.4860372782758946 0 -0.27690253865938408 0.45811028602654041 0 -0.27835780074514338 0.47366975871288508 0 -0.26946370716205509 0.4860372782758946 0 -0.26689660829256312 0.48430763362261348 0 -0.26590293397843329 0.47057525233348851 0 -0.26946370716205509 0.4860372782758946 0 -0.28186649269177161 0.46567885888970018 0 -0.27835780074514338 0.47366975871288508 0 -0.28298297564177088 0.4743823417855309 0 -0.27835780074514338 0.47366975871288508 0 -0.2798907507987049 0.48286402398659151 0 -0.28298297564177088 0.4743823417855309 0 -0.27835780074514338 0.47366975871288508 0 -0.2798907507987049 0.48286402398659151 0 -0.26946370716205509 0.4860372782758946 0 -0.26946370716205509 0.4860372782758946 0 -0.28063852136870049 0.49356657832492562 0 -0.26946370716205509 0.4860372782758946 0 -0.27113802145370669 0.49283981386083792 0 -0.28063852136870049 0.49356657832492562 0 -0.2798907507987049 0.48286402398659151 0 -0.26946370716205509 0.4860372782758946 0 -0.28063852136870049 0.49356657832492562 0 -0.25397816739109252 0.5 0 -0.27113802145370669 0.49283981386083792 0 -0.27742446875513049 0.50000000000000155 0 -0.26689660829256312 0.48430763362261348 0 -0.26946370716205509 0.4860372782758946 0 -0.27113802145370669 0.49283981386083792 0 -0.26169037092037989 0.4910190989046625 0 -0.26689660829256312 0.48430763362261348 0 -0.27113802145370669 0.49283981386083792 0 -0.26689660829256312 0.48430763362261348 0 -0.26946370716205509 0.4860372782758946 0 -0.27113802145370669 0.49283981386083792 0 -0.28063852136870049 0.49356657832492562 0 -0.27742446875513049 0.50000000000000155 0 -0.28063852136870049 0.49356657832492562 0 -0.27742446875513049 0.50000000000000155 0 -0.28063852136870049 0.49356657832492562 0 -0.27742446875513049 0.50000000000000155 0 -0.29018685806186229 0.50000000000000122 0 -0.28063852136870049 0.49356657832492562 0 -0.29018685806186229 0.50000000000000122 0 -0.29092234379960469 0.47298192272523881 0 -0.28063852136870049 0.49356657832492562 0 -0.29018685806186229 0.50000000000000122 0 -0.29018685806186229 0.50000000000000122 0 -0.29092234379960469 0.47298192272523881 0 -0.30745775624609217 0.47728579204436761 0 -0.28063852136870049 0.49356657832492562 0 -0.29092234379960469 0.47298192272523881 0 -0.2798907507987049 0.48286402398659151 0 -0.28063852136870049 0.49356657832492562 0 -0.29092234379960469 0.47298192272523881 0 -0.28186649269177161 0.46567885888970018 0 -0.28298297564177088 0.4743823417855309 0 -0.29092234379960469 0.47298192272523881 0 -0.2798907507987049 0.48286402398659151 0 -0.28298297564177088 0.4743823417855309 0 -0.29092234379960469 0.47298192272523881 0 -0.29018685806186229 0.50000000000000122 0 -0.30745775624609217 0.47728579204436761 0 -0.3640375775585698 0.5 0 -0.30745775624609217 0.47728579204436761 0 -0.33122457162539992 0.46023714195115112 0 -0.3640375775585698 0.5 0 -0.30745775624609217 0.47728579204436761 0 -0.33122457162539992 0.46023714195115112 0 -0.30745775624609217 0.47728579204436761 0 -0.31718999816658727 0.45065056632578487 0 -0.33122457162539992 0.46023714195115112 0 -0.33223168701086447 0.43660936806356893 0 -0.31148998866141242 0.43181261152586448 0 -0.31718999816658727 0.45065056632578487 0 -0.33223168701086447 0.43660936806356893 0 -0.31718999816658727 0.45065056632578487 0 -0.33122457162539992 0.46023714195115112 0 -0.33122457162539992 0.46023714195115112 0 -0.35499138700470761 0.44318849185793469 0 -0.33223168701086447 0.43660936806356893 0 -0.33122457162539992 0.46023714195115112 0 -0.35499138700470761 0.44318849185793469 0 -0.33122457162539992 0.46023714195115112 0 -0.35376164566254242 0.46494380824906301 0 -0.35499138700470761 0.44318849185793469 0 -0.38249991962136642 0.44345487931465249 0 -0.35499138700470761 0.44318849185793469 0 -0.37103467036260362 0.45695891695805302 0 -0.38249991962136642 0.44345487931465249 0 -0.37875820238401509 0.42613984176471847 0 -0.35499138700470761 0.44318849185793469 0 -0.35376164566254242 0.46494380824906301 0 -0.35499138700470761 0.44318849185793469 0 -0.37103467036260362 0.45695891695805302 0 -0.35376164566254242 0.46494380824906301 0 -0.37103467036260362 0.45695891695805302 0 -0.36943712044780219 0.47475959506207249 0 -0.33122457162539992 0.46023714195115112 0 -0.35376164566254242 0.46494380824906301 0 -0.3640375775585698 0.5 0 -0.38891458820749281 0.47713565504117422 0 -0.36943712044780219 0.47475959506207249 0 -0.3640375775585698 0.5 0 -0.35376164566254242 0.46494380824906301 0 -0.36943712044780219 0.47475959506207249 0 -0.3640375775585698 0.5 0 -0.1410608215807003 0.47118489318428192 0 -0.1506389915883973 0.47451242435581331 0 -0.15779819732271971 0.4695739402503486 0 -0.1410608215807003 0.47118489318428192 0 -0.15779819732271971 0.4695739402503486 0 -0.1455325599989582 0.47665965757352818 0 -0.14983465253105441 0.48099067897208148 0 -0.1405957742956809 0.47995063378193648 0 -0.14983465253105441 0.48099067897208148 0 -0.14427471349546869 0.48965289008050411 0 -0.1405957742956809 0.47995063378193648 0 -0.1455325599989582 0.47665965757352818 0 -0.1410608215807003 0.47118489318428192 0 -0.1506389915883973 0.47451242435581331 0 -0.1455325599989582 0.47665965757352818 0 -0.1410608215807003 0.47118489318428192 0 -0.1405957742956809 0.47995063378193648 0 -0.1506389915883973 0.47451242435581331 0 -0.15682389603308189 0.47748605108520858 0 -0.15779819732271971 0.4695739402503486 0 -0.1506389915883973 0.47451242435581331 0 -0.14983465253105441 0.48099067897208148 0 -0.15682389603308189 0.47748605108520858 0 -0.1455325599989582 0.47665965757352818 0 -0.1506389915883973 0.47451242435581331 0 -0.14983465253105441 0.48099067897208148 0 -0.14983465253105441 0.48099067897208148 0 -0.1558122254133027 0.48316327461493752 0 -0.15682389603308189 0.47748605108520858 0 -0.14983465253105441 0.48099067897208148 0 -0.1558122254133027 0.48316327461493752 0 -0.15140604362779489 0.486968875654338 0 -0.1558122254133027 0.48316327461493752 0 -0.15140604362779489 0.486968875654338 0 -0.15545271364459581 0.49281799385228547 0 -0.14983465253105441 0.48099067897208148 0 -0.15140604362779489 0.486968875654338 0 -0.14427471349546869 0.48965289008050411 0 -0.15140604362779489 0.486968875654338 0 -0.15545271364459581 0.49281799385228547 0 -0.14427471349546869 0.48965289008050411 0 -0.15453849507163009 0.5 0 -0.14427471349546869 0.48965289008050411 0 -0.12543772684428189 0.5 0 -0.15453849507163009 0.5 0 -0.15545271364459581 0.49281799385228547 0 -0.14427471349546869 0.48965289008050411 0 -0.14427471349546869 0.48965289008050411 0 -0.12543772684428189 0.5 0 -0.13178312884530541 0.48627570230508688 0 -0.14427471349546869 0.48965289008050411 0 -0.13178312884530541 0.48627570230508688 0 -0.1405957742956809 0.47995063378193648 0 -0.13178312884530541 0.48627570230508688 0 -0.1317912103042716 0.47600940211286807 0 -0.11642361318749669 0.48420448820259387 0 -0.1317912103042716 0.47600940211286807 0 -0.14083201439797821 0.46516349611765162 0 -0.12052644250191399 0.4682622397032008 0 -0.13178312884530541 0.48627570230508688 0 -0.1405957742956809 0.47995063378193648 0 -0.1317912103042716 0.47600940211286807 0 -0.1410608215807003 0.47118489318428192 0 -0.1405957742956809 0.47995063378193648 0 -0.1317912103042716 0.47600940211286807 0 -0.1410608215807003 0.47118489318428192 0 -0.1317912103042716 0.47600940211286807 0 -0.14083201439797821 0.46516349611765162 0 -0.12618187852634369 0.45882241462805679 0 -0.14083201439797821 0.46516349611765162 0 -0.12052644250191399 0.4682622397032008 0 -0.14083201439797821 0.46516349611765162 0 -0.12052644250191399 0.4682622397032008 0 -0.12618187852634369 0.45882241462805679 0 -0.13621980461969219 0.45775649261309698 0 -0.13482926781972801 0.45201676164804122 0 -0.13621980461969219 0.45775649261309698 0 -0.13482926781972801 0.45201676164804122 0 -0.1430360577347192 0.45502329805863873 0 -0.13621980461969219 0.45775649261309698 0 -0.14083201439797821 0.46516349611765162 0 -0.1430360577347192 0.45502329805863873 0 -0.12618187852634369 0.45882241462805679 0 -0.13621980461969219 0.45775649261309698 0 -0.14083201439797821 0.46516349611765162 0 -0.12618187852634369 0.45882241462805679 0 -0.13482926781972801 0.45201676164804122 0 -0.1248743097581413 0.44162978393037222 0 -0.13482926781972801 0.45201676164804122 0 -0.13973201497409549 0.44099892737807922 0 -0.1415241139788854 0.4488412036993919 0 -0.13482926781972801 0.45201676164804122 0 -0.1415241139788854 0.4488412036993919 0 -0.1430360577347192 0.45502329805863873 0 -0.13973201497409549 0.44099892737807922 0 -0.13491063247587859 0.43073185275000708 0 -0.1248743097581413 0.44162978393037222 0 -0.13482926781972801 0.45201676164804122 0 -0.13973201497409549 0.44099892737807922 0 -0.1248743097581413 0.44162978393037222 0 -0.13973201497409549 0.44099892737807922 0 -0.14849911538699881 0.44732582771280882 0 -0.14949031039727409 0.43903968606904947 0 -0.14849911538699881 0.44732582771280882 0 -0.1430360577347192 0.45502329805863873 0 -0.15230793746503779 0.45507497120342549 0 -0.13973201497409549 0.44099892737807922 0 -0.1415241139788854 0.4488412036993919 0 -0.14849911538699881 0.44732582771280882 0 -0.1415241139788854 0.4488412036993919 0 -0.14849911538699881 0.44732582771280882 0 -0.1430360577347192 0.45502329805863873 0 -0.14849911538699881 0.44732582771280882 0 -0.15230793746503779 0.45507497120342549 0 -0.15767924869329919 0.44641741059368378 0 -0.14949031039727409 0.43903968606904947 0 -0.15767924869329919 0.44641741059368378 0 -0.15912083936695831 0.4347249498771325 0 -0.14849911538699881 0.44732582771280882 0 -0.14949031039727409 0.43903968606904947 0 -0.15767924869329919 0.44641741059368378 0 -0.14083201439797821 0.46516349611765162 0 -0.16113758629404229 0.46206475253210239 0 -0.15779819732271971 0.4695739402503486 0 -0.1410608215807003 0.47118489318428192 0 -0.14083201439797821 0.46516349611765162 0 -0.15779819732271971 0.4695739402503486 0 -0.14083201439797821 0.46516349611765162 0 -0.16113758629404229 0.46206475253210239 0 -0.14083201439797821 0.46516349611765162 0 -0.15230793746503779 0.45507497120342549 0 -0.16113758629404229 0.46206475253210239 0 -0.14083201439797821 0.46516349611765162 0 -0.1430360577347192 0.45502329805863873 0 -0.15230793746503779 0.45507497120342549 0 -0.16113758629404229 0.46206475253210239 0 -0.16940388650370539 0.44815354093755089 0 -0.18144315819010631 0.45896600894655282 0 -0.16113758629404229 0.46206475253210239 0 -0.18144315819010631 0.45896600894655282 0 -0.16113758629404229 0.46206475253210239 0 -0.17453557306473899 0.46796298731641428 0 -0.15779819732271971 0.4695739402503486 0 -0.15230793746503779 0.45507497120342549 0 -0.16113758629404229 0.46206475253210239 0 -0.16013216473902109 0.45292766881669072 0 -0.16113758629404229 0.46206475253210239 0 -0.16013216473902109 0.45292766881669072 0 -0.16940388650370539 0.44815354093755089 0 -0.15767924869329919 0.44641741059368378 0 -0.16940388650370539 0.44815354093755089 0 -0.15912083936695831 0.4347249498771325 0 -0.15230793746503779 0.45507497120342549 0 -0.16013216473902109 0.45292766881669072 0 -0.15767924869329919 0.44641741059368378 0 -0.16013216473902109 0.45292766881669072 0 -0.15767924869329919 0.44641741059368378 0 -0.16940388650370539 0.44815354093755089 0 -0.1829590266345629 0.45699162349075462 0 -0.18255950863604661 0.43173185523385532 0 -0.1829590266345629 0.45699162349075462 0 -0.19557533522393281 0.44055915781337712 0 -0.18255950863604661 0.43173185523385532 0 -0.16940388650370539 0.44815354093755089 0 -0.1829590266345629 0.45699162349075462 0 -0.18255950863604661 0.43173185523385532 0 -0.16113758629404229 0.46206475253210239 0 -0.17453557306473899 0.46796298731641428 0 -0.18144315819010631 0.45896600894655282 0 -0.17453557306473899 0.46796298731641428 0 -0.18144315819010631 0.45896600894655282 0 -0.17453557306473899 0.46796298731641428 0 -0.18311948649431831 0.46713679563994498 0 -0.16940388650370539 0.44815354093755089 0 -0.18144315819010631 0.45896600894655282 0 -0.1829590266345629 0.45699162349075462 0 -0.18144315819010631 0.45896600894655282 0 -0.1829590266345629 0.45699162349075462 0 -0.18144315819010631 0.45896600894655282 0 -0.1829865290739871 0.45873048193697258 0 -0.1829590266345629 0.45699162349075462 0 -0.18144315819010631 0.45896600894655282 0 -0.1829865290739871 0.45873048193697258 0 -0.1829865290739871 0.45873048193697258 0 -0.1829590266345629 0.45699162349075462 0 -0.17453557306473899 0.46796298731641428 0 -0.18144315819010631 0.45896600894655282 0 -0.18311948649431831 0.46713679563994498 0 -0.1829865290739871 0.45873048193697258 0 -0.18311948649431831 0.46713679563994498 0 -0.18144315819010631 0.45896600894655282 0 -0.1829865290739871 0.45873048193697258 0 -0.18311948649431831 0.46713679563994498 0 -0.18311948649431831 0.46713679563994498 0 -0.18337937489664821 0.48356839781997168 0 -0.19511197543601369 0.47606725323690458 0 -0.18311948649431831 0.46713679563994498 0 -0.18337937489664821 0.48356839781997168 0 -0.18311948649431831 0.46713679563994498 0 -0.18337937489664821 0.48356839781997168 0 -0.17485937494801759 0.47808814193434568 0 -0.17453557306473899 0.46796298731641428 0 -0.18311948649431831 0.46713679563994498 0 -0.17485937494801759 0.47808814193434568 0 -0.17453557306473899 0.46796298731641428 0 -0.15779819732271971 0.4695739402503486 0 -0.17453557306473899 0.46796298731641428 0 -0.16499414335466689 0.48039049058434952 0 -0.17453557306473899 0.46796298731641428 0 -0.16499414335466689 0.48039049058434952 0 -0.15779819732271971 0.4695739402503486 0 -0.17453557306473899 0.46796298731641428 0 -0.17485937494801759 0.47808814193434568 0 -0.16499414335466689 0.48039049058434952 0 -0.17485937494801759 0.47808814193434568 0 -0.16499414335466689 0.48039049058434952 0 -0.1699453859209171 0.49288017845899518 0 -0.1558122254133027 0.48316327461493752 0 -0.16499414335466689 0.48039049058434952 0 -0.15682389603308189 0.47748605108520858 0 -0.16499414335466689 0.48039049058434952 0 -0.15682389603308189 0.47748605108520858 0 -0.15779819732271971 0.4695739402503486 0 -0.15453849507163009 0.5 0 -0.1699453859209171 0.49288017845899518 0 -0.18363926329897839 0.49999999999999828 0 -0.15453849507163009 0.5 0 -0.15545271364459581 0.49281799385228547 0 -0.1699453859209171 0.49288017845899518 0 -0.15545271364459581 0.49281799385228547 0 -0.16499414335466689 0.48039049058434952 0 -0.1699453859209171 0.49288017845899518 0 -0.15545271364459581 0.49281799385228547 0 -0.16499414335466689 0.48039049058434952 0 -0.1558122254133027 0.48316327461493752 0 -0.15545271364459581 0.49281799385228547 0 -0.16499414335466689 0.48039049058434952 0 -0.18337937489664821 0.48356839781997168 0 -0.18363926329897839 0.49999999999999828 0 -0.18337937489664821 0.48356839781997168 0 -0.1699453859209171 0.49288017845899518 0 -0.18363926329897839 0.49999999999999828 0 -0.18337937489664821 0.48356839781997168 0 -0.17485937494801759 0.47808814193434568 0 -0.1699453859209171 0.49288017845899518 0 -0.18337937489664821 0.48356839781997168 0 -0.18363926329897839 0.49999999999999828 0 -0.19848883175809501 0.48685236178056529 0 -0.18363926329897839 0.49999999999999828 0 -0.19848883175809501 0.48685236178056529 0 -0.20708556466301639 0.5 0 -0.18311948649431831 0.46713679563994498 0 -0.19511197543601369 0.47606725323690458 0 -0.20656524953558469 0.46488016823659339 0 -0.18337937489664821 0.48356839781997168 0 -0.19848883175809501 0.48685236178056529 0 -0.19511197543601369 0.47606725323690458 0 -0.19848883175809501 0.48685236178056529 0 -0.19511197543601369 0.47606725323690458 0 -0.206747867840962 0.47700509082497228 0 -0.19511197543601369 0.47606725323690458 0 -0.206747867840962 0.47700509082497228 0 -0.20656524953558469 0.46488016823659339 0 -0.19848883175809501 0.48685236178056529 0 -0.206747867840962 0.47700509082497228 0 -0.21585796601610141 0.48648558657266339 0 -0.206747867840962 0.47700509082497228 0 -0.21852396914967101 0.47285401242330122 0 -0.20656524953558469 0.46488016823659339 0 -0.206747867840962 0.47700509082497228 0 -0.21852396914967101 0.47285401242330122 0 -0.21585796601610141 0.48648558657266339 0 -0.20708556466301639 0.5 0 -0.21585796601610141 0.48648558657266339 0 -0.23053186602705439 0.5 0 -0.19848883175809501 0.48685236178056529 0 -0.20708556466301639 0.5 0 -0.21585796601610141 0.48648558657266339 0 -0.21585796601610141 0.48648558657266339 0 -0.23053186602705439 0.5 0 -0.2373192826940049 0.48342253064983348 0 -0.21852396914967101 0.47285401242330122 0 -0.2373192826940049 0.48342253064983348 0 -0.23001101257685119 0.46262354083324181 0 -0.21852396914967101 0.47285401242330122 0 -0.21585796601610141 0.48648558657266339 0 -0.2373192826940049 0.48342253064983348 0 -0.25474868654415728 0.48692894813519849 0 -0.25315469521642581 0.4750486889203015 0 -0.2373192826940049 0.48342253064983348 0 -0.25315469521642581 0.4750486889203015 0 -0.2373192826940049 0.48342253064983348 0 -0.23001101257685119 0.46262354083324181 0 -0.25397816739109252 0.5 0 -0.23053186602705439 0.5 0 -0.2373192826940049 0.48342253064983348 0 -0.25397816739109252 0.5 0 -0.25474868654415728 0.48692894813519849 0 -0.2373192826940049 0.48342253064983348 0 -0.26330490497154813 0.43976041958731371 0 -0.24129970279445639 0.44943490890582899 0 -0.24092688658692171 0.43286849171069308 0 -0.24129970279445639 0.44943490890582899 0 -0.2242493546558077 0.44235471361969553 0 -0.24092688658692171 0.43286849171069308 0 -0.25345677561811758 0.46036691342989022 0 -0.23001101257685119 0.46262354083324181 0 -0.25345677561811758 0.46036691342989022 0 -0.24129970279445639 0.44943490890582899 0 -0.23001101257685119 0.46262354083324181 0 -0.25345677561811758 0.46036691342989022 0 -0.25315469521642581 0.4750486889203015 0 -0.23001101257685119 0.46262354083324181 0 -0.24129970279445639 0.44943490890582899 0 -0.23001101257685119 0.46262354083324181 0 -0.2242493546558077 0.44235471361969553 0 -0.23001101257685119 0.46262354083324181 0 -0.2242493546558077 0.44235471361969553 0 -0.2144914677851314 0.45380351874251162 0 -0.2242493546558077 0.44235471361969553 0 -0.20880164963731279 0.443380440886459 0 -0.2144914677851314 0.45380351874251162 0 -0.20880164963731279 0.443380440886459 0 -0.2144914677851314 0.45380351874251162 0 -0.20415969833182021 0.45549933815243238 0 -0.23001101257685119 0.46262354083324181 0 -0.2144914677851314 0.45380351874251162 0 -0.20656524953558469 0.46488016823659339 0 -0.21852396914967101 0.47285401242330122 0 -0.23001101257685119 0.46262354083324181 0 -0.20656524953558469 0.46488016823659339 0 -0.23001101257685119 0.46262354083324181 0 -0.20656524953558469 0.46488016823659339 0 -0.2144914677851314 0.45380351874251162 0 -0.20415969833182021 0.45549933815243238 0 -0.20656524953558469 0.46488016823659339 0 -0.1829865290739871 0.45873048193697258 0 -0.1829590266345629 0.45699162349075462 0 -0.20415969833182021 0.45549933815243238 0 -0.1829865290739871 0.45873048193697258 0 -0.20415969833182021 0.45549933815243238 0 -0.18311948649431831 0.46713679563994498 0 -0.20415969833182021 0.45549933815243238 0 -0.20656524953558469 0.46488016823659339 0 -0.1829865290739871 0.45873048193697258 0 -0.18311948649431831 0.46713679563994498 0 -0.20415969833182021 0.45549933815243238 0 -0.18311948649431831 0.46713679563994498 0 -0.20656524953558469 0.46488016823659339 0 -0.1829590266345629 0.45699162349075462 0 -0.19557533522393281 0.44055915781337712 0 -0.1829590266345629 0.45699162349075462 0 -0.20415969833182021 0.45549933815243238 0 -0.19557533522393281 0.44055915781337712 0 -0.20880164963731279 0.443380440886459 0 -0.20415969833182021 0.45549933815243238 0 -0.19557533522393281 0.44055915781337712 0 -0.19557533522393281 0.44055915781337712 0 -0.20819164381331129 0.42412669213600601 0 -0.19557533522393281 0.44055915781337712 0 -0.19413142888046839 0.4217351031076268 0 -0.18255950863604661 0.43173185523385532 0 -0.19557533522393281 0.44055915781337712 0 -0.19413142888046839 0.4217351031076268 0 -0.20819164381331129 0.42412669213600601 0 -0.19413142888046839 0.4217351031076268 0 -0.20819164381331129 0.42412669213600601 0 -0.2021706660915297 0.40578572337793972 0 -0.19413142888046839 0.4217351031076268 0 -0.2021706660915297 0.40578572337793972 0 -0.18215999063752189 0.40647208697695608 0 -0.20819164381331129 0.42412669213600601 0 -0.22405449890785839 0.40643558214578251 0 -0.2021706660915297 0.40578572337793972 0 -0.20880164963731279 0.443380440886459 0 -0.19557533522393281 0.44055915781337712 0 -0.20819164381331129 0.42412669213600601 0 -0.2242493546558077 0.44235471361969553 0 -0.20880164963731279 0.443380440886459 0 -0.20819164381331129 0.42412669213600601 0 -0.2242493546558077 0.44235471361969553 0 -0.20819164381331129 0.42412669213600601 0 -0.22600929792909111 0.42518400498706249 0 -0.2242493546558077 0.44235471361969553 0 -0.22600929792909111 0.42518400498706249 0 -0.24092688658692171 0.43286849171069308 0 -0.20819164381331129 0.42412669213600601 0 -0.22600929792909111 0.42518400498706249 0 -0.22405449890785839 0.40643558214578251 0 -0.22600929792909111 0.42518400498706249 0 -0.22405449890785839 0.40643558214578251 0 -0.2382988550227183 0.41778448946306668 0 -0.2572482915111563 0.42152384209731297 0 -0.2382988550227183 0.41778448946306668 0 -0.2490618870264745 0.40647588616764979 0 -0.22405449890785839 0.40643558214578251 0 -0.2382988550227183 0.41778448946306668 0 -0.2490618870264745 0.40647588616764979 0 -0.2572482915111563 0.42152384209731297 0 -0.2382988550227183 0.41778448946306668 0 -0.24092688658692171 0.43286849171069308 0 -0.22600929792909111 0.42518400498706249 0 -0.2382988550227183 0.41778448946306668 0 -0.24092688658692171 0.43286849171069308 0 -0.24000210142933509 0.37809552861286783 0 -0.23801773827758249 0.39392053259368742 0 -0.22567210936962789 0.38582584627882549 0 -0.25152819264859128 0.38883491631829081 0 -0.24000210142933509 0.37809552861286783 0 -0.23801773827758249 0.39392053259368742 0 -0.25213085833087667 0.37355178257669552 0 -0.25152819264859128 0.38883491631829081 0 -0.24000210142933509 0.37809552861286783 0 -0.25152819264859128 0.38883491631829081 0 -0.2490618870264745 0.40647588616764979 0 -0.23801773827758249 0.39392053259368742 0 -0.22405449890785839 0.40643558214578251 0 -0.2490618870264745 0.40647588616764979 0 -0.23801773827758249 0.39392053259368742 0 -0.22405449890785839 0.40643558214578251 0 -0.22567210936962789 0.38582584627882549 0 -0.2099895612515065 0.38861519238670661 0 -0.22405449890785839 0.40643558214578251 0 -0.23801773827758249 0.39392053259368742 0 -0.22567210936962789 0.38582584627882549 0 -0.22567210936962789 0.38582584627882549 0 -0.21752164111765379 0.37637519474985792 0 -0.23054114355980421 0.3681661286558337 0 -0.24000210142933509 0.37809552861286783 0 -0.22567210936962789 0.38582584627882549 0 -0.23054114355980421 0.3681661286558337 0 -0.22567210936962789 0.38582584627882549 0 -0.21752164111765379 0.37637519474985792 0 -0.2099895612515065 0.38861519238670661 0 -0.21752164111765379 0.37637519474985792 0 -0.2099895612515065 0.38861519238670661 0 -0.20825127389149589 0.37038948781896619 0 -0.2099895612515065 0.38861519238670661 0 -0.1956253707180633 0.37355818799515828 0 -0.20825127389149589 0.37038948781896619 0 -0.22405449890785839 0.40643558214578251 0 -0.2099895612515065 0.38861519238670661 0 -0.2021706660915297 0.40578572337793972 0 -0.2021706660915297 0.40578572337793972 0 -0.19434121226752371 0.39112870189136351 0 -0.18215999063752189 0.40647208697695608 0 -0.2099895612515065 0.38861519238670661 0 -0.2021706660915297 0.40578572337793972 0 -0.19434121226752371 0.39112870189136351 0 -0.2099895612515065 0.38861519238670661 0 -0.19434121226752371 0.39112870189136351 0 -0.1956253707180633 0.37355818799515828 0 -0.19434121226752371 0.39112870189136351 0 -0.18176047263899719 0.38121231872005679 0 -0.1956253707180633 0.37355818799515828 0 -0.18176047263899719 0.38121231872005679 0 -0.16585623702428451 0.39107516703040651 0 -0.16689278400863089 0.37048631692620287 0 -0.16585623702428451 0.39107516703040651 0 -0.1532541744773912 0.375434017343177 0 -0.15169756500005979 0.38990146883471011 0 -0.16585623702428451 0.39107516703040651 0 -0.1532541744773912 0.375434017343177 0 -0.16689278400863089 0.37048631692620287 0 -0.16585623702428451 0.39107516703040651 0 -0.1665369108918931 0.40914444316194981 0 -0.1556916669008335 0.40278409093046019 0 -0.16585623702428451 0.39107516703040651 0 -0.18215999063752189 0.40647208697695608 0 -0.1665369108918931 0.40914444316194981 0 -0.16585623702428451 0.39107516703040651 0 -0.15169756500005979 0.38990146883471011 0 -0.1556916669008335 0.40278409093046019 0 -0.18176047263899719 0.38121231872005679 0 -0.16585623702428451 0.39107516703040651 0 -0.18215999063752189 0.40647208697695608 0 -0.18176047263899719 0.38121231872005679 0 -0.18215999063752189 0.40647208697695608 0 -0.19434121226752371 0.39112870189136351 0 -0.18176047263899719 0.38121231872005679 0 -0.18215999063752189 0.40647208697695608 0 -0.18215999063752189 0.40647208697695608 0 -0.18255950863604661 0.43173185523385532 0 -0.18215999063752189 0.40647208697695608 0 -0.16958367679162159 0.42493542776846188 0 -0.1665369108918931 0.40914444316194981 0 -0.19413142888046839 0.4217351031076268 0 -0.18215999063752189 0.40647208697695608 0 -0.18255950863604661 0.43173185523385532 0 -0.18215999063752189 0.40647208697695608 0 -0.18255950863604661 0.43173185523385532 0 -0.16958367679162159 0.42493542776846188 0 -0.16940388650370539 0.44815354093755089 0 -0.18255950863604661 0.43173185523385532 0 -0.16958367679162159 0.42493542776846188 0 -0.16940388650370539 0.44815354093755089 0 -0.16958367679162159 0.42493542776846188 0 -0.15912083936695831 0.4347249498771325 0 -0.16958367679162159 0.42493542776846188 0 -0.15912083936695831 0.4347249498771325 0 -0.15604886632200479 0.41831593774319042 0 -0.16958367679162159 0.42493542776846188 0 -0.1665369108918931 0.40914444316194981 0 -0.15604886632200479 0.41831593774319042 0 -0.1665369108918931 0.40914444316194981 0 -0.15604886632200479 0.41831593774319042 0 -0.1556916669008335 0.40278409093046019 0 -0.15604886632200479 0.41831593774319042 0 -0.14768726638806501 0.40958107086639878 0 -0.1556916669008335 0.40278409093046019 0 -0.15604886632200479 0.41831593774319042 0 -0.1455440964649429 0.41771164433310332 0 -0.14575226394851429 0.42876386523653243 0 -0.15604886632200479 0.41831593774319042 0 -0.1455440964649429 0.41771164433310332 0 -0.14768726638806501 0.40958107086639878 0 -0.1455440964649429 0.41771164433310332 0 -0.14768726638806501 0.40958107086639878 0 -0.13820848934052041 0.41088683445876423 0 -0.15912083936695831 0.4347249498771325 0 -0.15604886632200479 0.41831593774319042 0 -0.14575226394851429 0.42876386523653243 0 -0.14949031039727409 0.43903968606904947 0 -0.15912083936695831 0.4347249498771325 0 -0.14575226394851429 0.42876386523653243 0 -0.1455440964649429 0.41771164433310332 0 -0.14575226394851429 0.42876386523653243 0 -0.13557398954387551 0.42076075412316039 0 -0.13973201497409549 0.44099892737807922 0 -0.14949031039727409 0.43903968606904947 0 -0.14575226394851429 0.42876386523653243 0 -0.13491063247587859 0.43073185275000708 0 -0.1242188050129694 0.42501783294758849 0 -0.1248743097581413 0.44162978393037222 0 -0.13973201497409549 0.44099892737807922 0 -0.14575226394851429 0.42876386523653243 0 -0.13491063247587859 0.43073185275000708 0 -0.14575226394851429 0.42876386523653243 0 -0.13491063247587859 0.43073185275000708 0 -0.13557398954387551 0.42076075412316039 0 -0.13491063247587859 0.43073185275000708 0 -0.13557398954387551 0.42076075412316039 0 -0.1242188050129694 0.42501783294758849 0 -0.13820848934052041 0.41088683445876423 0 -0.13557398954387551 0.42076075412316039 0 -0.12623023605756489 0.41143854881348008 0 -0.1455440964649429 0.41771164433310332 0 -0.13820848934052041 0.41088683445876423 0 -0.13557398954387551 0.42076075412316039 0 -0.13557398954387551 0.42076075412316039 0 -0.12623023605756489 0.41143854881348008 0 -0.1242188050129694 0.42501783294758849 0 -0.13820848934052041 0.41088683445876423 0 -0.12623023605756489 0.41143854881348008 0 -0.13398515235888339 0.40371564514020769 0 -0.12997925716256209 0.39431640422262348 0 -0.14074253368576661 0.38200722200303072 0 -0.1429432129120235 0.39820684686647628 0 -0.12623023605756489 0.41143854881348008 0 -0.13398515235888339 0.40371564514020769 0 -0.12997925716256209 0.39431640422262348 0 -0.13398515235888339 0.40371564514020769 0 -0.12997925716256209 0.39431640422262348 0 -0.1429432129120235 0.39820684686647628 0 -0.13820848934052041 0.41088683445876423 0 -0.13398515235888339 0.40371564514020769 0 -0.1429432129120235 0.39820684686647628 0 -0.12997925716256209 0.39431640422262348 0 -0.14074253368576661 0.38200722200303072 0 -0.12523428666698541 0.37069662222368049 0 -0.12997925716256209 0.39431640422262348 0 -0.12523428666698541 0.37069662222368049 0 -0.12103247972044499 0.39311621374447298 0 -0.14074253368576661 0.38200722200303072 0 -0.15169756500005979 0.38990146883471011 0 -0.1429432129120235 0.39820684686647628 0 -0.14074253368576661 0.38200722200303072 0 -0.1532541744773912 0.375434017343177 0 -0.15169756500005979 0.38990146883471011 0 -0.15169756500005979 0.38990146883471011 0 -0.1556916669008335 0.40278409093046019 0 -0.1429432129120235 0.39820684686647628 0 -0.14768726638806501 0.40958107086639878 0 -0.1556916669008335 0.40278409093046019 0 -0.1429432129120235 0.39820684686647628 0 -0.14768726638806501 0.40958107086639878 0 -0.13820848934052041 0.41088683445876423 0 -0.1429432129120235 0.39820684686647628 0 -0.14407255521749979 0.34403263722221961 0 -0.15504053286571459 0.3545366000593369 0 -0.14129669608781389 0.36249735492572199 0 -0.14407255521749979 0.34403263722221961 0 -0.15504053286571459 0.3545366000593369 0 -0.1549481930100888 0.34056708499864929 0 -0.14074253368576661 0.38200722200303072 0 -0.1532541744773912 0.375434017343177 0 -0.14129669608781389 0.36249735492572199 0 -0.1532541744773912 0.375434017343177 0 -0.15504053286571459 0.3545366000593369 0 -0.14129669608781389 0.36249735492572199 0 -0.14129669608781389 0.36249735492572199 0 -0.12523428666698541 0.37069662222368049 0 -0.1294360936135257 0.3482770307028879 0 -0.12523428666698541 0.37069662222368049 0 -0.1294360936135257 0.3482770307028879 0 -0.14074253368576661 0.38200722200303072 0 -0.14129669608781389 0.36249735492572199 0 -0.12523428666698541 0.37069662222368049 0 -0.14407255521749979 0.34403263722221961 0 -0.14129669608781389 0.36249735492572199 0 -0.1294360936135257 0.3482770307028879 0 -0.1294360936135257 0.3482770307028879 0 -0.13363790056006589 0.32585743918209531 0 -0.14407255521749979 0.34403263722221961 0 -0.1294360936135257 0.3482770307028879 0 -0.13363790056006589 0.32585743918209531 0 -0.1294360936135257 0.3482770307028879 0 -0.13363790056006589 0.32585743918209531 0 -0.1154499742120704 0.34086754873962172 0 -0.12722248981549561 0.3181430308760943 0 -0.13363790056006589 0.32585743918209531 0 -0.1360408951285694 0.3130357752318072 0 -0.12722248981549561 0.3181430308760943 0 -0.1360408951285694 0.3130357752318072 0 -0.12136448477009221 0.30951812845445109 0 -0.12722248981549561 0.3181430308760943 0 -0.13363790056006589 0.32585743918209531 0 -0.12142985306419619 0.32461006626398298 0 -0.13363790056006589 0.32585743918209531 0 -0.12142985306419619 0.32461006626398298 0 -0.13363790056006589 0.32585743918209531 0 -0.1360408951285694 0.3130357752318072 0 -0.14290423209994971 0.32095809222069871 0 -0.13363790056006589 0.32585743918209531 0 -0.1360408951285694 0.3130357752318072 0 -0.14290423209994971 0.32095809222069871 0 -0.1532404752523272 0.32269894785805692 0 -0.1464174014568787 0.29836992735667278 0 -0.13363790056006589 0.32585743918209531 0 -0.14290423209994971 0.32095809222069871 0 -0.15729966860100811 0.32827511069417059 0 -0.13363790056006589 0.32585743918209531 0 -0.15729966860100811 0.32827511069417059 0 -0.14290423209994971 0.32095809222069871 0 -0.1532404752523272 0.32269894785805692 0 -0.15729966860100811 0.32827511069417059 0 -0.1532404752523272 0.32269894785805692 0 -0.15943794807189979 0.31595908059817063 0 -0.1547819877644892 0.3091453549012102 0 -0.14407255521749979 0.34403263722221961 0 -0.13363790056006589 0.32585743918209531 0 -0.14748957934716561 0.33468306802428371 0 -0.13363790056006589 0.32585743918209531 0 -0.14748957934716561 0.33468306802428371 0 -0.15729966860100811 0.32827511069417059 0 -0.14748957934716561 0.33468306802428371 0 -0.1549481930100888 0.34056708499864929 0 -0.15729966860100811 0.32827511069417059 0 -0.14407255521749979 0.34403263722221961 0 -0.14748957934716561 0.33468306802428371 0 -0.1549481930100888 0.34056708499864929 0 -0.15729966860100811 0.32827511069417059 0 -0.18096143664194889 0.33069278220625808 0 -0.1549481930100888 0.34056708499864929 0 -0.15729966860100811 0.32827511069417059 0 -0.16781010436956259 0.34240718275037813 0 -0.15729966860100811 0.32827511069417059 0 -0.16781010436956259 0.34240718275037813 0 -0.18096143664194889 0.33069278220625808 0 -0.15729966860100811 0.32827511069417059 0 -0.17028988351433311 0.32233995817617028 0 -0.18096143664194889 0.33069278220625808 0 -0.15943794807189979 0.31595908059817063 0 -0.16495134068588049 0.31685297469802859 0 -0.1638395481514221 0.30983277085387728 0 -0.1532404752523272 0.32269894785805692 0 -0.15943794807189979 0.31595908059817063 0 -0.16037638850537991 0.32126535467967993 0 -0.15943794807189979 0.31595908059817063 0 -0.16037638850537991 0.32126535467967993 0 -0.16495134068588049 0.31685297469802859 0 -0.15729966860100811 0.32827511069417059 0 -0.16037638850537991 0.32126535467967993 0 -0.17028988351433311 0.32233995817617028 0 -0.1532404752523272 0.32269894785805692 0 -0.15729966860100811 0.32827511069417059 0 -0.16037638850537991 0.32126535467967993 0 -0.16495134068588049 0.31685297469802859 0 -0.17285953122972289 0.31090601179704258 0 -0.1638395481514221 0.30983277085387728 0 -0.17028988351433311 0.32233995817617028 0 -0.16495134068588049 0.31685297469802859 0 -0.17285953122972289 0.31090601179704258 0 -0.16037638850537991 0.32126535467967993 0 -0.17028988351433311 0.32233995817617028 0 -0.16495134068588049 0.31685297469802859 0 -0.18077272512400111 0.31876138179813301 0 -0.17285953122972289 0.31090601179704258 0 -0.17028988351433311 0.32233995817617028 0 -0.18077272512400111 0.31876138179813301 0 -0.17285953122972289 0.31090601179704258 0 -0.17028988351433311 0.32233995817617028 0 -0.18077272512400111 0.31876138179813301 0 -0.18096143664194889 0.33069278220625808 0 -0.18077272512400111 0.31876138179813301 0 -0.19386790912735871 0.33176087567547108 0 -0.18077272512400111 0.31876138179813301 0 -0.18096143664194889 0.33069278220625808 0 -0.18077272512400111 0.31876138179813301 0 -0.18096143664194889 0.33069278220625808 0 -0.19386790912735871 0.33176087567547108 0 -0.18096143664194889 0.33069278220625808 0 -0.1813609546404725 0.35595255046315749 0 -0.18096143664194889 0.33069278220625808 0 -0.1813609546404725 0.35595255046315749 0 -0.19258948339875709 0.33633707034479371 0 -0.16781010436956259 0.34240718275037813 0 -0.18096143664194889 0.33069278220625808 0 -0.1813609546404725 0.35595255046315749 0 -0.18096143664194889 0.33069278220625808 0 -0.19386790912735871 0.33176087567547108 0 -0.15504053286571459 0.3545366000593369 0 -0.16781010436956259 0.34240718275037813 0 -0.1813609546404725 0.35595255046315749 0 -0.15504053286571459 0.3545366000593369 0 -0.1549481930100888 0.34056708499864929 0 -0.16781010436956259 0.34240718275037813 0 -0.1532541744773912 0.375434017343177 0 -0.15504053286571459 0.3545366000593369 0 -0.16689278400863089 0.37048631692620287 0 -0.15504053286571459 0.3545366000593369 0 -0.1813609546404725 0.35595255046315749 0 -0.16689278400863089 0.37048631692620287 0 -0.18176047263899719 0.38121231872005679 0 -0.1813609546404725 0.35595255046315749 0 -0.18176047263899719 0.38121231872005679 0 -0.1813609546404725 0.35595255046315749 0 -0.1956253707180633 0.37355818799515828 0 -0.18176047263899719 0.38121231872005679 0 -0.1813609546404725 0.35595255046315749 0 -0.16689278400863089 0.37048631692620287 0 -0.1813609546404725 0.35595255046315749 0 -0.1956253707180633 0.37355818799515828 0 -0.2000380028121157 0.35856944723279938 0 -0.1956253707180633 0.37355818799515828 0 -0.2000380028121157 0.35856944723279938 0 -0.20825127389149589 0.37038948781896619 0 -0.1813609546404725 0.35595255046315749 0 -0.1951678646333711 0.34883535218340811 0 -0.19258948339875709 0.33633707034479371 0 -0.1813609546404725 0.35595255046315749 0 -0.1951678646333711 0.34883535218340811 0 -0.2000380028121157 0.35856944723279938 0 -0.1951678646333711 0.34883535218340811 0 -0.2000380028121157 0.35856944723279938 0 -0.20668301768213909 0.34448234069288158 0 -0.20668301768213909 0.34448234069288158 0 -0.2120127789660084 0.36084248239747968 0 -0.21921666942493959 0.3569244055809645 0 -0.2000380028121157 0.35856944723279938 0 -0.20668301768213909 0.34448234069288158 0 -0.2120127789660084 0.36084248239747968 0 -0.2120127789660084 0.36084248239747968 0 -0.21921666942493959 0.3569244055809645 0 -0.20668301768213909 0.34448234069288158 0 -0.21921666942493959 0.3569244055809645 0 -0.22158808080033929 0.34557455345049992 0 -0.20668301768213909 0.34448234069288158 0 -0.21921666942493959 0.3569244055809645 0 -0.2000380028121157 0.35856944723279938 0 -0.20825127389149589 0.37038948781896619 0 -0.2120127789660084 0.36084248239747968 0 -0.2120127789660084 0.36084248239747968 0 -0.2199937556016836 0.36693485901855288 0 -0.21921666942493959 0.3569244055809645 0 -0.20825127389149589 0.37038948781896619 0 -0.2120127789660084 0.36084248239747968 0 -0.2199937556016836 0.36693485901855288 0 -0.21752164111765379 0.37637519474985792 0 -0.20825127389149589 0.37038948781896619 0 -0.2199937556016836 0.36693485901855288 0 -0.21752164111765379 0.37637519474985792 0 -0.23054114355980421 0.3681661286558337 0 -0.2199937556016836 0.36693485901855288 0 -0.23054114355980421 0.3681661286558337 0 -0.21921666942493959 0.3569244055809645 0 -0.23305195790672301 0.35812934693154008 0 -0.23054114355980421 0.3681661286558337 0 -0.2199937556016836 0.36693485901855288 0 -0.21921666942493959 0.3569244055809645 0 -0.23054114355980421 0.3681661286558337 0 -0.21921666942493959 0.3569244055809645 0 -0.21921666942493959 0.3569244055809645 0 -0.22158808080033929 0.34557455345049992 0 -0.23915963598069589 0.34607775607121571 0 -0.21921666942493959 0.3569244055809645 0 -0.23915963598069589 0.34607775607121571 0 -0.21921666942493959 0.3569244055809645 0 -0.23305195790672301 0.35812934693154008 0 -0.23915963598069589 0.34607775607121571 0 -0.23305195790672301 0.35812934693154008 0 -0.23915963598069589 0.34607775607121571 0 -0.24329038266145239 0.36134909741814653 0 -0.25407523553642281 0.3497448278934856 0 -0.23915963598069589 0.34607775607121571 0 -0.24329038266145239 0.36134909741814653 0 -0.25213085833087667 0.37355178257669552 0 -0.24000210142933509 0.37809552861286783 0 -0.24329038266145239 0.36134909741814653 0 -0.24000210142933509 0.37809552861286783 0 -0.23054114355980421 0.3681661286558337 0 -0.24329038266145239 0.36134909741814653 0 -0.23054114355980421 0.3681661286558337 0 -0.23305195790672301 0.35812934693154008 0 -0.24329038266145239 0.36134909741814653 0 -0.23582541811145999 0.32679902143390172 0 -0.24885494741763489 0.31718848033418301 0 -0.23189508169276829 0.30076725351495531 0 -0.23582541811145999 0.32679902143390172 0 -0.24885494741763489 0.31718848033418301 0 -0.24633099797708269 0.32737693631841108 0 -0.25451497659773847 0.32559442806853028 0 -0.24885494741763489 0.31718848033418301 0 -0.24633099797708269 0.32737693631841108 0 -0.24843663428782739 0.33758714710907461 0 -0.22129300011358269 0.33481371145693772 0 -0.25451497659773847 0.32559442806853028 0 -0.24633099797708269 0.32737693631841108 0 -0.24843663428782739 0.33758714710907461 0 -0.25910260253645218 0.33523110656146687 0 -0.23915963598069589 0.34607775607121571 0 -0.23582541811145999 0.32679902143390172 0 -0.24633099797708269 0.32737693631841108 0 -0.24843663428782739 0.33758714710907461 0 -0.25910260253645218 0.33523110656146687 0 -0.23915963598069589 0.34607775607121571 0 -0.24843663428782739 0.33758714710907461 0 -0.23582541811145999 0.32679902143390172 0 -0.24843663428782739 0.33758714710907461 0 -0.22129300011358269 0.33481371145693772 0 -0.23915963598069589 0.34607775607121571 0 -0.24843663428782739 0.33758714710907461 0 -0.22129300011358269 0.33481371145693772 0 -0.22158808080033929 0.34557455345049992 0 -0.23915963598069589 0.34607775607121571 0 -0.22129300011358269 0.33481371145693772 0 -0.23582541811145999 0.32679902143390172 0 -0.21954464392232159 0.31820766509236142 0 -0.23189508169276829 0.30076725351495531 0 -0.23582541811145999 0.32679902143390172 0 -0.22129300011358269 0.33481371145693772 0 -0.21954464392232159 0.31820766509236142 0 -0.21954464392232159 0.31820766509236142 0 -0.20492818889453221 0.32276220977772679 0 -0.20060783596013981 0.3076349397264902 0 -0.22129300011358269 0.33481371145693772 0 -0.21954464392232159 0.31820766509236142 0 -0.20492818889453221 0.32276220977772679 0 -0.22129300011358269 0.33481371145693772 0 -0.20492818889453221 0.32276220977772679 0 -0.19386790912735871 0.33176087567547108 0 -0.22129300011358269 0.33481371145693772 0 -0.19386790912735871 0.33176087567547108 0 -0.20668301768213909 0.34448234069288158 0 -0.22129300011358269 0.33481371145693772 0 -0.19386790912735871 0.33176087567547108 0 -0.20668301768213909 0.34448234069288158 0 -0.22158808080033929 0.34557455345049992 0 -0.22129300011358269 0.33481371145693772 0 -0.20668301768213909 0.34448234069288158 0 -0.19386790912735871 0.33176087567547108 0 -0.19258948339875709 0.33633707034479371 0 -0.20668301768213909 0.34448234069288158 0 -0.19386790912735871 0.33176087567547108 0 -0.1951678646333711 0.34883535218340811 0 -0.20668301768213909 0.34448234069288158 0 -0.19258948339875709 0.33633707034479371 0 -0.18096143664194889 0.33069278220625808 0 -0.19386790912735871 0.33176087567547108 0 -0.19258948339875709 0.33633707034479371 0 -0.19386790912735871 0.33176087567547108 0 -0.19258948339875709 0.33633707034479371 0 -0.18077272512400111 0.31876138179813301 0 -0.19386790912735871 0.33176087567547108 0 -0.20060783596013981 0.3076349397264902 0 -0.20492818889453221 0.32276220977772679 0 -0.19386790912735871 0.33176087567547108 0 -0.20060783596013981 0.3076349397264902 0 -0.19386790912735871 0.33176087567547108 0 -0.20060783596013981 0.3076349397264902 0 -0.20060783596013981 0.3076349397264902 0 -0.20734776279292019 0.28350900377750898 0 -0.23189508169276829 0.30076725351495531 0 -0.21954464392232159 0.31820766509236142 0 -0.20060783596013981 0.3076349397264902 0 -0.23189508169276829 0.30076725351495531 0 -0.20060783596013981 0.3076349397264902 0 -0.20734776279292019 0.28350900377750898 0 -0.18034630435624241 0.29180066960649809 0 -0.20734776279292019 0.28350900377750898 0 -0.19375927737912041 0.2730469699042487 0 -0.18034630435624241 0.29180066960649809 0 -0.20060783596013981 0.3076349397264902 0 -0.20734776279292019 0.28350900377750898 0 -0.20734776279292019 0.28350900377750898 0 -0.23189508169276829 0.30076725351495531 0 -0.22396762922540969 0.27514125130055722 0 -0.23189508169276829 0.30076725351495531 0 -0.2378434694439332 0.28391349183279069 0 -0.22396762922540969 0.27514125130055722 0 -0.25673188405007052 0.28646841290673969 0 -0.23189508169276829 0.30076725351495531 0 -0.2378434694439332 0.28391349183279069 0 -0.25673188405007052 0.28646841290673969 0 -0.23189508169276829 0.30076725351495531 0 -0.25505401324638421 0.30366623925853881 0 -0.25673188405007052 0.28646841290673969 0 -0.23189508169276829 0.30076725351495531 0 -0.25505401324638421 0.30366623925853881 0 -0.24885494741763489 0.31718848033418301 0 -0.23189508169276829 0.30076725351495531 0 -0.25265925142613249 0.26128234508680298 0 -0.23885305679183191 0.2684477152547543 0 -0.23951274761537589 0.2474853768326048 0 -0.23885305679183191 0.2684477152547543 0 -0.22811192938500721 0.25829645972706228 0 -0.23951274761537589 0.2474853768326048 0 -0.25621817608628389 0.2460965770837312 0 -0.25265925142613249 0.26128234508680298 0 -0.23951274761537589 0.2474853768326048 0 -0.25673188405007052 0.28646841290673969 0 -0.2378434694439332 0.28391349183279069 0 -0.23885305679183191 0.2684477152547543 0 -0.25265925142613249 0.26128234508680298 0 -0.25673188405007052 0.28646841290673969 0 -0.23885305679183191 0.2684477152547543 0 -0.23885305679183191 0.2684477152547543 0 -0.22396762922540969 0.27514125130055722 0 -0.22811192938500721 0.25829645972706228 0 -0.2378434694439332 0.28391349183279069 0 -0.23885305679183191 0.2684477152547543 0 -0.22396762922540969 0.27514125130055722 0 -0.22811192938500721 0.25829645972706228 0 -0.22371849106378741 0.2462845034026982 0 -0.23951274761537589 0.2474853768326048 0 -0.22396762922540969 0.27514125130055722 0 -0.22811192938500721 0.25829645972706228 0 -0.21408768962570049 0.25938306782852782 0 -0.22811192938500721 0.25829645972706228 0 -0.21408768962570049 0.25938306782852782 0 -0.22371849106378741 0.2462845034026982 0 -0.21408768962570049 0.25938306782852782 0 -0.19928355658839081 0.25766712263582692 0 -0.2066863838603582 0.24242880758937649 0 -0.21408768962570049 0.25938306782852782 0 -0.20163280817849061 0.26608937016207479 0 -0.19928355658839081 0.25766712263582692 0 -0.20734776279292019 0.28350900377750898 0 -0.21408768962570049 0.25938306782852782 0 -0.20734776279292019 0.28350900377750898 0 -0.22396762922540969 0.27514125130055722 0 -0.21408768962570049 0.25938306782852782 0 -0.20734776279292019 0.28350900377750898 0 -0.21408768962570049 0.25938306782852782 0 -0.20163280817849061 0.26608937016207479 0 -0.20734776279292019 0.28350900377750898 0 -0.20163280817849061 0.26608937016207479 0 -0.19375927737912041 0.2730469699042487 0 -0.20163280817849061 0.26608937016207479 0 -0.19375927737912041 0.2730469699042487 0 -0.19160269433399771 0.26436194023610149 0 -0.19375927737912041 0.2730469699042487 0 -0.19160269433399771 0.26436194023610149 0 -0.17991988358848049 0.26483995741486333 0 -0.19928355658839081 0.25766712263582692 0 -0.18259587964237009 0.2606558300825601 0 -0.2066863838603582 0.24242880758937649 0 -0.18259587964237009 0.2606558300825601 0 -0.19333963139412971 0.24385714112684301 0 -0.19928355658839081 0.25766712263582692 0 -0.19160269433399771 0.26436194023610149 0 -0.18259587964237009 0.2606558300825601 0 -0.18259587964237009 0.2606558300825601 0 -0.2066863838603582 0.24242880758937649 0 -0.20163280817849061 0.26608937016207479 0 -0.19928355658839081 0.25766712263582692 0 -0.19160269433399771 0.26436194023610149 0 -0.17991988358848049 0.26483995741486333 0 -0.17951502337729761 0.2392424245160312 0 -0.17991988358848049 0.26483995741486333 0 -0.17042143569771079 0.26099360542817968 0 -0.17951502337729761 0.2392424245160312 0 -0.18259587964237009 0.2606558300825601 0 -0.17991988358848049 0.26483995741486333 0 -0.17951502337729761 0.2392424245160312 0 -0.19160269433399771 0.26436194023610149 0 -0.18259587964237009 0.2606558300825601 0 -0.17991988358848049 0.26483995741486333 0 -0.18259587964237009 0.2606558300825601 0 -0.17991988358848049 0.26483995741486333 0 -0.17991988358848049 0.26483995741486333 0 -0.17042143569771079 0.26099360542817968 0 -0.17716480609589361 0.26914773470870201 0 -0.17042143569771079 0.26099360542817968 0 -0.1627301728603629 0.26968240911070368 0 -0.1532221513837192 0.25419418888983192 0 -0.17042143569771079 0.26099360542817968 0 -0.1532221513837192 0.25419418888983192 0 -0.17951502337729761 0.2392424245160312 0 -0.1627301728603629 0.26968240911070368 0 -0.1620479085915319 0.28265904931380531 0 -0.15271877240598841 0.27446820953958367 0 -0.17042143569771079 0.26099360542817968 0 -0.1627301728603629 0.26968240911070368 0 -0.1699765768805111 0.26885491792894611 0 -0.1627301728603629 0.26968240911070368 0 -0.1699765768805111 0.26885491792894611 0 -0.16860704672851359 0.27535934789532951 0 -0.1627301728603629 0.26968240911070368 0 -0.16860704672851359 0.27535934789532951 0 -0.1620479085915319 0.28265904931380531 0 -0.16860704672851359 0.27535934789532951 0 -0.17077339862397739 0.28423195702734899 0 -0.1620479085915319 0.28265904931380531 0 -0.17991988358848049 0.26483995741486333 0 -0.18034630435624241 0.29180066960649809 0 -0.17991988358848049 0.26483995741486333 0 -0.17716480609589361 0.26914773470870201 0 -0.18034630435624241 0.29180066960649809 0 -0.16860704672851359 0.27535934789532951 0 -0.17716480609589361 0.26914773470870201 0 -0.17077339862397739 0.28423195702734899 0 -0.19375927737912041 0.2730469699042487 0 -0.17991988358848049 0.26483995741486333 0 -0.18034630435624241 0.29180066960649809 0 -0.17042143569771079 0.26099360542817968 0 -0.1699765768805111 0.26885491792894611 0 -0.17716480609589361 0.26914773470870201 0 -0.1699765768805111 0.26885491792894611 0 -0.16860704672851359 0.27535934789532951 0 -0.17716480609589361 0.26914773470870201 0 -0.17991988358848049 0.26483995741486333 0 -0.17716480609589361 0.26914773470870201 0 -0.17716480609589361 0.26914773470870201 0 -0.18034630435624241 0.29180066960649809 0 -0.17077339862397739 0.28423195702734899 0 -0.18034630435624241 0.29180066960649809 0 -0.16501618616712291 0.29775164083812761 0 -0.17077339862397739 0.28423195702734899 0 -0.18077272512400111 0.31876138179813301 0 -0.18034630435624241 0.29180066960649809 0 -0.18077272512400111 0.31876138179813301 0 -0.18034630435624241 0.29180066960649809 0 -0.17285953122972289 0.31090601179704258 0 -0.18034630435624241 0.29180066960649809 0 -0.17285953122972289 0.31090601179704258 0 -0.16501618616712291 0.29775164083812761 0 -0.18077272512400111 0.31876138179813301 0 -0.20060783596013981 0.3076349397264902 0 -0.18034630435624241 0.29180066960649809 0 -0.16501618616712291 0.29775164083812761 0 -0.15329008091572741 0.28945008379417048 0 -0.1547819877644892 0.3091453549012102 0 -0.17285953122972289 0.31090601179704258 0 -0.16501618616712291 0.29775164083812761 0 -0.1638395481514221 0.30983277085387728 0 -0.16501618616712291 0.29775164083812761 0 -0.1638395481514221 0.30983277085387728 0 -0.1547819877644892 0.3091453549012102 0 -0.15943794807189979 0.31595908059817063 0 -0.1638395481514221 0.30983277085387728 0 -0.1547819877644892 0.3091453549012102 0 -0.16501618616712291 0.29775164083812761 0 -0.17077339862397739 0.28423195702734899 0 -0.1620479085915319 0.28265904931380531 0 -0.16501618616712291 0.29775164083812761 0 -0.1620479085915319 0.28265904931380531 0 -0.15329008091572741 0.28945008379417048 0 -0.1464174014568787 0.29836992735667278 0 -0.13959432766143021 0.2740409068552887 0 -0.1620479085915319 0.28265904931380531 0 -0.15329008091572741 0.28945008379417048 0 -0.15271877240598841 0.27446820953958367 0 -0.15329008091572741 0.28945008379417048 0 -0.1464174014568787 0.29836992735667278 0 -0.13959432766143021 0.2740409068552887 0 -0.15329008091572741 0.28945008379417048 0 -0.1464174014568787 0.29836992735667278 0 -0.1547819877644892 0.3091453549012102 0 -0.1532404752523272 0.32269894785805692 0 -0.1464174014568787 0.29836992735667278 0 -0.1360408951285694 0.3130357752318072 0 -0.14290423209994971 0.32095809222069871 0 -0.1464174014568787 0.29836992735667278 0 -0.1532404752523272 0.32269894785805692 0 -0.1464174014568787 0.29836992735667278 0 -0.1547819877644892 0.3091453549012102 0 -0.1360408951285694 0.3130357752318072 0 -0.1264253840414637 0.29528772621663357 0 -0.12136448477009221 0.30951812845445109 0 -0.1360408951285694 0.3130357752318072 0 -0.1464174014568787 0.29836992735667278 0 -0.1264253840414637 0.29528772621663357 0 -0.1464174014568787 0.29836992735667278 0 -0.1264253840414637 0.29528772621663357 0 -0.13959432766143021 0.2740409068552887 0 -0.1264253840414637 0.29528772621663357 0 -0.13959432766143021 0.2740409068552887 0 -0.1185373796182298 0.27837978510360878 0 -0.13959432766143021 0.2740409068552887 0 -0.1327712538659816 0.24971188635390451 0 -0.13959432766143021 0.2740409068552887 0 -0.116744543106582 0.25728181003509248 0 -0.1327712538659816 0.24971188635390451 0 -0.13959432766143021 0.2740409068552887 0 -0.1532221513837192 0.25419418888983192 0 -0.1327712538659816 0.24971188635390451 0 -0.1627301728603629 0.26968240911070368 0 -0.1532221513837192 0.25419418888983192 0 -0.15271877240598841 0.27446820953958367 0 -0.13959432766143021 0.2740409068552887 0 -0.1532221513837192 0.25419418888983192 0 -0.15271877240598841 0.27446820953958367 0 -0.15329008091572741 0.28945008379417048 0 -0.13959432766143021 0.2740409068552887 0 -0.15271877240598841 0.27446820953958367 0 -0.1061606963602142 0.26761343855331338 0 -0.1001789302111205 0.27974269320078388 0 -0.1185373796182298 0.27837978510360878 0 -0.1061606963602142 0.26761343855331338 0 -0.1001789302111205 0.27974269320078388 0 -0.092613028744971265 0.26767711662392979 0 -0.1061606963602142 0.26761343855331338 0 -0.10005120432924321 0.25626016583208688 0 -0.116744543106582 0.25728181003509248 0 -0.1061606963602142 0.26761343855331338 0 -0.10005120432924321 0.25626016583208688 0 -0.092613028744971265 0.26767711662392979 0 -0.10005120432924321 0.25626016583208688 0 -0.116744543106582 0.25728181003509248 0 -0.1045487088169635 0.24438495162540061 0 -0.13959432766143021 0.2740409068552887 0 -0.116744543106582 0.25728181003509248 0 -0.1185373796182298 0.27837978510360878 0 -0.1061606963602142 0.26761343855331338 0 -0.116744543106582 0.25728181003509248 0 -0.1185373796182298 0.27837978510360878 0 -0.1264253840414637 0.29528772621663357 0 -0.1127724140037699 0.30190213115774378 0 -0.1091517300735869 0.29135078386346752 0 -0.1264253840414637 0.29528772621663357 0 -0.1185373796182298 0.27837978510360878 0 -0.1091517300735869 0.29135078386346752 0 -0.1264253840414637 0.29528772621663357 0 -0.12136448477009221 0.30951812845445109 0 -0.1127724140037699 0.30190213115774378 0 -0.12136448477009221 0.30951812845445109 0 -0.1127724140037699 0.30190213115774378 0 -0.1061991548417472 0.31213959050036899 0 -0.1127724140037699 0.30190213115774378 0 -0.1061991548417472 0.31213959050036899 0 -0.1005146973405663 0.30141191014932889 0 -0.1127724140037699 0.30190213115774378 0 -0.1005146973405663 0.30141191014932889 0 -0.1091517300735869 0.29135078386346752 0 -0.1005146973405663 0.30141191014932889 0 -0.094430836728355921 0.29177030977787999 0 -0.089068024122243669 0.30112896568664949 0 -0.1061991548417472 0.31213959050036899 0 -0.1005146973405663 0.30141191014932889 0 -0.090928135519314904 0.31087631578889069 0 -0.1001789302111205 0.27974269320078388 0 -0.1185373796182298 0.27837978510360878 0 -0.1091517300735869 0.29135078386346752 0 -0.1005146973405663 0.30141191014932889 0 -0.1091517300735869 0.29135078386346752 0 -0.094430836728355921 0.29177030977787999 0 -0.1001789302111205 0.27974269320078388 0 -0.1091517300735869 0.29135078386346752 0 -0.094430836728355921 0.29177030977787999 0 -0.1001789302111205 0.27974269320078388 0 -0.094430836728355921 0.29177030977787999 0 -0.086145563619835275 0.2816538088019015 0 -0.094430836728355921 0.29177030977787999 0 -0.086145563619835275 0.2816538088019015 0 -0.081526075002782958 0.29533369696514911 0 -0.094430836728355921 0.29177030977787999 0 -0.081526075002782958 0.29533369696514911 0 -0.089068024122243669 0.30112896568664949 0 -0.086145563619835275 0.2816538088019015 0 -0.081526075002782958 0.29533369696514911 0 -0.070830210313899522 0.29195808219782299 0 -0.090928135519314904 0.31087631578889069 0 -0.079482369404140468 0.30560554845979909 0 -0.074915307566508993 0.31649039264194578 0 -0.090928135519314904 0.31087631578889069 0 -0.089068024122243669 0.30112896568664949 0 -0.079482369404140468 0.30560554845979909 0 -0.1005146973405663 0.30141191014932889 0 -0.090928135519314904 0.31087631578889069 0 -0.089068024122243669 0.30112896568664949 0 -0.081526075002782958 0.29533369696514911 0 -0.089068024122243669 0.30112896568664949 0 -0.079482369404140468 0.30560554845979909 0 -0.054647974243728172 0.30430181459310768 0 -0.074915307566508993 0.31649039264194578 0 -0.079482369404140468 0.30560554845979909 0 -0.068661557073843291 0.3005821027458685 0 -0.074915307566508993 0.31649039264194578 0 -0.068661557073843291 0.3005821027458685 0 -0.054647974243728172 0.30430181459310768 0 -0.074915307566508993 0.31649039264194578 0 -0.081526075002782958 0.29533369696514911 0 -0.079482369404140468 0.30560554845979909 0 -0.068661557073843291 0.3005821027458685 0 -0.070830210313899522 0.29195808219782299 0 -0.067453711470644842 0.27023673344429472 0 -0.052574645638654917 0.28480468584225688 0 -0.081526075002782958 0.29533369696514911 0 -0.068661557073843291 0.3005821027458685 0 -0.070830210313899522 0.29195808219782299 0 -0.068661557073843291 0.3005821027458685 0 -0.070830210313899522 0.29195808219782299 0 -0.068661557073843291 0.3005821027458685 0 -0.070830210313899522 0.29195808219782299 0 -0.059610011597539182 0.29372125904316332 0 -0.086145563619835275 0.2816538088019015 0 -0.070830210313899522 0.29195808219782299 0 -0.077256670317037021 0.26667642926106078 0 -0.070830210313899522 0.29195808219782299 0 -0.067453711470644842 0.27023673344429472 0 -0.070830210313899522 0.29195808219782299 0 -0.077256670317037021 0.26667642926106078 0 -0.070830210313899522 0.29195808219782299 0 -0.067453711470644842 0.27023673344429472 0 -0.077256670317037021 0.26667642926106078 0 -0.086145563619835275 0.2816538088019015 0 -0.077256670317037021 0.26667642926106078 0 -0.092613028744971265 0.26767711662392979 0 -0.1001789302111205 0.27974269320078388 0 -0.086145563619835275 0.2816538088019015 0 -0.092613028744971265 0.26767711662392979 0 -0.077256670317037021 0.26667642926106078 0 -0.086302411784292182 0.25447467192259482 0 -0.083666647235009842 0.24139059785004849 0 -0.077256670317037021 0.26667642926106078 0 -0.083666647235009842 0.24139059785004849 0 -0.10005120432924321 0.25626016583208688 0 -0.086302411784292182 0.25447467192259482 0 -0.094679029848152713 0.24609146959404629 0 -0.10005120432924321 0.25626016583208688 0 -0.092613028744971265 0.26767711662392979 0 -0.086302411784292182 0.25447467192259482 0 -0.077256670317037021 0.26667642926106078 0 -0.092613028744971265 0.26767711662392979 0 -0.086302411784292182 0.25447467192259482 0 -0.077256670317037021 0.26667642926106078 0 -0.064077212627390134 0.24851538469076631 0 -0.083666647235009842 0.24139059785004849 0 -0.067453711470644842 0.27023673344429472 0 -0.077256670317037021 0.26667642926106078 0 -0.064077212627390134 0.24851538469076631 0 -0.067453711470644842 0.27023673344429472 0 -0.064077212627390134 0.24851538469076631 0 -0.067453711470644842 0.27023673344429472 0 -0.04634179854296408 0.26632715615711849 0 -0.064077212627390134 0.24851538469076631 0 -0.04634179854296408 0.26632715615711849 0 -0.064077212627390134 0.24851538469076631 0 -0.046578861792199937 0.24361118962503389 0 -0.067453711470644842 0.27023673344429472 0 -0.04634179854296408 0.26632715615711849 0 -0.052574645638654917 0.28480468584225688 0 -0.04634179854296408 0.26632715615711849 0 -0.034380640920947357 0.29211323654426968 0 -0.052574645638654917 0.28480468584225688 0 -0.04634179854296408 0.26632715615711849 0 -0.022607631921228569 0.27169805167723737 0 -0.034380640920947357 0.29211323654426968 0 -0.04634179854296408 0.26632715615711849 0 -0.03068766995985707 0.25286978792993342 0 -0.022607631921228569 0.27169805167723737 0 -0.04634179854296408 0.26632715615711849 0 -0.03068766995985707 0.25286978792993342 0 -0.046578861792199937 0.24361118962503389 0 -0.03068766995985707 0.25286978792993342 0 -0.022607631921228569 0.27169805167723737 0 -0.0098044441781452579 0.25473951632571468 0 -0.022607631921228569 0.27169805167723737 0 -0.015153941911089409 0.29208252597919021 0 3.3590645499582607e-05 0.27236849017123349 0 -0.022607631921228569 0.27169805167723737 0 -0.0098044441781452579 0.25473951632571468 0 3.3590645499582607e-05 0.27236849017123349 0 -0.0098044441781452579 0.25473951632571468 0 0.0073806355134042019 0.25529449578482938 0 3.3590645499582607e-05 0.27236849017123349 0 -0.0088759444352828343 0.31092800175718183 0 -0.015153941911089409 0.29208252597919021 0 0.0083336089875100904 0.29343585490586271 0 -0.015153941911089409 0.29208252597919021 0 0.0083336089875100904 0.29343585490586271 0 3.3590645499582607e-05 0.27236849017123349 0 -0.022607631921228569 0.27169805167723737 0 -0.015153941911089409 0.29208252597919021 0 -0.034380640920947357 0.29211323654426968 0 -0.0088759444352828343 0.31092800175718183 0 -0.015153941911089409 0.29208252597919021 0 -0.03508050583840458 0.3127012881250415 0 -0.015153941911089409 0.29208252597919021 0 -0.034380640920947357 0.29211323654426968 0 -0.03508050583840458 0.3127012881250415 0 -0.034380640920947357 0.29211323654426968 0 -0.054647974243728172 0.30430181459310768 0 -0.034380640920947357 0.29211323654426968 0 -0.054647974243728172 0.30430181459310768 0 -0.03508050583840458 0.3127012881250415 0 -0.034380640920947357 0.29211323654426968 0 -0.052574645638654917 0.28480468584225688 0 -0.054647974243728172 0.30430181459310768 0 -0.052574645638654917 0.28480468584225688 0 -0.059610011597539182 0.29372125904316332 0 -0.054647974243728172 0.30430181459310768 0 -0.070830210313899522 0.29195808219782299 0 -0.052574645638654917 0.28480468584225688 0 -0.059610011597539182 0.29372125904316332 0 -0.068661557073843291 0.3005821027458685 0 -0.059610011597539182 0.29372125904316332 0 -0.054647974243728172 0.30430181459310768 0 -0.058679851530075752 0.32054224196392622 0 -0.045885169747561752 0.33132665820789581 0 -0.073191842414501496 0.33174208285196288 0 -0.054647974243728172 0.30430181459310768 0 -0.058679851530075752 0.32054224196392622 0 -0.03508050583840458 0.3127012881250415 0 -0.045885169747561752 0.33132665820789581 0 -0.067541502003893042 0.3482616942848048 0 -0.073191842414501496 0.33174208285196288 0 -0.045885169747561752 0.33132665820789581 0 -0.073191842414501496 0.33174208285196288 0 -0.045885169747561752 0.33132665820789581 0 -0.018578497080621779 0.33091123356382868 0 -0.045885169747561752 0.33132665820789581 0 -0.03508050583840458 0.3127012881250415 0 -0.018578497080621779 0.33091123356382868 0 -0.058679851530075752 0.32054224196392622 0 -0.045885169747561752 0.33132665820789581 0 -0.03508050583840458 0.3127012881250415 0 -0.0088759444352828343 0.31092800175718183 0 -0.03508050583840458 0.3127012881250415 0 -0.018578497080621779 0.33091123356382868 0 -0.018578497080621779 0.33091123356382868 0 -0.0050552824635438226 0.34569829691311771 0 -0.02749858990914332 0.35301881799134821 0 -0.045885169747561752 0.33132665820789581 0 -0.018578497080621779 0.33091123356382868 0 -0.02749858990914332 0.35301881799134821 0 -0.018578497080621779 0.33091123356382868 0 -0.0050552824635438226 0.34569829691311771 0 0.0064742168078369342 0.3347740657525386 0 -0.018578497080621779 0.33091123356382868 0 0.0087281755863181168 0.33049580891976171 0 -0.018578497080621779 0.33091123356382868 0 0.0064742168078369342 0.3347740657525386 0 0.0087281755863181168 0.33049580891976171 0 -0.018578497080621779 0.33091123356382868 0 -0.003280447873963227 0.32161399115684158 0 0.0087281755863181168 0.33049580891976171 0 -0.0088759444352828343 0.31092800175718183 0 -0.018578497080621779 0.33091123356382868 0 -0.003280447873963227 0.32161399115684158 0 -0.0088759444352828343 0.31092800175718183 0 -0.003280447873963227 0.32161399115684158 0 0.0056044744337335906 0.31412092038659428 0 -0.0052616759920083916 0.36132776784546622 0 -0.0045342830833226501 0.3863935686212247 0 -0.0052616759920083916 0.36132776784546622 0 -0.024169526760701381 0.37267007813580277 0 -0.0045342830833226501 0.3863935686212247 0 -0.0052616759920083916 0.36132776784546622 0 -0.0045342830833226501 0.3863935686212247 0 0.0079023355216259559 0.37348921158265391 0 -0.0052616759920083916 0.36132776784546622 0 -0.0050552824635438226 0.34569829691311771 0 0.0061318462344260851 0.35417601161121459 0 -0.0052616759920083916 0.36132776784546622 0 -0.0050552824635438226 0.34569829691311771 0 -0.02749858990914332 0.35301881799134821 0 -0.02749858990914332 0.35301881799134821 0 -0.024169526760701381 0.37267007813580277 0 -0.04149310004589906 0.37124785083274592 0 -0.0052616759920083916 0.36132776784546622 0 -0.02749858990914332 0.35301881799134821 0 -0.024169526760701381 0.37267007813580277 0 -0.02749858990914332 0.35301881799134821 0 -0.04149310004589906 0.37124785083274592 0 -0.051818441616049399 0.35735321764765782 0 -0.045885169747561752 0.33132665820789581 0 -0.02749858990914332 0.35301881799134821 0 -0.051818441616049399 0.35735321764765782 0 -0.045885169747561752 0.33132665820789581 0 -0.051818441616049399 0.35735321764765782 0 -0.067541502003893042 0.3482616942848048 0 -0.04149310004589906 0.37124785083274592 0 -0.051818441616049399 0.35735321764765782 0 -0.056875823715872062 0.37631267096962301 0 -0.051818441616049399 0.35735321764765782 0 -0.069616273344600341 0.3650636543096733 0 -0.056875823715872062 0.37631267096962301 0 -0.069616273344600341 0.3650636543096733 0 -0.085055645225370236 0.37193713089684588 0 -0.071788917171084016 0.3809272333041443 0 -0.069616273344600341 0.3650636543096733 0 -0.071788917171084016 0.3809272333041443 0 -0.056875823715872062 0.37631267096962301 0 -0.069616273344600341 0.3650636543096733 0 -0.085055645225370236 0.37193713089684588 0 -0.084100884505446297 0.3554636863979832 0 -0.085055645225370236 0.37193713089684588 0 -0.084100884505446297 0.3554636863979832 0 -0.1008292236537022 0.36036332390371462 0 -0.084100884505446297 0.3554636863979832 0 -0.067541502003893042 0.3482616942848048 0 -0.085709514220790303 0.34113927750747819 0 -0.084100884505446297 0.3554636863979832 0 -0.085709514220790303 0.34113927750747819 0 -0.099722393067727538 0.34687368244968458 0 -0.069616273344600341 0.3650636543096733 0 -0.084100884505446297 0.3554636863979832 0 -0.067541502003893042 0.3482616942848048 0 -0.051818441616049399 0.35735321764765782 0 -0.069616273344600341 0.3650636543096733 0 -0.067541502003893042 0.3482616942848048 0 -0.067541502003893042 0.3482616942848048 0 -0.073191842414501496 0.33174208285196288 0 -0.085709514220790303 0.34113927750747819 0 -0.058679851530075752 0.32054224196392622 0 -0.073191842414501496 0.33174208285196288 0 -0.074915307566508993 0.31649039264194578 0 -0.054647974243728172 0.30430181459310768 0 -0.058679851530075752 0.32054224196392622 0 -0.074915307566508993 0.31649039264194578 0 -0.073191842414501496 0.33174208285196288 0 -0.074915307566508993 0.31649039264194578 0 -0.095182640889289766 0.32867897069078372 0 -0.090928135519314904 0.31087631578889069 0 -0.074915307566508993 0.31649039264194578 0 -0.095182640889289766 0.32867897069078372 0 -0.074915307566508993 0.31649039264194578 0 -0.095182640889289766 0.32867897069078372 0 -0.073191842414501496 0.33174208285196288 0 -0.085709514220790303 0.34113927750747819 0 -0.095182640889289766 0.32867897069078372 0 -0.085709514220790303 0.34113927750747819 0 -0.095182640889289766 0.32867897069078372 0 -0.099722393067727538 0.34687368244968458 0 -0.095182640889289766 0.32867897069078372 0 -0.1154499742120704 0.34086754873962172 0 -0.095182640889289766 0.32867897069078372 0 -0.1098512680755149 0.32470257897991811 0 -0.1154499742120704 0.34086754873962172 0 -0.095182640889289766 0.32867897069078372 0 -0.1154499742120704 0.34086754873962172 0 -0.099722393067727538 0.34687368244968458 0 -0.1061991548417472 0.31213959050036899 0 -0.090928135519314904 0.31087631578889069 0 -0.095182640889289766 0.32867897069078372 0 -0.1061991548417472 0.31213959050036899 0 -0.095182640889289766 0.32867897069078372 0 -0.1098512680755149 0.32470257897991811 0 -0.1061991548417472 0.31213959050036899 0 -0.115330384384618 0.31728312261503783 0 -0.1098512680755149 0.32470257897991811 0 -0.12136448477009221 0.30951812845445109 0 -0.1061991548417472 0.31213959050036899 0 -0.115330384384618 0.31728312261503783 0 -0.115330384384618 0.31728312261503783 0 -0.1098512680755149 0.32470257897991811 0 -0.12142985306419619 0.32461006626398298 0 -0.12722248981549561 0.3181430308760943 0 -0.115330384384618 0.31728312261503783 0 -0.12142985306419619 0.32461006626398298 0 -0.12722248981549561 0.3181430308760943 0 -0.12136448477009221 0.30951812845445109 0 -0.115330384384618 0.31728312261503783 0 -0.1098512680755149 0.32470257897991811 0 -0.12142985306419619 0.32461006626398298 0 -0.1154499742120704 0.34086754873962172 0 -0.13363790056006589 0.32585743918209531 0 -0.12142985306419619 0.32461006626398298 0 -0.1154499742120704 0.34086754873962172 0 -0.12523428666698541 0.37069662222368049 0 -0.1294360936135257 0.3482770307028879 0 -0.1154159689866658 0.35521970897278921 0 -0.1154499742120704 0.34086754873962172 0 -0.1154159689866658 0.35521970897278921 0 -0.099722393067727538 0.34687368244968458 0 -0.1294360936135257 0.3482770307028879 0 -0.1154499742120704 0.34086754873962172 0 -0.1154159689866658 0.35521970897278921 0 -0.12523428666698541 0.37069662222368049 0 -0.1154159689866658 0.35521970897278921 0 -0.11117961403065831 0.36839673047223442 0 -0.12523428666698541 0.37069662222368049 0 -0.11117961403065831 0.36839673047223442 0 -0.1123930043347208 0.38073562172137532 0 -0.11117961403065831 0.36839673047223442 0 -0.1008292236537022 0.36036332390371462 0 -0.09970079949094271 0.37763208900548878 0 -0.1154159689866658 0.35521970897278921 0 -0.11117961403065831 0.36839673047223442 0 -0.1008292236537022 0.36036332390371462 0 -0.085055645225370236 0.37193713089684588 0 -0.1008292236537022 0.36036332390371462 0 -0.09970079949094271 0.37763208900548878 0 -0.084100884505446297 0.3554636863979832 0 -0.1008292236537022 0.36036332390371462 0 -0.099722393067727538 0.34687368244968458 0 -0.1154159689866658 0.35521970897278921 0 -0.1008292236537022 0.36036332390371462 0 -0.099722393067727538 0.34687368244968458 0 -0.1036554482544351 0.39516830989393792 0 -0.1102807352191843 0.41378788895710661 0 -0.09259379641793411 0.40948313349934218 0 -0.1036554482544351 0.39516830989393792 0 -0.09970079949094271 0.37763208900548878 0 -0.1123930043347208 0.38073562172137532 0 -0.1036554482544351 0.39516830989393792 0 -0.09970079949094271 0.37763208900548878 0 -0.084297773186445962 0.39217279846007119 0 -0.11117961403065831 0.36839673047223442 0 -0.09970079949094271 0.37763208900548878 0 -0.1123930043347208 0.38073562172137532 0 -0.12523428666698541 0.37069662222368049 0 -0.1123930043347208 0.38073562172137532 0 -0.12103247972044499 0.39311621374447298 0 -0.1036554482544351 0.39516830989393792 0 -0.1123930043347208 0.38073562172137532 0 -0.12103247972044499 0.39311621374447298 0 -0.12523428666698541 0.37069662222368049 0 -0.12103247972044499 0.39311621374447298 0 -0.1036554482544351 0.39516830989393792 0 -0.12103247972044499 0.39311621374447298 0 -0.1102807352191843 0.41378788895710661 0 -0.12997925716256209 0.39431640422262348 0 -0.1102807352191843 0.41378788895710661 0 -0.12997925716256209 0.39431640422262348 0 -0.12103247972044499 0.39311621374447298 0 -0.1102807352191843 0.41378788895710661 0 -0.12623023605756489 0.41143854881348008 0 -0.1102807352191843 0.41378788895710661 0 -0.1242188050129694 0.42501783294758849 0 -0.12623023605756489 0.41143854881348008 0 -0.12997925716256209 0.39431640422262348 0 -0.1102807352191843 0.41378788895710661 0 -0.1102807352191843 0.41378788895710661 0 -0.1104760497445479 0.43296770510105842 0 -0.1242188050129694 0.42501783294758849 0 -0.1104760497445479 0.43296770510105842 0 -0.1242188050129694 0.42501783294758849 0 -0.1248743097581413 0.44162978393037222 0 -0.1102807352191843 0.41378788895710661 0 -0.090582213275806372 0.43325937369158968 0 -0.1102807352191843 0.41378788895710661 0 -0.1104760497445479 0.43296770510105842 0 -0.090582213275806372 0.43325937369158968 0 -0.1102807352191843 0.41378788895710661 0 -0.09259379641793411 0.40948313349934218 0 -0.090582213275806372 0.43325937369158968 0 -0.09259379641793411 0.40948313349934218 0 -0.090582213275806372 0.43325937369158968 0 -0.074152812153798875 0.41302729649400538 0 -0.090582213275806372 0.43325937369158968 0 -0.066022972602334681 0.42956105407568013 0 -0.074152812153798875 0.41302729649400538 0 -0.066022972602334681 0.42956105407568013 0 -0.074152812153798875 0.41302729649400538 0 -0.049329429094603867 0.41198700835812702 0 -0.074152812153798875 0.41302729649400538 0 -0.063154715464804681 0.39516467689365731 0 -0.084297773186445962 0.39217279846007119 0 -0.09259379641793411 0.40948313349934218 0 -0.074152812153798875 0.41302729649400538 0 -0.084297773186445962 0.39217279846007119 0 -0.1036554482544351 0.39516830989393792 0 -0.09259379641793411 0.40948313349934218 0 -0.084297773186445962 0.39217279846007119 0 -0.085055645225370236 0.37193713089684588 0 -0.09970079949094271 0.37763208900548878 0 -0.084297773186445962 0.39217279846007119 0 -0.085055645225370236 0.37193713089684588 0 -0.084297773186445962 0.39217279846007119 0 -0.071788917171084016 0.3809272333041443 0 -0.063154715464804681 0.39516467689365731 0 -0.084297773186445962 0.39217279846007119 0 -0.071788917171084016 0.3809272333041443 0 -0.063154715464804681 0.39516467689365731 0 -0.071788917171084016 0.3809272333041443 0 -0.056875823715872062 0.37631267096962301 0 -0.04149310004589906 0.37124785083274592 0 -0.056875823715872062 0.37631267096962301 0 -0.04338349465279491 0.38811939282985902 0 -0.063154715464804681 0.39516467689365731 0 -0.056875823715872062 0.37631267096962301 0 -0.04338349465279491 0.38811939282985902 0 -0.063154715464804681 0.39516467689365731 0 -0.04338349465279491 0.38811939282985902 0 -0.049329429094603867 0.41198700835812702 0 -0.04338349465279491 0.38811939282985902 0 -0.024844401122877391 0.39948633252540261 0 -0.049329429094603867 0.41198700835812702 0 -0.024169526760701381 0.37267007813580277 0 -0.04149310004589906 0.37124785083274592 0 -0.04338349465279491 0.38811939282985902 0 -0.024169526760701381 0.37267007813580277 0 -0.04338349465279491 0.38811939282985902 0 -0.024844401122877391 0.39948633252540261 0 -0.024169526760701381 0.37267007813580277 0 -0.024844401122877391 0.39948633252540261 0 -0.0045342830833226501 0.3863935686212247 0 -0.024844401122877391 0.39948633252540261 0 -0.0045342830833226501 0.3863935686212247 0 -0.0038092142255275289 0.41137928311071797 0 -0.0045342830833226501 0.3863935686212247 0 -0.0038092142255275289 0.41137928311071797 0 -0.024169526760701381 0.37267007813580277 0 -0.0045342830833226501 0.3863935686212247 0 -0.0030841453677343121 0.43636499760021141 0 -0.0038092142255275289 0.41137928311071797 0 -0.026324668085478481 0.42779129271708288 0 -0.0030841453677343121 0.43636499760021141 0 -0.0038092142255275289 0.41137928311071797 0 -0.024844401122877391 0.39948633252540261 0 -0.0038092142255275289 0.41137928311071797 0 -0.026324668085478481 0.42779129271708288 0 -0.026324668085478481 0.42779129271708288 0 -0.049329429094603867 0.41198700835812702 0 -0.049413859365407042 0.43472239834070731 0 -0.024844401122877391 0.39948633252540261 0 -0.026324668085478481 0.42779129271708288 0 -0.049329429094603867 0.41198700835812702 0 -0.074152812153798875 0.41302729649400538 0 -0.063154715464804681 0.39516467689365731 0 -0.049329429094603867 0.41198700835812702 0 -0.066022972602334681 0.42956105407568013 0 -0.049329429094603867 0.41198700835812702 0 -0.049413859365407042 0.43472239834070731 0 -0.066022972602334681 0.42956105407568013 0 -0.049413859365407042 0.43472239834070731 0 -0.0708836913324285 0.45273085842607269 0 -0.0393713920190637 0.45112048084748302 0 -0.052402143273794041 0.47435943831340011 0 -0.0708836913324285 0.45273085842607269 0 -0.049413859365407042 0.43472239834070731 0 -0.0393713920190637 0.45112048084748302 0 -0.0708836913324285 0.45273085842607269 0 -0.0393713920190637 0.45112048084748302 0 -0.02876560419008364 0.47203163756026523 0 -0.052402143273794041 0.47435943831340011 0 -0.026324668085478481 0.42779129271708288 0 -0.049413859365407042 0.43472239834070731 0 -0.0393713920190637 0.45112048084748302 0 -0.0030841453677343121 0.43636499760021141 0 -0.026324668085478481 0.42779129271708288 0 -0.01888650882967766 0.45329231687868837 0 -0.026324668085478481 0.42779129271708288 0 -0.0393713920190637 0.45112048084748302 0 -0.01888650882967766 0.45329231687868837 0 -0.0393713920190637 0.45112048084748302 0 -0.01888650882967766 0.45329231687868837 0 -0.02876560419008364 0.47203163756026523 0 -0.01888650882967766 0.45329231687868837 0 -0.01341416680576474 0.47109478045738301 0 -0.02876560419008364 0.47203163756026523 0 -0.01888650882967766 0.45329231687868837 0 -0.002359076509941094 0.46135071208970457 0 -0.01341416680576474 0.47109478045738301 0 -0.0030841453677343121 0.43636499760021141 0 -0.01888650882967766 0.45329231687868837 0 -0.002359076509941094 0.46135071208970457 0 -0.0030841453677343121 0.43636499760021141 0 -0.002359076509941094 0.46135071208970457 0 -0.0090346539348886701 0.5 0 -0.0016340076521478781 0.48633642657919801 0 -0.017460482120078509 0.48648722646036041 0 -0.0016340076521478781 0.48633642657919801 0 -0.01341416680576474 0.47109478045738301 0 -0.017460482120078509 0.48648722646036041 0 -0.002359076509941094 0.46135071208970457 0 -0.0016340076521478781 0.48633642657919801 0 -0.01341416680576474 0.47109478045738301 0 -0.002359076509941094 0.46135071208970457 0 -0.0016340076521478781 0.48633642657919801 0 -0.002359076509941094 0.46135071208970457 0 -0.0016340076521478781 0.48633642657919801 0 0.0036787250480955699 0.47408322248379448 0 -0.01341416680576474 0.47109478045738301 0 -0.02876560419008364 0.47203163756026523 0 -0.017460482120078509 0.48648722646036041 0 -0.02876560419008364 0.47203163756026523 0 -0.017460482120078509 0.48648722646036041 0 -0.038135422162237087 0.5 0 -0.0090346539348886701 0.5 0 -0.017460482120078509 0.48648722646036041 0 -0.038135422162237087 0.5 0 -0.02876560419008364 0.47203163756026523 0 -0.038135422162237087 0.5 0 -0.052402143273794041 0.47435943831340011 0 -0.038135422162237087 0.5 0 -0.052402143273794041 0.47435943831340011 0 -0.067236190389585393 0.5 0 -0.052402143273794041 0.47435943831340011 0 -0.067236190389585393 0.5 0 -0.073349005429332273 0.47921852398434828 0 -0.067236190389585393 0.5 0 -0.073349005429332273 0.47921852398434828 0 -0.096336958616933588 0.5 0 -0.073349005429332273 0.47921852398434828 0 -0.096336958616933588 0.5 0 -0.093805091172543903 0.47224368257650851 0 -0.052402143273794041 0.47435943831340011 0 -0.073349005429332273 0.47921852398434828 0 -0.0708836913324285 0.45273085842607269 0 -0.0708836913324285 0.45273085842607269 0 -0.1043361340672995 0.45358667135048331 0 -0.093805091172543903 0.47224368257650851 0 -0.090582213275806372 0.43325937369158968 0 -0.0708836913324285 0.45273085842607269 0 -0.1043361340672995 0.45358667135048331 0 -0.090582213275806372 0.43325937369158968 0 -0.066022972602334681 0.42956105407568013 0 -0.0708836913324285 0.45273085842607269 0 -0.090582213275806372 0.43325937369158968 0 -0.0708836913324285 0.45273085842607269 0 -0.073349005429332273 0.47921852398434828 0 -0.0708836913324285 0.45273085842607269 0 -0.093805091172543903 0.47224368257650851 0 -0.1043361340672995 0.45358667135048331 0 -0.12052644250191399 0.4682622397032008 0 -0.093805091172543903 0.47224368257650851 0 -0.1104760497445479 0.43296770510105842 0 -0.090582213275806372 0.43325937369158968 0 -0.1043361340672995 0.45358667135048331 0 -0.12618187852634369 0.45882241462805679 0 -0.1043361340672995 0.45358667135048331 0 -0.1248743097581413 0.44162978393037222 0 -0.1104760497445479 0.43296770510105842 0 -0.1043361340672995 0.45358667135048331 0 -0.1248743097581413 0.44162978393037222 0 -0.12618187852634369 0.45882241462805679 0 -0.1043361340672995 0.45358667135048331 0 -0.12052644250191399 0.4682622397032008 0 -0.1317912103042716 0.47600940211286807 0 -0.12052644250191399 0.4682622397032008 0 -0.11642361318749669 0.48420448820259387 0 -0.12052644250191399 0.4682622397032008 0 -0.11642361318749669 0.48420448820259387 0 -0.093805091172543903 0.47224368257650851 0 -0.12543772684428189 0.5 0 -0.11642361318749669 0.48420448820259387 0 -0.096336958616933588 0.5 0 -0.12543772684428189 0.5 0 -0.13178312884530541 0.48627570230508688 0 -0.11642361318749669 0.48420448820259387 0 -0.11642361318749669 0.48420448820259387 0 -0.096336958616933588 0.5 0 -0.093805091172543903 0.47224368257650851 0 -0.1693268494853358 0.079538523923443544 0 -0.16945340910355561 0.089496265134995978 0 -0.1618062267740645 0.07958177760614682 0 -0.16945340910355561 0.089496265134995978 0 -0.1618062267740645 0.07958177760614682 0 -0.1616157516695074 0.095139316102685473 0 -0.1618062267740645 0.07958177760614682 0 -0.1616157516695074 0.095139316102685473 0 -0.14767322655010931 0.084806545451415583 0 -0.1618062267740645 0.07958177760614682 0 -0.16640070467345031 0.07104807823334372 0 -0.15517576509654349 0.068304766057398533 0 -0.16640070467345031 0.07104807823334372 0 -0.15517576509654349 0.068304766057398533 0 -0.16451238623864939 0.061110077383343737 0 -0.16640070467345031 0.07104807823334372 0 -0.17354141001077031 0.063798093567348918 0 -0.16451238623864939 0.061110077383343737 0 -0.17157411485926041 0.074087910936242465 0 -0.16640070467345031 0.07104807823334372 0 -0.17354141001077031 0.063798093567348918 0 -0.1693268494853358 0.079538523923443544 0 -0.17157411485926041 0.074087910936242465 0 -0.16640070467345031 0.07104807823334372 0 -0.1693268494853358 0.079538523923443544 0 -0.1618062267740645 0.07958177760614682 0 -0.16640070467345031 0.07104807823334372 0 -0.17354141001077031 0.063798093567348918 0 -0.17702749526748529 0.081966948020833708 0 -0.17656426821359539 0.052679136019797047 0 -0.18185637422210199 0.067243003367259677 0 -0.17702749526748529 0.081966948020833708 0 -0.17656426821359539 0.052679136019797047 0 -0.17702749526748529 0.081966948020833708 0 -0.17656426821359539 0.052679136019797047 0 -0.17157411485926041 0.074087910936242465 0 -0.17354141001077031 0.063798093567348918 0 -0.17702749526748529 0.081966948020833708 0 -0.18185637422210199 0.067243003367259677 0 -0.1853153676200878 0.058850167416455039 0 -0.18892740292417859 0.064703221589215376 0 -0.18185637422210199 0.067243003367259677 0 -0.19050021368002351 0.072419239531055349 0 -0.18892740292417859 0.064703221589215376 0 -0.18185637422210199 0.067243003367259677 0 -0.18141962227324601 0.075216957450553817 0 -0.17702749526748529 0.081966948020833708 0 -0.18185637422210199 0.067243003367259677 0 -0.18141962227324601 0.075216957450553817 0 -0.19050021368002351 0.072419239531055349 0 -0.18141962227324601 0.075216957450553817 0 -0.1867192510276118 0.077748512173410014 0 -0.19050021368002351 0.072419239531055349 0 -0.18141962227324601 0.075216957450553817 0 -0.1867192510276118 0.077748512173410014 0 -0.1819129998543452 0.079414551687582866 0 -0.18248563084903771 0.082725789105533951 0 -0.17702749526748529 0.081966948020833708 0 -0.17749072232138041 0.1112547600218704 0 -0.1867192510276118 0.077748512173410014 0 -0.18248563084903771 0.082725789105533951 0 -0.1819129998543452 0.079414551687582866 0 -0.18141962227324601 0.075216957450553817 0 -0.1819129998543452 0.079414551687582866 0 -0.17702749526748529 0.081966948020833708 0 -0.18248563084903771 0.082725789105533951 0 -0.1819129998543452 0.079414551687582866 0 -0.17702749526748529 0.081966948020833708 0 -0.1693268494853358 0.079538523923443544 0 -0.16945340910355561 0.089496265134995978 0 -0.17702749526748529 0.081966948020833708 0 -0.1693268494853358 0.079538523923443544 0 -0.17157411485926041 0.074087910936242465 0 -0.17702749526748529 0.081966948020833708 0 -0.17702749526748529 0.081966948020833708 0 -0.17749072232138041 0.1112547600218704 0 -0.16945340910355561 0.089496265134995978 0 -0.17702749526748529 0.081966948020833708 0 -0.17749072232138041 0.1112547600218704 0 -0.17749072232138041 0.1112547600218704 0 -0.1951643137470572 0.093770439387570487 0 -0.18248563084903771 0.082725789105533951 0 -0.17749072232138041 0.1112547600218704 0 -0.1951643137470572 0.093770439387570487 0 -0.17749072232138041 0.1112547600218704 0 -0.19150979458678249 0.1243728737611647 0 -0.17789558253256721 0.1368522929207025 0 -0.17749072232138041 0.1112547600218704 0 -0.17789558253256721 0.1368522929207025 0 -0.17749072232138041 0.1112547600218704 0 -0.16113979031376621 0.12743058591966341 0 -0.17749072232138041 0.1112547600218704 0 -0.15084139672814201 0.110160429760413 0 -0.16113979031376621 0.12743058591966341 0 -0.17749072232138041 0.1112547600218704 0 -0.1616157516695074 0.095139316102685473 0 -0.15084139672814201 0.110160429760413 0 -0.16945340910355561 0.089496265134995978 0 -0.17749072232138041 0.1112547600218704 0 -0.1616157516695074 0.095139316102685473 0 -0.1616157516695074 0.095139316102685473 0 -0.15084139672814201 0.110160429760413 0 -0.14767322655010931 0.084806545451415583 0 -0.15084139672814201 0.110160429760413 0 -0.1348328660863515 0.097215266237156234 0 -0.14767322655010931 0.084806545451415583 0 -0.15084139672814201 0.110160429760413 0 -0.13137241316615089 0.11357835761918721 0 -0.14300315410871919 0.1253406317882016 0 -0.15084139672814201 0.110160429760413 0 -0.16113979031376621 0.12743058591966341 0 -0.14300315410871919 0.1253406317882016 0 -0.13137241316615089 0.11357835761918721 0 -0.14300315410871919 0.1253406317882016 0 -0.12687331202938101 0.13192737382428379 0 -0.13137241316615089 0.11357835761918721 0 -0.1348328660863515 0.097215266237156234 0 -0.1198812247159142 0.095002477965890675 0 -0.15084139672814201 0.110160429760413 0 -0.13137241316615089 0.11357835761918721 0 -0.1348328660863515 0.097215266237156234 0 -0.1348328660863515 0.097215266237156234 0 -0.12533951967512769 0.078274991835817334 0 -0.1198812247159142 0.095002477965890675 0 -0.1348328660863515 0.097215266237156234 0 -0.12533951967512769 0.078274991835817334 0 -0.14767322655010931 0.084806545451415583 0 -0.1618062267740645 0.07958177760614682 0 -0.14767322655010931 0.084806545451415583 0 -0.15517576509654349 0.068304766057398533 0 -0.14767322655010931 0.084806545451415583 0 -0.15517576509654349 0.068304766057398533 0 -0.14001017723872511 0.063978020277280875 0 -0.12533951967512769 0.078274991835817334 0 -0.14767322655010931 0.084806545451415583 0 -0.14001017723872511 0.063978020277280875 0 -0.12533951967512769 0.078274991835817334 0 -0.14001017723872511 0.063978020277280875 0 -0.1248745965026067 0.059896082918310993 0 -0.14001017723872511 0.063978020277280875 0 -0.13626681081840961 0.042829268155062397 0 -0.1248745965026067 0.059896082918310993 0 -0.13626681081840961 0.042829268155062397 0 -0.1339340902388827 0.022300844741854581 0 -0.1180188049733784 0.030804183747700629 0 -0.13626681081840961 0.042829268155062397 0 -0.1339340902388827 0.022300844741854581 0 -0.15968783393996419 0.037567277286728401 0 -0.13626681081840961 0.042829268155062397 0 -0.15351002702878311 0.053877414325468623 0 -0.15968783393996419 0.037567277286728401 0 -0.13626681081840961 0.042829268155062397 0 -0.15968783393996419 0.037567277286728401 0 -0.14001017723872511 0.063978020277280875 0 -0.13626681081840961 0.042829268155062397 0 -0.15351002702878311 0.053877414325468623 0 -0.15517576509654349 0.068304766057398533 0 -0.14001017723872511 0.063978020277280875 0 -0.15351002702878311 0.053877414325468623 0 -0.12735709500343681 0.004015926865657337 0 -0.15177498865293759 0.016606981474429749 0 -0.12735709500343681 0.004015926865657337 0 -0.1339340902388827 0.022300844741854581 0 -0.15177498865293759 0.016606981474429749 0 -0.12735709500343681 0.004015926865657337 0 -0.1339340902388827 0.022300844741854581 0 -0.11835839359799651 0.016938700943610479 0 -0.1339340902388827 0.022300844741854581 0 -0.15177498865293759 0.016606981474429749 0 -0.15968783393996419 0.037567277286728401 0 -0.1339340902388827 0.022300844741854581 0 -0.15968783393996419 0.037567277286728401 0 -0.12735709500343681 0.004015926865657337 0 -0.15177498865293759 0.016606981474429749 0 -0.14801408494475049 0.0031182785745780331 0 -0.15177498865293759 0.016606981474429749 0 -0.14801408494475049 0.0031182785745780331 0 -0.1619193683370386 0.0066468078375689294 0 -0.15773416148281841 -0.0035868741371463562 0 -0.14801408494475049 0.0031182785745780331 0 -0.1619193683370386 0.0066468078375689294 0 -0.15177498865293759 0.016606981474429749 0 -0.1619193683370386 0.0066468078375689294 0 -0.16760309597538539 0.015861310899326669 0 -0.16716832075785379 -0.0032078365625175 0 -0.1619193683370386 0.0066468078375689294 0 -0.17584419881677341 0.0071523107965592754 0 -0.1619193683370386 0.0066468078375689294 0 -0.16760309597538539 0.015861310899326669 0 -0.17584419881677341 0.0071523107965592754 0 -0.15177498865293759 0.016606981474429749 0 -0.17619288230243149 0.029198036083215671 0 -0.15177498865293759 0.016606981474429749 0 -0.17619288230243149 0.029198036083215671 0 -0.15968783393996419 0.037567277286728401 0 -0.15177498865293759 0.016606981474429749 0 -0.16760309597538539 0.015861310899326669 0 -0.17619288230243149 0.029198036083215671 0 -0.17619288230243149 0.029198036083215671 0 -0.1852069371874478 0.015311100034367831 0 -0.17584419881677341 0.0071523107965592754 0 -0.17619288230243149 0.029198036083215671 0 -0.17584419881677341 0.0071523107965592754 0 -0.16760309597538539 0.015861310899326669 0 -0.17619288230243149 0.029198036083215671 0 -0.17584419881677341 0.0071523107965592754 0 -0.17619288230243149 0.029198036083215671 0 -0.19572946351785711 0.039272048382664133 0 -0.19029700863621521 0.024089069561314659 0 -0.17619288230243149 0.029198036083215671 0 -0.1852069371874478 0.015311100034367831 0 -0.19029700863621521 0.024089069561314659 0 -0.1852069371874478 0.015311100034367831 0 -0.18717715497560061 0.0062623078557712403 0 -0.17584419881677341 0.0071523107965592754 0 -0.18154179604087481 -0.0036104187285780349 0 -0.18717715497560061 0.0062623078557712403 0 -0.17584419881677341 0.0071523107965592754 0 -0.15351002702878311 0.053877414325468623 0 -0.1659033968134131 0.050269055427132232 0 -0.15968783393996419 0.037567277286728401 0 -0.1659033968134131 0.050269055427132232 0 -0.16451238623864939 0.061110077383343737 0 -0.17656426821359539 0.052679136019797047 0 -0.17354141001077031 0.063798093567348918 0 -0.16451238623864939 0.061110077383343737 0 -0.17656426821359539 0.052679136019797047 0 -0.16451238623864939 0.061110077383343737 0 -0.17656426821359539 0.052679136019797047 0 -0.15351002702878311 0.053877414325468623 0 -0.1659033968134131 0.050269055427132232 0 -0.16451238623864939 0.061110077383343737 0 -0.15517576509654349 0.068304766057398533 0 -0.15351002702878311 0.053877414325468623 0 -0.16451238623864939 0.061110077383343737 0 -0.15968783393996419 0.037567277286728401 0 -0.1762663423330757 0.033842591165095401 0 -0.1659033968134131 0.050269055427132232 0 -0.15968783393996419 0.037567277286728401 0 -0.1764827173319595 0.047523031967639129 0 -0.17619288230243149 0.029198036083215671 0 -0.15968783393996419 0.037567277286728401 0 -0.1762663423330757 0.033842591165095401 0 -0.15968783393996419 0.037567277286728401 0 -0.1764827173319595 0.047523031967639129 0 -0.15968783393996419 0.037567277286728401 0 -0.1762663423330757 0.033842591165095401 0 -0.1764827173319595 0.047523031967639129 0 -0.17619288230243149 0.029198036083215671 0 -0.19572946351785711 0.039272048382664133 0 -0.181281627628781 0.040827380692469641 0 -0.18051660755046151 0.049914261515807259 0 -0.1764827173319595 0.047523031967639129 0 -0.17619288230243149 0.029198036083215671 0 -0.1762663423330757 0.033842591165095401 0 -0.19572946351785711 0.039272048382664133 0 -0.1762663423330757 0.033842591165095401 0 -0.181281627628781 0.040827380692469641 0 -0.19572946351785711 0.039272048382664133 0 -0.1762663423330757 0.033842591165095401 0 -0.181281627628781 0.040827380692469641 0 -0.1764827173319595 0.047523031967639129 0 -0.1762663423330757 0.033842591165095401 0 -0.1764827173319595 0.047523031967639129 0 -0.17619288230243149 0.029198036083215671 0 -0.1762663423330757 0.033842591165095401 0 -0.181281627628781 0.040827380692469641 0 -0.18051660755046151 0.049914261515807259 0 -0.19572946351785711 0.039272048382664133 0 -0.18051660755046151 0.049914261515807259 0 -0.17656426821359539 0.052679136019797047 0 -0.1853153676200878 0.058850167416455039 0 -0.18051660755046151 0.049914261515807259 0 -0.1764827173319595 0.047523031967639129 0 -0.1764827173319595 0.047523031967639129 0 -0.17656426821359539 0.052679136019797047 0 -0.1659033968134131 0.050269055427132232 0 -0.1764827173319595 0.047523031967639129 0 -0.17656426821359539 0.052679136019797047 0 -0.18051660755046151 0.049914261515807259 0 -0.1764827173319595 0.047523031967639129 0 -0.17656426821359539 0.052679136019797047 0 -0.18051660755046151 0.049914261515807259 0 -0.17656426821359539 0.052679136019797047 0 -0.18185637422210199 0.067243003367259677 0 -0.17656426821359539 0.052679136019797047 0 -0.1853153676200878 0.058850167416455039 0 -0.1853153676200878 0.058850167416455039 0 -0.19803765617450109 0.060300476042091433 0 -0.18892740292417859 0.064703221589215376 0 -0.18051660755046151 0.049914261515807259 0 -0.19803765617450109 0.060300476042091433 0 -0.1977866825790292 0.05007637869738242 0 -0.18051660755046151 0.049914261515807259 0 -0.1853153676200878 0.058850167416455039 0 -0.19803765617450109 0.060300476042091433 0 -0.18051660755046151 0.049914261515807259 0 -0.19803765617450109 0.060300476042091433 0 -0.19803765617450109 0.060300476042091433 0 -0.1977866825790292 0.05007637869738242 0 -0.2066297839190599 0.054855205218219752 0 -0.18051660755046151 0.049914261515807259 0 -0.1977866825790292 0.05007637869738242 0 -0.19572946351785711 0.039272048382664133 0 -0.18051660755046151 0.049914261515807259 0 -0.19572946351785711 0.039272048382664133 0 -0.19572946351785711 0.039272048382664133 0 -0.2098237389609823 0.029412342647955388 0 -0.1977866825790292 0.05007637869738242 0 -0.19572946351785711 0.039272048382664133 0 -0.2073344650466164 0.045256152092875389 0 -0.19572946351785711 0.039272048382664133 0 -0.2073344650466164 0.045256152092875389 0 -0.2073344650466164 0.045256152092875389 0 -0.21702036639386221 0.038769314305699548 0 -0.2098237389609823 0.029412342647955388 0 -0.19572946351785711 0.039272048382664133 0 -0.2073344650466164 0.045256152092875389 0 -0.2098237389609823 0.029412342647955388 0 -0.21702036639386221 0.038769314305699548 0 -0.2098237389609823 0.029412342647955388 0 -0.2284051488343061 0.035137669629428533 0 -0.2073344650466164 0.045256152092875389 0 -0.21702036639386221 0.038769314305699548 0 -0.22251811273354419 0.045271092852538893 0 -0.2073344650466164 0.045256152092875389 0 -0.21769334509658461 0.055951218203848879 0 -0.22251811273354419 0.045271092852538893 0 -0.21769334509658461 0.055951218203848879 0 -0.20947987249717179 0.060448397508133619 0 -0.2066297839190599 0.054855205218219752 0 -0.21769334509658461 0.055951218203848879 0 -0.20947987249717179 0.060448397508133619 0 -0.2155587047985415 0.070686690568374386 0 -0.19803765617450109 0.060300476042091433 0 -0.20947987249717179 0.060448397508133619 0 -0.2066297839190599 0.054855205218219752 0 -0.1977866825790292 0.05007637869738242 0 -0.2073344650466164 0.045256152092875389 0 -0.2066297839190599 0.054855205218219752 0 -0.2073344650466164 0.045256152092875389 0 -0.21769334509658461 0.055951218203848879 0 -0.2066297839190599 0.054855205218219752 0 -0.1989264366345522 -0.0080023544535597537 0 -0.1965234412062255 0.0098537758749781944 0 -0.20713549204565579 6.5395444916274768e-05 0 -0.19066530249761049 -0.0041303576494283751 0 -0.18717715497560061 0.0062623078557712403 0 -0.1965234412062255 0.0098537758749781944 0 -0.1852069371874478 0.015311100034367831 0 -0.18717715497560061 0.0062623078557712403 0 -0.1965234412062255 0.0098537758749781944 0 -0.1965234412062255 0.0098537758749781944 0 -0.20113962024173071 0.02227838771243261 0 -0.2107847094499361 0.011405203725301251 0 -0.19572946351785711 0.039272048382664133 0 -0.20113962024173071 0.02227838771243261 0 -0.2098237389609823 0.029412342647955388 0 -0.19572946351785711 0.039272048382664133 0 -0.20113962024173071 0.02227838771243261 0 -0.19029700863621521 0.024089069561314659 0 -0.1965234412062255 0.0098537758749781944 0 -0.20113962024173071 0.02227838771243261 0 -0.19029700863621521 0.024089069561314659 0 -0.1852069371874478 0.015311100034367831 0 -0.1965234412062255 0.0098537758749781944 0 -0.19029700863621521 0.024089069561314659 0 -0.2098237389609823 0.029412342647955388 0 -0.2107847094499361 0.011405203725301251 0 -0.22391801440410891 0.019552636913248388 0 -0.20113962024173071 0.02227838771243261 0 -0.2098237389609823 0.029412342647955388 0 -0.2107847094499361 0.011405203725301251 0 -0.2098237389609823 0.029412342647955388 0 -0.22391801440410891 0.019552636913248388 0 -0.21702438745170211 -0.0043907958627755336 0 -0.2107847094499361 0.011405203725301251 0 -0.20713549204565579 6.5395444916274768e-05 0 -0.21702438745170211 -0.0043907958627755336 0 -0.2107847094499361 0.011405203725301251 0 -0.22391801440410891 0.019552636913248388 0 -0.1965234412062255 0.0098537758749781944 0 -0.2107847094499361 0.011405203725301251 0 -0.20713549204565579 6.5395444916274768e-05 0 -0.22867745033346079 0.0038692188645070222 0 -0.22391801440410891 0.019552636913248388 0 -0.2344599051246074 0.012178015861532989 0 -0.21702438745170211 -0.0043907958627755336 0 -0.22391801440410891 0.019552636913248388 0 -0.21702438745170211 -0.0043907958627755336 0 -0.22867745033346079 0.0038692188645070222 0 -0.22391801440410891 0.019552636913248388 0 -0.22391801440410891 0.019552636913248388 0 -0.2403792472176362 0.02548084658656756 0 -0.2344599051246074 0.012178015861532989 0 -0.2098237389609823 0.029412342647955388 0 -0.22391801440410891 0.019552636913248388 0 -0.2284051488343061 0.035137669629428533 0 -0.22391801440410891 0.019552636913248388 0 -0.2403792472176362 0.02548084658656756 0 -0.2284051488343061 0.035137669629428533 0 -0.22391801440410891 0.019552636913248388 0 -0.2344599051246074 0.012178015861532989 0 -0.22391801440410891 0.019552636913248388 0 -0.2284051488343061 0.035137669629428533 0 -0.2522816967992324 0.037264740289820159 0 -0.25157722050270093 0.012682655753942951 0 -0.2403792472176362 0.02548084658656756 0 -0.25157722050270093 0.012682655753942951 0 -0.2403792472176362 0.02548084658656756 0 -0.2344599051246074 0.012178015861532989 0 -0.25267499080189931 -0.0034516002120552492 0 -0.25157722050270093 0.012682655753942951 0 -0.2401015516947359 0.00075261550232862703 0 -0.25157722050270093 0.012682655753942951 0 -0.2344599051246074 0.012178015861532989 0 -0.2401015516947359 0.00075261550232862703 0 -0.22867745033346079 0.0038692188645070222 0 -0.2344599051246074 0.012178015861532989 0 -0.2401015516947359 0.00075261550232862703 0 -0.21769334509658461 0.055951218203848879 0 -0.23255980098598539 0.056775429521547523 0 -0.2155587047985415 0.070686690568374386 0 -0.23289228326450309 0.050722702345608793 0 -0.22641588552015429 0.052180110730886013 0 -0.22251811273354419 0.045271092852538893 0 -0.23289228326450309 0.050722702345608793 0 -0.23255980098598539 0.056775429521547523 0 -0.22641588552015429 0.052180110730886013 0 -0.21769334509658461 0.055951218203848879 0 -0.23255980098598539 0.056775429521547523 0 -0.22641588552015429 0.052180110730886013 0 -0.21769334509658461 0.055951218203848879 0 -0.22641588552015429 0.052180110730886013 0 -0.22251811273354419 0.045271092852538893 0 -0.21702036639386221 0.038769314305699548 0 -0.22251811273354419 0.045271092852538893 0 -0.2284051488343061 0.035137669629428533 0 -0.23289228326450309 0.050722702345608793 0 -0.22251811273354419 0.045271092852538893 0 -0.2284051488343061 0.035137669629428533 0 -0.23289228326450309 0.050722702345608793 0 -0.2284051488343061 0.035137669629428533 0 -0.2522816967992324 0.037264740289820159 0 -0.2403792472176362 0.02548084658656756 0 -0.2284051488343061 0.035137669629428533 0 -0.2522816967992324 0.037264740289820159 0 -0.23289228326450309 0.050722702345608793 0 -0.2284051488343061 0.035137669629428533 0 -0.2522816967992324 0.037264740289820159 0 -0.23289228326450309 0.050722702345608793 0 -0.23255980098598539 0.056775429521547523 0 -0.2522816967992324 0.037264740289820159 0 -0.23255980098598539 0.056775429521547523 0 -0.2522816967992324 0.037264740289820159 0 -0.23255980098598539 0.056775429521547523 0 -0.24906194248509719 0.058488871325365822 0 -0.23255980098598539 0.056775429521547523 0 -0.24906194248509719 0.058488871325365822 0 -0.23770452364983391 0.071010308971772351 0 -0.26257114212692878 0.06573449919026883 0 -0.24906194248509719 0.058488871325365822 0 -0.23770452364983391 0.071010308971772351 0 -0.25261226255175379 0.080423606239198905 0 -0.23770452364983391 0.071010308971772351 0 -0.23158356521460469 0.085326977986282804 0 -0.25261226255175379 0.080423606239198905 0 -0.23158356521460469 0.085326977986282804 0 -0.24377998071086901 0.096378574065869249 0 -0.23158356521460469 0.085326977986282804 0 -0.21283790517273879 0.076286118753275345 0 -0.22135706029896429 0.097751395037259853 0 -0.23158356521460469 0.085326977986282804 0 -0.22135706029896429 0.097751395037259853 0 -0.24377998071086901 0.096378574065869249 0 -0.23255980098598539 0.056775429521547523 0 -0.21283790517273879 0.076286118753275345 0 -0.23770452364983391 0.071010308971772351 0 -0.23158356521460469 0.085326977986282804 0 -0.21283790517273879 0.076286118753275345 0 -0.23255980098598539 0.056775429521547523 0 -0.23770452364983391 0.071010308971772351 0 -0.21283790517273879 0.076286118753275345 0 -0.23255980098598539 0.056775429521547523 0 -0.21283790517273879 0.076286118753275345 0 -0.2155587047985415 0.070686690568374386 0 -0.23770452364983391 0.071010308971772351 0 -0.21283790517273879 0.076286118753275345 0 -0.19803765617450109 0.060300476042091433 0 -0.20947987249717179 0.060448397508133619 0 -0.2155587047985415 0.070686690568374386 0 -0.19803765617450109 0.060300476042091433 0 -0.20333782300263301 0.070680183335342567 0 -0.2155587047985415 0.070686690568374386 0 -0.19803765617450109 0.060300476042091433 0 -0.2155587047985415 0.070686690568374386 0 -0.21283790517273879 0.076286118753275345 0 -0.19766176801088831 0.079505953929404904 0 -0.20333782300263301 0.070680183335342567 0 -0.21283790517273879 0.076286118753275345 0 -0.19766176801088831 0.079505953929404904 0 -0.20333782300263301 0.070680183335342567 0 -0.21283790517273879 0.076286118753275345 0 -0.2155587047985415 0.070686690568374386 0 -0.21283790517273879 0.076286118753275345 0 -0.1951643137470572 0.093770439387570487 0 -0.22135706029896429 0.097751395037259853 0 -0.21283790517273879 0.076286118753275345 0 -0.1951643137470572 0.093770439387570487 0 -0.21283790517273879 0.076286118753275345 0 -0.19766176801088831 0.079505953929404904 0 -0.1951643137470572 0.093770439387570487 0 -0.18248563084903771 0.082725789105533951 0 -0.19766176801088831 0.079505953929404904 0 -0.1951643137470572 0.093770439387570487 0 -0.1867192510276118 0.077748512173410014 0 -0.18248563084903771 0.082725789105533951 0 -0.19766176801088831 0.079505953929404904 0 -0.18248563084903771 0.082725789105533951 0 -0.19766176801088831 0.079505953929404904 0 -0.1867192510276118 0.077748512173410014 0 -0.19766176801088831 0.079505953929404904 0 -0.19050021368002351 0.072419239531055349 0 -0.19803765617450109 0.060300476042091433 0 -0.19050021368002351 0.072419239531055349 0 -0.18892740292417859 0.064703221589215376 0 -0.19803765617450109 0.060300476042091433 0 -0.20333782300263301 0.070680183335342567 0 -0.19050021368002351 0.072419239531055349 0 -0.20333782300263301 0.070680183335342567 0 -0.19766176801088831 0.079505953929404904 0 -0.19050021368002351 0.072419239531055349 0 -0.17749072232138041 0.1112547600218704 0 -0.19150979458678249 0.1243728737611647 0 -0.1951643137470572 0.093770439387570487 0 -0.19150979458678249 0.1243728737611647 0 -0.1951643137470572 0.093770439387570487 0 -0.20994497012605751 0.11823125198409511 0 -0.1951643137470572 0.093770439387570487 0 -0.20994497012605751 0.11823125198409511 0 -0.22135706029896429 0.097751395037259853 0 -0.20994497012605751 0.11823125198409511 0 -0.2348316268224595 0.11651500804646669 0 -0.2235388627286797 0.12965651036182041 0 -0.20994497012605751 0.11823125198409511 0 -0.22135706029896429 0.097751395037259853 0 -0.2348316268224595 0.11651500804646669 0 -0.22135706029896429 0.097751395037259853 0 -0.24377998071086901 0.096378574065869249 0 -0.2348316268224595 0.11651500804646669 0 -0.25136603029008331 0.1103208693098497 0 -0.24377998071086901 0.096378574065869249 0 -0.2348316268224595 0.11651500804646669 0 -0.25922316449870308 0.12628093809151891 0 -0.25136603029008331 0.1103208693098497 0 -0.2348316268224595 0.11651500804646669 0 -0.25922316449870308 0.12628093809151891 0 -0.2348316268224595 0.11651500804646669 0 -0.2369615480924761 0.1404602413506009 0 -0.2369615480924761 0.1404602413506009 0 -0.2235388627286797 0.12965651036182041 0 -0.2124173058737257 0.14341954006611901 0 -0.2348316268224595 0.11651500804646669 0 -0.2369615480924761 0.1404602413506009 0 -0.2235388627286797 0.12965651036182041 0 -0.2369615480924761 0.1404602413506009 0 -0.22679867445049531 0.16064067306310431 0 -0.2124173058737257 0.14341954006611901 0 -0.2369615480924761 0.1404602413506009 0 -0.247018622616726 0.15992587597476091 0 -0.22679867445049531 0.16064067306310431 0 -0.25846103874104392 0.14702121199507179 0 -0.2369615480924761 0.1404602413506009 0 -0.247018622616726 0.15992587597476091 0 -0.247018622616726 0.15992587597476091 0 -0.23359887481107691 0.1809086922627815 0 -0.247018622616726 0.15992587597476091 0 -0.23359887481107691 0.1809086922627815 0 -0.22679867445049531 0.16064067306310431 0 -0.26439180367967152 0.18225540552070321 0 -0.247018622616726 0.15992587597476091 0 -0.23359887481107691 0.1809086922627815 0 -0.23359887481107691 0.1809086922627815 0 -0.20517995294037331 0.17379218369948349 0 -0.2201791270054278 0.2018915085508021 0 -0.23359887481107691 0.1809086922627815 0 -0.22679867445049531 0.16064067306310431 0 -0.20517995294037331 0.17379218369948349 0 -0.22679867445049531 0.16064067306310431 0 -0.20517995294037331 0.17379218369948349 0 -0.2124173058737257 0.14341954006611901 0 -0.20517995294037331 0.17379218369948349 0 -0.19274338499996449 0.14807478539393409 0 -0.17830044274374979 0.16244982581953471 0 -0.19150979458678249 0.1243728737611647 0 -0.19274338499996449 0.14807478539393409 0 -0.2124173058737257 0.14341954006611901 0 -0.20994497012605751 0.11823125198409511 0 -0.2235388627286797 0.12965651036182041 0 -0.2124173058737257 0.14341954006611901 0 -0.19150979458678249 0.1243728737611647 0 -0.20994497012605751 0.11823125198409511 0 -0.2124173058737257 0.14341954006611901 0 -0.20517995294037331 0.17379218369948349 0 -0.19274338499996449 0.14807478539393409 0 -0.2124173058737257 0.14341954006611901 0 -0.22371849106378741 0.2462845034026982 0 -0.23019370483249479 0.22382880503591951 0 -0.2066863838603582 0.24242880758937649 0 -0.22371849106378741 0.2462845034026982 0 -0.23951274761537589 0.2474853768326048 0 -0.23019370483249479 0.22382880503591951 0 -0.25272375818517617 0.22994970808158929 0 -0.25621817608628389 0.2460965770837312 0 -0.23951274761537589 0.2474853768326048 0 -0.25370102580463139 0.2052288024824625 0 -0.25272375818517617 0.22994970808158929 0 -0.23019370483249479 0.22382880503591951 0 -0.25272375818517617 0.22994970808158929 0 -0.23951274761537589 0.2474853768326048 0 -0.23019370483249479 0.22382880503591951 0 -0.25370102580463139 0.2052288024824625 0 -0.23359887481107691 0.1809086922627815 0 -0.2201791270054278 0.2018915085508021 0 -0.25370102580463139 0.2052288024824625 0 -0.23019370483249479 0.22382880503591951 0 -0.2201791270054278 0.2018915085508021 0 -0.23019370483249479 0.22382880503591951 0 -0.2201791270054278 0.2018915085508021 0 -0.20675937919977869 0.22287432483882261 0 -0.25370102580463139 0.2052288024824625 0 -0.23019370483249479 0.22382880503591951 0 -0.23359887481107691 0.1809086922627815 0 -0.2201791270054278 0.2018915085508021 0 -0.20517995294037331 0.17379218369948349 0 -0.2201791270054278 0.2018915085508021 0 -0.19686056424972551 0.20437535499954981 0 -0.20517995294037331 0.17379218369948349 0 -0.19686056424972551 0.20437535499954981 0 -0.17870530295493239 0.18804735871836689 0 -0.19686056424972551 0.20437535499954981 0 -0.20675937919977869 0.22287432483882261 0 -0.19122946023172571 0.22600186257262461 0 -0.19686056424972551 0.20437535499954981 0 -0.19122946023172571 0.22600186257262461 0 -0.179110163166115 0.21364489161719899 0 -0.2201791270054278 0.2018915085508021 0 -0.19686056424972551 0.20437535499954981 0 -0.20675937919977869 0.22287432483882261 0 -0.2201791270054278 0.2018915085508021 0 -0.20675937919977869 0.22287432483882261 0 -0.23019370483249479 0.22382880503591951 0 -0.2066863838603582 0.24242880758937649 0 -0.23019370483249479 0.22382880503591951 0 -0.20675937919977869 0.22287432483882261 0 -0.2066863838603582 0.24242880758937649 0 -0.20675937919977869 0.22287432483882261 0 -0.19333963139412971 0.24385714112684301 0 -0.20675937919977869 0.22287432483882261 0 -0.19122946023172571 0.22600186257262461 0 -0.19333963139412971 0.24385714112684301 0 -0.19122946023172571 0.22600186257262461 0 -0.19333963139412971 0.24385714112684301 0 -0.17951502337729761 0.2392424245160312 0 -0.20675937919977869 0.22287432483882261 0 -0.19333963139412971 0.24385714112684301 0 -0.2066863838603582 0.24242880758937649 0 -0.18259587964237009 0.2606558300825601 0 -0.19333963139412971 0.24385714112684301 0 -0.2066863838603582 0.24242880758937649 0 -0.21408768962570049 0.25938306782852782 0 -0.22371849106378741 0.2462845034026982 0 -0.2066863838603582 0.24242880758937649 0 -0.1532221513837192 0.25419418888983192 0 -0.17951502337729761 0.2392424245160312 0 -0.15110003921584569 0.22881829817408891 0 -0.18259587964237009 0.2606558300825601 0 -0.19333963139412971 0.24385714112684301 0 -0.17951502337729761 0.2392424245160312 0 -0.17951502337729761 0.2392424245160312 0 -0.1619547442009632 0.2162214427956837 0 -0.179110163166115 0.21364489161719899 0 -0.19122946023172571 0.22600186257262461 0 -0.17951502337729761 0.2392424245160312 0 -0.179110163166115 0.21364489161719899 0 -0.17951502337729761 0.2392424245160312 0 -0.179110163166115 0.21364489161719899 0 -0.17951502337729761 0.2392424245160312 0 -0.1619547442009632 0.2162214427956837 0 -0.15110003921584569 0.22881829817408891 0 -0.1619547442009632 0.2162214427956837 0 -0.179110163166115 0.21364489161719899 0 -0.17870530295493239 0.18804735871836689 0 -0.19686056424972551 0.20437535499954981 0 -0.179110163166115 0.21364489161719899 0 -0.17870530295493239 0.18804735871836689 0 -0.179110163166115 0.21364489161719899 0 -0.17870530295493239 0.18804735871836689 0 -0.1619547442009632 0.2162214427956837 0 -0.17870530295493239 0.18804735871836689 0 -0.15775407484820861 0.18727827749961631 0 -0.14804225966403101 0.20585853828705919 0 -0.15775407484820861 0.18727827749961631 0 -0.13876353146598761 0.18223131465273959 0 -0.1619547442009632 0.2162214427956837 0 -0.14804225966403101 0.20585853828705919 0 -0.15775407484820861 0.18727827749961631 0 -0.13876353146598761 0.18223131465273959 0 -0.1245765098090509 0.17966052017845999 0 -0.1190175871807343 0.20067046473278771 0 -0.14804225966403101 0.20585853828705919 0 -0.13876353146598761 0.18223131465273959 0 -0.1190175871807343 0.20067046473278771 0 -0.14804225966403101 0.20585853828705919 0 -0.13479108425045189 0.2189379304695287 0 -0.1190175871807343 0.20067046473278771 0 -0.13479108425045189 0.2189379304695287 0 -0.12594818007053379 0.2253828658525201 0 -0.1190175871807343 0.20067046473278771 0 -0.1619547442009632 0.2162214427956837 0 -0.14804225966403101 0.20585853828705919 0 -0.15110003921584569 0.22881829817408891 0 -0.14804225966403101 0.20585853828705919 0 -0.15110003921584569 0.22881829817408891 0 -0.13479108425045189 0.2189379304695287 0 -0.15110003921584569 0.22881829817408891 0 -0.13479108425045189 0.2189379304695287 0 -0.1378537507735782 0.22769286600650679 0 -0.15110003921584569 0.22881829817408891 0 -0.1378537507735782 0.22769286600650679 0 -0.13827307027013019 0.2362506378269415 0 -0.13479108425045189 0.2189379304695287 0 -0.12594818007053379 0.2253828658525201 0 -0.1378537507735782 0.22769286600650679 0 -0.12594818007053379 0.2253828658525201 0 -0.1378537507735782 0.22769286600650679 0 -0.13827307027013019 0.2362506378269415 0 -0.12594818007053379 0.2253828658525201 0 -0.13827307027013019 0.2362506378269415 0 -0.1327712538659816 0.24971188635390451 0 -0.12594818007053379 0.2253828658525201 0 -0.1327712538659816 0.24971188635390451 0 -0.1532221513837192 0.25419418888983192 0 -0.15110003921584569 0.22881829817408891 0 -0.13827307027013019 0.2362506378269415 0 -0.1532221513837192 0.25419418888983192 0 -0.13827307027013019 0.2362506378269415 0 -0.1327712538659816 0.24971188635390451 0 -0.16317411874061041 0.14897554401654969 0 -0.16113979031376621 0.12743058591966341 0 -0.1447888583061562 0.1436064118174607 0 -0.16317411874061041 0.14897554401654969 0 -0.16113979031376621 0.12743058591966341 0 -0.17789558253256721 0.1368522929207025 0 -0.17749072232138041 0.1112547600218704 0 -0.16113979031376621 0.12743058591966341 0 -0.17789558253256721 0.1368522929207025 0 -0.19150979458678249 0.1243728737611647 0 -0.19274338499996449 0.14807478539393409 0 -0.17789558253256721 0.1368522929207025 0 -0.16317411874061041 0.14897554401654969 0 -0.17789558253256721 0.1368522929207025 0 -0.17830044274374979 0.16244982581953471 0 -0.17789558253256721 0.1368522929207025 0 -0.17830044274374979 0.16244982581953471 0 -0.19274338499996449 0.14807478539393409 0 -0.17789558253256721 0.1368522929207025 0 -0.17830044274374979 0.16244982581953471 0 -0.20517995294037331 0.17379218369948349 0 -0.17870530295493239 0.18804735871836689 0 -0.17830044274374979 0.16244982581953471 0 -0.17870530295493239 0.18804735871836689 0 -0.17830044274374979 0.16244982581953471 0 -0.17870530295493239 0.18804735871836689 0 -0.17830044274374979 0.16244982581953471 0 -0.15775407484820861 0.18727827749961631 0 -0.17830044274374979 0.16244982581953471 0 -0.15775407484820861 0.18727827749961631 0 -0.15245232938168229 0.1648839185887534 0 -0.16317411874061041 0.14897554401654969 0 -0.17830044274374979 0.16244982581953471 0 -0.15245232938168229 0.1648839185887534 0 -0.15775407484820861 0.18727827749961631 0 -0.15245232938168229 0.1648839185887534 0 -0.13876353146598761 0.18223131465273959 0 -0.13876353146598761 0.18223131465273959 0 -0.12843792629854631 0.15978223771525801 0 -0.1245765098090509 0.17966052017845999 0 -0.15245232938168229 0.1648839185887534 0 -0.13876353146598761 0.18223131465273959 0 -0.12843792629854631 0.15978223771525801 0 -0.12843792629854631 0.15978223771525801 0 -0.1447888583061562 0.1436064118174607 0 -0.12843792629854631 0.15978223771525801 0 -0.1447888583061562 0.1436064118174607 0 -0.1204435081575875 0.14623213693654391 0 -0.16317411874061041 0.14897554401654969 0 -0.15245232938168229 0.1648839185887534 0 -0.1447888583061562 0.1436064118174607 0 -0.15245232938168229 0.1648839185887534 0 -0.12843792629854631 0.15978223771525801 0 -0.1447888583061562 0.1436064118174607 0 -0.16113979031376621 0.12743058591966341 0 -0.1447888583061562 0.1436064118174607 0 -0.14300315410871919 0.1253406317882016 0 -0.16113979031376621 0.12743058591966341 0 -0.1447888583061562 0.1436064118174607 0 -0.1447888583061562 0.1436064118174607 0 -0.12687331202938101 0.13192737382428379 0 -0.1204435081575875 0.14623213693654391 0 -0.1447888583061562 0.1436064118174607 0 -0.14300315410871919 0.1253406317882016 0 -0.12687331202938101 0.13192737382428379 0 -0.12687331202938101 0.13192737382428379 0 -0.1130049083687871 0.13722853083192951 0 -0.10667563132183119 0.1260080396076822 0 -0.12687331202938101 0.13192737382428379 0 -0.1130049083687871 0.13722853083192951 0 -0.1204435081575875 0.14623213693654391 0 -0.10667563132183119 0.1260080396076822 0 -0.081978849477511453 0.1384377215961772 0 -0.096577670607123245 0.1239972751083621 0 -0.10667563132183119 0.1260080396076822 0 -0.1008242758955458 0.1385116675773613 0 -0.081978849477511453 0.1384377215961772 0 -0.10667563132183119 0.1260080396076822 0 -0.081978849477511453 0.1384377215961772 0 -0.1130049083687871 0.13722853083192951 0 -0.10667563132183119 0.1260080396076822 0 -0.1008242758955458 0.1385116675773613 0 -0.1130049083687871 0.13722853083192951 0 -0.1008242758955458 0.1385116675773613 0 -0.1078791741402548 0.14587794917826699 0 -0.094422293866394627 0.1556947047027778 0 -0.094582816169344081 0.14500609667275041 0 -0.1078791741402548 0.14587794917826699 0 -0.1008242758955458 0.1385116675773613 0 -0.094582816169344081 0.14500609667275041 0 -0.1078791741402548 0.14587794917826699 0 -0.12843792629854631 0.15978223771525801 0 -0.1204435081575875 0.14623213693654391 0 -0.1073217141416921 0.15896651377475199 0 -0.1078791741402548 0.14587794917826699 0 -0.1204435081575875 0.14623213693654391 0 -0.1073217141416921 0.15896651377475199 0 -0.1130049083687871 0.13722853083192951 0 -0.1078791741402548 0.14587794917826699 0 -0.1204435081575875 0.14623213693654391 0 -0.12843792629854631 0.15978223771525801 0 -0.1245765098090509 0.17966052017845999 0 -0.1120869942909358 0.17595806361305491 0 -0.1120869942909358 0.17595806361305491 0 -0.1073217141416921 0.15896651377475199 0 -0.12843792629854631 0.15978223771525801 0 -0.1120869942909358 0.17595806361305491 0 -0.12843792629854631 0.15978223771525801 0 -0.1120869942909358 0.17595806361305491 0 -0.1073217141416921 0.15896651377475199 0 -0.1245765098090509 0.17966052017845999 0 -0.1120869942909358 0.17595806361305491 0 -0.1190175871807343 0.20067046473278771 0 -0.1120869942909358 0.17595806361305491 0 -0.1020860412129876 0.1687304780430319 0 -0.095149617161195271 0.19271405424946009 0 -0.1020860412129876 0.1687304780430319 0 -0.095149617161195271 0.19271405424946009 0 -0.1120869942909358 0.17595806361305491 0 -0.095149617161195271 0.19271405424946009 0 -0.1020860412129876 0.1687304780430319 0 -0.093279947424905002 0.17994671451597891 0 -0.095149617161195271 0.19271405424946009 0 -0.1020860412129876 0.1687304780430319 0 -0.089956478385260899 0.16811851343374709 0 -0.093279947424905002 0.17994671451597891 0 -0.094422293866394627 0.1556947047027778 0 -0.1078791741402548 0.14587794917826699 0 -0.1020860412129876 0.1687304780430319 0 -0.1078791741402548 0.14587794917826699 0 -0.1073217141416921 0.15896651377475199 0 -0.1020860412129876 0.1687304780430319 0 -0.1120869942909358 0.17595806361305491 0 -0.1073217141416921 0.15896651377475199 0 -0.1020860412129876 0.1687304780430319 0 -0.1078791741402548 0.14587794917826699 0 -0.1020860412129876 0.1687304780430319 0 -0.094422293866394627 0.1556947047027778 0 -0.1020860412129876 0.1687304780430319 0 -0.089956478385260899 0.16811851343374709 0 -0.094422293866394627 0.1556947047027778 0 -0.089956478385260899 0.16811851343374709 0 -0.084742563178951485 0.15922574422532609 0 -0.089956478385260899 0.16811851343374709 0 -0.080023232193096983 0.1657260639694961 0 -0.084742563178951485 0.15922574422532609 0 -0.089956478385260899 0.16811851343374709 0 -0.080023232193096983 0.1657260639694961 0 -0.081293191825158789 0.17801619480298669 0 -0.080023232193096983 0.1657260639694961 0 -0.084742563178951485 0.15922574422532609 0 -0.074930767296401246 0.15918989644816289 0 -0.081293191825158789 0.17801619480298669 0 -0.095149617161195271 0.19271405424946009 0 -0.073474196407973841 0.19079473501472519 0 -0.081293191825158789 0.17801619480298669 0 -0.095149617161195271 0.19271405424946009 0 -0.093279947424905002 0.17994671451597891 0 -0.081293191825158789 0.17801619480298669 0 -0.095149617161195271 0.19271405424946009 0 -0.089956478385260899 0.16811851343374709 0 -0.093279947424905002 0.17994671451597891 0 -0.081293191825158789 0.17801619480298669 0 -0.064604308801312821 0.18244611143699499 0 -0.069549912031587807 0.17131438064227461 0 -0.073474196407973841 0.19079473501472519 0 -0.081293191825158789 0.17801619480298669 0 -0.069549912031587807 0.17131438064227461 0 -0.073474196407973841 0.19079473501472519 0 -0.069549912031587807 0.17131438064227461 0 -0.073474196407973841 0.19079473501472519 0 -0.064604308801312821 0.18244611143699499 0 -0.069549912031587807 0.17131438064227461 0 -0.062041409668937363 0.1723934095439342 0 -0.084742563178951485 0.15922574422532609 0 -0.074930767296401246 0.15918989644816289 0 -0.074588176879671189 0.15080810715310269 0 -0.080023232193096983 0.1657260639694961 0 -0.074930767296401246 0.15918989644816289 0 -0.06743676648912228 0.16331833535651319 0 -0.081293191825158789 0.17801619480298669 0 -0.069549912031587807 0.17131438064227461 0 -0.06743676648912228 0.16331833535651319 0 -0.080023232193096983 0.1657260639694961 0 -0.081293191825158789 0.17801619480298669 0 -0.06743676648912228 0.16331833535651319 0 -0.081293191825158789 0.17801619480298669 0 -0.06743676648912228 0.16331833535651319 0 -0.069549912031587807 0.17131438064227461 0 -0.062031688412593149 0.16441565219234799 0 -0.062041409668937363 0.1723934095439342 0 -0.069549912031587807 0.17131438064227461 0 -0.06743676648912228 0.16331833535651319 0 -0.062031688412593149 0.16441565219234799 0 -0.06743676648912228 0.16331833535651319 0 -0.06725389334219653 0.15771987894696021 0 -0.062031688412593149 0.16441565219234799 0 -0.074930767296401246 0.15918989644816289 0 -0.06743676648912228 0.16331833535651319 0 -0.06725389334219653 0.15771987894696021 0 -0.081978849477511453 0.1384377215961772 0 -0.05728206763319247 0.1508674035846734 0 -0.06725389334219653 0.15771987894696021 0 -0.074588176879671189 0.15080810715310269 0 -0.05728206763319247 0.1508674035846734 0 -0.074588176879671189 0.15080810715310269 0 -0.081978849477511453 0.1384377215961772 0 -0.05728206763319247 0.1508674035846734 0 -0.081978849477511453 0.1384377215961772 0 -0.06070043620975589 0.134524720015781 0 -0.05728206763319247 0.1508674035846734 0 -0.074930767296401246 0.15918989644816289 0 -0.06725389334219653 0.15771987894696021 0 -0.074588176879671189 0.15080810715310269 0 -0.071786582042575819 0.1280585334591178 0 -0.081978849477511453 0.1384377215961772 0 -0.08034823769671974 0.121089655777625 0 -0.071786582042575819 0.1280585334591178 0 -0.081978849477511453 0.1384377215961772 0 -0.06070043620975589 0.134524720015781 0 -0.071786582042575819 0.1280585334591178 0 -0.06070043620975589 0.134524720015781 0 -0.06411880478631618 0.11818203644688791 0 -0.081978849477511453 0.1384377215961772 0 -0.08034823769671974 0.121089655777625 0 -0.096577670607123245 0.1239972751083621 0 -0.1008242758955458 0.1385116675773613 0 -0.094582816169344081 0.14500609667275041 0 -0.081978849477511453 0.1384377215961772 0 -0.094582816169344081 0.14500609667275041 0 -0.081978849477511453 0.1384377215961772 0 -0.0854808471676783 0.14892295327365951 0 -0.094422293866394627 0.1556947047027778 0 -0.084742563178951485 0.15922574422532609 0 -0.0854808471676783 0.14892295327365951 0 -0.094422293866394627 0.1556947047027778 0 -0.094582816169344081 0.14500609667275041 0 -0.0854808471676783 0.14892295327365951 0 -0.084742563178951485 0.15922574422532609 0 -0.074588176879671189 0.15080810715310269 0 -0.0854808471676783 0.14892295327365951 0 -0.074588176879671189 0.15080810715310269 0 -0.081978849477511453 0.1384377215961772 0 -0.0854808471676783 0.14892295327365951 0 -0.1045487088169635 0.24438495162540061 0 -0.11455994162881621 0.23631135170566109 0 -0.098826177075254387 0.23394696074010041 0 -0.10005120432924321 0.25626016583208688 0 -0.094679029848152713 0.24609146959404629 0 -0.1045487088169635 0.24438495162540061 0 -0.094679029848152713 0.24609146959404629 0 -0.1045487088169635 0.24438495162540061 0 -0.098826177075254387 0.23394696074010041 0 -0.116744543106582 0.25728181003509248 0 -0.1045487088169635 0.24438495162540061 0 -0.11455994162881621 0.23631135170566109 0 -0.116744543106582 0.25728181003509248 0 -0.1327712538659816 0.24971188635390451 0 -0.11455994162881621 0.23631135170566109 0 -0.12594818007053379 0.2253828658525201 0 -0.1327712538659816 0.24971188635390451 0 -0.11455994162881621 0.23631135170566109 0 -0.11455994162881621 0.23631135170566109 0 -0.1144435087069731 0.2232582902708152 0 -0.1063794885369051 0.22193246116811141 0 -0.12594818007053379 0.2253828658525201 0 -0.1144435087069731 0.2232582902708152 0 -0.1108864245916369 0.20940648235696879 0 -0.12594818007053379 0.2253828658525201 0 -0.11455994162881621 0.23631135170566109 0 -0.1144435087069731 0.2232582902708152 0 -0.11455994162881621 0.23631135170566109 0 -0.1063794885369051 0.22193246116811141 0 -0.098826177075254387 0.23394696074010041 0 -0.1063794885369051 0.22193246116811141 0 -0.098826177075254387 0.23394696074010041 0 -0.089950704149474564 0.21660149084549701 0 -0.1063794885369051 0.22193246116811141 0 -0.089950704149474564 0.21660149084549701 0 -0.10053720550511509 0.21148400771379949 0 -0.095149617161195271 0.19271405424946009 0 -0.089950704149474564 0.21660149084549701 0 -0.1063794885369051 0.22193246116811141 0 -0.10053720550511509 0.21148400771379949 0 -0.089950704149474564 0.21660149084549701 0 -0.10053720550511509 0.21148400771379949 0 -0.1108864245916369 0.20940648235696879 0 -0.095149617161195271 0.19271405424946009 0 -0.1063794885369051 0.22193246116811141 0 -0.10053720550511509 0.21148400771379949 0 -0.1108864245916369 0.20940648235696879 0 -0.12594818007053379 0.2253828658525201 0 -0.1190175871807343 0.20067046473278771 0 -0.12594818007053379 0.2253828658525201 0 -0.1108864245916369 0.20940648235696879 0 -0.1190175871807343 0.20067046473278771 0 -0.12594818007053379 0.2253828658525201 0 -0.1108864245916369 0.20940648235696879 0 -0.1144435087069731 0.2232582902708152 0 -0.1063794885369051 0.22193246116811141 0 -0.1108864245916369 0.20940648235696879 0 -0.1120869942909358 0.17595806361305491 0 -0.1190175871807343 0.20067046473278771 0 -0.1108864245916369 0.20940648235696879 0 -0.1190175871807343 0.20067046473278771 0 -0.10682171669235439 0.1942096232944058 0 -0.1120869942909358 0.17595806361305491 0 -0.1190175871807343 0.20067046473278771 0 -0.10682171669235439 0.1942096232944058 0 -0.1108864245916369 0.20940648235696879 0 -0.095149617161195271 0.19271405424946009 0 -0.1108864245916369 0.20940648235696879 0 -0.10682171669235439 0.1942096232944058 0 -0.095149617161195271 0.19271405424946009 0 -0.1120869942909358 0.17595806361305491 0 -0.10682171669235439 0.1942096232944058 0 -0.095149617161195271 0.19271405424946009 0 -0.095149617161195271 0.19271405424946009 0 -0.077398480784349299 0.2102750893871779 0 -0.095149617161195271 0.19271405424946009 0 -0.073474196407973841 0.19079473501472519 0 -0.077398480784349299 0.2102750893871779 0 -0.095149617161195271 0.19271405424946009 0 -0.077398480784349299 0.2102750893871779 0 -0.087241526055590657 0.20514135106535239 0 -0.073474196407973841 0.19079473501472519 0 -0.077398480784349299 0.2102750893871779 0 -0.073474196407973841 0.19079473501472519 0 -0.077398480784349299 0.2102750893871779 0 -0.068984895145132993 0.20348567813270921 0 -0.064604308801312821 0.18244611143699499 0 -0.073474196407973841 0.19079473501472519 0 -0.062951628171730722 0.19451437844324071 0 -0.073474196407973841 0.19079473501472519 0 -0.062951628171730722 0.19451437844324071 0 -0.068984895145132993 0.20348567813270921 0 -0.062951628171730722 0.19451437844324071 0 -0.068984895145132993 0.20348567813270921 0 -0.057478398324341332 0.20606456403591589 0 -0.068984895145132993 0.20348567813270921 0 -0.075683327299925024 0.21197187487555791 0 -0.057478398324341332 0.20606456403591589 0 -0.075683327299925024 0.21197187487555791 0 -0.060700713784132942 0.2267940359372384 0 -0.057478398324341332 0.20606456403591589 0 -0.075683327299925024 0.21197187487555791 0 -0.057478398324341332 0.20606456403591589 0 -0.077398480784349299 0.2102750893871779 0 -0.068984895145132993 0.20348567813270921 0 -0.075683327299925024 0.21197187487555791 0 -0.075683327299925024 0.21197187487555791 0 -0.077884159070199604 0.2126860219832131 0 -0.060700713784132942 0.2267940359372384 0 -0.075683327299925024 0.21197187487555791 0 -0.077884159070199604 0.2126860219832131 0 -0.077398480784349299 0.2102750893871779 0 -0.075683327299925024 0.21197187487555791 0 -0.077884159070199604 0.2126860219832131 0 -0.077398480784349299 0.2102750893871779 0 -0.077884159070199604 0.2126860219832131 0 -0.077398480784349299 0.2102750893871779 0 -0.075683327299925024 0.21197187487555791 0 -0.077884159070199604 0.2126860219832131 0 -0.089950704149474564 0.21660149084549701 0 -0.077884159070199604 0.2126860219832131 0 -0.087241526055590657 0.20514135106535239 0 -0.089950704149474564 0.21660149084549701 0 -0.095149617161195271 0.19271405424946009 0 -0.087241526055590657 0.20514135106535239 0 -0.089950704149474564 0.21660149084549701 0 -0.095149617161195271 0.19271405424946009 0 -0.089950704149474564 0.21660149084549701 0 -0.077398480784349299 0.2102750893871779 0 -0.077884159070199604 0.2126860219832131 0 -0.087241526055590657 0.20514135106535239 0 -0.077884159070199604 0.2126860219832131 0 -0.083666647235009842 0.24139059785004849 0 -0.089950704149474564 0.21660149084549701 0 -0.083666647235009842 0.24139059785004849 0 -0.077884159070199604 0.2126860219832131 0 -0.089950704149474564 0.21660149084549701 0 -0.083666647235009842 0.24139059785004849 0 -0.098826177075254387 0.23394696074010041 0 -0.089950704149474564 0.21660149084549701 0 -0.083666647235009842 0.24139059785004849 0 -0.077884159070199604 0.2126860219832131 0 -0.083666647235009842 0.24139059785004849 0 -0.060700713784132942 0.2267940359372384 0 -0.075683327299925024 0.21197187487555791 0 -0.060700713784132942 0.2267940359372384 0 -0.064077212627390134 0.24851538469076631 0 -0.083666647235009842 0.24139059785004849 0 -0.060700713784132942 0.2267940359372384 0 -0.086302411784292182 0.25447467192259482 0 -0.083666647235009842 0.24139059785004849 0 -0.094679029848152713 0.24609146959404629 0 -0.098826177075254387 0.23394696074010041 0 -0.083666647235009842 0.24139059785004849 0 -0.086302411784292182 0.25447467192259482 0 -0.094679029848152713 0.24609146959404629 0 -0.083666647235009842 0.24139059785004849 0 -0.03068766995985707 0.25286978792993342 0 -0.034335222642673788 0.23481172099035691 0 -0.046578861792199937 0.24361118962503389 0 -0.034335222642673788 0.23481172099035691 0 -0.046578861792199937 0.24361118962503389 0 -0.045510089746351297 0.2289623102588538 0 -0.064077212627390134 0.24851538469076631 0 -0.046578861792199937 0.24361118962503389 0 -0.055802081643016588 0.23164020743468811 0 -0.064077212627390134 0.24851538469076631 0 -0.055802081643016588 0.23164020743468811 0 -0.060700713784132942 0.2267940359372384 0 -0.064077212627390134 0.24851538469076631 0 -0.060700713784132942 0.2267940359372384 0 -0.046578861792199937 0.24361118962503389 0 -0.055802081643016588 0.23164020743468811 0 -0.045510089746351297 0.2289623102588538 0 -0.055802081643016588 0.23164020743468811 0 -0.053252725762674542 0.2222055350902031 0 -0.045510089746351297 0.2289623102588538 0 -0.055802081643016588 0.23164020743468811 0 -0.060700713784132942 0.2267940359372384 0 -0.053252725762674542 0.2222055350902031 0 -0.055802081643016588 0.23164020743468811 0 -0.060700713784132942 0.2267940359372384 0 -0.053252725762674542 0.2222055350902031 0 -0.045510089746351297 0.2289623102588538 0 -0.046772345315528908 0.21756655778431969 0 -0.045510089746351297 0.2289623102588538 0 -0.036443083940353373 0.22210497005765251 0 -0.046772345315528908 0.21756655778431969 0 -0.034335222642673788 0.23481172099035691 0 -0.045510089746351297 0.2289623102588538 0 -0.036443083940353373 0.22210497005765251 0 -0.034335222642673788 0.23481172099035691 0 -0.036443083940353373 0.22210497005765251 0 -0.024866254401544021 0.22078734426404351 0 -0.036443083940353373 0.22210497005765251 0 -0.046772345315528908 0.21756655778431969 0 -0.031637039445344017 0.19767931081015269 0 -0.046772345315528908 0.21756655778431969 0 -0.057478398324341332 0.20606456403591589 0 -0.031637039445344017 0.19767931081015269 0 -0.060700713784132942 0.2267940359372384 0 -0.053252725762674542 0.2222055350902031 0 -0.057478398324341332 0.20606456403591589 0 -0.060700713784132942 0.2267940359372384 0 -0.057478398324341332 0.20606456403591589 0 -0.053252725762674542 0.2222055350902031 0 -0.046772345315528908 0.21756655778431969 0 -0.057478398324341332 0.20606456403591589 0 -0.062951628171730722 0.19451437844324071 0 -0.057478398324341332 0.20606456403591589 0 -0.054948738746262903 0.1897910154656581 0 -0.057478398324341332 0.20606456403591589 0 -0.054948738746262903 0.1897910154656581 0 -0.031637039445344017 0.19767931081015269 0 -0.057478398324341332 0.20606456403591589 0 -0.054948738746262903 0.1897910154656581 0 -0.054948738746262903 0.1897910154656581 0 -0.031637039445344017 0.19767931081015269 0 -0.039999697082172873 0.18418677263352329 0 -0.057478398324341332 0.20606456403591589 0 -0.031637039445344017 0.19767931081015269 0 -0.031637039445344017 0.19767931081015269 0 -0.0057956805663459468 0.1892940575843915 0 -0.031637039445344017 0.19767931081015269 0 -0.0057956805663459468 0.1892940575843915 0 -0.024775833668462071 0.17590936267321361 0 -0.031637039445344017 0.19767931081015269 0 -0.0057956805663459468 0.1892940575843915 0 -0.01019634689217482 0.20814994011246479 0 -0.0057956805663459468 0.1892940575843915 0 -0.01019634689217482 0.20814994011246479 0 0.0090806704795409685 0.20996839310177981 0 -0.01019634689217482 0.20814994011246479 0 0.00014186162909880781 0.2338185852574263 0 0.0090806704795409685 0.20996839310177981 0 -0.036443083940353373 0.22210497005765251 0 -0.031637039445344017 0.19767931081015269 0 -0.024866254401544021 0.22078734426404351 0 -0.031637039445344017 0.19767931081015269 0 -0.01019634689217482 0.20814994011246479 0 -0.024866254401544021 0.22078734426404351 0 -0.034335222642673788 0.23481172099035691 0 -0.024866254401544021 0.22078734426404351 0 -0.01991034591062427 0.239405390953495 0 -0.024866254401544021 0.22078734426404351 0 0.00014186162909880781 0.2338185852574263 0 -0.024866254401544021 0.22078734426404351 0 -0.01991034591062427 0.239405390953495 0 0.00014186162909880781 0.2338185852574263 0 -0.01019634689217482 0.20814994011246479 0 -0.024866254401544021 0.22078734426404351 0 0.00014186162909880781 0.2338185852574263 0 -0.0098044441781452579 0.25473951632571468 0 0.00014186162909880781 0.2338185852574263 0 0.0073806355134042019 0.25529449578482938 0 -0.0098044441781452579 0.25473951632571468 0 -0.01991034591062427 0.239405390953495 0 0.00014186162909880781 0.2338185852574263 0 -0.03068766995985707 0.25286978792993342 0 -0.034335222642673788 0.23481172099035691 0 -0.01991034591062427 0.239405390953495 0 -0.03068766995985707 0.25286978792993342 0 -0.0098044441781452579 0.25473951632571468 0 -0.01991034591062427 0.239405390953495 0 -0.045513089216113363 0.1481501368583191 0 -0.039963318838929777 0.1583549670989208 0 -0.028048700007850699 0.14601834090005769 0 -0.045513089216113363 0.1481501368583191 0 -0.037584816749385713 0.12707105787504261 0 -0.028048700007850699 0.14601834090005769 0 -0.037584816749385713 0.12707105787504261 0 -0.028048700007850699 0.14601834090005769 0 -0.045513089216113363 0.1481501368583191 0 -0.037584816749385713 0.12707105787504261 0 -0.045513089216113363 0.1481501368583191 0 -0.037584816749385713 0.12707105787504261 0 -0.049753839012929922 0.13582205838018921 0 -0.037584816749385713 0.12707105787504261 0 -0.049753839012929922 0.13582205838018921 0 -0.051208231868337763 0.1260313133231428 0 -0.049753839012929922 0.13582205838018921 0 -0.06070043620975589 0.134524720015781 0 -0.052276118599972977 0.1457036522838337 0 -0.051208231868337763 0.1260313133231428 0 -0.06070043620975589 0.134524720015781 0 -0.06411880478631618 0.11818203644688791 0 -0.06070043620975589 0.134524720015781 0 -0.06411880478631618 0.11818203644688791 0 -0.049753839012929922 0.13582205838018921 0 -0.051208231868337763 0.1260313133231428 0 -0.06070043620975589 0.134524720015781 0 -0.06070043620975589 0.134524720015781 0 -0.052276118599972977 0.1457036522838337 0 -0.05728206763319247 0.1508674035846734 0 -0.06070043620975589 0.134524720015781 0 -0.05728206763319247 0.1508674035846734 0 -0.045513089216113363 0.1481501368583191 0 -0.049753839012929922 0.13582205838018921 0 -0.052276118599972977 0.1457036522838337 0 -0.045513089216113363 0.1481501368583191 0 -0.052276118599972977 0.1457036522838337 0 -0.053440893212920608 0.15280063427064891 0 -0.052276118599972977 0.1457036522838337 0 -0.053440893212920608 0.15280063427064891 0 -0.05728206763319247 0.1508674035846734 0 -0.053440893212920608 0.15280063427064891 0 -0.05728206763319247 0.1508674035846734 0 -0.05728206763319247 0.1508674035846734 0 -0.062031688412593149 0.16441565219234799 0 -0.053441361682841117 0.16922921584159559 0 -0.053440893212920608 0.15280063427064891 0 -0.05728206763319247 0.1508674035846734 0 -0.053441361682841117 0.16922921584159559 0 -0.045513089216113363 0.1481501368583191 0 -0.053440893212920608 0.15280063427064891 0 -0.053441361682841117 0.16922921584159559 0 -0.045513089216113363 0.1481501368583191 0 -0.053441361682841117 0.16922921584159559 0 -0.05728206763319247 0.1508674035846734 0 -0.053441361682841117 0.16922921584159559 0 -0.06725389334219653 0.15771987894696021 0 -0.05728206763319247 0.1508674035846734 0 -0.062031688412593149 0.16441565219234799 0 -0.062031688412593149 0.16441565219234799 0 -0.053441361682841117 0.16922921584159559 0 -0.062041409668937363 0.1723934095439342 0 -0.053441361682841117 0.16922921584159559 0 -0.047633738945979477 0.17108968717192211 0 -0.039963318838929777 0.1583549670989208 0 -0.052991971448818453 0.17137768000779441 0 -0.053441361682841117 0.16922921584159559 0 -0.047633738945979477 0.17108968717192211 0 -0.052991971448818453 0.17137768000779441 0 -0.053441361682841117 0.16922921584159559 0 -0.054948738746262903 0.1897910154656581 0 -0.052419079168185397 0.17351746689540021 0 -0.046888846475854867 0.17837904804597579 0 -0.062951628171730722 0.19451437844324071 0 -0.054948738746262903 0.1897910154656581 0 -0.052419079168185397 0.17351746689540021 0 -0.062951628171730722 0.19451437844324071 0 -0.052991971448818453 0.17137768000779441 0 -0.052419079168185397 0.17351746689540021 0 -0.064604308801312821 0.18244611143699499 0 -0.062951628171730722 0.19451437844324071 0 -0.053441361682841117 0.16922921584159559 0 -0.062951628171730722 0.19451437844324071 0 -0.052991971448818453 0.17137768000779441 0 -0.053441361682841117 0.16922921584159559 0 -0.054948738746262903 0.1897910154656581 0 -0.052419079168185397 0.17351746689540021 0 -0.062951628171730722 0.19451437844324071 0 -0.053441361682841117 0.16922921584159559 0 -0.064604308801312821 0.18244611143699499 0 -0.053441361682841117 0.16922921584159559 0 -0.062041409668937363 0.1723934095439342 0 -0.052991971448818453 0.17137768000779441 0 -0.047633738945979477 0.17108968717192211 0 -0.052419079168185397 0.17351746689540021 0 -0.047633738945979477 0.17108968717192211 0 -0.052419079168185397 0.17351746689540021 0 -0.046888846475854867 0.17837904804597579 0 -0.054948738746262903 0.1897910154656581 0 -0.046888846475854867 0.17837904804597579 0 -0.039999697082172873 0.18418677263352329 0 -0.031637039445344017 0.19767931081015269 0 -0.039999697082172873 0.18418677263352329 0 -0.024775833668462071 0.17590936267321361 0 -0.046888846475854867 0.17837904804597579 0 -0.039999697082172873 0.18418677263352329 0 -0.039442978436673673 0.17331029806337539 0 -0.047633738945979477 0.17108968717192211 0 -0.046888846475854867 0.17837904804597579 0 -0.039442978436673673 0.17331029806337539 0 -0.039442978436673673 0.17331029806337539 0 -0.032139483942643897 0.16694135859911591 0 -0.024775833668462071 0.17590936267321361 0 -0.039999697082172873 0.18418677263352329 0 -0.039442978436673673 0.17331029806337539 0 -0.024775833668462071 0.17590936267321361 0 -0.045513089216113363 0.1481501368583191 0 -0.053441361682841117 0.16922921584159559 0 -0.039963318838929777 0.1583549670989208 0 -0.039963318838929777 0.1583549670989208 0 -0.032139483942643897 0.16694135859911591 0 -0.02343924065842673 0.15869802647678349 0 -0.047633738945979477 0.17108968717192211 0 -0.039442978436673673 0.17331029806337539 0 -0.039963318838929777 0.1583549670989208 0 -0.039442978436673673 0.17331029806337539 0 -0.039963318838929777 0.1583549670989208 0 -0.032139483942643897 0.16694135859911591 0 -0.032139483942643897 0.16694135859911591 0 -0.02343924065842673 0.15869802647678349 0 -0.024775833668462071 0.17590936267321361 0 -0.02343924065842673 0.15869802647678349 0 -0.024775833668462071 0.17590936267321361 0 -0.0048034666842798916 0.1614245706846468 0 -0.0057956805663459468 0.1892940575843915 0 -0.024775833668462071 0.17590936267321361 0 -0.0048034666842798916 0.1614245706846468 0 -0.0048034666842798916 0.1614245706846468 0 -0.01090464080839405 0.14353955890474629 0 0.011098566836083609 0.13484946890849181 0 -0.02343924065842673 0.15869802647678349 0 -0.0048034666842798916 0.1614245706846468 0 -0.01090464080839405 0.14353955890474629 0 -0.039963318838929777 0.1583549670989208 0 -0.02343924065842673 0.15869802647678349 0 -0.028048700007850699 0.14601834090005769 0 -0.02343924065842673 0.15869802647678349 0 -0.01090464080839405 0.14353955890474629 0 -0.028048700007850699 0.14601834090005769 0 -0.037584816749385713 0.12707105787504261 0 -0.0187932077553963 0.1304023687453105 0 -0.02482114599867602 0.1199028763409456 0 -0.01090464080839405 0.14353955890474629 0 -0.028048700007850699 0.14601834090005769 0 -0.0187932077553963 0.1304023687453105 0 -0.037584816749385713 0.12707105787504261 0 -0.028048700007850699 0.14601834090005769 0 -0.0187932077553963 0.1304023687453105 0 -0.0064436606074630637 0.13109611639504981 0 -0.007175360702145514 0.1155930690216506 0 0.011098566836083609 0.13484946890849181 0 -0.01090464080839405 0.14353955890474629 0 -0.0064436606074630637 0.13109611639504981 0 0.011098566836083609 0.13484946890849181 0 -0.0187932077553963 0.1304023687453105 0 -0.0064436606074630637 0.13109611639504981 0 -0.007175360702145514 0.1155930690216506 0 -0.01090464080839405 0.14353955890474629 0 -0.0187932077553963 0.1304023687453105 0 -0.0064436606074630637 0.13109611639504981 0 -0.007175360702145514 0.1155930690216506 0 -0.0040088977147468936 0.097024336429998151 0 -0.013655752966245171 0.094180689311720855 0 -0.007175360702145514 0.1155930690216506 0 -0.0040088977147468936 0.097024336429998151 0 0.0025937760044158291 0.1064596481343341 0 -0.007175360702145514 0.1155930690216506 0 -0.013655752966245171 0.094180689311720855 0 -0.02544928824037461 0.096336669134809427 0 -0.029459919491476121 0.1011230655410132 0 -0.021580178673492881 0.1105609364200745 0 -0.037915498494119543 0.10215930426450601 0 -0.007175360702145514 0.1155930690216506 0 -0.02544928824037461 0.096336669134809427 0 -0.007175360702145514 0.1155930690216506 0 -0.02544928824037461 0.096336669134809427 0 -0.0241566231860777 0.1021061234229471 0 -0.02544928824037461 0.096336669134809427 0 -0.029459919491476121 0.1011230655410132 0 -0.035034026511796899 0.0954599165668297 0 -0.02544928824037461 0.096336669134809427 0 -0.029459919491476121 0.1011230655410132 0 -0.0241566231860777 0.1021061234229471 0 -0.02544928824037461 0.096336669134809427 0 -0.0241566231860777 0.1021061234229471 0 -0.029459919491476121 0.1011230655410132 0 -0.0241566231860777 0.1021061234229471 0 -0.021580178673492881 0.1105609364200745 0 -0.02482114599867602 0.1199028763409456 0 -0.021580178673492881 0.1105609364200745 0 -0.032585978911933711 0.11378053360982859 0 -0.007175360702145514 0.1155930690216506 0 -0.0241566231860777 0.1021061234229471 0 -0.021580178673492881 0.1105609364200745 0 -0.0187932077553963 0.1304023687453105 0 -0.007175360702145514 0.1155930690216506 0 -0.02482114599867602 0.1199028763409456 0 -0.007175360702145514 0.1155930690216506 0 -0.02482114599867602 0.1199028763409456 0 -0.021580178673492881 0.1105609364200745 0 -0.01109578586274463 0.07592966442077155 0 -0.01963881101933795 0.057650575484614511 0 -0.0089029190745683329 0.062319161291970238 0 -0.0031702267477386531 0.067180855403790804 0 -0.01109578586274463 0.07592966442077155 0 0.0065236609159091173 0.071671444604676282 0 -0.0031702267477386531 0.067180855403790804 0 -0.0089029190745683329 0.062319161291970238 0 0.00079413703044923156 0.058803151297745167 0 -0.0031702267477386531 0.067180855403790804 0 -0.01109578586274463 0.07592966442077155 0 -0.0089029190745683329 0.062319161291970238 0 -0.0040088977147468936 0.097024336429998151 0 -0.01109578586274463 0.07592966442077155 0 0.011643404763696401 0.092949868607662828 0 -0.0040088977147468936 0.097024336429998151 0 -0.013655752966245171 0.094180689311720855 0 -0.01109578586274463 0.07592966442077155 0 -0.013655752966245171 0.094180689311720855 0 -0.01109578586274463 0.07592966442077155 0 -0.02054943231121421 0.086019707551374502 0 -0.02544928824037461 0.096336669134809427 0 -0.02054943231121421 0.086019707551374502 0 -0.029642132364781061 0.077623064684345475 0 -0.02544928824037461 0.096336669134809427 0 -0.029642132364781061 0.077623064684345475 0 -0.036673455980692451 0.084509049595857907 0 -0.01109578586274463 0.07592966442077155 0 -0.02054943231121421 0.086019707551374502 0 -0.029642132364781061 0.077623064684345475 0 -0.02544928824037461 0.096336669134809427 0 -0.029642132364781061 0.077623064684345475 0 -0.013655752966245171 0.094180689311720855 0 -0.02544928824037461 0.096336669134809427 0 -0.02054943231121421 0.086019707551374502 0 -0.02544928824037461 0.096336669134809427 0 -0.036673455980692451 0.084509049595857907 0 -0.01109578586274463 0.07592966442077155 0 -0.033834976489186493 0.058909460233881362 0 -0.01109578586274463 0.07592966442077155 0 -0.029642132364781061 0.077623064684345475 0 -0.033834976489186493 0.058909460233881362 0 -0.01109578586274463 0.07592966442077155 0 -0.033834976489186493 0.058909460233881362 0 -0.01963881101933795 0.057650575484614511 0 -0.029642132364781061 0.077623064684345475 0 -0.033834976489186493 0.058909460233881362 0 -0.029642132364781061 0.077623064684345475 0 -0.036732086871232597 0.066761861307427367 0 -0.033834976489186493 0.058909460233881362 0 -0.042969512877196837 0.063698159366550891 0 -0.036732086871232597 0.066761861307427367 0 -0.038306240480512441 0.072768089837317376 0 -0.042969512877196837 0.063698159366550891 0 -0.038306240480512441 0.072768089837317376 0 -0.046136221960229658 0.070392563092827029 0 -0.042969512877196837 0.063698159366550891 0 -0.036732086871232597 0.066761861307427367 0 -0.038907572144486188 0.060810532415041758 0 -0.029642132364781061 0.077623064684345475 0 -0.036732086871232597 0.066761861307427367 0 -0.038306240480512441 0.072768089837317376 0 -0.038306240480512441 0.072768089837317376 0 -0.046136221960229658 0.070392563092827029 0 -0.043586306971417507 0.077534071189344175 0 -0.038306240480512441 0.072768089837317376 0 -0.043586306971417507 0.077534071189344175 0 -0.036673455980692451 0.084509049595857907 0 -0.043586306971417507 0.077534071189344175 0 -0.036673455980692451 0.084509049595857907 0 -0.046978765451358998 0.084182386091036676 0 -0.029642132364781061 0.077623064684345475 0 -0.038306240480512441 0.072768089837317376 0 -0.036673455980692451 0.084509049595857907 0 -0.02544928824037461 0.096336669134809427 0 -0.036673455980692451 0.084509049595857907 0 -0.035034026511796899 0.0954599165668297 0 -0.036673455980692451 0.084509049595857907 0 -0.044089979176562301 0.093675305350012283 0 -0.035034026511796899 0.0954599165668297 0 -0.036673455980692451 0.084509049595857907 0 -0.044089979176562301 0.093675305350012283 0 -0.046978765451358998 0.084182386091036676 0 -0.044089979176562301 0.093675305350012283 0 -0.057144835734191893 0.088207312209507505 0 -0.046978765451358998 0.084182386091036676 0 -0.057144835734191893 0.088207312209507505 0 -0.046978765451358998 0.084182386091036676 0 -0.053399249393930842 0.076986192110461482 0 -0.043586306971417507 0.077534071189344175 0 -0.046978765451358998 0.084182386091036676 0 -0.053399249393930842 0.076986192110461482 0 -0.053399249393930842 0.076986192110461482 0 -0.070406408885084593 0.061857930521202607 0 -0.059815066152941319 0.061788281472960463 0 -0.057144835734191893 0.088207312209507505 0 -0.053399249393930842 0.076986192110461482 0 -0.070406408885084593 0.061857930521202607 0 -0.046136221960229658 0.070392563092827029 0 -0.043586306971417507 0.077534071189344175 0 -0.053399249393930842 0.076986192110461482 0 -0.046136221960229658 0.070392563092827029 0 -0.053399249393930842 0.076986192110461482 0 -0.05257832837313995 0.068950164376806455 0 -0.053399249393930842 0.076986192110461482 0 -0.05257832837313995 0.068950164376806455 0 -0.059815066152941319 0.061788281472960463 0 -0.05257832837313995 0.068950164376806455 0 -0.052166049838275927 0.062310195238599278 0 -0.059815066152941319 0.061788281472960463 0 -0.046136221960229658 0.070392563092827029 0 -0.05257832837313995 0.068950164376806455 0 -0.052166049838275927 0.062310195238599278 0 -0.042969512877196837 0.063698159366550891 0 -0.046136221960229658 0.070392563092827029 0 -0.052166049838275927 0.062310195238599278 0 -0.021580178673492881 0.1105609364200745 0 -0.043883262583300407 0.11455669389781301 0 -0.021580178673492881 0.1105609364200745 0 -0.043883262583300407 0.11455669389781301 0 -0.032585978911933711 0.11378053360982859 0 -0.037584816749385713 0.12707105787504261 0 -0.051208231868337763 0.1260313133231428 0 -0.043883262583300407 0.11455669389781301 0 -0.037584816749385713 0.12707105787504261 0 -0.043883262583300407 0.11455669389781301 0 -0.037584816749385713 0.12707105787504261 0 -0.032585978911933711 0.11378053360982859 0 -0.037584816749385713 0.12707105787504261 0 -0.043883262583300407 0.11455669389781301 0 -0.032585978911933711 0.11378053360982859 0 -0.037584816749385713 0.12707105787504261 0 -0.02482114599867602 0.1199028763409456 0 -0.032585978911933711 0.11378053360982859 0 -0.021580178673492881 0.1105609364200745 0 -0.043883262583300407 0.11455669389781301 0 -0.037915498494119543 0.10215930426450601 0 -0.044089979176562301 0.093675305350012283 0 -0.043883262583300407 0.11455669389781301 0 -0.037915498494119543 0.10215930426450601 0 -0.044089979176562301 0.093675305350012283 0 -0.037915498494119543 0.10215930426450601 0 -0.035034026511796899 0.0954599165668297 0 -0.029459919491476121 0.1011230655410132 0 -0.037915498494119543 0.10215930426450601 0 -0.035034026511796899 0.0954599165668297 0 -0.044089979176562301 0.093675305350012283 0 -0.057144835734191893 0.088207312209507505 0 -0.043883262583300407 0.11455669389781301 0 -0.057144835734191893 0.088207312209507505 0 -0.043883262583300407 0.11455669389781301 0 -0.057144835734191893 0.088207312209507505 0 -0.043883262583300407 0.11455669389781301 0 -0.056175626513735713 0.104231459755559 0 -0.056175626513735713 0.104231459755559 0 -0.061770267295803899 0.1005995653590098 0 -0.06411880478631618 0.11818203644688791 0 -0.057144835734191893 0.088207312209507505 0 -0.056175626513735713 0.104231459755559 0 -0.061770267295803899 0.1005995653590098 0 -0.043883262583300407 0.11455669389781301 0 -0.06411880478631618 0.11818203644688791 0 -0.051208231868337763 0.1260313133231428 0 -0.043883262583300407 0.11455669389781301 0 -0.06411880478631618 0.11818203644688791 0 -0.043883262583300407 0.11455669389781301 0 -0.056175626513735713 0.104231459755559 0 -0.06411880478631618 0.11818203644688791 0 -0.071786582042575819 0.1280585334591178 0 -0.06411880478631618 0.11818203644688791 0 -0.08034823769671974 0.121089655777625 0 -0.06411880478631618 0.11818203644688791 0 -0.08034823769671974 0.121089655777625 0 -0.075381325115152609 0.106019298300689 0 -0.06411880478631618 0.11818203644688791 0 -0.08034823769671974 0.121089655777625 0 -0.08034823769671974 0.121089655777625 0 -0.096577670607123245 0.1239972751083621 0 -0.08034823769671974 0.121089655777625 0 -0.092569001324263961 0.1124699312803344 0 -0.096577670607123245 0.1239972751083621 0 -0.08034823769671974 0.121089655777625 0 -0.083967771981719092 0.1102844810624737 0 -0.092569001324263961 0.1124699312803344 0 -0.08034823769671974 0.121089655777625 0 -0.083967771981719092 0.1102844810624737 0 -0.075381325115152609 0.106019298300689 0 -0.087572523790740042 0.10155903889124659 0 -0.082071947835387321 0.094412947715560025 0 -0.09233625647768956 0.091651488650119919 0 -0.083967771981719092 0.1102844810624737 0 -0.092569001324263961 0.1124699312803344 0 -0.087572523790740042 0.10155903889124659 0 -0.083967771981719092 0.1102844810624737 0 -0.087572523790740042 0.10155903889124659 0 -0.075381325115152609 0.106019298300689 0 -0.087572523790740042 0.10155903889124659 0 -0.082071947835387321 0.094412947715560025 0 -0.075381325115152609 0.106019298300689 0 -0.06411880478631618 0.11818203644688791 0 -0.06964180214897181 0.091777453024084701 0 -0.082071947835387321 0.094412947715560025 0 -0.075381325115152609 0.106019298300689 0 -0.06964180214897181 0.091777453024084701 0 -0.06411880478631618 0.11818203644688791 0 -0.075381325115152609 0.106019298300689 0 -0.06964180214897181 0.091777453024084701 0 -0.061770267295803899 0.1005995653590098 0 -0.06411880478631618 0.11818203644688791 0 -0.06964180214897181 0.091777453024084701 0 -0.057144835734191893 0.088207312209507505 0 -0.061770267295803899 0.1005995653590098 0 -0.06964180214897181 0.091777453024084701 0 -0.06964180214897181 0.091777453024084701 0 -0.075164799511626648 0.065372869601281192 0 -0.057144835734191893 0.088207312209507505 0 -0.06964180214897181 0.091777453024084701 0 -0.068089461569968729 0.076803891339018993 0 -0.06964180214897181 0.091777453024084701 0 -0.068089461569968729 0.076803891339018993 0 -0.075164799511626648 0.065372869601281192 0 -0.057144835734191893 0.088207312209507505 0 -0.068089461569968729 0.076803891339018993 0 -0.070406408885084593 0.061857930521202607 0 -0.06964180214897181 0.091777453024084701 0 -0.075164799511626648 0.065372869601281192 0 -0.08073347634316104 0.073575546631144614 0 -0.057144835734191893 0.088207312209507505 0 -0.070406408885084593 0.061857930521202607 0 -0.068089461569968729 0.076803891339018993 0 -0.075164799511626648 0.065372869601281192 0 -0.070406408885084593 0.061857930521202607 0 -0.089923560922876636 0.068178037636278263 0 -0.08578586832533959 0.082170087930996366 0 -0.103675070998617 0.083967309240415983 0 -0.08073347634316104 0.073575546631144614 0 -0.089923560922876636 0.068178037636278263 0 -0.083186879645449088 0.059889597987781727 0 -0.075164799511626648 0.065372869601281192 0 -0.08073347634316104 0.073575546631144614 0 -0.083186879645449088 0.059889597987781727 0 -0.08073347634316104 0.073575546631144614 0 -0.089923560922876636 0.068178037636278263 0 -0.08578586832533959 0.082170087930996366 0 -0.06964180214897181 0.091777453024084701 0 -0.08073347634316104 0.073575546631144614 0 -0.08578586832533959 0.082170087930996366 0 -0.082071947835387321 0.094412947715560025 0 -0.06964180214897181 0.091777453024084701 0 -0.08578586832533959 0.082170087930996366 0 -0.082071947835387321 0.094412947715560025 0 -0.08578586832533959 0.082170087930996366 0 -0.09233625647768956 0.091651488650119919 0 -0.09233625647768956 0.091651488650119919 0 -0.103675070998617 0.083967309240415983 0 -0.10429444750695741 0.1014886749251958 0 -0.08578586832533959 0.082170087930996366 0 -0.09233625647768956 0.091651488650119919 0 -0.103675070998617 0.083967309240415983 0 -0.103675070998617 0.083967309240415983 0 -0.1198812247159142 0.095002477965890675 0 -0.10429444750695741 0.1014886749251958 0 -0.089923560922876636 0.068178037636278263 0 -0.103675070998617 0.083967309240415983 0 -0.10785209906359081 0.065371441260914459 0 -0.12533951967512769 0.078274991835817334 0 -0.103675070998617 0.083967309240415983 0 -0.10785209906359081 0.065371441260914459 0 -0.12533951967512769 0.078274991835817334 0 -0.10785209906359081 0.065371441260914459 0 -0.1248745965026067 0.059896082918310993 0 -0.12533951967512769 0.078274991835817334 0 -0.103675070998617 0.083967309240415983 0 -0.1198812247159142 0.095002477965890675 0 -0.13137241316615089 0.11357835761918721 0 -0.1198812247159142 0.095002477965890675 0 -0.10429444750695741 0.1014886749251958 0 -0.13137241316615089 0.11357835761918721 0 -0.12687331202938101 0.13192737382428379 0 -0.10667563132183119 0.1260080396076822 0 -0.13137241316615089 0.11357835761918721 0 -0.10667563132183119 0.1260080396076822 0 -0.1062978327852654 0.11550845570815239 0 -0.13137241316615089 0.11357835761918721 0 -0.1062978327852654 0.11550845570815239 0 -0.10429444750695741 0.1014886749251958 0 -0.13137241316615089 0.11357835761918721 0 -0.10667563132183119 0.1260080396076822 0 -0.10667563132183119 0.1260080396076822 0 -0.1062978327852654 0.11550845570815239 0 -0.096577670607123245 0.1239972751083621 0 -0.092569001324263961 0.1124699312803344 0 -0.1062978327852654 0.11550845570815239 0 -0.096577670607123245 0.1239972751083621 0 -0.092569001324263961 0.1124699312803344 0 -0.1062978327852654 0.11550845570815239 0 -0.10429444750695741 0.1014886749251958 0 -0.092569001324263961 0.1124699312803344 0 -0.087572523790740042 0.10155903889124659 0 -0.10429444750695741 0.1014886749251958 0 -0.087572523790740042 0.10155903889124659 0 -0.09233625647768956 0.091651488650119919 0 -0.10429444750695741 0.1014886749251958 0 -0.10370969952600501 0.019997694726909911 0 -0.098524362227562057 0.035744340183224317 0 -0.08645931971955316 0.02325136753113614 0 -0.10370969952600501 0.019997694726909911 0 -0.08645931971955316 0.02325136753113614 0 -0.091682611010439896 0.0063963380850077774 0 -0.10370969952600501 0.019997694726909911 0 -0.1180188049733784 0.030804183747700629 0 -0.098524362227562057 0.035744340183224317 0 -0.10370969952600501 0.019997694726909911 0 -0.10877227824827949 0.0075748546359299482 0 -0.091682611010439896 0.0063963380850077774 0 -0.1029392013539359 -0.0085751277431150782 0 -0.10877227824827949 0.0075748546359299482 0 -0.091682611010439896 0.0063963380850077774 0 -0.10370969952600501 0.019997694726909911 0 -0.10877227824827949 0.0075748546359299482 0 -0.11835839359799651 0.016938700943610479 0 -0.1029392013539359 -0.0085751277431150782 0 -0.12735709500343681 0.004015926865657337 0 -0.10877227824827949 0.0075748546359299482 0 -0.12735709500343681 0.004015926865657337 0 -0.10877227824827949 0.0075748546359299482 0 -0.11835839359799651 0.016938700943610479 0 -0.1339340902388827 0.022300844741854581 0 -0.11835839359799651 0.016938700943610479 0 -0.1180188049733784 0.030804183747700629 0 -0.10370969952600501 0.019997694726909911 0 -0.11835839359799651 0.016938700943610479 0 -0.1180188049733784 0.030804183747700629 0 -0.1180188049733784 0.030804183747700629 0 -0.1128457876968547 0.048091259023394652 0 -0.098524362227562057 0.035744340183224317 0 -0.13626681081840961 0.042829268155062397 0 -0.1128457876968547 0.048091259023394652 0 -0.13626681081840961 0.042829268155062397 0 -0.1180188049733784 0.030804183747700629 0 -0.1128457876968547 0.048091259023394652 0 -0.13626681081840961 0.042829268155062397 0 -0.1128457876968547 0.048091259023394652 0 -0.1248745965026067 0.059896082918310993 0 -0.10785209906359081 0.065371441260914459 0 -0.1128457876968547 0.048091259023394652 0 -0.1248745965026067 0.059896082918310993 0 -0.1128457876968547 0.048091259023394652 0 -0.089424764575299687 0.053353249891726941 0 -0.089923560922876636 0.068178037636278263 0 -0.10785209906359081 0.065371441260914459 0 -0.089424764575299687 0.053353249891726941 0 -0.10785209906359081 0.065371441260914459 0 -0.1128457876968547 0.048091259023394652 0 -0.089424764575299687 0.053353249891726941 0 -0.1128457876968547 0.048091259023394652 0 -0.098524362227562057 0.035744340183224317 0 -0.089424764575299687 0.053353249891726941 0 -0.098524362227562057 0.035744340183224317 0 -0.080687796874281473 0.038968286178477703 0 -0.08645931971955316 0.02325136753113614 0 -0.098524362227562057 0.035744340183224317 0 -0.080687796874281473 0.038968286178477703 0 -0.089424764575299687 0.053353249891726941 0 -0.080687796874281473 0.038968286178477703 0 -0.089424764575299687 0.053353249891726941 0 -0.083186879645449088 0.059889597987781727 0 -0.075164799511626648 0.065372869601281192 0 -0.080687796874281473 0.038968286178477703 0 -0.083186879645449088 0.059889597987781727 0 -0.089923560922876636 0.068178037636278263 0 -0.089424764575299687 0.053353249891726941 0 -0.083186879645449088 0.059889597987781727 0 -0.075164799511626648 0.065372869601281192 0 -0.080687796874281473 0.038968286178477703 0 -0.071303082845968715 0.053347503409362687 0 -0.075164799511626648 0.065372869601281192 0 -0.080687796874281473 0.038968286178477703 0 -0.075164799511626648 0.065372869601281192 0 -0.070406408885084593 0.061857930521202607 0 -0.071303082845968715 0.053347503409362687 0 -0.071303082845968715 0.053347503409362687 0 -0.064856269609628314 0.055117702274744398 0 -0.065400139349222536 0.045420728471107522 0 -0.070406408885084593 0.061857930521202607 0 -0.071303082845968715 0.053347503409362687 0 -0.064856269609628314 0.055117702274744398 0 -0.070406408885084593 0.061857930521202607 0 -0.064856269609628314 0.055117702274744398 0 -0.059815066152941319 0.061788281472960463 0 -0.080687796874281473 0.038968286178477703 0 -0.065400139349222536 0.045420728471107522 0 -0.063264057366842208 0.031259222641012697 0 -0.080687796874281473 0.038968286178477703 0 -0.063264057366842208 0.031259222641012697 0 -0.073460039823911166 0.024685388153665749 0 -0.080687796874281473 0.038968286178477703 0 -0.071303082845968715 0.053347503409362687 0 -0.065400139349222536 0.045420728471107522 0 -0.063264057366842208 0.031259222641012697 0 -0.073460039823911166 0.024685388153665749 0 -0.061440697951084179 0.017621877449499421 0 -0.073460039823911166 0.024685388153665749 0 -0.076769634387976737 0.01135693610240161 0 -0.061440697951084179 0.017621877449499421 0 -0.080687796874281473 0.038968286178477703 0 -0.073460039823911166 0.024685388153665749 0 -0.08645931971955316 0.02325136753113614 0 -0.073460039823911166 0.024685388153665749 0 -0.08645931971955316 0.02325136753113614 0 -0.076769634387976737 0.01135693610240161 0 -0.08645931971955316 0.02325136753113614 0 -0.091682611010439896 0.0063963380850077774 0 -0.076769634387976737 0.01135693610240161 0 -0.091682611010439896 0.0063963380850077774 0 -0.078933949510919491 0.00072378658541613432 0 -0.076769634387976737 0.01135693610240161 0 -0.086097875964997059 -0.0058870606910941042 0 -0.091682611010439896 0.0063963380850077774 0 -0.078933949510919491 0.00072378658541613432 0 -0.078933949510919491 0.00072378658541613432 0 -0.076769634387976737 0.01135693610240161 0 -0.068462160169621672 0.0025537029525893409 0 -0.068462160169621672 0.0025537029525893409 0 -0.057836245250817257 0.0062936453779614283 0 -0.061440697951084179 0.017621877449499421 0 -0.076769634387976737 0.01135693610240161 0 -0.068462160169621672 0.0025537029525893409 0 -0.061440697951084179 0.017621877449499421 0 -0.057836245250817257 0.0062936453779614283 0 -0.061440697951084179 0.017621877449499421 0 -0.042678209040760022 0.019440128409622049 0 -0.057836245250817257 0.0062936453779614283 0 -0.042678209040760022 0.019440128409622049 0 -0.044352522143416888 0.0050416822031405977 0 -0.063264057366842208 0.031259222641012697 0 -0.042678209040760022 0.019440128409622049 0 -0.05195897498334151 0.039592758420259042 0 -0.063264057366842208 0.031259222641012697 0 -0.061440697951084179 0.017621877449499421 0 -0.042678209040760022 0.019440128409622049 0 -0.042678209040760022 0.019440128409622049 0 -0.038256592764973757 0.039174794321751791 0 -0.042678209040760022 0.019440128409622049 0 -0.038256592764973757 0.039174794321751791 0 -0.027511467414372541 0.03001296694831072 0 -0.042678209040760022 0.019440128409622049 0 -0.028180513839983729 0.018098474401369 0 -0.027511467414372541 0.03001296694831072 0 -0.042678209040760022 0.019440128409622049 0 -0.032770024037711037 0.0084985419153508525 0 -0.028180513839983729 0.018098474401369 0 -0.032770024037711037 0.0084985419153508525 0 -0.03614709390981162 0.0015378833132510439 0 -0.044352522143416888 0.0050416822031405977 0 -0.029539197120254941 -0.00051038393964639519 0 -0.032770024037711037 0.0084985419153508525 0 -0.03614709390981162 0.0015378833132510439 0 -0.042678209040760022 0.019440128409622049 0 -0.032770024037711037 0.0084985419153508525 0 -0.044352522143416888 0.0050416822031405977 0 -0.042969512877196837 0.063698159366550891 0 -0.047980875447113908 0.056604040506729722 0 -0.052166049838275927 0.062310195238599278 0 -0.047980875447113908 0.056604040506729722 0 -0.052166049838275927 0.062310195238599278 0 -0.055804220694704088 0.051985500715961808 0 -0.064856269609628314 0.055117702274744398 0 -0.059815066152941319 0.061788281472960463 0 -0.055804220694704088 0.051985500715961808 0 -0.052166049838275927 0.062310195238599278 0 -0.059815066152941319 0.061788281472960463 0 -0.055804220694704088 0.051985500715961808 0 -0.064856269609628314 0.055117702274744398 0 -0.065400139349222536 0.045420728471107522 0 -0.055804220694704088 0.051985500715961808 0 -0.047980875447113908 0.056604040506729722 0 -0.055804220694704088 0.051985500715961808 0 -0.046350630683546529 0.050276175962098407 0 -0.055804220694704088 0.051985500715961808 0 -0.05195897498334151 0.039592758420259042 0 -0.046350630683546529 0.050276175962098407 0 -0.065400139349222536 0.045420728471107522 0 -0.055804220694704088 0.051985500715961808 0 -0.05195897498334151 0.039592758420259042 0 -0.065400139349222536 0.045420728471107522 0 -0.063264057366842208 0.031259222641012697 0 -0.05195897498334151 0.039592758420259042 0 -0.042678209040760022 0.019440128409622049 0 -0.05195897498334151 0.039592758420259042 0 -0.038256592764973757 0.039174794321751791 0 -0.05195897498334151 0.039592758420259042 0 -0.038256592764973757 0.039174794321751791 0 -0.046350630683546529 0.050276175962098407 0 -0.038256592764973757 0.039174794321751791 0 -0.033834976489186493 0.058909460233881362 0 -0.038256592764973757 0.039174794321751791 0 -0.038513274033404883 0.055407770980391423 0 -0.033834976489186493 0.058909460233881362 0 -0.038256592764973757 0.039174794321751791 0 -0.046350630683546529 0.050276175962098407 0 -0.038513274033404883 0.055407770980391423 0 -0.038256592764973757 0.039174794321751791 0 -0.033834976489186493 0.058909460233881362 0 -0.02879531395286377 0.050132256585483953 0 -0.046350630683546529 0.050276175962098407 0 -0.038513274033404883 0.055407770980391423 0 -0.042914570065583427 0.057802329486214707 0 -0.036732086871232597 0.066761861307427367 0 -0.033834976489186493 0.058909460233881362 0 -0.038907572144486188 0.060810532415041758 0 -0.038513274033404883 0.055407770980391423 0 -0.033834976489186493 0.058909460233881362 0 -0.038513274033404883 0.055407770980391423 0 -0.033834976489186493 0.058909460233881362 0 -0.038907572144486188 0.060810532415041758 0 -0.042969512877196837 0.063698159366550891 0 -0.038907572144486188 0.060810532415041758 0 -0.042914570065583427 0.057802329486214707 0 -0.038513274033404883 0.055407770980391423 0 -0.038907572144486188 0.060810532415041758 0 -0.042914570065583427 0.057802329486214707 0 -0.047980875447113908 0.056604040506729722 0 -0.046350630683546529 0.050276175962098407 0 -0.042914570065583427 0.057802329486214707 0 -0.042969512877196837 0.063698159366550891 0 -0.047980875447113908 0.056604040506729722 0 -0.042914570065583427 0.057802329486214707 0 -0.033834976489186493 0.058909460233881362 0 -0.01963881101933795 0.057650575484614511 0 -0.02879531395286377 0.050132256585483953 0 -0.01963881101933795 0.057650575484614511 0 -0.02879531395286377 0.050132256585483953 0 -0.02345087553795689 0.044794196301688183 0 -0.01963881101933795 0.057650575484614511 0 -0.02345087553795689 0.044794196301688183 0 -0.012175026131353321 0.050402421608982242 0 -0.02345087553795689 0.044794196301688183 0 -0.014695186475719159 0.0359408453649432 0 -0.012175026131353321 0.050402421608982242 0 -0.038256592764973757 0.039174794321751791 0 -0.02879531395286377 0.050132256585483953 0 -0.02345087553795689 0.044794196301688183 0 -0.038256592764973757 0.039174794321751791 0 -0.02345087553795689 0.044794196301688183 0 -0.027511467414372541 0.03001296694831072 0 -0.02345087553795689 0.044794196301688183 0 -0.014695186475719159 0.0359408453649432 0 -0.027511467414372541 0.03001296694831072 0 -0.014695186475719159 0.0359408453649432 0 -0.0023331541944977092 0.045311556235899067 0 0.00074240361007229996 0.028778475488121531 0 -0.014695186475719159 0.0359408453649432 0 -0.0023331541944977092 0.045311556235899067 0 -0.012175026131353321 0.050402421608982242 0 -0.0023331541944977092 0.045311556235899067 0 -0.012175026131353321 0.050402421608982242 0 0.00079413703044923156 0.058803151297745167 0 -0.012175026131353321 0.050402421608982242 0 -0.0089029190745683329 0.062319161291970238 0 0.00079413703044923156 0.058803151297745167 0 -0.01963881101933795 0.057650575484614511 0 -0.012175026131353321 0.050402421608982242 0 -0.0089029190745683329 0.062319161291970238 0 -0.021996997598287969 0.010981086364913869 0 -0.02112675760807068 0.0030512678310729521 0 -0.0083058662928979787 0.012079608812324741 0 -0.021996997598287969 0.010981086364913869 0 -0.01661374249992489 0.02103319015209278 0 -0.0083058662928979787 0.012079608812324741 0 -0.021996997598287969 0.010981086364913869 0 -0.02112675760807068 0.0030512678310729521 0 -0.02631380729169577 0.0053104208567875946 0 -0.029539197120254941 -0.00051038393964639519 0 -0.02112675760807068 0.0030512678310729521 0 -0.02631380729169577 0.0053104208567875946 0 -0.029539197120254941 -0.00051038393964639519 0 -0.032770024037711037 0.0084985419153508525 0 -0.02631380729169577 0.0053104208567875946 0 -0.032770024037711037 0.0084985419153508525 0 -0.021996997598287969 0.010981086364913869 0 -0.02631380729169577 0.0053104208567875946 0 -0.032770024037711037 0.0084985419153508525 0 -0.021996997598287969 0.010981086364913869 0 -0.028180513839983729 0.018098474401369 0 -0.028180513839983729 0.018098474401369 0 -0.027511467414372541 0.03001296694831072 0 -0.01661374249992489 0.02103319015209278 0 -0.014695186475719159 0.0359408453649432 0 -0.027511467414372541 0.03001296694831072 0 -0.01661374249992489 0.02103319015209278 0 -0.021996997598287969 0.010981086364913869 0 -0.028180513839983729 0.018098474401369 0 -0.01661374249992489 0.02103319015209278 0 -0.01661374249992489 0.02103319015209278 0 0.00074240361007229996 0.028778475488121531 0 -0.0083058662928979787 0.012079608812324741 0 0.0060294939382754481 0.01286563290641534 0 0.00074240361007229996 0.028778475488121531 0 -0.014695186475719159 0.0359408453649432 0 -0.01661374249992489 0.02103319015209278 0 0.00074240361007229996 0.028778475488121531 0 -0.0083058662928979787 0.012079608812324741 0 0.00074240361007229996 0.028778475488121531 0 -0.01661374249992489 0.02103319015209278 0 -0.0083058662928979787 0.012079608812324741 0 0.00074240361007229996 0.028778475488121531 0 -0.0072764121498596901 -0.0036325873431357339 0 -0.0083058662928979787 0.012079608812324741 0 0.0012074066645448821 -0.00065723147797176382 0 -0.0072764121498596901 -0.0036325873431357339 0 -0.013607688627124061 -0.00178224205395049 0 -0.0083058662928979787 0.012079608812324741 0 -0.017354136195868258 -0.0046192578634720229 0 -0.0083058662928979787 0.012079608812324741 0 -0.017354136195868258 -0.0046192578634720229 0 -0.013607688627124061 -0.00178224205395049 0 -0.0083058662928979787 0.012079608812324741 0 -0.0083058662928979787 0.012079608812324741 0 0.0060294939382754481 0.01286563290641534 0 0.0012074066645448821 -0.00065723147797176382 0 -0.017354136195868258 -0.0046192578634720229 0 -0.02112675760807068 0.0030512678310729521 0 -0.0083058662928979787 0.012079608812324741 0 0.0060294939382754481 0.01286563290641534 0 0.0012074066645448821 -0.00065723147797176382 0 0.01265631079038235 -0.01012693536007268 0 0.0060294939382754481 0.01286563290641534 0 0.020311547060899309 0.014329649790385431 0 0.01265631079038235 -0.01012693536007268 0 0.00074240361007229996 0.028778475488121531 0 0.015746539320639769 0.024046632949657649 0 0.022626785018342459 0.038544513255683338 0 0.0060294939382754481 0.01286563290641534 0 0.00074240361007229996 0.028778475488121531 0 0.015746539320639769 0.024046632949657649 0 0.0060294939382754481 0.01286563290641534 0 0.015746539320639769 0.024046632949657649 0 0.020311547060899309 0.014329649790385431 0 0.015746539320639769 0.024046632949657649 0 0.029022466975609298 0.02571489330768258 0 0.020311547060899309 0.014329649790385431 0 0.015746539320639769 0.024046632949657649 0 0.029022466975609298 0.02571489330768258 0 0.022626785018342459 0.038544513255683338 0 0.020311547060899309 0.014329649790385431 0 0.034885408484197772 0.0062912350017927032 0 0.01265631079038235 -0.01012693536007268 0 0.029022466975609298 0.02571489330768258 0 0.020311547060899309 0.014329649790385431 0 0.034885408484197772 0.0062912350017927032 0 0.00079413703044923156 0.058803151297745167 0 0.01366790099406239 0.052632887419703241 0 0.0065236609159091173 0.071671444604676282 0 -0.0023331541944977092 0.045311556235899067 0 0.00079413703044923156 0.058803151297745167 0 0.01366790099406239 0.052632887419703241 0 0.00074240361007229996 0.028778475488121531 0 0.01366790099406239 0.052632887419703241 0 0.022626785018342459 0.038544513255683338 0 0.00074240361007229996 0.028778475488121531 0 0.022626785018342459 0.038544513255683338 0 -0.0023331541944977092 0.045311556235899067 0 0.00074240361007229996 0.028778475488121531 0 0.01366790099406239 0.052632887419703241 0 0.00074240361007229996 0.028778475488121531 0 0.01366790099406239 0.052632887419703241 0 0.029022466975609298 0.02571489330768258 0 0.022626785018342459 0.038544513255683338 0 0.037630953216902623 0.033668105561091018 0 0.01366790099406239 0.052632887419703241 0 0.022626785018342459 0.038544513255683338 0 0.025434983742737761 0.055249644843112657 0 0.022626785018342459 0.038544513255683338 0 0.025434983742737761 0.055249644843112657 0 0.034616451435572633 0.051242168749322393 0 0.025434983742737761 0.055249644843112657 0 0.034062632092931817 0.061255223706808547 0 0.02703491536905472 0.067401080742933134 0 0.01366790099406239 0.052632887419703241 0 0.025434983742737761 0.055249644843112657 0 0.02703491536905472 0.067401080742933134 0 0.034616451435572633 0.051242168749322393 0 0.044511166426612833 0.04831055102324476 0 0.060132464308973767 0.062986029428160187 0 0.034616451435572633 0.051242168749322393 0 0.060132464308973767 0.062986029428160187 0 0.044258496001147778 0.063884183083345675 0 0.034062632092931817 0.061255223706808547 0 0.034616451435572633 0.051242168749322393 0 0.044258496001147778 0.063884183083345675 0 0.025434983742737761 0.055249644843112657 0 0.034062632092931817 0.061255223706808547 0 0.034616451435572633 0.051242168749322393 0 0.022626785018342459 0.038544513255683338 0 0.044511166426612833 0.04831055102324476 0 0.022626785018342459 0.038544513255683338 0 0.034616451435572633 0.051242168749322393 0 0.044511166426612833 0.04831055102324476 0 0.022626785018342459 0.038544513255683338 0 0.044511166426612833 0.04831055102324476 0 0.037630953216902623 0.033668105561091018 0 0.044511166426612833 0.04831055102324476 0 0.037630953216902623 0.033668105561091018 0 0.0484135161167236 0.034205204957136963 0 0.0484135161167236 0.034205204957136963 0 0.060669767880595721 0.038134724015348051 0 0.0518117103670514 0.042737821036878322 0 0.0484135161167236 0.034205204957136963 0 0.060669767880595721 0.038134724015348051 0 0.057623658326613529 0.02352368721002385 0 0.060669767880595721 0.038134724015348051 0 0.0518117103670514 0.042737821036878322 0 0.059559274975242667 0.047504887075434543 0 0.044511166426612833 0.04831055102324476 0 0.0518117103670514 0.042737821036878322 0 0.059559274975242667 0.047504887075434543 0 0.044511166426612833 0.04831055102324476 0 0.0484135161167236 0.034205204957136963 0 0.0518117103670514 0.042737821036878322 0 0.044511166426612833 0.04831055102324476 0 0.066395547834883203 0.05807658879080619 0 0.060132464308973767 0.062986029428160187 0 0.034616451435572633 0.051242168749322393 0 0.060132464308973767 0.062986029428160187 0 0.044511166426612833 0.04831055102324476 0 0.066395547834883203 0.05807658879080619 0 0.044511166426612833 0.04831055102324476 0 0.059559274975242667 0.047504887075434543 0 0.066395547834883203 0.05807658879080619 0 0.034885408484197772 0.0062912350017927032 0 0.052968053050369737 0.0090809173488315582 0 0.042517259973231587 -0.011683923625132649 0 0.034885408484197772 0.0062912350017927032 0 0.043580831547224863 0.021565365261707499 0 0.052968053050369737 0.0090809173488315582 0 0.029022466975609298 0.02571489330768258 0 0.034885408484197772 0.0062912350017927032 0 0.043580831547224863 0.021565365261707499 0 0.029022466975609298 0.02571489330768258 0 0.037630953216902623 0.033668105561091018 0 0.043580831547224863 0.021565365261707499 0 0.037630953216902623 0.033668105561091018 0 0.0484135161167236 0.034205204957136963 0 0.043580831547224863 0.021565365261707499 0 0.057623658326613529 0.02352368721002385 0 0.052968053050369737 0.0090809173488315582 0 0.071708216805815503 0.016768608491387289 0 0.043580831547224863 0.021565365261707499 0 0.057623658326613529 0.02352368721002385 0 0.052968053050369737 0.0090809173488315582 0 0.0484135161167236 0.034205204957136963 0 0.043580831547224863 0.021565365261707499 0 0.057623658326613529 0.02352368721002385 0 0.052968053050369737 0.0090809173488315582 0 0.071708216805815503 0.016768608491387289 0 0.067492943165135169 -0.0019794682467893379 0 0.083930998993742512 0.0059737405228527038 0 0.071708216805815503 0.016768608491387289 0 0.067492943165135169 -0.0019794682467893379 0 0.083930998993742512 0.0059737405228527038 0 0.098495163759696414 0.0029673617968291321 0 0.094917995650245529 0.021722354499223519 0 0.083930998993742512 0.0059737405228527038 0 0.071708216805815503 0.016768608491387289 0 0.094917995650245529 0.021722354499223519 0 0.071708216805815503 0.016768608491387289 0 0.07449934060461412 0.03258063005354956 0 0.094917995650245529 0.021722354499223519 0 0.07449934060461412 0.03258063005354956 0 0.087237150257314613 0.037926204838731957 0 0.094917995650245529 0.021722354499223519 0 0.057623658326613529 0.02352368721002385 0 0.071708216805815503 0.016768608491387289 0 0.07449934060461412 0.03258063005354956 0 0.060669767880595721 0.038134724015348051 0 0.057623658326613529 0.02352368721002385 0 0.07449934060461412 0.03258063005354956 0 0.060669767880595721 0.038134724015348051 0 0.069155187538762042 0.045022305850501279 0 0.07449934060461412 0.03258063005354956 0 0.060669767880595721 0.038134724015348051 0 0.059559274975242667 0.047504887075434543 0 0.069155187538762042 0.045022305850501279 0 0.069155187538762042 0.045022305850501279 0 0.07449934060461412 0.03258063005354956 0 0.079692196512252927 0.044953406994506007 0 0.059559274975242667 0.047504887075434543 0 0.069155187538762042 0.045022305850501279 0 0.067326156772233525 0.050603546620565112 0 0.059559274975242667 0.047504887075434543 0 0.066395547834883203 0.05807658879080619 0 0.067326156772233525 0.050603546620565112 0 0.066395547834883203 0.05807658879080619 0 0.067326156772233525 0.050603546620565112 0 0.074194616740046182 0.051810404765518438 0 0.069155187538762042 0.045022305850501279 0 0.067326156772233525 0.050603546620565112 0 0.074194616740046182 0.051810404765518438 0 0.069155187538762042 0.045022305850501279 0 0.074194616740046182 0.051810404765518438 0 0.079692196512252927 0.044953406994506007 0 0.066395547834883203 0.05807658879080619 0 0.074194616740046182 0.051810404765518438 0 0.080343143758095259 0.058335218209008277 0 0.066395547834883203 0.05807658879080619 0 0.080343143758095259 0.058335218209008277 0 0.08827992924315356 0.067842626558367619 0 0.080343143758095259 0.058335218209008277 0 0.083306510346727383 0.05351440315152866 0 0.090416084875221875 0.058235299142909973 0 0.074194616740046182 0.051810404765518438 0 0.083306510346727383 0.05351440315152866 0 0.079692196512252927 0.044953406994506007 0 0.083306510346727383 0.05351440315152866 0 0.089760373586053266 0.048866493307206167 0 0.079692196512252927 0.044953406994506007 0 0.074194616740046182 0.051810404765518438 0 0.080343143758095259 0.058335218209008277 0 0.083306510346727383 0.05351440315152866 0 0.083306510346727383 0.05351440315152866 0 0.089760373586053266 0.048866493307206167 0 0.090416084875221875 0.058235299142909973 0 0.089760373586053266 0.048866493307206167 0 0.090416084875221875 0.058235299142909973 0 0.099395501669828634 0.055681054702382278 0 0.080343143758095259 0.058335218209008277 0 0.090416084875221875 0.058235299142909973 0 0.08827992924315356 0.067842626558367619 0 0.087237150257314613 0.037926204838731957 0 0.098930039005792711 0.04227996871225087 0 0.094917995650245529 0.021722354499223519 0 0.07449934060461412 0.03258063005354956 0 0.079692196512252927 0.044953406994506007 0 0.087237150257314613 0.037926204838731957 0 0.089760373586053266 0.048866493307206167 0 0.079692196512252927 0.044953406994506007 0 0.087237150257314613 0.037926204838731957 0 0.089760373586053266 0.048866493307206167 0 0.087237150257314613 0.037926204838731957 0 0.098930039005792711 0.04227996871225087 0 0.10894092886672049 0.033503019923715648 0 0.098930039005792711 0.04227996871225087 0 0.11550376979223601 0.054551475820320147 0 0.10894092886672049 0.033503019923715648 0 0.098930039005792711 0.04227996871225087 0 0.094917995650245529 0.021722354499223519 0 0.098930039005792711 0.04227996871225087 0 0.099395501669828634 0.055681054702382278 0 0.11550376979223601 0.054551475820320147 0 0.099395501669828634 0.055681054702382278 0 0.11550376979223601 0.054551475820320147 0 0.10561354398445311 0.069921878226714862 0 0.090416084875221875 0.058235299142909973 0 0.099395501669828634 0.055681054702382278 0 0.095618088847860577 0.065038419849084594 0 0.089760373586053266 0.048866493307206167 0 0.098930039005792711 0.04227996871225087 0 0.099395501669828634 0.055681054702382278 0 0.10894092886672049 0.033503019923715648 0 0.11961069471150609 0.02296590295220987 0 0.12977361784467401 0.039215218793308727 0 0.10894092886672049 0.033503019923715648 0 0.11550376979223601 0.054551475820320147 0 0.12977361784467401 0.039215218793308727 0 0.11961069471150609 0.02296590295220987 0 0.1158546052028349 0.0064685721448778594 0 0.094917995650245529 0.021722354499223519 0 0.11961069471150609 0.02296590295220987 0 0.1158546052028349 0.0064685721448778594 0 0.13894824890776639 0.02136224913872127 0 0.1158546052028349 0.0064685721448778594 0 0.098495163759696414 0.0029673617968291321 0 0.094917995650245529 0.021722354499223519 0 0.10894092886672049 0.033503019923715648 0 0.11961069471150609 0.02296590295220987 0 0.094917995650245529 0.021722354499223519 0 0.097728221435088053 0.099184528615223033 0 0.110275064223293 0.10236359857942121 0 0.11116449005577619 0.086473750785835857 0 0.099894961061174667 0.1104201015940532 0 0.11150799601301251 0.1117412241471519 0 0.110275064223293 0.10236359857942121 0 0.097728221435088053 0.099184528615223033 0 0.099894961061174667 0.1104201015940532 0 0.110275064223293 0.10236359857942121 0 0.097728221435088053 0.099184528615223033 0 0.099894961061174667 0.1104201015940532 0 0.084925795867796111 0.1103515185161017 0 0.099894961061174667 0.1104201015940532 0 0.096984900528893664 0.1212489081817222 0 0.084925795867796111 0.1103515185161017 0 0.099894961061174667 0.1104201015940532 0 0.096984900528893664 0.1212489081817222 0 0.10712684862241641 0.1210429748963526 0 0.096984900528893664 0.1212489081817222 0 0.10712684862241641 0.1210429748963526 0 0.10589272808503949 0.13156516273042271 0 0.099894961061174667 0.1104201015940532 0 0.10712684862241641 0.1210429748963526 0 0.11150799601301251 0.1117412241471519 0 0.10712684862241641 0.1210429748963526 0 0.11150799601301251 0.1117412241471519 0 0.1187293914863337 0.1182846474287873 0 0.11150799601301251 0.1117412241471519 0 0.1187293914863337 0.1182846474287873 0 0.1197878353292403 0.1092484053650479 0 0.10712684862241641 0.1210429748963526 0 0.1187293914863337 0.1182846474287873 0 0.114987521205969 0.1268010028982309 0 0.1187293914863337 0.1182846474287873 0 0.12813823657366311 0.12049833089676459 0 0.12624189261331301 0.1140678077034443 0 0.1187293914863337 0.1182846474287873 0 0.12212988809696081 0.1249307776834532 0 0.12813823657366311 0.12049833089676459 0 0.1187293914863337 0.1182846474287873 0 0.12212988809696081 0.1249307776834532 0 0.114987521205969 0.1268010028982309 0 0.1187293914863337 0.1182846474287873 0 0.1197878353292403 0.1092484053650479 0 0.12624189261331301 0.1140678077034443 0 0.1216961693062274 0.1020981758197984 0 0.110275064223293 0.10236359857942121 0 0.11116449005577619 0.086473750785835857 0 0.1197878353292403 0.1092484053650479 0 0.1216961693062274 0.1020981758197984 0 0.1302764983332621 0.10693497851168419 0 0.1216961693062274 0.1020981758197984 0 0.11116449005577619 0.086473750785835857 0 0.13668050292917741 0.098217611464673699 0 0.1197878353292403 0.1092484053650479 0 0.1216961693062274 0.1020981758197984 0 0.110275064223293 0.10236359857942121 0 0.11150799601301251 0.1117412241471519 0 0.1197878353292403 0.1092484053650479 0 0.110275064223293 0.10236359857942121 0 0.11116449005577619 0.086473750785835857 0 0.1207366242219714 0.074251990558816788 0 0.1300820653953097 0.084166932106396392 0 0.11116449005577619 0.086473750785835857 0 0.13668050292917741 0.098217611464673699 0 0.11116449005577619 0.086473750785835857 0 0.1207366242219714 0.074251990558816788 0 0.10561354398445311 0.069921878226714862 0 0.11550376979223601 0.054551475820320147 0 0.1207366242219714 0.074251990558816788 0 0.13255022158949201 0.068763676371196639 0 0.11550376979223601 0.054551475820320147 0 0.1207366242219714 0.074251990558816788 0 0.10561354398445311 0.069921878226714862 0 0.11116449005577619 0.086473750785835857 0 0.10561354398445311 0.069921878226714862 0 0.085648477182374977 0.074729890106998029 0 0.10561354398445311 0.069921878226714862 0 0.095618088847860577 0.065038419849084594 0 0.085648477182374977 0.074729890106998029 0 0.099395501669828634 0.055681054702382278 0 0.10561354398445311 0.069921878226714862 0 0.095618088847860577 0.065038419849084594 0 0.11116449005577619 0.086473750785835857 0 0.085648477182374977 0.074729890106998029 0 0.11116449005577619 0.086473750785835857 0 0.090808031879269946 0.087622927320568048 0 0.085648477182374977 0.074729890106998029 0 0.097728221435088053 0.099184528615223033 0 0.11116449005577619 0.086473750785835857 0 0.090808031879269946 0.087622927320568048 0 0.097728221435088053 0.099184528615223033 0 0.090808031879269946 0.087622927320568048 0 0.080235742217082393 0.093435287859391092 0 0.090808031879269946 0.087622927320568048 0 0.078675001300488379 0.083882301042573534 0 0.085648477182374977 0.074729890106998029 0 0.090808031879269946 0.087622927320568048 0 0.078675001300488379 0.083882301042573534 0 0.080235742217082393 0.093435287859391092 0 0.066395547834883203 0.05807658879080619 0 0.08827992924315356 0.067842626558367619 0 0.085648477182374977 0.074729890106998029 0 0.095618088847860577 0.065038419849084594 0 0.08827992924315356 0.067842626558367619 0 0.085648477182374977 0.074729890106998029 0 0.090416084875221875 0.058235299142909973 0 0.095618088847860577 0.065038419849084594 0 0.08827992924315356 0.067842626558367619 0 0.066395547834883203 0.05807658879080619 0 0.085648477182374977 0.074729890106998029 0 0.060132464308973767 0.062986029428160187 0 0.066395547834883203 0.05807658879080619 0 0.08827992924315356 0.067842626558367619 0 0.085648477182374977 0.074729890106998029 0 0.068637102026180674 0.07792917868559901 0 0.060132464308973767 0.062986029428160187 0 0.085648477182374977 0.074729890106998029 0 0.060132464308973767 0.062986029428160187 0 0.078675001300488379 0.083882301042573534 0 0.085648477182374977 0.074729890106998029 0 0.068637102026180674 0.07792917868559901 0 0.080235742217082393 0.093435287859391092 0 0.069503799956795384 0.087722797055870286 0 0.068523875558259784 0.095111972458496966 0 0.078675001300488379 0.083882301042573534 0 0.080235742217082393 0.093435287859391092 0 0.069503799956795384 0.087722797055870286 0 0.078675001300488379 0.083882301042573534 0 0.068637102026180674 0.07792917868559901 0 0.069503799956795384 0.087722797055870286 0 0.068637102026180674 0.07792917868559901 0 0.069503799956795384 0.087722797055870286 0 0.060111091978902922 0.083782113849914977 0 0.069503799956795384 0.087722797055870286 0 0.06135777996986308 0.093915161513068182 0 0.060111091978902922 0.083782113849914977 0 0.069503799956795384 0.087722797055870286 0 0.068523875558259784 0.095111972458496966 0 0.06135777996986308 0.093915161513068182 0 0.068523875558259784 0.095111972458496966 0 0.071520258741129425 0.10189571548122769 0 0.062413973273008162 0.1018934272394761 0 0.068523875558259784 0.095111972458496966 0 0.062413973273008162 0.1018934272394761 0 0.06135777996986308 0.093915161513068182 0 0.071520258741129425 0.10189571548122769 0 0.072821304814728441 0.1108529925529516 0 0.063718101814298073 0.11016590081819259 0 0.071520258741129425 0.10189571548122769 0 0.063718101814298073 0.11016590081819259 0 0.062413973273008162 0.1018934272394761 0 0.071520258741129425 0.10189571548122769 0 0.084925795867796111 0.1103515185161017 0 0.072821304814728441 0.1108529925529516 0 0.080235742217082393 0.093435287859391092 0 0.068523875558259784 0.095111972458496966 0 0.071520258741129425 0.10189571548122769 0 0.097728221435088053 0.099184528615223033 0 0.080235742217082393 0.093435287859391092 0 0.084925795867796111 0.1103515185161017 0 0.080235742217082393 0.093435287859391092 0 0.071520258741129425 0.10189571548122769 0 0.084925795867796111 0.1103515185161017 0 0.084925795867796111 0.1103515185161017 0 0.074154959480044275 0.1204842858357125 0 0.087075880893963842 0.12621803440601359 0 0.096984900528893664 0.1212489081817222 0 0.084925795867796111 0.1103515185161017 0 0.087075880893963842 0.12621803440601359 0 0.084925795867796111 0.1103515185161017 0 0.074154959480044275 0.1204842858357125 0 0.072821304814728441 0.1108529925529516 0 0.074154959480044275 0.1204842858357125 0 0.072821304814728441 0.1108529925529516 0 0.063718101814298073 0.11016590081819259 0 0.074154959480044275 0.1204842858357125 0 0.063718101814298073 0.11016590081819259 0 0.060124536552058239 0.11864948812996751 0 0.074154959480044275 0.1204842858357125 0 0.060124536552058239 0.11864948812996751 0 0.061109117960118017 0.12720913792676911 0 0.060124536552058239 0.11864948812996751 0 0.052595679859244633 0.1236025024456274 0 0.054913207086597561 0.11271600588853189 0 0.060124536552058239 0.11864948812996751 0 0.052595679859244633 0.1236025024456274 0 0.061109117960118017 0.12720913792676911 0 0.052595679859244633 0.1236025024456274 0 0.054913207086597561 0.11271600588853189 0 0.046771683079868627 0.1089772416004138 0 0.063718101814298073 0.11016590081819259 0 0.060124536552058239 0.11864948812996751 0 0.054913207086597561 0.11271600588853189 0 0.063718101814298073 0.11016590081819259 0 0.062413973273008162 0.1018934272394761 0 0.053620768430252298 0.1031656988462608 0 0.063718101814298073 0.11016590081819259 0 0.054913207086597561 0.11271600588853189 0 0.053620768430252298 0.1031656988462608 0 0.06135777996986308 0.093915161513068182 0 0.053620768430252298 0.1031656988462608 0 0.051535176025136201 0.090416251810209708 0 0.062413973273008162 0.1018934272394761 0 0.06135777996986308 0.093915161513068182 0 0.053620768430252298 0.1031656988462608 0 0.053620768430252298 0.1031656988462608 0 0.042875633238578528 0.09739353282270094 0 0.051535176025136201 0.090416251810209708 0 0.053620768430252298 0.1031656988462608 0 0.046771683079868627 0.1089772416004138 0 0.042875633238578528 0.09739353282270094 0 0.054913207086597561 0.11271600588853189 0 0.053620768430252298 0.1031656988462608 0 0.046771683079868627 0.1089772416004138 0 0.046771683079868627 0.1089772416004138 0 0.042875633238578528 0.09739353282270094 0 0.034382595390138257 0.1099700727945534 0 0.042875633238578528 0.09739353282270094 0 0.034382595390138257 0.1099700727945534 0 0.030708755379597181 0.088685576768743155 0 0.034382595390138257 0.1099700727945534 0 0.030708755379597181 0.088685576768743155 0 0.052595679859244633 0.1236025024456274 0 0.046771683079868627 0.1089772416004138 0 0.034382595390138257 0.1099700727945534 0 0.034382595390138257 0.1099700727945534 0 0.02520709702204247 0.1232263280856261 0 0.037354296692750887 0.12718670835402709 0 0.052595679859244633 0.1236025024456274 0 0.034382595390138257 0.1099700727945534 0 0.037354296692750887 0.12718670835402709 0 0.034382595390138257 0.1099700727945534 0 0.037354296692750887 0.12718670835402709 0 0.052595679859244633 0.1236025024456274 0 0.034382595390138257 0.1099700727945534 0 0.060132464308973767 0.062986029428160187 0 0.051537231586459821 0.0703604747810012 0 0.044258496001147778 0.063884183083345675 0 0.051537231586459821 0.0703604747810012 0 0.045053238281461433 0.071665999821029613 0 0.044258496001147778 0.063884183083345675 0 0.060132464308973767 0.062986029428160187 0 0.058160070023191839 0.074213970699792686 0 0.051537231586459821 0.0703604747810012 0 0.068637102026180674 0.07792917868559901 0 0.060132464308973767 0.062986029428160187 0 0.058160070023191839 0.074213970699792686 0 0.051537231586459821 0.0703604747810012 0 0.049495561811348857 0.078896267932753172 0 0.045053238281461433 0.071665999821029613 0 0.058160070023191839 0.074213970699792686 0 0.051537231586459821 0.0703604747810012 0 0.049495561811348857 0.078896267932753172 0 0.049495561811348857 0.078896267932753172 0 0.051535176025136201 0.090416251810209708 0 0.041750220721871581 0.085344735896560275 0 0.049495561811348857 0.078896267932753172 0 0.060111091978902922 0.083782113849914977 0 0.051535176025136201 0.090416251810209708 0 0.068637102026180674 0.07792917868559901 0 0.058160070023191839 0.074213970699792686 0 0.060111091978902922 0.083782113849914977 0 0.058160070023191839 0.074213970699792686 0 0.049495561811348857 0.078896267932753172 0 0.060111091978902922 0.083782113849914977 0 0.06135777996986308 0.093915161513068182 0 0.060111091978902922 0.083782113849914977 0 0.051535176025136201 0.090416251810209708 0 0.042875633238578528 0.09739353282270094 0 0.051535176025136201 0.090416251810209708 0 0.041750220721871581 0.085344735896560275 0 0.042875633238578528 0.09739353282270094 0 0.041750220721871581 0.085344735896560275 0 0.030708755379597181 0.088685576768743155 0 0.041750220721871581 0.085344735896560275 0 0.037489048909448763 0.07466528487264068 0 0.030708755379597181 0.088685576768743155 0 0.049495561811348857 0.078896267932753172 0 0.041750220721871581 0.085344735896560275 0 0.037489048909448763 0.07466528487264068 0 0.037489048909448763 0.07466528487264068 0 0.02703491536905472 0.067401080742933134 0 0.030708755379597181 0.088685576768743155 0 0.049495561811348857 0.078896267932753172 0 0.045053238281461433 0.071665999821029613 0 0.037489048909448763 0.07466528487264068 0 0.045053238281461433 0.071665999821029613 0 0.037489048909448763 0.07466528487264068 0 0.037579666130808903 0.067774354445351542 0 0.034062632092931817 0.061255223706808547 0 0.037579666130808903 0.067774354445351542 0 0.02703491536905472 0.067401080742933134 0 0.037489048909448763 0.07466528487264068 0 0.037579666130808903 0.067774354445351542 0 0.02703491536905472 0.067401080742933134 0 0.034062632092931817 0.061255223706808547 0 0.037579666130808903 0.067774354445351542 0 0.044258496001147778 0.063884183083345675 0 0.045053238281461433 0.071665999821029613 0 0.037579666130808903 0.067774354445351542 0 0.044258496001147778 0.063884183083345675 0 0.02703491536905472 0.067401080742933134 0 0.030708755379597181 0.088685576768743155 0 0.01366790099406239 0.052632887419703241 0 0.026593398378051959 0.076487299351285121 0 0.01366790099406239 0.052632887419703241 0 0.02703491536905472 0.067401080742933134 0 0.026593398378051959 0.076487299351285121 0 0.02703491536905472 0.067401080742933134 0 0.026593398378051959 0.076487299351285121 0 0.030708755379597181 0.088685576768743155 0 0.01366790099406239 0.052632887419703241 0 0.026593398378051959 0.076487299351285121 0 0.01611389888654503 0.070322973248010373 0 0.026593398378051959 0.076487299351285121 0 0.01611389888654503 0.070322973248010373 0 0.01767063525815666 0.080500261616376856 0 0.01767063525815666 0.080500261616376856 0 0.030708755379597181 0.088685576768743155 0 0.011643404763696401 0.092949868607662828 0 0.026593398378051959 0.076487299351285121 0 0.01767063525815666 0.080500261616376856 0 0.030708755379597181 0.088685576768743155 0 0.01767063525815666 0.080500261616376856 0 0.011643404763696401 0.092949868607662828 0 0.0065236609159091173 0.071671444604676282 0 -0.01109578586274463 0.07592966442077155 0 0.011643404763696401 0.092949868607662828 0 0.0065236609159091173 0.071671444604676282 0 -0.01109578586274463 0.07592966442077155 0 0.011643404763696401 0.092949868607662828 0 0.01366790099406239 0.052632887419703241 0 0.01611389888654503 0.070322973248010373 0 0.0065236609159091173 0.071671444604676282 0 0.01611389888654503 0.070322973248010373 0 0.01767063525815666 0.080500261616376856 0 0.0065236609159091173 0.071671444604676282 0 -0.0031702267477386531 0.067180855403790804 0 0.00079413703044923156 0.058803151297745167 0 0.0065236609159091173 0.071671444604676282 0 0.034382595390138257 0.1099700727945534 0 0.02520709702204247 0.1232263280856261 0 0.01356063639681436 0.11371506303709419 0 0.02520709702204247 0.1232263280856261 0 0.01356063639681436 0.11371506303709419 0 0.011098566836083609 0.13484946890849181 0 0.034382595390138257 0.1099700727945534 0 0.011643404763696401 0.092949868607662828 0 0.01356063639681436 0.11371506303709419 0 0.034382595390138257 0.1099700727945534 0 0.011643404763696401 0.092949868607662828 0 0.034382595390138257 0.1099700727945534 0 0.030708755379597181 0.088685576768743155 0 0.011643404763696401 0.092949868607662828 0 -0.0040088977147468936 0.097024336429998151 0 0.011643404763696401 0.092949868607662828 0 0.0025937760044158291 0.1064596481343341 0 0.011643404763696401 0.092949868607662828 0 0.0025937760044158291 0.1064596481343341 0 0.01356063639681436 0.11371506303709419 0 -0.007175360702145514 0.1155930690216506 0 0.0025937760044158291 0.1064596481343341 0 0.01356063639681436 0.11371506303709419 0 -0.007175360702145514 0.1155930690216506 0 0.01356063639681436 0.11371506303709419 0 0.011098566836083609 0.13484946890849181 0 -0.007175360702145514 0.1155930690216506 0 0.011098566836083609 0.13484946890849181 0 0.02520709702204247 0.1232263280856261 0 0.011098566836083609 0.13484946890849181 0 0.028759663239593541 0.13617761485890201 0 0.02520709702204247 0.1232263280856261 0 0.028759663239593541 0.13617761485890201 0 0.037354296692750887 0.12718670835402709 0 0.011098566836083609 0.13484946890849181 0 0.029372494374312729 0.15410586879533311 0 0.013538337341477229 0.1636201682865295 0 0.011098566836083609 0.13484946890849181 0 0.028759663239593541 0.13617761485890201 0 0.029372494374312729 0.15410586879533311 0 0.011098566836083609 0.13484946890849181 0 0.029372494374312729 0.15410586879533311 0 -0.0048034666842798916 0.1614245706846468 0 0.011098566836083609 0.13484946890849181 0 0.013538337341477229 0.1636201682865295 0 -0.0057956805663459468 0.1892940575843915 0 -0.0048034666842798916 0.1614245706846468 0 0.013538337341477229 0.1636201682865295 0 -0.0057956805663459468 0.1892940575843915 0 0.013538337341477229 0.1636201682865295 0 0.020045678312652242 0.18090880435863019 0 -0.0057956805663459468 0.1892940575843915 0 0.020045678312652242 0.18090880435863019 0 0.029372494374312729 0.15410586879533311 0 0.013538337341477229 0.1636201682865295 0 0.020045678312652242 0.18090880435863019 0 0.029372494374312729 0.15410586879533311 0 0.045887037191650451 0.17252355113286891 0 0.04813315871709322 0.1541455757588851 0 0.029372494374312729 0.15410586879533311 0 0.020045678312652242 0.18090880435863019 0 0.045887037191650451 0.17252355113286891 0 0.020045678312652242 0.18090880435863019 0 0.045887037191650451 0.17252355113286891 0 0.020045678312652242 0.18090880435863019 0 0.045887037191650451 0.17252355113286891 0 0.041991232206495782 0.1919910870650737 0 0.045887037191650451 0.17252355113286891 0 0.060802696405823108 0.1787365445376432 0 0.041991232206495782 0.1919910870650737 0 0.045887037191650451 0.17252355113286891 0 0.071728396070648653 0.1641382979071076 0 0.045887037191650451 0.17252355113286891 0 0.060802696405823108 0.1787365445376432 0 0.071728396070648653 0.1641382979071076 0 0.045887037191650451 0.17252355113286891 0 0.059657673584757237 0.15824269734654939 0 0.04813315871709322 0.1541455757588851 0 0.045887037191650451 0.17252355113286891 0 0.059657673584757237 0.15824269734654939 0 0.071728396070648653 0.1641382979071076 0 0.059657673584757237 0.15824269734654939 0 0.04813315871709322 0.1541455757588851 0 0.060329678829100349 0.1474246815113264 0 0.04813315871709322 0.1541455757588851 0 0.050215372913412007 0.1458935282758238 0 0.060329678829100349 0.1474246815113264 0 0.050215372913412007 0.1458935282758238 0 0.060329678829100349 0.1474246815113264 0 0.052072656112092337 0.13760051191958289 0 0.050215372913412007 0.1458935282758238 0 0.052072656112092337 0.13760051191958289 0 0.040325997995362128 0.14440334391350099 0 0.060329678829100349 0.1474246815113264 0 0.062159468211553673 0.13737243366585769 0 0.052072656112092337 0.13760051191958289 0 0.062159468211553673 0.13737243366585769 0 0.054733357378362921 0.13083888414419281 0 0.052072656112092337 0.13760051191958289 0 0.052595679859244633 0.1236025024456274 0 0.054733357378362921 0.13083888414419281 0 0.061109117960118017 0.12720913792676911 0 0.062159468211553673 0.13737243366585769 0 0.054733357378362921 0.13083888414419281 0 0.061109117960118017 0.12720913792676911 0 0.052595679859244633 0.1236025024456274 0 0.054733357378362921 0.13083888414419281 0 0.046346625143134958 0.1312929959830558 0 0.054733357378362921 0.13083888414419281 0 0.052072656112092337 0.13760051191958289 0 0.046346625143134958 0.1312929959830558 0 0.037354296692750887 0.12718670835402709 0 0.040325997995362128 0.14440334391350099 0 0.046346625143134958 0.1312929959830558 0 0.037354296692750887 0.12718670835402709 0 0.040325997995362128 0.14440334391350099 0 0.028759663239593541 0.13617761485890201 0 0.037354296692750887 0.12718670835402709 0 0.040325997995362128 0.14440334391350099 0 0.052072656112092337 0.13760051191958289 0 0.046346625143134958 0.1312929959830558 0 0.040325997995362128 0.14440334391350099 0 0.052595679859244633 0.1236025024456274 0 0.046346625143134958 0.1312929959830558 0 0.037354296692750887 0.12718670835402709 0 0.028759663239593541 0.13617761485890201 0 0.029372494374312729 0.15410586879533311 0 0.040325997995362128 0.14440334391350099 0 0.029372494374312729 0.15410586879533311 0 0.04813315871709322 0.1541455757588851 0 0.040325997995362128 0.14440334391350099 0 0.04813315871709322 0.1541455757588851 0 0.050215372913412007 0.1458935282758238 0 0.040325997995362128 0.14440334391350099 0 0.025149977659741599 0.24684982625080901 0 0.00014186162909880781 0.2338185852574263 0 0.02177620002751179 0.22559840920251981 0 0.025149977659741599 0.24684982625080901 0 0.00014186162909880781 0.2338185852574263 0 0.025149977659741599 0.24684982625080901 0 0.00014186162909880781 0.2338185852574263 0 0.0073806355134042019 0.25529449578482938 0 0.00014186162909880781 0.2338185852574263 0 0.02177620002751179 0.22559840920251981 0 0.0090806704795409685 0.20996839310177981 0 0.025149977659741599 0.24684982625080901 0 0.02177620002751179 0.22559840920251981 0 0.039960986899899173 0.22780444499479169 0 0.02177620002751179 0.22559840920251981 0 0.0090806704795409685 0.20996839310177981 0 0.034547503469278373 0.20955079640779209 0 0.0090806704795409685 0.20996839310177981 0 0.02162293693503077 0.1981024475624624 0 0.034547503469278373 0.20955079640779209 0 -0.0057956805663459468 0.1892940575843915 0 0.0090806704795409685 0.20996839310177981 0 0.02162293693503077 0.1981024475624624 0 -0.0057956805663459468 0.1892940575843915 0 0.020045678312652242 0.18090880435863019 0 0.02162293693503077 0.1981024475624624 0 0.020045678312652242 0.18090880435863019 0 0.02162293693503077 0.1981024475624624 0 0.041991232206495782 0.1919910870650737 0 0.02162293693503077 0.1981024475624624 0 0.041991232206495782 0.1919910870650737 0 0.034547503469278373 0.20955079640779209 0 0.041991232206495782 0.1919910870650737 0 0.05849467095877426 0.1965416733816682 0 0.050764695011206777 0.20916964222725651 0 0.060802696405823108 0.1787365445376432 0 0.041991232206495782 0.1919910870650737 0 0.05849467095877426 0.1965416733816682 0 0.050764695011206777 0.20916964222725651 0 0.066981886553135278 0.20878848804672309 0 0.05849467095877426 0.1965416733816682 0 0.050764695011206777 0.20916964222725651 0 0.066981886553135278 0.20878848804672309 0 0.050764695011206777 0.20916964222725651 0 0.061514006406540499 0.23071042489022231 0 0.066981886553135278 0.20878848804672309 0 0.050764695011206777 0.20916964222725651 0 0.034547503469278373 0.20955079640779209 0 0.039960986899899173 0.22780444499479169 0 0.050764695011206777 0.20916964222725651 0 0.034547503469278373 0.20955079640779209 0 0.041991232206495782 0.1919910870650737 0 0.050764695011206777 0.20916964222725651 0 0.034547503469278373 0.20955079640779209 0 0.02177620002751179 0.22559840920251981 0 0.034547503469278373 0.20955079640779209 0 0.039960986899899173 0.22780444499479169 0 0.039960986899899173 0.22780444499479169 0 0.061514006406540499 0.23071042489022231 0 0.045472231705318063 0.24424317023843681 0 0.050764695011206777 0.20916964222725651 0 0.039960986899899173 0.22780444499479169 0 0.061514006406540499 0.23071042489022231 0 0.061514006406540499 0.23071042489022231 0 0.056046126259945157 0.25263236173372139 0 0.061514006406540499 0.23071042489022231 0 0.056046126259945157 0.25263236173372139 0 0.067905867336300579 0.25358800162702 0 0.061514006406540499 0.23071042489022231 0 0.045472231705318063 0.24424317023843681 0 0.056046126259945157 0.25263236173372139 0 0.025149977659741599 0.24684982625080901 0 0.039960986899899173 0.22780444499479169 0 0.045472231705318063 0.24424317023843681 0 0.092857250133516089 0.24175825718487831 0 0.078525547080241467 0.2465942846531784 0 0.093798877441032588 0.2579700649065903 0 0.092857250133516089 0.24175825718487831 0 0.078525547080241467 0.2465942846531784 0 0.081986142109724491 0.22560265144644431 0 0.061514006406540499 0.23071042489022231 0 0.078525547080241467 0.2465942846531784 0 0.067905867336300579 0.25358800162702 0 0.061514006406540499 0.23071042489022231 0 0.078525547080241467 0.2465942846531784 0 0.081986142109724491 0.22560265144644431 0 0.061514006406540499 0.23071042489022231 0 0.081986142109724491 0.22560265144644431 0 0.066981886553135278 0.20878848804672309 0 0.061514006406540499 0.23071042489022231 0 0.066981886553135278 0.20878848804672309 0 0.081986142109724491 0.22560265144644431 0 0.09236794217301933 0.20819183719001669 0 0.066981886553135278 0.20878848804672309 0 0.09236794217301933 0.20819183719001669 0 0.066981886553135278 0.20878848804672309 0 0.09236794217301933 0.20819183719001669 0 0.066981886553135278 0.20878848804672309 0 0.071445073857882777 0.19089458628000441 0 0.060802696405823108 0.1787365445376432 0 0.05849467095877426 0.1965416733816682 0 0.071445073857882777 0.19089458628000441 0 0.066981886553135278 0.20878848804672309 0 0.071445073857882777 0.19089458628000441 0 0.05849467095877426 0.1965416733816682 0 0.066981886553135278 0.20878848804672309 0 0.071445073857882777 0.19089458628000441 0 0.09236794217301933 0.20819183719001669 0 0.071445073857882777 0.19089458628000441 0 0.086464584236575506 0.1862285865309723 0 0.09236794217301933 0.20819183719001669 0 0.086464584236575506 0.1862285865309723 0 0.1023855527362314 0.18749689463882899 0 0.09236794217301933 0.20819183719001669 0 0.11775399779290339 0.20759518633331239 0 0.1023855527362314 0.18749689463882899 0 0.11775399779290339 0.20759518633331239 0 0.1023855527362314 0.18749689463882899 0 0.12550986450034471 0.186594373040398 0 0.09236794217301933 0.20819183719001669 0 0.11775399779290339 0.20759518633331239 0 0.09236794217301933 0.20819183719001669 0 0.11775399779290339 0.20759518633331239 0 0.10906069526472741 0.22998953009969161 0 0.092857250133516089 0.24175825718487831 0 0.081986142109724491 0.22560265144644431 0 0.10906069526472741 0.22998953009969161 0 0.081986142109724491 0.22560265144644431 0 0.09236794217301933 0.20819183719001669 0 0.10906069526472741 0.22998953009969161 0 0.11775399779290339 0.20759518633331239 0 0.10906069526472741 0.22998953009969161 0 0.1382648444377183 0.22719855966067881 0 0.10906069526472741 0.22998953009969161 0 0.12787711237058769 0.24521089126939841 0 0.1100607559553454 0.25396994184181759 0 0.092857250133516089 0.24175825718487831 0 0.10906069526472741 0.22998953009969161 0 0.1100607559553454 0.25396994184181759 0 0.081151633673542972 0.15313158297098389 0 0.083920606388658545 0.14050817004821939 0 0.0975697549496468 0.15575304468134629 0 0.081151633673542972 0.15313158297098389 0 0.083920606388658545 0.14050817004821939 0 0.071387777285217918 0.15212681924726251 0 0.074154959480044275 0.1204842858357125 0 0.087075880893963842 0.12621803440601359 0 0.083920606388658545 0.14050817004821939 0 0.087075880893963842 0.12621803440601359 0 0.083920606388658545 0.14050817004821939 0 0.097906888154765004 0.1362305538396491 0 0.062159468211553673 0.13737243366585769 0 0.061109117960118017 0.12720913792676911 0 0.083920606388658545 0.14050817004821939 0 0.074154959480044275 0.1204842858357125 0 0.061109117960118017 0.12720913792676911 0 0.083920606388658545 0.14050817004821939 0 0.061109117960118017 0.12720913792676911 0 0.083920606388658545 0.14050817004821939 0 0.062159468211553673 0.13737243366585769 0 0.083920606388658545 0.14050817004821939 0 0.069449382678632612 0.1443580261181665 0 0.060329678829100349 0.1474246815113264 0 0.062159468211553673 0.13737243366585769 0 0.069449382678632612 0.1443580261181665 0 0.060329678829100349 0.1474246815113264 0 0.069449382678632612 0.1443580261181665 0 0.071387777285217918 0.15212681924726251 0 0.083920606388658545 0.14050817004821939 0 0.069449382678632612 0.1443580261181665 0 0.071387777285217918 0.15212681924726251 0 0.059657673584757237 0.15824269734654939 0 0.060329678829100349 0.1474246815113264 0 0.071387777285217918 0.15212681924726251 0 0.059657673584757237 0.15824269734654939 0 0.071387777285217918 0.15212681924726251 0 0.071728396070648653 0.1641382979071076 0 0.081151633673542972 0.15313158297098389 0 0.071387777285217918 0.15212681924726251 0 0.071728396070648653 0.1641382979071076 0 0.071445073857882777 0.19089458628000441 0 0.075908261162629706 0.17300068451328551 0 0.086464584236575506 0.1862285865309723 0 0.060802696405823108 0.1787365445376432 0 0.071445073857882777 0.19089458628000441 0 0.075908261162629706 0.17300068451328551 0 0.071445073857882777 0.19089458628000441 0 0.075908261162629706 0.17300068451328551 0 0.060802696405823108 0.1787365445376432 0 0.071728396070648653 0.1641382979071076 0 0.075908261162629706 0.17300068451328551 0 0.086464584236575506 0.1862285865309723 0 0.090216091253114361 0.17155893003272579 0 0.1023855527362314 0.18749689463882899 0 0.075908261162629706 0.17300068451328551 0 0.086464584236575506 0.1862285865309723 0 0.090216091253114361 0.17155893003272579 0 0.081151633673542972 0.15313158297098389 0 0.071728396070648653 0.1641382979071076 0 0.0975697549496468 0.15575304468134629 0 0.071728396070648653 0.1641382979071076 0 0.090216091253114361 0.17155893003272579 0 0.0975697549496468 0.15575304468134629 0 0.071728396070648653 0.1641382979071076 0 0.075908261162629706 0.17300068451328551 0 0.090216091253114361 0.17155893003272579 0 0.071728396070648653 0.1641382979071076 0 0.0975697549496468 0.15575304468134629 0 0.090216091253114361 0.17155893003272579 0 0.1064810698159025 0.16893633516972181 0 0.0975697549496468 0.15575304468134629 0 0.1064810698159025 0.16893633516972181 0 0.1067320948171991 0.1538072021696697 0 0.0975697549496468 0.15575304468134629 0 0.090216091253114361 0.17155893003272579 0 0.1064810698159025 0.16893633516972181 0 0.1023855527362314 0.18749689463882899 0 0.1064810698159025 0.16893633516972181 0 0.12954358324573961 0.16710623429112001 0 0.12550986450034471 0.186594373040398 0 0.1064810698159025 0.16893633516972181 0 0.1023855527362314 0.18749689463882899 0 0.12550986450034471 0.186594373040398 0 0.1064810698159025 0.16893633516972181 0 0.1067320948171991 0.1538072021696697 0 0.12954358324573961 0.16710623429112001 0 0.1067320948171991 0.1538072021696697 0 0.1262856736452258 0.1537478882528979 0 0.12954358324573961 0.16710623429112001 0 0.1067320948171991 0.1538072021696697 0 0.12954358324573961 0.16710623429112001 0 0.1148569119608701 0.14824987142416859 0 0.1067320948171991 0.1538072021696697 0 0.1262856736452258 0.1537478882528979 0 0.118317888191051 0.14254191757659121 0 0.1148569119608701 0.14824987142416859 0 0.1262856736452258 0.1537478882528979 0 0.118317888191051 0.14254191757659121 0 0.12756241452120801 0.13893694775055651 0 0.1262856736452258 0.1537478882528979 0 0.1148569119608701 0.14824987142416859 0 0.1067320948171991 0.1538072021696697 0 0.1080919911900045 0.14290247769751591 0 0.118317888191051 0.14254191757659121 0 0.1148569119608701 0.14824987142416859 0 0.1080919911900045 0.14290247769751591 0 0.083920606388658545 0.14050817004821939 0 0.1067320948171991 0.1538072021696697 0 0.1067320948171991 0.1538072021696697 0 0.1080919911900045 0.14290247769751591 0 0.097906888154765004 0.1362305538396491 0 0.083920606388658545 0.14050817004821939 0 0.1067320948171991 0.1538072021696697 0 0.097906888154765004 0.1362305538396491 0 0.083920606388658545 0.14050817004821939 0 0.1067320948171991 0.1538072021696697 0 0.0975697549496468 0.15575304468134629 0 0.096984900528893664 0.1212489081817222 0 0.097906888154765004 0.1362305538396491 0 0.10589272808503949 0.13156516273042271 0 0.096984900528893664 0.1212489081817222 0 0.087075880893963842 0.12621803440601359 0 0.097906888154765004 0.1362305538396491 0 0.1080919911900045 0.14290247769751591 0 0.097906888154765004 0.1362305538396491 0 0.10589272808503949 0.13156516273042271 0 0.1080919911900045 0.14290247769751591 0 0.10589272808503949 0.13156516273042271 0 0.11327312463209829 0.13597294690712769 0 0.10712684862241641 0.1210429748963526 0 0.10589272808503949 0.13156516273042271 0 0.114987521205969 0.1268010028982309 0 0.10589272808503949 0.13156516273042271 0 0.114987521205969 0.1268010028982309 0 0.11327312463209829 0.13597294690712769 0 0.114987521205969 0.1268010028982309 0 0.11327312463209829 0.13597294690712769 0 0.1203000125167645 0.13336293759413789 0 0.118317888191051 0.14254191757659121 0 0.1080919911900045 0.14290247769751591 0 0.11327312463209829 0.13597294690712769 0 0.118317888191051 0.14254191757659121 0 0.1203000125167645 0.13336293759413789 0 0.12756241452120801 0.13893694775055651 0 0.118317888191051 0.14254191757659121 0 0.11327312463209829 0.13597294690712769 0 0.1203000125167645 0.13336293759413789 0 0.12212988809696081 0.1249307776834532 0 0.114987521205969 0.1268010028982309 0 0.1203000125167645 0.13336293759413789 0 0.12212988809696081 0.1249307776834532 0 0.1203000125167645 0.13336293759413789 0 0.12788127083107459 0.1291064789800366 0 0.12788127083107459 0.1291064789800366 0 0.13409394305489639 0.1257339851238449 0 0.12813823657366311 0.12049833089676459 0 0.12788127083107459 0.1291064789800366 0 0.13410827310584911 0.13282331674432049 0 0.13409394305489639 0.1257339851238449 0 0.12788127083107459 0.1291064789800366 0 0.12756241452120801 0.13893694775055651 0 0.13410827310584911 0.13282331674432049 0 0.1203000125167645 0.13336293759413789 0 0.12788127083107459 0.1291064789800366 0 0.12756241452120801 0.13893694775055651 0 0.13410827310584911 0.13282331674432049 0 0.14295710802469111 0.12768772724150559 0 0.13848136883728299 0.14203914735535511 0 0.12756241452120801 0.13893694775055651 0 0.13410827310584911 0.13282331674432049 0 0.13848136883728299 0.14203914735535511 0 0.13410827310584911 0.13282331674432049 0 0.13409394305489639 0.1257339851238449 0 0.14295710802469111 0.12768772724150559 0 0.14295710802469111 0.12768772724150559 0 0.15698787762036359 0.14007723406829989 0 0.15364605026385231 0.1227496740475859 0 0.14295710802469111 0.12768772724150559 0 0.13848136883728299 0.14203914735535511 0 0.15698787762036359 0.14007723406829989 0 0.13848136883728299 0.14203914735535511 0 0.1441447949138806 0.1573716891147208 0 0.15698787762036359 0.14007723406829989 0 0.1441447949138806 0.1573716891147208 0 0.1598153361361678 0.15982657838785511 0 0.15698787762036359 0.14007723406829989 0 0.13848136883728299 0.14203914735535511 0 0.1262856736452258 0.1537478882528979 0 0.1441447949138806 0.1573716891147208 0 0.12756241452120801 0.13893694775055651 0 0.13848136883728299 0.14203914735535511 0 0.1262856736452258 0.1537478882528979 0 0.1262856736452258 0.1537478882528979 0 0.12954358324573961 0.16710623429112001 0 0.1441447949138806 0.1573716891147208 0 0.12954358324573961 0.16710623429112001 0 0.12550986450034471 0.186594373040398 0 0.15375492999850379 0.1814330523327968 0 0.12954358324573961 0.16710623429112001 0 0.15375492999850379 0.1814330523327968 0 0.1441447949138806 0.1573716891147208 0 0.15375492999850379 0.1814330523327968 0 0.1441447949138806 0.1573716891147208 0 0.1598153361361678 0.15982657838785511 0 0.1598153361361678 0.15982657838785511 0 0.17205847002769489 0.1711246398383999 0 0.17247097746626519 0.1464629757798975 0 0.15375492999850379 0.1814330523327968 0 0.1598153361361678 0.15982657838785511 0 0.17205847002769489 0.1711246398383999 0 0.15375492999850379 0.1814330523327968 0 0.17205847002769489 0.1711246398383999 0 0.18411838942066619 0.18828130780555291 0 0.17205847002769489 0.1711246398383999 0 0.18411838942066619 0.18828130780555291 0 0.19050902449260759 0.164433536692701 0 0.17205847002769489 0.1711246398383999 0 0.17247097746626519 0.1464629757798975 0 0.19050902449260759 0.164433536692701 0 0.17247097746626519 0.1464629757798975 0 0.1903693880120208 0.14015559280000461 0 0.19050902449260759 0.164433536692701 0 0.17247097746626519 0.1464629757798975 0 0.18002451345814399 0.12716596121819479 0 0.1903693880120208 0.14015559280000461 0 0.17247097746626519 0.1464629757798975 0 0.18002451345814399 0.12716596121819479 0 0.16417220099380411 0.12505127510387981 0 0.15698787762036359 0.14007723406829989 0 0.16417220099380411 0.12505127510387981 0 0.15364605026385231 0.1227496740475859 0 0.17247097746626519 0.1464629757798975 0 0.15698787762036359 0.14007723406829989 0 0.16417220099380411 0.12505127510387981 0 0.1598153361361678 0.15982657838785511 0 0.17247097746626519 0.1464629757798975 0 0.15698787762036359 0.14007723406829989 0 0.14702044576598061 0.2478904659134552 0 0.1382648444377183 0.22719855966067881 0 0.15828943790025421 0.22969507774947781 0 0.14702044576598061 0.2478904659134552 0 0.12787711237058769 0.24521089126939841 0 0.1382648444377183 0.22719855966067881 0 0.10906069526472741 0.22998953009969161 0 0.12787711237058769 0.24521089126939841 0 0.1382648444377183 0.22719855966067881 0 0.1382648444377183 0.22719855966067881 0 0.14314005341278749 0.20699853547660821 0 0.15828943790025421 0.22969507774947781 0 0.14314005341278749 0.20699853547660821 0 0.16852610903267151 0.206401884619904 0 0.11775399779290339 0.20759518633331239 0 0.1382648444377183 0.22719855966067881 0 0.14314005341278749 0.20699853547660821 0 0.11775399779290339 0.20759518633331239 0 0.14314005341278749 0.20699853547660821 0 0.11775399779290339 0.20759518633331239 0 0.12550986450034471 0.186594373040398 0 0.14314005341278749 0.20699853547660821 0 0.15375492999850379 0.1814330523327968 0 0.14314005341278749 0.20699853547660821 0 0.16852610903267151 0.206401884619904 0 0.12550986450034471 0.186594373040398 0 0.15375492999850379 0.1814330523327968 0 0.14314005341278749 0.20699853547660821 0 0.15375492999850379 0.1814330523327968 0 0.18411838942066619 0.18828130780555291 0 0.16852610903267151 0.206401884619904 0 0.18411838942066619 0.18828130780555291 0 0.16852610903267151 0.206401884619904 0 0.1878214256448299 0.20672411698152671 0 0.16852610903267151 0.206401884619904 0 0.17766068788986381 0.23020170431202469 0 0.1878214256448299 0.20672411698152671 0 0.14314005341278749 0.20699853547660821 0 0.16852610903267151 0.206401884619904 0 0.15828943790025421 0.22969507774947781 0 0.16852610903267151 0.206401884619904 0 0.15828943790025421 0.22969507774947781 0 0.17766068788986381 0.23020170431202469 0 0.17766068788986381 0.23020170431202469 0 0.19353513124668931 0.22246748781277501 0 0.1878214256448299 0.20672411698152671 0 0.17766068788986381 0.23020170431202469 0 0.18692125413578081 0.24552837502103991 0 0.19379669244916639 0.23440003217329089 0 0.17766068788986381 0.23020170431202469 0 0.18692125413578081 0.24552837502103991 0 0.16774616909827719 0.2460930353984315 0 0.15828943790025421 0.22969507774947781 0 0.17766068788986381 0.23020170431202469 0 0.16774616909827719 0.2460930353984315 0 0.14702044576598061 0.2478904659134552 0 0.15828943790025421 0.22969507774947781 0 0.16774616909827719 0.2460930353984315 0 0.21557305570370441 0.24515722135805329 0 0.2029257889591993 0.24295866219667439 0 0.23007231546290949 0.2334513308517342 0 0.2029257889591993 0.24295866219667439 0 0.23007231546290949 0.2334513308517342 0 0.21557305570370441 0.24515722135805329 0 0.2029257889591993 0.24295866219667439 0 0.20107379594449931 0.25686311186437227 0 0.18692125413578081 0.24552837502103991 0 0.2029257889591993 0.24295866219667439 0 0.20107379594449931 0.25686311186437227 0 0.18692125413578081 0.24552837502103991 0 0.19379669244916639 0.23440003217329089 0 0.2029257889591993 0.24295866219667439 0 0.17766068788986381 0.23020170431202469 0 0.19379669244916639 0.23440003217329089 0 0.19353513124668931 0.22246748781277501 0 0.19379669244916639 0.23440003217329089 0 0.2029257889591993 0.24295866219667439 0 0.20920449219815451 0.22515354045629349 0 0.19379669244916639 0.23440003217329089 0 0.19353513124668931 0.22246748781277501 0 0.20920449219815451 0.22515354045629349 0 0.2029257889591993 0.24295866219667439 0 0.20920449219815451 0.22515354045629349 0 0.23007231546290949 0.2334513308517342 0 0.19353513124668931 0.22246748781277501 0 0.20920449219815451 0.22515354045629349 0 0.20732414099141369 0.20672295990195361 0 0.20920449219815451 0.22515354045629349 0 0.20732414099141369 0.20672295990195361 0 0.22783619495118521 0.20973527166224001 0 0.19353513124668931 0.22246748781277501 0 0.20732414099141369 0.20672295990195361 0 0.1878214256448299 0.20672411698152671 0 0.18411838942066619 0.18828130780555291 0 0.1878214256448299 0.20672411698152671 0 0.20343121377691101 0.18825927067945539 0 0.20732414099141369 0.20672295990195361 0 0.1878214256448299 0.20672411698152671 0 0.20343121377691101 0.18825927067945539 0 0.20732414099141369 0.20672295990195361 0 0.20343121377691101 0.18825927067945539 0 0.2219787971027708 0.18678942035429349 0 0.20732414099141369 0.20672295990195361 0 0.22783619495118521 0.20973527166224001 0 0.2219787971027708 0.18678942035429349 0 0.24528107816237801 0.1907036486386274 0 0.22783619495118521 0.20973527166224001 0 0.2219787971027708 0.18678942035429349 0 0.24528107816237801 0.1907036486386274 0 0.25242827713160498 0.21540237912569379 0 0.24528107816237801 0.1907036486386274 0 0.22783619495118521 0.20973527166224001 0 0.25242827713160498 0.21540237912569379 0 0.20920449219815451 0.22515354045629349 0 0.22783619495118521 0.20973527166224001 0 0.23007231546290949 0.2334513308517342 0 0.23007231546290949 0.2334513308517342 0 0.25242827713160498 0.21540237912569379 0 0.23007231546290949 0.2334513308517342 0 0.25511338863332461 0.22468137717712711 0 0.25242827713160498 0.21540237912569379 0 0.23007231546290949 0.2334513308517342 0 0.25511338863332461 0.22468137717712711 0 0.23007231546290949 0.2334513308517342 0 0.2457442494512444 0.24022391879071339 0 0.25511338863332461 0.22468137717712711 0 0.22783619495118521 0.20973527166224001 0 0.23007231546290949 0.2334513308517342 0 0.25242827713160498 0.21540237912569379 0 0.2457442494512444 0.24022391879071339 0 0.23628031136540401 0.25597328662156199 0 0.26221447651104962 0.2479993693513689 0 0.23007231546290949 0.2334513308517342 0 0.2457442494512444 0.24022391879071339 0 0.23628031136540401 0.25597328662156199 0 0.21557305570370441 0.24515722135805329 0 0.23007231546290949 0.2334513308517342 0 0.23628031136540401 0.25597328662156199 0 0.21557305570370441 0.24515722135805329 0 0.23007231546290949 0.2334513308517342 0 0.21023583046185859 0.14706018503428281 0 0.22521494488481819 0.12557893006429149 0 0.2001236667938262 0.1180422718546187 0 0.18002451345814399 0.12716596121819479 0 0.1903693880120208 0.14015559280000461 0 0.2001236667938262 0.1180422718546187 0 0.21023583046185859 0.14706018503428281 0 0.1903693880120208 0.14015559280000461 0 0.2001236667938262 0.1180422718546187 0 0.21023583046185859 0.14706018503428281 0 0.1903693880120208 0.14015559280000461 0 0.19050902449260759 0.164433536692701 0 0.18411838942066619 0.18828130780555291 0 0.20343121377691101 0.18825927067945539 0 0.19050902449260759 0.164433536692701 0 0.20343121377691101 0.18825927067945539 0 0.19050902449260759 0.164433536692701 0 0.20962662881846919 0.1707346457134423 0 0.20343121377691101 0.18825927067945539 0 0.20962662881846919 0.1707346457134423 0 0.2219787971027708 0.18678942035429349 0 0.21023583046185859 0.14706018503428281 0 0.20962662881846919 0.1707346457134423 0 0.2254160648188453 0.164078398330023 0 0.21023583046185859 0.14706018503428281 0 0.19050902449260759 0.164433536692701 0 0.20962662881846919 0.1707346457134423 0 0.20962662881846919 0.1707346457134423 0 0.2254160648188453 0.164078398330023 0 0.2219787971027708 0.18678942035429349 0 0.2254160648188453 0.164078398330023 0 0.2219787971027708 0.18678942035429349 0 0.23714843650665229 0.1758398884969993 0 0.24528107816237801 0.1907036486386274 0 0.2219787971027708 0.18678942035429349 0 0.23714843650665229 0.1758398884969993 0 0.24528107816237801 0.1907036486386274 0 0.23714843650665229 0.1758398884969993 0 0.25292738168467233 0.17649485219682931 0 0.2254160648188453 0.164078398330023 0 0.24653130607993951 0.16237692388552691 0 0.23688534306575301 0.1458043597726891 0 0.23714843650665229 0.1758398884969993 0 0.24653130607993951 0.16237692388552691 0 0.25292738168467233 0.17649485219682931 0 0.2254160648188453 0.164078398330023 0 0.23714843650665229 0.1758398884969993 0 0.24653130607993951 0.16237692388552691 0 0.24653130607993951 0.16237692388552691 0 0.2496536413094039 0.15044712256699261 0 0.23688534306575301 0.1458043597726891 0 0.2496536413094039 0.15044712256699261 0 0.23688534306575301 0.1458043597726891 0 0.25004344172447263 0.14019424959050239 0 0.21023583046185859 0.14706018503428281 0 0.2254160648188453 0.164078398330023 0 0.23688534306575301 0.1458043597726891 0 0.21023583046185859 0.14706018503428281 0 0.23688534306575301 0.1458043597726891 0 0.22521494488481819 0.12557893006429149 0 0.22521494488481819 0.12557893006429149 0 0.25030622297580962 0.13311558827396619 0 0.23688534306575301 0.1458043597726891 0 0.22521494488481819 0.12557893006429149 0 0.25030622297580962 0.13311558827396619 0 0.23688534306575301 0.1458043597726891 0 0.25004344172447263 0.14019424959050239 0 0.25030622297580962 0.13311558827396619 0 0.22521494488481819 0.12557893006429149 0 0.2369469616243938 0.1144798656387125 0 0.25030622297580962 0.13311558827396619 0 0.2369469616243938 0.1144798656387125 0 0.25094552198087999 0.11589449234768209 0 0.25030622297580962 0.13311558827396619 0 0.2369469616243938 0.1144798656387125 0 0.25158482098595109 0.098673396421397969 0 0.25094552198087999 0.11589449234768209 0 0.2369469616243938 0.1144798656387125 0 0.2308580048349978 0.09939168424622695 0 0.25158482098595109 0.098673396421397969 0 0.2308580048349978 0.09939168424622695 0 0.2177667053289645 0.10879872465146249 0 0.21723881235993189 0.092441087960636145 0 0.2369469616243938 0.1144798656387125 0 0.2308580048349978 0.09939168424622695 0 0.2177667053289645 0.10879872465146249 0 0.22521494488481819 0.12557893006429149 0 0.2369469616243938 0.1144798656387125 0 0.2177667053289645 0.10879872465146249 0 0.2177667053289645 0.10879872465146249 0 0.1970849337058638 0.1019164286603922 0 0.2001236667938262 0.1180422718546187 0 0.22521494488481819 0.12557893006429149 0 0.2177667053289645 0.10879872465146249 0 0.2001236667938262 0.1180422718546187 0 0.22521494488481819 0.12557893006429149 0 0.2001236667938262 0.1180422718546187 0 0.1970849337058638 0.1019164286603922 0 0.20420713705815571 0.090978010823124941 0 0.21723881235993189 0.092441087960636145 0 0.1970849337058638 0.1019164286603922 0 0.21723881235993189 0.092441087960636145 0 0.2177667053289645 0.10879872465146249 0 0.1970849337058638 0.1019164286603922 0 0.21723881235993189 0.092441087960636145 0 0.1970849337058638 0.1019164286603922 0 0.1916307843626972 0.08827444688259839 0 0.17503238870283441 0.11050561364494491 0 0.2001236667938262 0.1180422718546187 0 0.17503238870283441 0.11050561364494491 0 0.1970849337058638 0.1019164286603922 0 0.2001236667938262 0.1180422718546187 0 0.17503238870283441 0.11050561364494491 0 0.1916307843626972 0.08827444688259839 0 0.2082291800225603 0.066043280120252124 0 0.19067723801237901 0.065525043857756982 0 0.1916307843626972 0.08827444688259839 0 0.2082291800225603 0.066043280120252124 0 0.1916307843626972 0.08827444688259839 0 0.21087401780412959 0.081280079788873041 0 0.20420713705815571 0.090978010823124941 0 0.1970849337058638 0.1019164286603922 0 0.1916307843626972 0.08827444688259839 0 0.20420713705815571 0.090978010823124941 0 0.1916307843626972 0.08827444688259839 0 0.21087401780412959 0.081280079788873041 0 0.2082291800225603 0.066043280120252124 0 0.21087401780412959 0.081280079788873041 0 0.20420713705815571 0.090978010823124941 0 0.21723881235993189 0.092441087960636145 0 0.21087401780412959 0.081280079788873041 0 0.21723881235993189 0.092441087960636145 0 0.22613356481757629 0.0775902723280468 0 0.21087401780412959 0.081280079788873041 0 0.2082291800225603 0.066043280120252124 0 0.22613356481757629 0.0775902723280468 0 0.2082291800225603 0.066043280120252124 0 0.22613356481757629 0.0775902723280468 0 0.2082291800225603 0.066043280120252124 0 0.2259496113806885 0.070300708218039992 0 0.21450653174737461 0.057635669175196122 0 0.2259496113806885 0.070300708218039992 0 0.21450653174737461 0.057635669175196122 0 0.2082291800225603 0.066043280120252124 0 0.2259496113806885 0.070300708218039992 0 0.22613356481757629 0.0775902723280468 0 0.2259496113806885 0.070300708218039992 0 0.2248665156508784 0.061611733455129589 0 0.21450653174737461 0.057635669175196122 0 0.2259496113806885 0.070300708218039992 0 0.22613356481757629 0.0775902723280468 0 0.23739269101400209 0.082965747260884265 0 0.2259496113806885 0.070300708218039992 0 0.23739269101400209 0.082965747260884265 0 0.237967452106535 0.070105640596903412 0 0.2259496113806885 0.070300708218039992 0 0.23739269101400209 0.082965747260884265 0 0.2259496113806885 0.070300708218039992 0 0.2330718446673557 0.064441819436705627 0 0.2248665156508784 0.061611733455129589 0 0.2259496113806885 0.070300708218039992 0 0.2330718446673557 0.064441819436705627 0 0.237967452106535 0.070105640596903412 0 0.2308580048349978 0.09939168424622695 0 0.21723881235993189 0.092441087960636145 0 0.23739269101400209 0.082965747260884265 0 0.21723881235993189 0.092441087960636145 0 0.22613356481757629 0.0775902723280468 0 0.23739269101400209 0.082965747260884265 0 0.21723881235993189 0.092441087960636145 0 0.23739269101400209 0.082965747260884265 0 0.23739269101400209 0.082965747260884265 0 0.25158482098595109 0.098673396421397969 0 0.23739269101400209 0.082965747260884265 0 0.25243039498113262 0.075895774732197205 0 0.25158482098595109 0.098673396421397969 0 0.2308580048349978 0.09939168424622695 0 0.23739269101400209 0.082965747260884265 0 0.25158482098595109 0.098673396421397969 0 0.23739269101400209 0.082965747260884265 0 0.25243039498113262 0.075895774732197205 0 0.23934469018649959 0.064583282500140851 0 0.237967452106535 0.070105640596903412 0 0.24496427956833819 0.066036472520138348 0 0.2330718446673557 0.064441819436705627 0 0.23934469018649959 0.064583282500140851 0 0.2376257901407148 0.059976102198904507 0 0.2330718446673557 0.064441819436705627 0 0.23934469018649959 0.064583282500140851 0 0.237967452106535 0.070105640596903412 0 0.23739269101400209 0.082965747260884265 0 0.237967452106535 0.070105640596903412 0 0.24429048066179679 0.072622021298478806 0 0.24429048066179679 0.072622021298478806 0 0.24842415088314279 0.069033451464499671 0 0.25243039498113262 0.075895774732197205 0 0.23739269101400209 0.082965747260884265 0 0.24429048066179679 0.072622021298478806 0 0.25243039498113262 0.075895774732197205 0 0.24842415088314279 0.069033451464499671 0 0.24853219730195361 0.063845178725116872 0 0.25274476311700622 0.067427493409812952 0 0.237967452106535 0.070105640596903412 0 0.24429048066179679 0.072622021298478806 0 0.24496427956833819 0.066036472520138348 0 0.24429048066179679 0.072622021298478806 0 0.24842415088314279 0.069033451464499671 0 0.24496427956833819 0.066036472520138348 0 0.23934469018649959 0.064583282500140851 0 0.24496427956833819 0.066036472520138348 0 0.24309408444955441 0.062356377748052388 0 0.24496427956833819 0.066036472520138348 0 0.24602681454492631 0.062964227281045088 0 0.24309408444955441 0.062356377748052388 0 0.24496427956833819 0.066036472520138348 0 0.24602681454492631 0.062964227281045088 0 0.24853219730195361 0.063845178725116872 0 0.24842415088314279 0.069033451464499671 0 0.24496427956833819 0.066036472520138348 0 0.24853219730195361 0.063845178725116872 0 0.24751669685985911 0.059618880130872708 0 0.24309408444955441 0.062356377748052388 0 0.2376257901407148 0.059976102198904507 0 0.24751669685985911 0.059618880130872708 0 0.24426241142214139 0.049994713685017962 0 0.2310385276818335 0.053106641608170198 0 0.24751669685985911 0.059618880130872708 0 0.2376257901407148 0.059976102198904507 0 0.2310385276818335 0.053106641608170198 0 0.24751669685985911 0.059618880130872708 0 0.2310385276818335 0.053106641608170198 0 0.24853219730195361 0.063845178725116872 0 0.24751669685985911 0.059618880130872708 0 0.2530174900015254 0.0600809219264858 0 0.24602681454492631 0.062964227281045088 0 0.24853219730195361 0.063845178725116872 0 0.24751669685985911 0.059618880130872708 0 0.24602681454492631 0.062964227281045088 0 0.24751669685985911 0.059618880130872708 0 0.24309408444955441 0.062356377748052388 0 0.23934469018649959 0.064583282500140851 0 0.24309408444955441 0.062356377748052388 0 0.2376257901407148 0.059976102198904507 0 0.24426241142214139 0.049994713685017962 0 0.23928634064401511 0.040096757013566242 0 0.2310385276818335 0.053106641608170198 0 0.24751669685985911 0.059618880130872708 0 0.24426241142214139 0.049994713685017962 0 0.25102243244437311 0.053297338652025752 0 0.24426241142214139 0.049994713685017962 0 0.25174039047255609 0.044464402284776217 0 0.25102243244437311 0.053297338652025752 0 0.23928634064401511 0.040096757013566242 0 0.2320502206633881 0.021165953515508481 0 0.25044211127373811 0.032849993626191502 0 0.23928634064401511 0.040096757013566242 0 0.25044211127373811 0.032849993626191502 0 0.25174039047255609 0.044464402284776217 0 0.24426241142214139 0.049994713685017962 0 0.23928634064401511 0.040096757013566242 0 0.25174039047255609 0.044464402284776217 0 0.22618438235043381 0.038998837361733103 0 0.2320502206633881 0.021165953515508481 0 0.20963369093729961 0.03941564640516447 0 0.23928634064401511 0.040096757013566242 0 0.22618438235043381 0.038998837361733103 0 0.2320502206633881 0.021165953515508481 0 0.22618438235043381 0.038998837361733103 0 0.2310385276818335 0.053106641608170198 0 0.21456035850380811 0.046594403085467223 0 0.23928634064401511 0.040096757013566242 0 0.22618438235043381 0.038998837361733103 0 0.2310385276818335 0.053106641608170198 0 0.2310385276818335 0.053106641608170198 0 0.21456035850380811 0.046594403085467223 0 0.2248665156508784 0.061611733455129589 0 0.2310385276818335 0.053106641608170198 0 0.21456035850380811 0.046594403085467223 0 0.2248665156508784 0.061611733455129589 0 0.21456035850380811 0.046594403085467223 0 0.2330718446673557 0.064441819436705627 0 0.2248665156508784 0.061611733455129589 0 0.23150027442910881 0.059501590197602497 0 0.2248665156508784 0.061611733455129589 0 0.23150027442910881 0.059501590197602497 0 0.2310385276818335 0.053106641608170198 0 0.2330718446673557 0.064441819436705627 0 0.2376257901407148 0.059976102198904507 0 0.23150027442910881 0.059501590197602497 0 0.2376257901407148 0.059976102198904507 0 0.23150027442910881 0.059501590197602497 0 0.2310385276818335 0.053106641608170198 0 0.2320502206633881 0.021165953515508481 0 0.22999165343287109 0.0038227322559807589 0 0.25446675038947358 0.0029162606258486688 0 0.2320502206633881 0.021165953515508481 0 0.2600935707136679 0.019574361616358959 0 0.25446675038947358 0.0029162606258486688 0 0.22999165343287109 0.0038227322559807589 0 0.25446675038947358 0.0029162606258486688 0 0.24138147174972829 -0.0061427828714447699 0 0.2320502206633881 0.021165953515508481 0 0.25446675038947358 0.0029162606258486688 0 0.2320502206633881 0.021165953515508481 0 0.2600935707136679 0.019574361616358959 0 0.25044211127373811 0.032849993626191502 0 0.2320502206633881 0.021165953515508481 0 0.20963369093729961 0.03941564640516447 0 0.22999165343287109 0.0038227322559807589 0 0.21340461703840111 0.0096506044731711187 0 0.21351355446813719 -0.0021103410187178909 0 0.2320502206633881 0.021165953515508481 0 0.22999165343287109 0.0038227322559807589 0 0.21340461703840111 0.0096506044731711187 0 0.21340461703840111 0.0096506044731711187 0 0.1998105265397013 0.00335350757378736 0 0.21351355446813719 -0.0021103410187178909 0 0.21340461703840111 0.0096506044731711187 0 0.20371525389429951 0.01279949030761077 0 0.2082588668535221 0.02245160931237615 0 0.21340461703840111 0.0096506044731711187 0 0.20371525389429951 0.01279949030761077 0 0.1998105265397013 0.00335350757378736 0 0.2320502206633881 0.021165953515508481 0 0.2082588668535221 0.02245160931237615 0 0.20963369093729961 0.03941564640516447 0 0.2320502206633881 0.021165953515508481 0 0.21340461703840111 0.0096506044731711187 0 0.2082588668535221 0.02245160931237615 0 0.2082588668535221 0.02245160931237615 0 0.19338700514557339 0.015742239871108451 0 0.20963369093729961 0.03941564640516447 0 0.19338700514557339 0.015742239871108451 0 0.1989601287501698 0.040429129743079398 0 0.18048502430789731 0.01998114488410483 0 0.1989601287501698 0.040429129743079398 0 0.18048502430789731 0.01998114488410483 0 0.19338700514557339 0.015742239871108451 0 0.20963369093729961 0.03941564640516447 0 0.20371525389429951 0.01279949030761077 0 0.2082588668535221 0.02245160931237615 0 0.19338700514557339 0.015742239871108451 0 0.19338700514557339 0.015742239871108451 0 0.1998105265397013 0.00335350757378736 0 0.17714031935384769 -0.0079311666629475405 0 0.20371525389429951 0.01279949030761077 0 0.19338700514557339 0.015742239871108451 0 0.1998105265397013 0.00335350757378736 0 0.21450653174737461 0.057635669175196122 0 0.2029561920580818 0.044851916216142339 0 0.21450653174737461 0.057635669175196122 0 0.2029561920580818 0.044851916216142339 0 0.2021088015620611 0.053433964061651712 0 0.21450653174737461 0.057635669175196122 0 0.21456035850380811 0.046594403085467223 0 0.2029561920580818 0.044851916216142339 0 0.2082291800225603 0.066043280120252124 0 0.21450653174737461 0.057635669175196122 0 0.2021088015620611 0.053433964061651712 0 0.2248665156508784 0.061611733455129589 0 0.21450653174737461 0.057635669175196122 0 0.21456035850380811 0.046594403085467223 0 0.2082291800225603 0.066043280120252124 0 0.21450653174737461 0.057635669175196122 0 0.22618438235043381 0.038998837361733103 0 0.21456035850380811 0.046594403085467223 0 0.20963369093729961 0.03941564640516447 0 0.21456035850380811 0.046594403085467223 0 0.20963369093729961 0.03941564640516447 0 0.21456035850380811 0.046594403085467223 0 0.20530753189452691 0.042937648913457381 0 0.2029561920580818 0.044851916216142339 0 0.20963369093729961 0.03941564640516447 0 0.20530753189452691 0.042937648913457381 0 0.1989601287501698 0.040429129743079398 0 0.21456035850380811 0.046594403085467223 0 0.20530753189452691 0.042937648913457381 0 0.21456035850380811 0.046594403085467223 0 0.20963369093729961 0.03941564640516447 0 0.20530753189452691 0.042937648913457381 0 0.20963369093729961 0.03941564640516447 0 0.20530753189452691 0.042937648913457381 0 0.20530753189452691 0.042937648913457381 0 0.2029561920580818 0.044851916216142339 0 0.1989601287501698 0.040429129743079398 0 0.1774654858828027 0.031934360706524292 0 0.2029561920580818 0.044851916216142339 0 0.1989601287501698 0.040429129743079398 0 0.19971656766465989 0.047489351670260083 0 0.1989601287501698 0.040429129743079398 0 0.19133087755196571 0.045131483978966998 0 0.19971656766465989 0.047489351670260083 0 0.2029561920580818 0.044851916216142339 0 0.19971656766465989 0.047489351670260083 0 0.19338700514557339 0.015742239871108451 0 0.20963369093729961 0.03941564640516447 0 0.1989601287501698 0.040429129743079398 0 0.1989601287501698 0.040429129743079398 0 0.19133087755196571 0.045131483978966998 0 0.18298678422305309 0.040980100737508622 0 0.20530753189452691 0.042937648913457381 0 0.2029561920580818 0.044851916216142339 0 0.1989601287501698 0.040429129743079398 0 0.20530753189452691 0.042937648913457381 0 0.1989601287501698 0.040429129743079398 0 0.2029561920580818 0.044851916216142339 0 0.1989601287501698 0.040429129743079398 0 0.2082291800225603 0.066043280120252124 0 0.18513553631762919 0.051149603126408108 0 0.2021088015620611 0.053433964061651712 0 0.19971656766465989 0.047489351670260083 0 0.18513553631762919 0.051149603126408108 0 0.2082291800225603 0.066043280120252124 0 0.2021088015620611 0.053433964061651712 0 0.18513553631762919 0.051149603126408108 0 0.19067723801237901 0.065525043857756982 0 0.2082291800225603 0.066043280120252124 0 0.18513553631762919 0.051149603126408108 0 0.19133087755196571 0.045131483978966998 0 0.19971656766465989 0.047489351670260083 0 0.18513553631762919 0.051149603126408108 0 0.2029561920580818 0.044851916216142339 0 0.2021088015620611 0.053433964061651712 0 0.19971656766465989 0.047489351670260083 0 0.17734631865053521 0.060730067185729229 0 0.18513553631762919 0.051149603126408108 0 0.16725106424272049 0.052894846580172288 0 0.19067723801237901 0.065525043857756982 0 0.17734631865053521 0.060730067185729229 0 0.18513553631762919 0.051149603126408108 0 0.18298678422305309 0.040980100737508622 0 0.1774654858828027 0.031934360706524292 0 0.1620418926126978 0.036255926132564682 0 0.19133087755196571 0.045131483978966998 0 0.18513553631762919 0.051149603126408108 0 0.18298678422305309 0.040980100737508622 0 0.18513553631762919 0.051149603126408108 0 0.18298678422305309 0.040980100737508622 0 0.1620418926126978 0.036255926132564682 0 0.1989601287501698 0.040429129743079398 0 0.18298678422305309 0.040980100737508622 0 0.1774654858828027 0.031934360706524292 0 0.18513553631762919 0.051149603126408108 0 0.1620418926126978 0.036255926132564682 0 0.1620418926126978 0.036255926132564682 0 0.16725106424272049 0.052894846580172288 0 0.15541952745182569 0.04677658384696623 0 0.18513553631762919 0.051149603126408108 0 0.1620418926126978 0.036255926132564682 0 0.16725106424272049 0.052894846580172288 0 0.16725106424272049 0.052894846580172288 0 0.15507694825043991 0.057889849327421902 0 0.15541952745182569 0.04677658384696623 0 0.16725106424272049 0.052894846580172288 0 0.15507694825043991 0.057889849327421902 0 0.1653937448538241 0.067538194789913991 0 0.17734631865053521 0.060730067185729229 0 0.16725106424272049 0.052894846580172288 0 0.1653937448538241 0.067538194789913991 0 0.18048502430789731 0.01998114488410483 0 0.1657030786406338 0.0084270166623369204 0 0.17714031935384769 -0.0079311666629475405 0 0.19338700514557339 0.015742239871108451 0 0.17714031935384769 -0.0079311666629475405 0 0.19338700514557339 0.015742239871108451 0 0.18048502430789731 0.01998114488410483 0 0.17714031935384769 -0.0079311666629475405 0 0.1989601287501698 0.040429129743079398 0 0.1774654858828027 0.031934360706524292 0 0.18048502430789731 0.01998114488410483 0 0.1774654858828027 0.031934360706524292 0 0.18048502430789731 0.01998114488410483 0 0.16935520337559401 0.020657770454092759 0 0.1774654858828027 0.031934360706524292 0 0.15597084301543529 0.02343959166996953 0 0.1774654858828027 0.031934360706524292 0 0.1620418926126978 0.036255926132564682 0 0.15597084301543529 0.02343959166996953 0 0.1774654858828027 0.031934360706524292 0 0.16935520337559401 0.020657770454092759 0 0.15597084301543529 0.02343959166996953 0 0.16935520337559401 0.020657770454092759 0 0.1657030786406338 0.0084270166623369204 0 0.15597084301543529 0.02343959166996953 0 0.18048502430789731 0.01998114488410483 0 0.16935520337559401 0.020657770454092759 0 0.1657030786406338 0.0084270166623369204 0 0.1657030786406338 0.0084270166623369204 0 0.14883794818754281 0.01110572894874149 0 0.15480995508657039 -0.001084596553268768 0 0.1657030786406338 0.0084270166623369204 0 0.14883794818754281 0.01110572894874149 0 0.15597084301543529 0.02343959166996953 0 0.14883794818754281 0.01110572894874149 0 0.13464870039648349 0.00080453217212592717 0 0.15480995508657039 -0.001084596553268768 0 0.14883794818754281 0.01110572894874149 0 0.13894824890776639 0.02136224913872127 0 0.13464870039648349 0.00080453217212592717 0 0.1620418926126978 0.036255926132564682 0 0.13894824890776639 0.02136224913872127 0 0.14883794818754281 0.01110572894874149 0 0.15597084301543529 0.02343959166996953 0 0.13894824890776639 0.02136224913872127 0 0.1620418926126978 0.036255926132564682 0 0.15597084301543529 0.02343959166996953 0 0.13894824890776639 0.02136224913872127 0 0.11961069471150609 0.02296590295220987 0 0.13894824890776639 0.02136224913872127 0 0.12977361784467401 0.039215218793308727 0 0.1158546052028349 0.0064685721448778594 0 0.13894824890776639 0.02136224913872127 0 0.1158546052028349 0.0064685721448778594 0 0.13894824890776639 0.02136224913872127 0 0.13464870039648349 0.00080453217212592717 0 0.14278372382386809 0.048416123664777412 0 0.1428601767931531 0.062084067640591357 0 0.15507694825043991 0.057889849327421902 0 0.14278372382386809 0.048416123664777412 0 0.15507694825043991 0.057889849327421902 0 0.15541952745182569 0.04677658384696623 0 0.1620418926126978 0.036255926132564682 0 0.13894824890776639 0.02136224913872127 0 0.14579340212816641 0.038405220315267663 0 0.1620418926126978 0.036255926132564682 0 0.15541952745182569 0.04677658384696623 0 0.14579340212816641 0.038405220315267663 0 0.14278372382386809 0.048416123664777412 0 0.15541952745182569 0.04677658384696623 0 0.14579340212816641 0.038405220315267663 0 0.14278372382386809 0.048416123664777412 0 0.14579340212816641 0.038405220315267663 0 0.12977361784467401 0.039215218793308727 0 0.13894824890776639 0.02136224913872127 0 0.14579340212816641 0.038405220315267663 0 0.12977361784467401 0.039215218793308727 0 0.11550376979223601 0.054551475820320147 0 0.12977361784467401 0.039215218793308727 0 0.1326943019686847 0.054606112458038862 0 0.11550376979223601 0.054551475820320147 0 0.1326943019686847 0.054606112458038862 0 0.13255022158949201 0.068763676371196639 0 0.14278372382386809 0.048416123664777412 0 0.12977361784467401 0.039215218793308727 0 0.1326943019686847 0.054606112458038862 0 0.14278372382386809 0.048416123664777412 0 0.1428601767931531 0.062084067640591357 0 0.1326943019686847 0.054606112458038862 0 0.1428601767931531 0.062084067640591357 0 0.1326943019686847 0.054606112458038862 0 0.13255022158949201 0.068763676371196639 0 0.1207366242219714 0.074251990558816788 0 0.13255022158949201 0.068763676371196639 0 0.13578085374332971 0.077614708003019631 0 0.13255022158949201 0.068763676371196639 0 0.13578085374332971 0.077614708003019631 0 0.1430759120552613 0.073085192731263071 0 0.1428601767931531 0.062084067640591357 0 0.13255022158949201 0.068763676371196639 0 0.1430759120552613 0.073085192731263071 0 0.1428601767931531 0.062084067640591357 0 0.1430759120552613 0.073085192731263071 0 0.15260580868734391 0.069203578475014266 0 0.1430759120552613 0.073085192731263071 0 0.14969883640752091 0.076610515579137797 0 0.14563192422462459 0.083183778073064013 0 0.13578085374332971 0.077614708003019631 0 0.1430759120552613 0.073085192731263071 0 0.14563192422462459 0.083183778073064013 0 0.1430759120552613 0.073085192731263071 0 0.14969883640752091 0.076610515579137797 0 0.15260580868734391 0.069203578475014266 0 0.14969883640752091 0.076610515579137797 0 0.15260580868734391 0.069203578475014266 0 0.15677919641446331 0.080277826610221981 0 0.1428601767931531 0.062084067640591357 0 0.15507694825043991 0.057889849327421902 0 0.15260580868734391 0.069203578475014266 0 0.1506819444987289 0.088437751930635633 0 0.14868901735932749 0.09586058707093438 0 0.157853861938485 0.092527754269896317 0 0.1506819444987289 0.088437751930635633 0 0.15677919641446331 0.080277826610221981 0 0.157853861938485 0.092527754269896317 0 0.14969883640752091 0.076610515579137797 0 0.14563192422462459 0.083183778073064013 0 0.15677919641446331 0.080277826610221981 0 0.1506819444987289 0.088437751930635633 0 0.14563192422462459 0.083183778073064013 0 0.15677919641446331 0.080277826610221981 0 0.14563192422462459 0.083183778073064013 0 0.1444557225567443 0.090338813629061501 0 0.13888671887288589 0.088270852986767859 0 0.1506819444987289 0.088437751930635633 0 0.14563192422462459 0.083183778073064013 0 0.1444557225567443 0.090338813629061501 0 0.1444557225567443 0.090338813629061501 0 0.14209274384079601 0.094639397504520467 0 0.14868901735932749 0.09586058707093438 0 0.1506819444987289 0.088437751930635633 0 0.1444557225567443 0.090338813629061501 0 0.14868901735932749 0.09586058707093438 0 0.1444557225567443 0.090338813629061501 0 0.13888671887288589 0.088270852986767859 0 0.14209274384079601 0.094639397504520467 0 0.13888671887288589 0.088270852986767859 0 0.13668050292917741 0.098217611464673699 0 0.14209274384079601 0.094639397504520467 0 0.13888671887288589 0.088270852986767859 0 0.1300820653953097 0.084166932106396392 0 0.13668050292917741 0.098217611464673699 0 0.11116449005577619 0.086473750785835857 0 0.1300820653953097 0.084166932106396392 0 0.13668050292917741 0.098217611464673699 0 0.13578085374332971 0.077614708003019631 0 0.13888671887288589 0.088270852986767859 0 0.1300820653953097 0.084166932106396392 0 0.13578085374332971 0.077614708003019631 0 0.14563192422462459 0.083183778073064013 0 0.13888671887288589 0.088270852986767859 0 0.1207366242219714 0.074251990558816788 0 0.13578085374332971 0.077614708003019631 0 0.1300820653953097 0.084166932106396392 0 0.1216961693062274 0.1020981758197984 0 0.1302764983332621 0.10693497851168419 0 0.13668050292917741 0.098217611464673699 0 0.1302764983332621 0.10693497851168419 0 0.13758713408363871 0.1043360441680015 0 0.13668050292917741 0.098217611464673699 0 0.1302764983332621 0.10693497851168419 0 0.1360833458267342 0.1084620534226548 0 0.13758713408363871 0.1043360441680015 0 0.1360833458267342 0.1084620534226548 0 0.13758713408363871 0.1043360441680015 0 0.14314356584317489 0.10755645506983 0 0.13758713408363871 0.1043360441680015 0 0.13668050292917741 0.098217611464673699 0 0.14175175748584509 0.1005091223711649 0 0.13668050292917741 0.098217611464673699 0 0.14209274384079601 0.094639397504520467 0 0.14175175748584509 0.1005091223711649 0 0.12813823657366311 0.12049833089676459 0 0.13246275659848361 0.1130811342378658 0 0.13708322035591489 0.118794437000363 0 0.12212988809696081 0.1249307776834532 0 0.12788127083107459 0.1291064789800366 0 0.12813823657366311 0.12049833089676459 0 0.1197878353292403 0.1092484053650479 0 0.1302764983332621 0.10693497851168419 0 0.12624189261331301 0.1140678077034443 0 0.12813823657366311 0.12049833089676459 0 0.12624189261331301 0.1140678077034443 0 0.13246275659848361 0.1130811342378658 0 0.1302764983332621 0.10693497851168419 0 0.12624189261331301 0.1140678077034443 0 0.13246275659848361 0.1130811342378658 0 0.138866780176991 0.11235807520418389 0 0.13708322035591489 0.118794437000363 0 0.14572099158606311 0.1154247658161887 0 0.1360833458267342 0.1084620534226548 0 0.13246275659848361 0.1130811342378658 0 0.138866780176991 0.11235807520418389 0 0.1302764983332621 0.10693497851168419 0 0.1360833458267342 0.1084620534226548 0 0.13246275659848361 0.1130811342378658 0 0.1360833458267342 0.1084620534226548 0 0.138866780176991 0.11235807520418389 0 0.14314356584317489 0.10755645506983 0 0.13246275659848361 0.1130811342378658 0 0.138866780176991 0.11235807520418389 0 0.13708322035591489 0.118794437000363 0 0.13409394305489639 0.1257339851238449 0 0.14295710802469111 0.12768772724150559 0 0.13708322035591489 0.118794437000363 0 0.13409394305489639 0.1257339851238449 0 0.12813823657366311 0.12049833089676459 0 0.13708322035591489 0.118794437000363 0 0.14572099158606311 0.1154247658161887 0 0.15364605026385231 0.1227496740475859 0 0.15839207309433961 0.10550736800805539 0 0.14295710802469111 0.12768772724150559 0 0.13708322035591489 0.118794437000363 0 0.14572099158606311 0.1154247658161887 0 0.14295710802469111 0.12768772724150559 0 0.14572099158606311 0.1154247658161887 0 0.15364605026385231 0.1227496740475859 0 0.138866780176991 0.11235807520418389 0 0.14572099158606311 0.1154247658161887 0 0.14314356584317489 0.10755645506983 0 0.14572099158606311 0.1154247658161887 0 0.14314356584317489 0.10755645506983 0 0.15839207309433961 0.10550736800805539 0 0.14175175748584509 0.1005091223711649 0 0.15839207309433961 0.10550736800805539 0 0.14175175748584509 0.1005091223711649 0 0.14314356584317489 0.10755645506983 0 0.15839207309433961 0.10550736800805539 0 0.14175175748584509 0.1005091223711649 0 0.14868901735932749 0.09586058707093438 0 0.15839207309433961 0.10550736800805539 0 0.14209274384079601 0.094639397504520467 0 0.14175175748584509 0.1005091223711649 0 0.14868901735932749 0.09586058707093438 0 0.13758713408363871 0.1043360441680015 0 0.14175175748584509 0.1005091223711649 0 0.14314356584317489 0.10755645506983 0 0.14868901735932749 0.09586058707093438 0 0.15839207309433961 0.10550736800805539 0 0.157853861938485 0.092527754269896317 0 0.15839207309433961 0.10550736800805539 0 0.17503238870283441 0.11050561364494491 0 0.15839207309433961 0.10550736800805539 0 0.1705578526620479 0.095927182961129481 0 0.157853861938485 0.092527754269896317 0 0.15839207309433961 0.10550736800805539 0 0.1705578526620479 0.095927182961129481 0 0.17503238870283441 0.11050561364494491 0 0.16417220099380411 0.12505127510387981 0 0.15839207309433961 0.10550736800805539 0 0.17503238870283441 0.11050561364494491 0 0.16417220099380411 0.12505127510387981 0 0.15364605026385231 0.1227496740475859 0 0.15839207309433961 0.10550736800805539 0 0.16417220099380411 0.12505127510387981 0 0.17503238870283441 0.11050561364494491 0 0.18002451345814399 0.12716596121819479 0 0.16417220099380411 0.12505127510387981 0 0.17503238870283441 0.11050561364494491 0 0.18002451345814399 0.12716596121819479 0 0.2001236667938262 0.1180422718546187 0 0.17503238870283441 0.11050561364494491 0 0.1916307843626972 0.08827444688259839 0 0.1705578526620479 0.095927182961129481 0 0.17503238870283441 0.11050561364494491 0 0.1916307843626972 0.08827444688259839 0 0.17503238870283441 0.11050561364494491 0 0.1916307843626972 0.08827444688259839 0 0.17935943521264269 0.07135827912697662 0 0.16988015521188329 0.08282073200015258 0 0.1916307843626972 0.08827444688259839 0 0.1705578526620479 0.095927182961129481 0 0.16988015521188329 0.08282073200015258 0 0.19067723801237901 0.065525043857756982 0 0.1916307843626972 0.08827444688259839 0 0.17935943521264269 0.07135827912697662 0 0.19067723801237901 0.065525043857756982 0 0.17734631865053521 0.060730067185729229 0 0.17935943521264269 0.07135827912697662 0 0.17734631865053521 0.060730067185729229 0 0.17935943521264269 0.07135827912697662 0 0.1653937448538241 0.067538194789913991 0 0.17935943521264269 0.07135827912697662 0 0.1653937448538241 0.067538194789913991 0 0.16988015521188329 0.08282073200015258 0 0.15507694825043991 0.057889849327421902 0 0.15260580868734391 0.069203578475014266 0 0.1653937448538241 0.067538194789913991 0 0.15260580868734391 0.069203578475014266 0 0.1653937448538241 0.067538194789913991 0 0.15677919641446331 0.080277826610221981 0 0.1653937448538241 0.067538194789913991 0 0.15677919641446331 0.080277826610221981 0 0.16988015521188329 0.08282073200015258 0 0.15677919641446331 0.080277826610221981 0 0.157853861938485 0.092527754269896317 0 0.16988015521188329 0.08282073200015258 0 0.1705578526620479 0.095927182961129481 0 0.157853861938485 0.092527754269896317 0 0.16988015521188329 0.08282073200015258 0 0.099456207782380623 0.4822659283708195 0 0.1141892196830592 0.48396198267476093 0 0.11304725129434449 0.46767028325629811 0 0.099456207782380623 0.4822659283708195 0 0.11304725129434449 0.46767028325629811 0 0.096803680563272876 0.46646214520586099 0 0.099456207782380623 0.4822659283708195 0 0.10782601469385079 0.5 0 0.078267650747156567 0.50000000000000133 0 0.099456207782380623 0.4822659283708195 0 0.10782601469385079 0.5 0 0.1141892196830592 0.48396198267476093 0 0.10782601469385079 0.5 0 0.1249193769550877 0.49369376296818718 0 0.1141892196830592 0.48396198267476093 0 0.1249193769550877 0.49369376296818718 0 0.1141892196830592 0.48396198267476093 0 0.12569724768963239 0.47617993877849962 0 0.10782601469385079 0.5 0 0.1249193769550877 0.49369376296818718 0 0.13738437864054501 0.5 0 0.1141892196830592 0.48396198267476093 0 0.11304725129434449 0.46767028325629811 0 0.12569724768963239 0.47617993877849962 0 0.11304725129434449 0.46767028325629811 0 0.1267882431275838 0.46370707134437261 0 0.12569724768963239 0.47617993877849962 0 0.11304725129434449 0.46767028325629811 0 0.1221607865463437 0.4507156547582637 0 0.1004821270038239 0.44949914822431608 0 0.11304725129434449 0.46767028325629811 0 0.1221607865463437 0.4507156547582637 0 0.1267882431275838 0.46370707134437261 0 0.1221607865463437 0.4507156547582637 0 0.1004821270038239 0.44949914822431608 0 0.12259086230274099 0.42947812748907283 0 0.1004821270038239 0.44949914822431608 0 0.096803680563272876 0.46646214520586099 0 0.084307548883437972 0.45862843933572522 0 0.11304725129434449 0.46767028325629811 0 0.1004821270038239 0.44949914822431608 0 0.096803680563272876 0.46646214520586099 0 0.084307548883437972 0.45862843933572522 0 0.070120974899159305 0.46867166915081548 0 0.08254081050968877 0.47642281665818748 0 0.096803680563272876 0.46646214520586099 0 0.084307548883437972 0.45862843933572522 0 0.08254081050968877 0.47642281665818748 0 0.084307548883437972 0.45862843933572522 0 0.083205653112744402 0.44008551456546158 0 0.070599818540594342 0.45171728711773013 0 0.1004821270038239 0.44949914822431608 0 0.084307548883437972 0.45862843933572522 0 0.083205653112744402 0.44008551456546158 0 0.1004821270038239 0.44949914822431608 0 0.083205653112744402 0.44008551456546158 0 0.095892719888732866 0.42453745382262881 0 0.070599818540594342 0.45171728711773013 0 0.057347956450285731 0.44480695268810438 0 0.068330088192809502 0.43602814955066621 0 0.083205653112744402 0.44008551456546158 0 0.070599818540594342 0.45171728711773013 0 0.068330088192809502 0.43602814955066621 0 0.070599818540594342 0.45171728711773013 0 0.070120974899159305 0.46867166915081548 0 0.05832870883015126 0.45973880463956351 0 0.084307548883437972 0.45862843933572522 0 0.070599818540594342 0.45171728711773013 0 0.070120974899159305 0.46867166915081548 0 0.070120974899159305 0.46867166915081548 0 0.08254081050968877 0.47642281665818748 0 0.061557047466102868 0.48310025102256282 0 0.070120974899159305 0.46867166915081548 0 0.061557047466102868 0.48310025102256282 0 0.05832870883015126 0.45973880463956351 0 0.099456207782380623 0.4822659283708195 0 0.096803680563272876 0.46646214520586099 0 0.08254081050968877 0.47642281665818748 0 0.099456207782380623 0.4822659283708195 0 0.08254081050968877 0.47642281665818748 0 0.078267650747156567 0.50000000000000133 0 0.078267650747156567 0.50000000000000133 0 0.049166882519808157 0.5 0 0.061557047466102868 0.48310025102256282 0 0.08254081050968877 0.47642281665818748 0 0.078267650747156567 0.50000000000000133 0 0.061557047466102868 0.48310025102256282 0 0.078267650747156567 0.50000000000000133 0 0.061557047466102868 0.48310025102256282 0 0.049166882519808157 0.5 0 0.061557047466102868 0.48310025102256282 0 0.038208171894904559 0.48286056860770488 0 0.061557047466102868 0.48310025102256282 0 0.044846444185049857 0.46620050204512359 0 0.05832870883015126 0.45973880463956351 0 0.061557047466102868 0.48310025102256282 0 0.044846444185049857 0.46620050204512359 0 0.061557047466102868 0.48310025102256282 0 0.038208171894904559 0.48286056860770488 0 0.044846444185049857 0.46620050204512359 0 0.038208171894904559 0.48286056860770488 0 0.029572045059576241 0.469060477695939 0 0.044846444185049857 0.46620050204512359 0 0.049166882519808157 0.5 0 0.038208171894904559 0.48286056860770488 0 0.020066114292459799 0.5 0 0.038208171894904559 0.48286056860770488 0 0.020066114292459799 0.5 0 0.021055159894441029 0.48095839664786189 0 0.038208171894904559 0.48286056860770488 0 0.029572045059576241 0.469060477695939 0 0.021055159894441029 0.48095839664786189 0 0.029572045059576241 0.469060477695939 0 0.021055159894441029 0.48095839664786189 0 0.01561460841948897 0.46598216811131982 0 0.021055159894441029 0.48095839664786189 0 0.0030933759349822849 0.48266358315495572 0 0.01561460841948897 0.46598216811131982 0 0.0030933759349822849 0.48266358315495572 0 0.01561460841948897 0.46598216811131982 0 0.0036787250480955699 0.47408322248379448 0 0.0030933759349822849 0.48266358315495572 0 0.01561460841948897 0.46598216811131982 0 -0.0016340076521478781 0.48633642657919801 0 0.0036787250480955699 0.47408322248379448 0 0.0030933759349822849 0.48266358315495572 0 0.020066114292459799 0.5 0 0.021055159894441029 0.48095839664786189 0 0.0030933759349822849 0.48266358315495572 0 -0.0090346539348886701 0.5 0 -0.0016340076521478781 0.48633642657919801 0 0.020066114292459799 0.5 0 -0.0016340076521478781 0.48633642657919801 0 0.020066114292459799 0.5 0 0.0030933759349822849 0.48266358315495572 0 -0.0030841453677343121 0.43636499760021141 0 -0.002359076509941094 0.46135071208970457 0 0.010470448459028871 0.45111158928184719 0 -0.0030841453677343121 0.43636499760021141 0 0.010470448459028871 0.45111158928184719 0 0.017893296784651399 0.43894227458572882 0 -0.002359076509941094 0.46135071208970457 0 0.010470448459028871 0.45111158928184719 0 0.01561460841948897 0.46598216811131982 0 -0.002359076509941094 0.46135071208970457 0 0.0036787250480955699 0.47408322248379448 0 0.01561460841948897 0.46598216811131982 0 0.010470448459028871 0.45111158928184719 0 0.01561460841948897 0.46598216811131982 0 0.0281358409039968 0.44930075306768458 0 0.029572045059576241 0.469060477695939 0 0.01561460841948897 0.46598216811131982 0 0.0281358409039968 0.44930075306768458 0 0.01561460841948897 0.46598216811131982 0 0.0281358409039968 0.44930075306768458 0 0.010470448459028871 0.45111158928184719 0 0.0281358409039968 0.44930075306768458 0 0.017893296784651399 0.43894227458572882 0 0.0281358409039968 0.44930075306768458 0 0.017893296784651399 0.43894227458572882 0 0.03800042812263172 0.43615865433005307 0 0.0281358409039968 0.44930075306768458 0 0.017893296784651399 0.43894227458572882 0 0.0281358409039968 0.44930075306768458 0 0.04587361322417214 0.448769157871174 0 0.03800042812263172 0.43615865433005307 0 0.0281358409039968 0.44930075306768458 0 0.03800042812263172 0.43615865433005307 0 0.04587361322417214 0.448769157871174 0 0.049411209704934803 0.43621283219101809 0 0.03800042812263172 0.43615865433005307 0 0.029572045059576241 0.469060477695939 0 0.0281358409039968 0.44930075306768458 0 0.044846444185049857 0.46620050204512359 0 0.0281358409039968 0.44930075306768458 0 0.04587361322417214 0.448769157871174 0 0.044846444185049857 0.46620050204512359 0 0.0281358409039968 0.44930075306768458 0 0.044846444185049857 0.46620050204512359 0 0.04587361322417214 0.448769157871174 0 0.044846444185049857 0.46620050204512359 0 0.05832870883015126 0.45973880463956351 0 0.04587361322417214 0.448769157871174 0 0.057347956450285731 0.44480695268810438 0 0.049411209704934803 0.43621283219101809 0 0.04587361322417214 0.448769157871174 0 0.05832870883015126 0.45973880463956351 0 0.057347956450285731 0.44480695268810438 0 0.070599818540594342 0.45171728711773013 0 0.05832870883015126 0.45973880463956351 0 0.057347956450285731 0.44480695268810438 0 0.057347956450285731 0.44480695268810438 0 0.058238482531349368 0.43512174465279091 0 0.068330088192809502 0.43602814955066621 0 0.057347956450285731 0.44480695268810438 0 0.058238482531349368 0.43512174465279091 0 0.049411209704934803 0.43621283219101809 0 0.058238482531349368 0.43512174465279091 0 0.05412352915042095 0.42739076434297479 0 0.063786863135573219 0.4234822836218442 0 0.05412352915042095 0.42739076434297479 0 0.047865015341267358 0.42301655559242213 0 0.049411209704934803 0.43621283219101809 0 0.05412352915042095 0.42739076434297479 0 0.047865015341267358 0.42301655559242213 0 0.058238482531349368 0.43512174465279091 0 0.05412352915042095 0.42739076434297479 0 0.049411209704934803 0.43621283219101809 0 0.047865015341267358 0.42301655559242213 0 0.055388731832649349 0.41299308245440008 0 0.044385004541519633 0.40583709082877739 0 0.055388731832649349 0.41299308245440008 0 0.057103340742871267 0.4006394318358022 0 0.0691327228978319 0.40699071288372829 0 0.05412352915042095 0.42739076434297479 0 0.055388731832649349 0.41299308245440008 0 0.063786863135573219 0.4234822836218442 0 0.047865015341267358 0.42301655559242213 0 0.055388731832649349 0.41299308245440008 0 0.05412352915042095 0.42739076434297479 0 0.047865015341267358 0.42301655559242213 0 0.055388731832649349 0.41299308245440008 0 0.055388731832649349 0.41299308245440008 0 0.044385004541519633 0.40583709082877739 0 0.057103340742871267 0.4006394318358022 0 0.047865015341267358 0.42301655559242213 0 0.030398582533070099 0.41080889326869052 0 0.044385004541519633 0.40583709082877739 0 0.047865015341267358 0.42301655559242213 0 0.035686717363660143 0.42423985257235269 0 0.030398582533070099 0.41080889326869052 0 0.047865015341267358 0.42301655559242213 0 0.030398582533070099 0.41080889326869052 0 0.047865015341267358 0.42301655559242213 0 0.049411209704934803 0.43621283219101809 0 0.03800042812263172 0.43615865433005307 0 0.047865015341267358 0.42301655559242213 0 0.03800042812263172 0.43615865433005307 0 0.047865015341267358 0.42301655559242213 0 0.035686717363660143 0.42423985257235269 0 0.03800042812263172 0.43615865433005307 0 0.035686717363660143 0.42423985257235269 0 0.03800042812263172 0.43615865433005307 0 0.0264828434576714 0.42697530709824522 0 0.017893296784651399 0.43894227458572882 0 0.0264828434576714 0.42697530709824522 0 0.013451351612083251 0.42022136891186163 0 0.017893296784651399 0.43894227458572882 0 0.03800042812263172 0.43615865433005307 0 0.0264828434576714 0.42697530709824522 0 0.030398582533070099 0.41080889326869052 0 0.013451351612083251 0.42022136891186163 0 0.012932149724872831 0.39860123094495892 0 0.0264828434576714 0.42697530709824522 0 0.030398582533070099 0.41080889326869052 0 0.013451351612083251 0.42022136891186163 0 0.035686717363660143 0.42423985257235269 0 0.0264828434576714 0.42697530709824522 0 0.030398582533070099 0.41080889326869052 0 -0.0038092142255275289 0.41137928311071797 0 0.013451351612083251 0.42022136891186163 0 0.012932149724872831 0.39860123094495892 0 -0.0030841453677343121 0.43636499760021141 0 0.017893296784651399 0.43894227458572882 0 0.013451351612083251 0.42022136891186163 0 -0.0030841453677343121 0.43636499760021141 0 -0.0038092142255275289 0.41137928311071797 0 0.013451351612083251 0.42022136891186163 0 -0.0045342830833226501 0.3863935686212247 0 0.012932149724872831 0.39860123094495892 0 0.0079023355216259559 0.37348921158265391 0 0.012932149724872831 0.39860123094495892 0 0.025375843575522711 0.38021681034322929 0 0.0079023355216259559 0.37348921158265391 0 -0.0045342830833226501 0.3863935686212247 0 0.012932149724872831 0.39860123094495892 0 -0.0045342830833226501 0.3863935686212247 0 -0.0038092142255275289 0.41137928311071797 0 0.012932149724872831 0.39860123094495892 0 0.030398582533070099 0.41080889326869052 0 0.012932149724872831 0.39860123094495892 0 0.030398582533070099 0.41080889326869052 0 0.012932149724872831 0.39860123094495892 0 0.030218872497922818 0.39559608178221078 0 0.012932149724872831 0.39860123094495892 0 0.030218872497922818 0.39559608178221078 0 0.025375843575522711 0.38021681034322929 0 0.025375843575522711 0.38021681034322929 0 0.045236422390978262 0.39339421550307069 0 0.045418656597819553 0.37354288132317159 0 0.030218872497922818 0.39559608178221078 0 0.025375843575522711 0.38021681034322929 0 0.045236422390978262 0.39339421550307069 0 0.030398582533070099 0.41080889326869052 0 0.030218872497922818 0.39559608178221078 0 0.044385004541519633 0.40583709082877739 0 0.030218872497922818 0.39559608178221078 0 0.045236422390978262 0.39339421550307069 0 0.044385004541519633 0.40583709082877739 0 0.045236422390978262 0.39339421550307069 0 0.057103340742871267 0.4006394318358022 0 0.06607043693335328 0.38973814947632979 0 0.045236422390978262 0.39339421550307069 0 0.044385004541519633 0.40583709082877739 0 0.057103340742871267 0.4006394318358022 0 0.045236422390978262 0.39339421550307069 0 0.06607043693335328 0.38973814947632979 0 0.045418656597819553 0.37354288132317159 0 0.06607043693335328 0.38973814947632979 0 0.066778362586220691 0.36264744131756171 0 0.045418656597819553 0.37354288132317159 0 0.06607043693335328 0.38973814947632979 0 0.086713905658550791 0.37461406501925459 0 0.066778362586220691 0.36264744131756171 0 0.091303312773641829 0.3995757594209417 0 0.1025776524751303 0.38486691706586951 0 0.086713905658550791 0.37461406501925459 0 0.06607043693335328 0.38973814947632979 0 0.091303312773641829 0.3995757594209417 0 0.086713905658550791 0.37461406501925459 0 0.091303312773641829 0.3995757594209417 0 0.086713905658550791 0.37461406501925459 0 0.06607043693335328 0.38973814947632979 0 0.091303312773641829 0.3995757594209417 0 0.0691327228978319 0.40699071288372829 0 0.057103340742871267 0.4006394318358022 0 0.06607043693335328 0.38973814947632979 0 0.0691327228978319 0.40699071288372829 0 0.055388731832649349 0.41299308245440008 0 0.0691327228978319 0.40699071288372829 0 0.063786863135573219 0.4234822836218442 0 0.0691327228978319 0.40699071288372829 0 0.077714875811277062 0.4214876261871765 0 0.063786863135573219 0.4234822836218442 0 0.083205653112744402 0.44008551456546158 0 0.077714875811277062 0.4214876261871765 0 0.068330088192809502 0.43602814955066621 0 0.058238482531349368 0.43512174465279091 0 0.068330088192809502 0.43602814955066621 0 0.063786863135573219 0.4234822836218442 0 0.077714875811277062 0.4214876261871765 0 0.068330088192809502 0.43602814955066621 0 0.063786863135573219 0.4234822836218442 0 0.083205653112744402 0.44008551456546158 0 0.077714875811277062 0.4214876261871765 0 0.095892719888732866 0.42453745382262881 0 0.091303312773641829 0.3995757594209417 0 0.0691327228978319 0.40699071288372829 0 0.077714875811277062 0.4214876261871765 0 0.091303312773641829 0.3995757594209417 0 0.095892719888732866 0.42453745382262881 0 0.091303312773641829 0.3995757594209417 0 0.077714875811277062 0.4214876261871765 0 0.095892719888732866 0.42453745382262881 0 0.091303312773641829 0.3995757594209417 0 0.095892719888732866 0.42453745382262881 0 0.115428724103706 0.40267530492779557 0 0.1004821270038239 0.44949914822431608 0 0.095892719888732866 0.42453745382262881 0 0.12259086230274099 0.42947812748907283 0 0.1004821270038239 0.44949914822431608 0 0.095892719888732866 0.42453745382262881 0 0.095892719888732866 0.42453745382262881 0 0.12259086230274099 0.42947812748907283 0 0.115428724103706 0.40267530492779557 0 0.115428724103706 0.40267530492779557 0 0.119448870245615 0.38256434187866972 0 0.13692284990477191 0.38930777957628943 0 0.119448870245615 0.38256434187866972 0 0.1025776524751303 0.38486691706586951 0 0.1087205780393706 0.3656269003386084 0 0.115428724103706 0.40267530492779557 0 0.119448870245615 0.38256434187866972 0 0.1025776524751303 0.38486691706586951 0 0.1025776524751303 0.38486691706586951 0 0.1087205780393706 0.3656269003386084 0 0.086713905658550791 0.37461406501925459 0 0.091303312773641829 0.3995757594209417 0 0.115428724103706 0.40267530492779557 0 0.1025776524751303 0.38486691706586951 0 0.1087205780393706 0.3656269003386084 0 0.1202868522871179 0.34060046584014031 0 0.0915497208986496 0.34709204532757532 0 0.1087205780393706 0.3656269003386084 0 0.0915497208986496 0.34709204532757532 0 0.086713905658550791 0.37461406501925459 0 0.119448870245615 0.38256434187866972 0 0.1087205780393706 0.3656269003386084 0 0.13274728415341139 0.36410634055334368 0 0.1087205780393706 0.3656269003386084 0 0.1202868522871179 0.34060046584014031 0 0.13274728415341139 0.36410634055334368 0 0.1202868522871179 0.34060046584014031 0 0.1104734498024164 0.31171603628350752 0 0.14183880654046921 0.32250528078568202 0 0.1202868522871179 0.34060046584014031 0 0.1016552612267161 0.33013161519950079 0 0.1104734498024164 0.31171603628350752 0 0.1016552612267161 0.33013161519950079 0 0.081254576285268804 0.3210829637434266 0 0.1104734498024164 0.31171603628350752 0 0.1202868522871179 0.34060046584014031 0 0.1016552612267161 0.33013161519950079 0 0.0915497208986496 0.34709204532757532 0 0.081254576285268804 0.3210829637434266 0 0.072654821413094289 0.33942743407960763 0 0.0915497208986496 0.34709204532757532 0 0.1016552612267161 0.33013161519950079 0 0.081254576285268804 0.3210829637434266 0 0.0915497208986496 0.34709204532757532 0 0.081254576285268804 0.3210829637434266 0 0.06358813508901956 0.32234581427363851 0 0.071244474661197085 0.3036312559279935 0 0.081254576285268804 0.3210829637434266 0 0.06358813508901956 0.32234581427363851 0 0.072654821413094289 0.33942743407960763 0 0.06358813508901956 0.32234581427363851 0 0.072654821413094289 0.33942743407960763 0 0.055199983679349987 0.34246375673151652 0 0.072654821413094289 0.33942743407960763 0 0.066778362586220691 0.36264744131756171 0 0.055199983679349987 0.34246375673151652 0 0.072654821413094289 0.33942743407960763 0 0.0915497208986496 0.34709204532757532 0 0.066778362586220691 0.36264744131756171 0 0.0915497208986496 0.34709204532757532 0 0.086713905658550791 0.37461406501925459 0 0.066778362586220691 0.36264744131756171 0 0.066778362586220691 0.36264744131756171 0 0.044951457965310811 0.3555124197003488 0 0.045418656597819553 0.37354288132317159 0 0.066778362586220691 0.36264744131756171 0 0.044951457965310811 0.3555124197003488 0 0.055199983679349987 0.34246375673151652 0 0.044951457965310811 0.3555124197003488 0 0.021903196078839001 0.35746348141110651 0 0.035457090884324839 0.34144453771838768 0 0.044951457965310811 0.3555124197003488 0 0.035457090884324839 0.34144453771838768 0 0.055199983679349987 0.34246375673151652 0 0.044951457965310811 0.3555124197003488 0 0.045418656597819553 0.37354288132317159 0 0.021903196078839001 0.35746348141110651 0 0.025375843575522711 0.38021681034322929 0 0.021903196078839001 0.35746348141110651 0 0.0079023355216259559 0.37348921158265391 0 0.025375843575522711 0.38021681034322929 0 0.045418656597819553 0.37354288132317159 0 0.021903196078839001 0.35746348141110651 0 0.021903196078839001 0.35746348141110651 0 0.017151683724365509 0.3376665205351736 0 0.035457090884324839 0.34144453771838768 0 0.021903196078839001 0.35746348141110651 0 0.0095650341834115256 0.34490192427506011 0 0.017151683724365509 0.3376665205351736 0 0.021903196078839001 0.35746348141110651 0 0.0095650341834115256 0.34490192427506011 0 0.0061318462344260851 0.35417601161121459 0 -0.0050552824635438226 0.34569829691311771 0 0.0095650341834115256 0.34490192427506011 0 0.0061318462344260851 0.35417601161121459 0 0.021903196078839001 0.35746348141110651 0 0.0061318462344260851 0.35417601161121459 0 0.0079023355216259559 0.37348921158265391 0 -0.0052616759920083916 0.36132776784546622 0 0.0061318462344260851 0.35417601161121459 0 0.0079023355216259559 0.37348921158265391 0 0.0087281755863181168 0.33049580891976171 0 0.020410497070949891 0.30832150289807031 0 0.0056044744337335906 0.31412092038659428 0 0.0087281755863181168 0.33049580891976171 0 0.020410497070949891 0.30832150289807031 0 -0.003280447873963227 0.32161399115684158 0 0.0056044744337335906 0.31412092038659428 0 0.0087281755863181168 0.33049580891976171 0 0.0064742168078369342 0.3347740657525386 0 0.0087281755863181168 0.33049580891976171 0 -0.0050552824635438226 0.34569829691311771 0 0.0095650341834115256 0.34490192427506011 0 0.0064742168078369342 0.3347740657525386 0 0.0095650341834115256 0.34490192427506011 0 0.0064742168078369342 0.3347740657525386 0 0.017151683724365509 0.3376665205351736 0 0.0064742168078369342 0.3347740657525386 0 0.0087281755863181168 0.33049580891976171 0 0.017151683724365509 0.3376665205351736 0 0.0087281755863181168 0.33049580891976171 0 0.025353163704189718 0.33024288796319817 0 0.017151683724365509 0.3376665205351736 0 0.0087281755863181168 0.33049580891976171 0 0.025353163704189718 0.33024288796319817 0 0.025353163704189718 0.33024288796319817 0 0.017151683724365509 0.3376665205351736 0 0.035457090884324839 0.34144453771838768 0 0.0087281755863181168 0.33049580891976171 0 0.025353163704189718 0.33024288796319817 0 0.020410497070949891 0.30832150289807031 0 0.025353163704189718 0.33024288796319817 0 0.038017806832533571 0.30672300381527179 0 0.020410497070949891 0.30832150289807031 0 0.025353163704189718 0.33024288796319817 0 0.045812945845809312 0.32351293560108041 0 0.038017806832533571 0.30672300381527179 0 0.025353163704189718 0.33024288796319817 0 0.045812945845809312 0.32351293560108041 0 0.035457090884324839 0.34144453771838768 0 0.045812945845809312 0.32351293560108041 0 0.035457090884324839 0.34144453771838768 0 0.055199983679349987 0.34246375673151652 0 0.06358813508901956 0.32234581427363851 0 0.045812945845809312 0.32351293560108041 0 0.055199983679349987 0.34246375673151652 0 0.06358813508901956 0.32234581427363851 0 0.045812945845809312 0.32351293560108041 0 0.055148108477292443 0.3057593846019967 0 0.055148108477292443 0.3057593846019967 0 0.047586914097201803 0.29032131063477928 0 0.038017806832533571 0.30672300381527179 0 0.055148108477292443 0.3057593846019967 0 0.047586914097201803 0.29032131063477928 0 0.066935962560195753 0.28615893812798288 0 0.047586914097201803 0.29032131063477928 0 0.050578246113349837 0.27455429857722041 0 0.066935962560195753 0.28615893812798288 0 0.047586914097201803 0.29032131063477928 0 0.032092818555581597 0.28614719687637868 0 0.038017806832533571 0.30672300381527179 0 0.047586914097201803 0.29032131063477928 0 0.032092818555581597 0.28614719687637868 0 0.050578246113349837 0.27455429857722041 0 0.045812945845809312 0.32351293560108041 0 0.055148108477292443 0.3057593846019967 0 0.038017806832533571 0.30672300381527179 0 0.032092818555581597 0.28614719687637868 0 0.038017806832533571 0.30672300381527179 0 0.020410497070949891 0.30832150289807031 0 0.032092818555581597 0.28614719687637868 0 0.020410497070949891 0.30832150289807031 0 0.032092818555581597 0.28614719687637868 0 0.020410497070949891 0.30832150289807031 0 0.0083336089875100904 0.29343585490586271 0 0.032092818555581597 0.28614719687637868 0 0.0083336089875100904 0.29343585490586271 0 0.021382191810826279 0.2686960609189637 0 -0.0088759444352828343 0.31092800175718183 0 0.0056044744337335906 0.31412092038659428 0 0.0083336089875100904 0.29343585490586271 0 0.0056044744337335906 0.31412092038659428 0 0.020410497070949891 0.30832150289807031 0 0.0083336089875100904 0.29343585490586271 0 0.0073806355134042019 0.25529449578482938 0 3.3590645499582607e-05 0.27236849017123349 0 0.021382191810826279 0.2686960609189637 0 0.0083336089875100904 0.29343585490586271 0 3.3590645499582607e-05 0.27236849017123349 0 0.021382191810826279 0.2686960609189637 0 0.025149977659741599 0.24684982625080901 0 0.0073806355134042019 0.25529449578482938 0 0.021382191810826279 0.2686960609189637 0 0.025149977659741599 0.24684982625080901 0 0.021382191810826279 0.2686960609189637 0 0.043775140040213267 0.26397289085468728 0 0.025149977659741599 0.24684982625080901 0 0.045472231705318063 0.24424317023843681 0 0.050158093690384618 0.2598810672441918 0 0.025149977659741599 0.24684982625080901 0 0.050158093690384618 0.2598810672441918 0 0.025149977659741599 0.24684982625080901 0 0.043775140040213267 0.26397289085468728 0 0.050158093690384618 0.2598810672441918 0 0.032092818555581597 0.28614719687637868 0 0.043775140040213267 0.26397289085468728 0 0.032092818555581597 0.28614719687637868 0 0.021382191810826279 0.2686960609189637 0 0.043775140040213267 0.26397289085468728 0 0.032092818555581597 0.28614719687637868 0 0.043775140040213267 0.26397289085468728 0 0.050578246113349837 0.27455429857722041 0 0.050578246113349837 0.27455429857722041 0 0.063875668081316214 0.2678607518654692 0 0.066935962560195753 0.28615893812798288 0 0.043775140040213267 0.26397289085468728 0 0.050578246113349837 0.27455429857722041 0 0.050158093690384618 0.2598810672441918 0 0.050578246113349837 0.27455429857722041 0 0.056046126259945157 0.25263236173372139 0 0.063875668081316214 0.2678607518654692 0 0.050578246113349837 0.27455429857722041 0 0.050158093690384618 0.2598810672441918 0 0.056046126259945157 0.25263236173372139 0 0.045472231705318063 0.24424317023843681 0 0.050158093690384618 0.2598810672441918 0 0.056046126259945157 0.25263236173372139 0 0.050578246113349837 0.27455429857722041 0 0.056046126259945157 0.25263236173372139 0 0.078525547080241467 0.2465942846531784 0 0.067905867336300579 0.25358800162702 0 0.079567988853459573 0.27014218499250892 0 0.067905867336300579 0.25358800162702 0 0.079567988853459573 0.27014218499250892 0 0.063875668081316214 0.2678607518654692 0 0.056046126259945157 0.25263236173372139 0 0.067905867336300579 0.25358800162702 0 0.063875668081316214 0.2678607518654692 0 0.078525547080241467 0.2465942846531784 0 0.079567988853459573 0.27014218499250892 0 0.093798877441032588 0.2579700649065903 0 0.079567988853459573 0.27014218499250892 0 0.063875668081316214 0.2678607518654692 0 0.066935962560195753 0.28615893812798288 0 0.079567988853459573 0.27014218499250892 0 0.066935962560195753 0.28615893812798288 0 0.087430381393448858 0.29852998767476718 0 0.066935962560195753 0.28615893812798288 0 0.071244474661197085 0.3036312559279935 0 0.087430381393448858 0.29852998767476718 0 0.055148108477292443 0.3057593846019967 0 0.066935962560195753 0.28615893812798288 0 0.071244474661197085 0.3036312559279935 0 0.06358813508901956 0.32234581427363851 0 0.055148108477292443 0.3057593846019967 0 0.071244474661197085 0.3036312559279935 0 0.081254576285268804 0.3210829637434266 0 0.087430381393448858 0.29852998767476718 0 0.1104734498024164 0.31171603628350752 0 0.081254576285268804 0.3210829637434266 0 0.071244474661197085 0.3036312559279935 0 0.087430381393448858 0.29852998767476718 0 0.079567988853459573 0.27014218499250892 0 0.087430381393448858 0.29852998767476718 0 0.1079828451826004 0.27738565586056829 0 0.087430381393448858 0.29852998767476718 0 0.1104734498024164 0.31171603628350752 0 0.1079828451826004 0.27738565586056829 0 0.1104734498024164 0.31171603628350752 0 0.1079828451826004 0.27738565586056829 0 0.13401849175413849 0.29214957311260448 0 0.1079828451826004 0.27738565586056829 0 0.13401849175413849 0.29214957311260448 0 0.1100607559553454 0.25396994184181759 0 0.1079828451826004 0.27738565586056829 0 0.13366986361514199 0.26692500362740812 0 0.12787711237058769 0.24521089126939841 0 0.1100607559553454 0.25396994184181759 0 0.13366986361514199 0.26692500362740812 0 0.092857250133516089 0.24175825718487831 0 0.1100607559553454 0.25396994184181759 0 0.093798877441032588 0.2579700649065903 0 0.1100607559553454 0.25396994184181759 0 0.093798877441032588 0.2579700649065903 0 0.1079828451826004 0.27738565586056829 0 0.079567988853459573 0.27014218499250892 0 0.093798877441032588 0.2579700649065903 0 0.1079828451826004 0.27738565586056829 0 0.13366986361514199 0.26692500362740812 0 0.1558685034792309 0.28595093384994291 0 0.15959452244756481 0.26367036214955358 0 0.14702044576598061 0.2478904659134552 0 0.13366986361514199 0.26692500362740812 0 0.15959452244756481 0.26367036214955358 0 0.14702044576598061 0.2478904659134552 0 0.12787711237058769 0.24521089126939841 0 0.13366986361514199 0.26692500362740812 0 0.1079828451826004 0.27738565586056829 0 0.13366986361514199 0.26692500362740812 0 0.13401849175413849 0.29214957311260448 0 0.1104734498024164 0.31171603628350752 0 0.13401849175413849 0.29214957311260448 0 0.14183880654046921 0.32250528078568202 0 0.13401849175413849 0.29214957311260448 0 0.16005413832567669 0.30691349036464077 0 0.14183880654046921 0.32250528078568202 0 0.13401849175413849 0.29214957311260448 0 0.16005413832567669 0.30691349036464077 0 0.13401849175413849 0.29214957311260448 0 0.1558685034792309 0.28595093384994291 0 0.16005413832567669 0.30691349036464077 0 0.13366986361514199 0.26692500362740812 0 0.13401849175413849 0.29214957311260448 0 0.1558685034792309 0.28595093384994291 0 0.1558685034792309 0.28595093384994291 0 0.1700220001876428 0.28782965529906401 0 0.16005413832567669 0.30691349036464077 0 0.1558685034792309 0.28595093384994291 0 0.1700220001876428 0.28782965529906401 0 0.17370236977615991 0.27502287964280692 0 0.1700220001876428 0.28782965529906401 0 0.16005413832567669 0.30691349036464077 0 0.1764196225356903 0.29880027385689728 0 0.16005413832567669 0.30691349036464077 0 0.1764196225356903 0.29880027385689728 0 0.18686192329242929 0.31378732528256248 0 0.1764196225356903 0.29880027385689728 0 0.18674031124236579 0.30201460306836742 0 0.19086383386244751 0.2907864273273883 0 0.1764196225356903 0.29880027385689728 0 0.18674031124236579 0.30201460306836742 0 0.18686192329242929 0.31378732528256248 0 0.1700220001876428 0.28782965529906401 0 0.18013512871176271 0.28566990799825959 0 0.17370236977615991 0.27502287964280692 0 0.1700220001876428 0.28782965529906401 0 0.1764196225356903 0.29880027385689728 0 0.18013512871176271 0.28566990799825959 0 0.1764196225356903 0.29880027385689728 0 0.18013512871176271 0.28566990799825959 0 0.19086383386244751 0.2907864273273883 0 0.18013512871176271 0.28566990799825959 0 0.1896678171968729 0.27591030386514148 0 0.19086383386244751 0.2907864273273883 0 0.18251379545819379 0.26835647973838378 0 0.17370236977615991 0.27502287964280692 0 0.1896678171968729 0.27591030386514148 0 0.18013512871176271 0.28566990799825959 0 0.17370236977615991 0.27502287964280692 0 0.1896678171968729 0.27591030386514148 0 0.18251379545819379 0.26835647973838378 0 0.17370236977615991 0.27502287964280692 0 0.17699066645021869 0.2595722272450377 0 0.17370236977615991 0.27502287964280692 0 0.15959452244756481 0.26367036214955358 0 0.17699066645021869 0.2595722272450377 0 0.1558685034792309 0.28595093384994291 0 0.17370236977615991 0.27502287964280692 0 0.15959452244756481 0.26367036214955358 0 0.16774616909827719 0.2460930353984315 0 0.15959452244756481 0.26367036214955358 0 0.17699066645021869 0.2595722272450377 0 0.14702044576598061 0.2478904659134552 0 0.16774616909827719 0.2460930353984315 0 0.15959452244756481 0.26367036214955358 0 0.18692125413578081 0.24552837502103991 0 0.16774616909827719 0.2460930353984315 0 0.17699066645021869 0.2595722272450377 0 0.18692125413578081 0.24552837502103991 0 0.17699066645021869 0.2595722272450377 0 0.19242781921148469 0.26384338938458129 0 0.18251379545819379 0.26835647973838378 0 0.17699066645021869 0.2595722272450377 0 0.19242781921148469 0.26384338938458129 0 0.18692125413578081 0.24552837502103991 0 0.19242781921148469 0.26384338938458129 0 0.20107379594449931 0.25686311186437227 0 0.18692125413578081 0.24552837502103991 0 0.20107379594449931 0.25686311186437227 0 0.19242781921148469 0.26384338938458129 0 0.20107379594449931 0.25686311186437227 0 0.2008998280478862 0.26959186196165702 0 0.19242781921148469 0.26384338938458129 0 0.20107379594449931 0.25686311186437227 0 0.19242781921148469 0.26384338938458129 0 0.1896678171968729 0.27591030386514148 0 0.2008998280478862 0.26959186196165702 0 0.18251379545819379 0.26835647973838378 0 0.19242781921148469 0.26384338938458129 0 0.1896678171968729 0.27591030386514148 0 0.1896678171968729 0.27591030386514148 0 0.2008998280478862 0.26959186196165702 0 0.20354188417430641 0.281093168015905 0 0.2008998280478862 0.26959186196165702 0 0.2177878237122676 0.27024933667828532 0 0.20354188417430641 0.281093168015905 0 0.2177878237122676 0.27024933667828532 0 0.20354188417430641 0.281093168015905 0 0.2166033006779626 0.28924568688104418 0 0.21557305570370441 0.24515722135805329 0 0.20107379594449931 0.25686311186437227 0 0.2177878237122676 0.27024933667828532 0 0.20107379594449931 0.25686311186437227 0 0.2177878237122676 0.27024933667828532 0 0.20107379594449931 0.25686311186437227 0 0.2008998280478862 0.26959186196165702 0 0.2177878237122676 0.27024933667828532 0 0.21557305570370441 0.24515722135805329 0 0.20107379594449931 0.25686311186437227 0 0.21557305570370441 0.24515722135805329 0 0.2177878237122676 0.27024933667828532 0 0.23628031136540401 0.25597328662156199 0 0.2177878237122676 0.27024933667828532 0 0.23628031136540401 0.25597328662156199 0 0.23450185148003599 0.28363556149219821 0 0.2177878237122676 0.27024933667828532 0 0.23450185148003599 0.28363556149219821 0 0.2166033006779626 0.28924568688104418 0 0.2177878237122676 0.27024933667828532 0 0.23450185148003599 0.28363556149219821 0 0.23628031136540401 0.25597328662156199 0 0.23450185148003599 0.28363556149219821 0 0.25102838231212438 0.26850893423506528 0 0.23450185148003599 0.28363556149219821 0 0.25953152444998728 0.28294166139542631 0 0.25102838231212438 0.26850893423506528 0 0.23628031136540401 0.25597328662156199 0 0.25102838231212438 0.26850893423506528 0 0.26221447651104962 0.2479993693513689 0 0.2297645605960125 0.30261029929826411 0 0.25121587924780342 0.29702178630611242 0 0.2484846271056145 0.31037308609574782 0 0.2297645605960125 0.30261029929826411 0 0.23798581837376781 0.31938142953188831 0 0.2484846271056145 0.31037308609574782 0 0.2297645605960125 0.30261029929826411 0 0.25121587924780342 0.29702178630611242 0 0.23450185148003599 0.28363556149219821 0 0.2297645605960125 0.30261029929826411 0 0.25121587924780342 0.29702178630611242 0 0.23450185148003599 0.28363556149219821 0 0.25121587924780342 0.29702178630611242 0 0.23450185148003599 0.28363556149219821 0 0.25953152444998728 0.28294166139542631 0 0.25121587924780342 0.29702178630611242 0 0.23450185148003599 0.28363556149219821 0 0.2297645605960125 0.30261029929826411 0 0.2166033006779626 0.28924568688104418 0 0.2297645605960125 0.30261029929826411 0 0.20831324194422091 0.30819881229041318 0 0.2297645605960125 0.30261029929826411 0 0.20831324194422091 0.30819881229041318 0 0.21977364325038071 0.31928170538083578 0 0.20831324194422091 0.30819881229041318 0 0.2166033006779626 0.28924568688104418 0 0.20288664267638859 0.29424953150154581 0 0.2297645605960125 0.30261029929826411 0 0.20831324194422091 0.30819881229041318 0 0.2166033006779626 0.28924568688104418 0 0.20354188417430641 0.281093168015905 0 0.2166033006779626 0.28924568688104418 0 0.20288664267638859 0.29424953150154581 0 0.20354188417430641 0.281093168015905 0 0.20288664267638859 0.29424953150154581 0 0.19086383386244751 0.2907864273273883 0 0.20288664267638859 0.29424953150154581 0 0.19086383386244751 0.2907864273273883 0 0.19511095272300569 0.3019235629929784 0 0.1896678171968729 0.27591030386514148 0 0.20354188417430641 0.281093168015905 0 0.19086383386244751 0.2907864273273883 0 0.20831324194422091 0.30819881229041318 0 0.18686192329242929 0.31378732528256248 0 0.20831324194422091 0.30819881229041318 0 0.19511095272300569 0.3019235629929784 0 0.18686192329242929 0.31378732528256248 0 0.20831324194422091 0.30819881229041318 0 0.20288664267638859 0.29424953150154581 0 0.19511095272300569 0.3019235629929784 0 0.18674031124236579 0.30201460306836742 0 0.19086383386244751 0.2907864273273883 0 0.19511095272300569 0.3019235629929784 0 0.18674031124236579 0.30201460306836742 0 0.19511095272300569 0.3019235629929784 0 0.18686192329242929 0.31378732528256248 0 0.20141288137377081 0.31920030670374799 0 0.18686192329242929 0.31378732528256248 0 0.18608978489721489 0.32167740761667712 0 0.20831324194422091 0.30819881229041318 0 0.20141288137377081 0.31920030670374799 0 0.18686192329242929 0.31378732528256248 0 0.20141288137377081 0.31920030670374799 0 0.21212543146875301 0.33644132486871342 0 0.18608978489721489 0.32167740761667712 0 0.21212543146875301 0.33644132486871342 0 0.18608978489721489 0.32167740761667712 0 0.19231113454718349 0.34165597013868199 0 0.21212543146875301 0.33644132486871342 0 0.18608978489721489 0.32167740761667712 0 0.20831324194422091 0.30819881229041318 0 0.20141288137377081 0.31920030670374799 0 0.21977364325038071 0.31928170538083578 0 0.20141288137377081 0.31920030670374799 0 0.21212543146875301 0.33644132486871342 0 0.21977364325038071 0.31928170538083578 0 0.21977364325038071 0.31928170538083578 0 0.2290399257457596 0.32985805959198788 0 0.23798581837376781 0.31938142953188831 0 0.2297645605960125 0.30261029929826411 0 0.21977364325038071 0.31928170538083578 0 0.23798581837376781 0.31938142953188831 0 0.21212543146875301 0.33644132486871342 0 0.21977364325038071 0.31928170538083578 0 0.2290399257457596 0.32985805959198788 0 0.21212543146875301 0.33644132486871342 0 0.23060518033342339 0.33807106122714048 0 0.2290399257457596 0.32985805959198788 0 0.21212543146875301 0.33644132486871342 0 0.23060518033342339 0.33807106122714048 0 0.23816107804029091 0.35120524212074949 0 0.23060518033342339 0.33807106122714048 0 0.2290399257457596 0.32985805959198788 0 0.2430942860788903 0.33477961832711151 0 0.23060518033342339 0.33807106122714048 0 0.2430942860788903 0.33477961832711151 0 0.23816107804029091 0.35120524212074949 0 0.2484846271056145 0.31037308609574782 0 0.23798581837376781 0.31938142953188831 0 0.25508783524565293 0.32209220201309929 0 0.2430942860788903 0.33477961832711151 0 0.23798581837376781 0.31938142953188831 0 0.25508783524565293 0.32209220201309929 0 0.2290399257457596 0.32985805959198788 0 0.2430942860788903 0.33477961832711151 0 0.23798581837376781 0.31938142953188831 0 0.23439037865920059 0.35560025357312369 0 0.2386764282036242 0.37725286527910618 0 0.24311907173897271 0.36013203008567057 0 0.23439037865920059 0.35560025357312369 0 0.2386764282036242 0.37725286527910618 0 0.2492643002430574 0.365916522193315 0 0.24311907173897271 0.36013203008567057 0 0.2386764282036242 0.37725286527910618 0 0.2492643002430574 0.365916522193315 0 0.2386764282036242 0.37725286527910618 0 0.25383912625151372 0.37755129754335942 0 0.24311907173897271 0.36013203008567057 0 0.23816107804029091 0.35120524212074949 0 0.2641967246118288 0.36596915937278562 0 0.2430942860788903 0.33477961832711151 0 0.23816107804029091 0.35120524212074949 0 0.26173146881309822 0.35734024057335978 0 0.24311907173897271 0.36013203008567057 0 0.23816107804029091 0.35120524212074949 0 0.23439037865920059 0.35560025357312369 0 0.21212543146875301 0.33644132486871342 0 0.23816107804029091 0.35120524212074949 0 0.21848510057545151 0.35453686872473111 0 0.23816107804029091 0.35120524212074949 0 0.23439037865920059 0.35560025357312369 0 0.21848510057545151 0.35453686872473111 0 0.21212543146875301 0.33644132486871342 0 0.23816107804029091 0.35120524212074949 0 0.23439037865920059 0.35560025357312369 0 0.22513916990612379 0.36868200325308897 0 0.2386764282036242 0.37725286527910618 0 0.23439037865920059 0.35560025357312369 0 0.22513916990612379 0.36868200325308897 0 0.21848510057545151 0.35453686872473111 0 0.22513916990612379 0.36868200325308897 0 0.20931495008602691 0.36890180222237801 0 0.21961872799640589 0.38146559318592133 0 0.22513916990612379 0.36868200325308897 0 0.20931495008602691 0.36890180222237801 0 0.21848510057545151 0.35453686872473111 0 0.20931495008602691 0.36890180222237801 0 0.21848510057545151 0.35453686872473111 0 0.2018014651714847 0.35413555731190122 0 0.21212543146875301 0.33644132486871342 0 0.21848510057545151 0.35453686872473111 0 0.2018014651714847 0.35413555731190122 0 0.19231113454718349 0.34165597013868199 0 0.2018014651714847 0.35413555731190122 0 0.1832131523033072 0.3569188224833833 0 0.19231113454718349 0.34165597013868199 0 0.21212543146875301 0.33644132486871342 0 0.2018014651714847 0.35413555731190122 0 0.20931495008602691 0.36890180222237801 0 0.2018014651714847 0.35413555731190122 0 0.19217836357317111 0.36996972767433872 0 0.20931495008602691 0.36890180222237801 0 0.19217836357317111 0.36996972767433872 0 0.20289108470775991 0.38370682355227331 0 0.2018014651714847 0.35413555731190122 0 0.19217836357317111 0.36996972767433872 0 0.1832131523033072 0.3569188224833833 0 0.19217836357317111 0.36996972767433872 0 0.17197644233242751 0.37002706837148541 0 0.1832131523033072 0.3569188224833833 0 0.17197644233242751 0.37002706837148541 0 0.16866852787741549 0.35230522619665788 0 0.1832131523033072 0.3569188224833833 0 0.17197644233242751 0.37002706837148541 0 0.16866852787741549 0.35230522619665788 0 0.15186920095361911 0.35620033980905319 0 0.17197644233242751 0.37002706837148541 0 0.15186920095361911 0.35620033980905319 0 0.15185568245476189 0.37707061606136422 0 0.16866852787741549 0.35230522619665788 0 0.1579580049025659 0.33927316190663209 0 0.15186920095361911 0.35620033980905319 0 0.16866852787741549 0.35230522619665788 0 0.1832131523033072 0.3569188224833833 0 0.17832583889515771 0.33910673841273542 0 0.19231113454718349 0.34165597013868199 0 0.1832131523033072 0.3569188224833833 0 0.17832583889515771 0.33910673841273542 0 0.17832583889515771 0.33910673841273542 0 0.18608978489721489 0.32167740761667712 0 0.16647560889869609 0.32578562508456149 0 0.19231113454718349 0.34165597013868199 0 0.17832583889515771 0.33910673841273542 0 0.18608978489721489 0.32167740761667712 0 0.16005413832567669 0.30691349036464077 0 0.18608978489721489 0.32167740761667712 0 0.16005413832567669 0.30691349036464077 0 0.18686192329242929 0.31378732528256248 0 0.18608978489721489 0.32167740761667712 0 0.16005413832567669 0.30691349036464077 0 0.18608978489721489 0.32167740761667712 0 0.16647560889869609 0.32578562508456149 0 0.17832583889515771 0.33910673841273542 0 0.16647560889869609 0.32578562508456149 0 0.1579580049025659 0.33927316190663209 0 0.16866852787741549 0.35230522619665788 0 0.17832583889515771 0.33910673841273542 0 0.1579580049025659 0.33927316190663209 0 0.16647560889869609 0.32578562508456149 0 0.1579580049025659 0.33927316190663209 0 0.14183880654046921 0.32250528078568202 0 0.1579580049025659 0.33927316190663209 0 0.14183880654046921 0.32250528078568202 0 0.14054269679001921 0.34363296691054102 0 0.16005413832567669 0.30691349036464077 0 0.16647560889869609 0.32578562508456149 0 0.14183880654046921 0.32250528078568202 0 0.1202868522871179 0.34060046584014031 0 0.14183880654046921 0.32250528078568202 0 0.14054269679001921 0.34363296691054102 0 0.1202868522871179 0.34060046584014031 0 0.14054269679001921 0.34363296691054102 0 0.13274728415341139 0.36410634055334368 0 0.13274728415341139 0.36410634055334368 0 0.15186920095361911 0.35620033980905319 0 0.15185568245476189 0.37707061606136422 0 0.14054269679001921 0.34363296691054102 0 0.13274728415341139 0.36410634055334368 0 0.15186920095361911 0.35620033980905319 0 0.1579580049025659 0.33927316190663209 0 0.14054269679001921 0.34363296691054102 0 0.15186920095361911 0.35620033980905319 0 0.15352992747694119 0.40026604784697911 0 0.13692284990477191 0.38930777957628943 0 0.1397509022148696 0.40843688002483958 0 0.15352992747694119 0.40026604784697911 0 0.15185568245476189 0.37707061606136422 0 0.13692284990477191 0.38930777957628943 0 0.13274728415341139 0.36410634055334368 0 0.15185568245476189 0.37707061606136422 0 0.13692284990477191 0.38930777957628943 0 0.119448870245615 0.38256434187866972 0 0.13274728415341139 0.36410634055334368 0 0.13692284990477191 0.38930777957628943 0 0.115428724103706 0.40267530492779557 0 0.13692284990477191 0.38930777957628943 0 0.1397509022148696 0.40843688002483958 0 0.12259086230274099 0.42947812748907283 0 0.1397509022148696 0.40843688002483958 0 0.14363603346764281 0.42707530835579988 0 0.12259086230274099 0.42947812748907283 0 0.115428724103706 0.40267530492779557 0 0.1397509022148696 0.40843688002483958 0 0.12259086230274099 0.42947812748907283 0 0.14363603346764281 0.42707530835579988 0 0.13510526379757609 0.44116740875256688 0 0.14363603346764281 0.42707530835579988 0 0.16526304614212209 0.42908608809292892 0 0.1507341445198021 0.44370602134863157 0 0.14363603346764281 0.42707530835579988 0 0.15527295380072001 0.4153931176925994 0 0.16526304614212209 0.42908608809292892 0 0.14363603346764281 0.42707530835579988 0 0.1507341445198021 0.44370602134863157 0 0.13510526379757609 0.44116740875256688 0 0.1397509022148696 0.40843688002483958 0 0.14363603346764281 0.42707530835579988 0 0.15527295380072001 0.4153931176925994 0 0.15352992747694119 0.40026604784697911 0 0.1397509022148696 0.40843688002483958 0 0.15527295380072001 0.4153931176925994 0 0.15527295380072001 0.4153931176925994 0 0.1711416470664554 0.41062619466687539 0 0.16526304614212209 0.42908608809292892 0 0.15352992747694119 0.40026604784697911 0 0.15527295380072001 0.4153931176925994 0 0.1711416470664554 0.41062619466687539 0 0.16526304614212209 0.42908608809292892 0 0.1809560021812836 0.43814832633623357 0 0.16598328874466911 0.44273574664910909 0 0.16526304614212209 0.42908608809292892 0 0.18469425222239219 0.42125941149134333 0 0.1809560021812836 0.43814832633623357 0 0.1711416470664554 0.41062619466687539 0 0.16526304614212209 0.42908608809292892 0 0.18469425222239219 0.42125941149134333 0 0.1711416470664554 0.41062619466687539 0 0.18469425222239219 0.42125941149134333 0 0.1843100454414533 0.40126956181167389 0 0.1711416470664554 0.41062619466687539 0 0.1843100454414533 0.40126956181167389 0 0.16952276405911931 0.3912061138884545 0 0.1843100454414533 0.40126956181167389 0 0.16952276405911931 0.3912061138884545 0 0.18589276442329861 0.38606835492789338 0 0.15352992747694119 0.40026604784697911 0 0.1711416470664554 0.41062619466687539 0 0.16952276405911931 0.3912061138884545 0 0.15352992747694119 0.40026604784697911 0 0.15185568245476189 0.37707061606136422 0 0.16952276405911931 0.3912061138884545 0 0.17197644233242751 0.37002706837148541 0 0.15185568245476189 0.37707061606136422 0 0.16952276405911931 0.3912061138884545 0 0.17197644233242751 0.37002706837148541 0 0.16952276405911931 0.3912061138884545 0 0.18589276442329861 0.38606835492789338 0 0.19217836357317111 0.36996972767433872 0 0.17197644233242751 0.37002706837148541 0 0.18589276442329861 0.38606835492789338 0 0.18589276442329861 0.38606835492789338 0 0.20289108470775991 0.38370682355227331 0 0.19700705340585539 0.39579078134538831 0 0.19217836357317111 0.36996972767433872 0 0.18589276442329861 0.38606835492789338 0 0.20289108470775991 0.38370682355227331 0 0.19700705340585539 0.39579078134538831 0 0.21316338490038089 0.39704202397260657 0 0.19877798755638451 0.41086714246249401 0 0.1843100454414533 0.40126956181167389 0 0.19700705340585539 0.39579078134538831 0 0.19877798755638451 0.41086714246249401 0 0.1843100454414533 0.40126956181167389 0 0.18589276442329861 0.38606835492789338 0 0.19700705340585539 0.39579078134538831 0 0.20289108470775991 0.38370682355227331 0 0.19700705340585539 0.39579078134538831 0 0.21316338490038089 0.39704202397260657 0 0.20931495008602691 0.36890180222237801 0 0.20289108470775991 0.38370682355227331 0 0.21961872799640589 0.38146559318592133 0 0.20289108470775991 0.38370682355227331 0 0.21316338490038089 0.39704202397260657 0 0.21961872799640589 0.38146559318592133 0 0.22513916990612379 0.36868200325308897 0 0.21961872799640589 0.38146559318592133 0 0.2386764282036242 0.37725286527910618 0 0.21961872799640589 0.38146559318592133 0 0.22852735017452019 0.39320804083607441 0 0.2386764282036242 0.37725286527910618 0 0.21316338490038089 0.39704202397260657 0 0.21961872799640589 0.38146559318592133 0 0.22852735017452019 0.39320804083607441 0 0.21316338490038089 0.39704202397260657 0 0.22852735017452019 0.39320804083607441 0 0.22983145469658259 0.40925978250573319 0 0.21316338490038089 0.39704202397260657 0 0.22983145469658259 0.40925978250573319 0 0.22852735017452019 0.39320804083607441 0 0.2429624777480478 0.39890547698508871 0 0.22983145469658259 0.40925978250573319 0 0.2429624777480478 0.39890547698508871 0 0.2386764282036242 0.37725286527910618 0 0.22852735017452019 0.39320804083607441 0 0.2429624777480478 0.39890547698508871 0 0.2386764282036242 0.37725286527910618 0 0.2429624777480478 0.39890547698508871 0 0.2386764282036242 0.37725286527910618 0 0.25341304662754638 0.38974012394171498 0 0.2386764282036242 0.37725286527910618 0 0.25383912625151372 0.37755129754335942 0 0.25341304662754638 0.38974012394171498 0 0.24649952449278431 0.42147754103885982 0 0.22996656543308741 0.44177288309861867 0 0.24946733303660301 0.43176723098649622 0 0.24649952449278431 0.42147754103885982 0 0.22996656543308741 0.44177288309861867 0 0.24649952449278431 0.42147754103885982 0 0.22738899126970491 0.42458926785457718 0 0.22996656543308741 0.44177288309861867 0 0.24946733303660301 0.43176723098649622 0 0.24649952449278431 0.42147754103885982 0 0.2429624777480478 0.39890547698508871 0 0.24649952449278431 0.42147754103885982 0 0.24649952449278431 0.42147754103885982 0 0.22983145469658259 0.40925978250573319 0 0.22738899126970491 0.42458926785457718 0 0.24649952449278431 0.42147754103885982 0 0.22983145469658259 0.40925978250573319 0 0.2429624777480478 0.39890547698508871 0 0.24649952449278431 0.42147754103885982 0 0.22983145469658259 0.40925978250573319 0 0.21316338490038089 0.39704202397260657 0 0.22983145469658259 0.40925978250573319 0 0.21370806227123909 0.41789950377956148 0 0.22983145469658259 0.40925978250573319 0 0.22738899126970491 0.42458926785457718 0 0.21370806227123909 0.41789950377956148 0 0.22738899126970491 0.42458926785457718 0 0.21739304288862979 0.43200563017257382 0 0.22996656543308741 0.44177288309861867 0 0.22738899126970491 0.42458926785457718 0 0.21739304288862979 0.43200563017257382 0 0.21370806227123909 0.41789950377956148 0 0.21739304288862979 0.43200563017257382 0 0.1999317510848099 0.43097584272053618 0 0.2111195299095035 0.44359306409302351 0 0.21739304288862979 0.43200563017257382 0 0.21370806227123909 0.41789950377956148 0 0.1999317510848099 0.43097584272053618 0 0.21370806227123909 0.41789950377956148 0 0.19877798755638451 0.41086714246249401 0 0.1999317510848099 0.43097584272053618 0 0.21316338490038089 0.39704202397260657 0 0.21370806227123909 0.41789950377956148 0 0.19877798755638451 0.41086714246249401 0 0.18469425222239219 0.42125941149134333 0 0.19877798755638451 0.41086714246249401 0 0.1999317510848099 0.43097584272053618 0 0.18469425222239219 0.42125941149134333 0 0.1843100454414533 0.40126956181167389 0 0.19877798755638451 0.41086714246249401 0 0.18469425222239219 0.42125941149134333 0 0.1999317510848099 0.43097584272053618 0 0.1809560021812836 0.43814832633623357 0 0.1999317510848099 0.43097584272053618 0 0.19479511809318301 0.4526549487178691 0 0.2111195299095035 0.44359306409302351 0 0.1999317510848099 0.43097584272053618 0 0.19479511809318301 0.4526549487178691 0 0.1809560021812836 0.43814832633623357 0 0.19479511809318301 0.4526549487178691 0 0.213169792932182 0.46047172596691099 0 0.19211155850092579 0.47790980627879082 0 0.19479511809318301 0.4526549487178691 0 0.19211155850092579 0.47790980627879082 0 0.18348770279874721 0.46143911161818069 0 0.213169792932182 0.46047172596691099 0 0.2111195299095035 0.44359306409302351 0 0.22996656543308741 0.44177288309861867 0 0.19479511809318301 0.4526549487178691 0 0.213169792932182 0.46047172596691099 0 0.2111195299095035 0.44359306409302351 0 0.21739304288862979 0.43200563017257382 0 0.2111195299095035 0.44359306409302351 0 0.22996656543308741 0.44177288309861867 0 0.22996656543308741 0.44177288309861867 0 0.22854105436186559 0.46372788353366717 0 0.24141841662185301 0.45603819576859073 0 0.213169792932182 0.46047172596691099 0 0.22854105436186559 0.46372788353366717 0 0.221321310837439 0.47674074212904899 0 0.213169792932182 0.46047172596691099 0 0.22996656543308741 0.44177288309861867 0 0.22854105436186559 0.46372788353366717 0 0.24141841662185301 0.45603819576859073 0 0.23645949407781469 0.47608243786178739 0 0.25047151807745072 0.47036873115219768 0 0.22854105436186559 0.46372788353366717 0 0.24141841662185301 0.45603819576859073 0 0.23645949407781469 0.47608243786178739 0 0.24141841662185301 0.45603819576859073 0 0.25047151807745072 0.47036873115219768 0 0.25477099823403621 0.45804476415031298 0 0.24141841662185301 0.45603819576859073 0 0.25282491994113748 0.44831200937164878 0 0.25477099823403621 0.45804476415031298 0 0.22996656543308741 0.44177288309861867 0 0.24141841662185301 0.45603819576859073 0 0.24583280085865111 0.44361242472787987 0 0.24946733303660301 0.43176723098649622 0 0.22996656543308741 0.44177288309861867 0 0.24583280085865111 0.44361242472787987 0 0.24141841662185301 0.45603819576859073 0 0.24583280085865111 0.44361242472787987 0 0.25282491994113748 0.44831200937164878 0 0.24904418528453851 0.48634810883828161 0 0.23645949407781469 0.47608243786178739 0 0.23352830384551029 0.49999999999999978 0 0.24904418528453851 0.48634810883828161 0 0.23352830384551029 0.49999999999999978 0 0.25181722630913472 0.5 0 0.24904418528453851 0.48634810883828161 0 0.23645949407781469 0.47608243786178739 0 0.25047151807745072 0.47036873115219768 0 0.23645949407781469 0.47608243786178739 0 0.221321310837439 0.47674074212904899 0 0.23352830384551029 0.49999999999999978 0 0.22854105436186559 0.46372788353366717 0 0.23645949407781469 0.47608243786178739 0 0.221321310837439 0.47674074212904899 0 0.23352830384551029 0.49999999999999978 0 0.2128199311732181 0.48895490313939532 0 0.21702906166474581 0.5 0 0.23352830384551029 0.49999999999999978 0 0.2128199311732181 0.48895490313939532 0 0.221321310837439 0.47674074212904899 0 0.23352830384551029 0.49999999999999978 0 0.2128199311732181 0.48895490313939532 0 0.2128199311732181 0.48895490313939532 0 0.21702906166474581 0.5 0 0.20052981948398141 0.49999999999999989 0 0.213169792932182 0.46047172596691099 0 0.221321310837439 0.47674074212904899 0 0.19211155850092579 0.47790980627879082 0 0.221321310837439 0.47674074212904899 0 0.2128199311732181 0.48895490313939532 0 0.19211155850092579 0.47790980627879082 0 0.2128199311732181 0.48895490313939532 0 0.19211155850092579 0.47790980627879082 0 0.2128199311732181 0.48895490313939532 0 0.20052981948398141 0.49999999999999989 0 0.19295831529489699 0.4905304616351287 0 0.2128199311732181 0.48895490313939532 0 0.19211155850092579 0.47790980627879082 0 0.19295831529489699 0.4905304616351287 0 0.20052981948398141 0.49999999999999989 0 0.1839227339461352 0.49861489743603538 0 0.20052981948398141 0.49999999999999989 0 0.19295831529489699 0.4905304616351287 0 0.1839227339461352 0.49861489743603538 0 0.19211155850092579 0.47790980627879082 0 0.19295831529489699 0.4905304616351287 0 0.1809625144841838 0.48570342190566712 0 0.1839227339461352 0.49861489743603538 0 0.1809625144841838 0.48570342190566712 0 0.16731564840828889 0.49722979487207219 0 0.1839227339461352 0.49861489743603538 0 0.16731564840828889 0.49722979487207219 0 0.1839227339461352 0.49861489743603538 0 0.1669427425872391 0.49999999999999922 0 0.16731564840828889 0.49722979487207219 0 0.19295831529489699 0.4905304616351287 0 0.1839227339461352 0.49861489743603538 0 0.1809625144841838 0.48570342190566712 0 0.1809625144841838 0.48570342190566712 0 0.16731564840828889 0.49722979487207219 0 0.16935941711846161 0.48204725214512889 0 0.16731564840828889 0.49722979487207219 0 0.157708884996551 0.48584061526662409 0 0.14611751268168829 0.49546177892012921 0 0.16731564840828889 0.49722979487207219 0 0.14611751268168829 0.49546177892012921 0 0.1669427425872391 0.49999999999999922 0 0.16731564840828889 0.49722979487207219 0 0.14611751268168829 0.49546177892012921 0 0.1669427425872391 0.49999999999999922 0 0.16731564840828889 0.49722979487207219 0 0.16731564840828889 0.49722979487207219 0 0.16935941711846161 0.48204725214512889 0 0.16731564840828889 0.49722979487207219 0 0.157708884996551 0.48584061526662409 0 0.16935941711846161 0.48204725214512889 0 0.16382575626869561 0.4735735187060508 0 0.15802571703479451 0.46684670821381258 0 0.1531189490294651 0.47544631339495541 0 0.157708884996551 0.48584061526662409 0 0.16382575626869561 0.4735735187060508 0 0.1531189490294651 0.47544631339495541 0 0.157708884996551 0.48584061526662409 0 0.16382575626869561 0.4735735187060508 0 0.16935941711846161 0.48204725214512889 0 0.16935941711846161 0.48204725214512889 0 0.17140318582863401 0.46686470941818559 0 0.16382575626869561 0.4735735187060508 0 0.16935941711846161 0.48204725214512889 0 0.17140318582863401 0.46686470941818559 0 0.1809625144841838 0.48570342190566712 0 0.16935941711846161 0.48204725214512889 0 0.17140318582863401 0.46686470941818559 0 0.19211155850092579 0.47790980627879082 0 0.1809625144841838 0.48570342190566712 0 0.17140318582863401 0.46686470941818559 0 0.19211155850092579 0.47790980627879082 0 0.17140318582863401 0.46686470941818559 0 0.19479511809318301 0.4526549487178691 0 0.18348770279874721 0.46143911161818069 0 0.17341546959919829 0.45191605883299152 0 0.19211155850092579 0.47790980627879082 0 0.18348770279874721 0.46143911161818069 0 0.17140318582863401 0.46686470941818559 0 0.18348770279874721 0.46143911161818069 0 0.17341546959919829 0.45191605883299152 0 0.17140318582863401 0.46686470941818559 0 0.17341546959919829 0.45191605883299152 0 0.17140318582863401 0.46686470941818559 0 0.19479511809318301 0.4526549487178691 0 0.1809560021812836 0.43814832633623357 0 0.17341546959919829 0.45191605883299152 0 0.1809560021812836 0.43814832633623357 0 0.17341546959919829 0.45191605883299152 0 0.16598328874466911 0.44273574664910909 0 0.17341546959919829 0.45191605883299152 0 0.16598328874466911 0.44273574664910909 0 0.15954778128093949 0.4508222386347599 0 0.16598328874466911 0.44273574664910909 0 0.15954778128093949 0.4508222386347599 0 0.1507341445198021 0.44370602134863157 0 0.16526304614212209 0.42908608809292892 0 0.16598328874466911 0.44273574664910909 0 0.1507341445198021 0.44370602134863157 0 0.16382575626869561 0.4735735187060508 0 0.1651762257979181 0.46354347419730452 0 0.17140318582863401 0.46686470941818559 0 0.1651762257979181 0.46354347419730452 0 0.17140318582863401 0.46686470941818559 0 0.17341546959919829 0.45191605883299152 0 0.1651762257979181 0.46354347419730452 0 0.17140318582863401 0.46686470941818559 0 0.17341546959919829 0.45191605883299152 0 0.15954778128093949 0.4508222386347599 0 0.1651762257979181 0.46354347419730452 0 0.15954778128093949 0.4508222386347599 0 0.1651762257979181 0.46354347419730452 0 0.1582471669695637 0.45974252444074731 0 0.16382575626869561 0.4735735187060508 0 0.1651762257979181 0.46354347419730452 0 0.15802571703479451 0.46684670821381258 0 0.1651762257979181 0.46354347419730452 0 0.1582471669695637 0.45974252444074731 0 0.15802571703479451 0.46684670821381258 0 0.14976048710833001 0.46192771033000529 0 0.1507341445198021 0.44370602134863157 0 0.136404492151351 0.45486193181106682 0 0.1582471669695637 0.45974252444074731 0 0.15802571703479451 0.46684670821381258 0 0.14976048710833001 0.46192771033000529 0 0.15802571703479451 0.46684670821381258 0 0.14976048710833001 0.46192771033000529 0 0.1531189490294651 0.47544631339495541 0 0.15954778128093949 0.4508222386347599 0 0.1582471669695637 0.45974252444074731 0 0.14976048710833001 0.46192771033000529 0 0.14976048710833001 0.46192771033000529 0 0.136404492151351 0.45486193181106682 0 0.13663143795624749 0.46910754811773492 0 0.15954778128093949 0.4508222386347599 0 0.14976048710833001 0.46192771033000529 0 0.1507341445198021 0.44370602134863157 0 0.1507341445198021 0.44370602134863157 0 0.13510526379757609 0.44116740875256688 0 0.136404492151351 0.45486193181106682 0 0.1221607865463437 0.4507156547582637 0 0.12259086230274099 0.42947812748907283 0 0.13510526379757609 0.44116740875256688 0 0.1221607865463437 0.4507156547582637 0 0.13510526379757609 0.44116740875256688 0 0.136404492151351 0.45486193181106682 0 0.136404492151351 0.45486193181106682 0 0.1267882431275838 0.46370707134437261 0 0.13663143795624749 0.46910754811773492 0 0.1221607865463437 0.4507156547582637 0 0.136404492151351 0.45486193181106682 0 0.1267882431275838 0.46370707134437261 0 0.1267882431275838 0.46370707134437261 0 0.12569724768963239 0.47617993877849962 0 0.13663143795624749 0.46910754811773492 0 0.12569724768963239 0.47617993877849962 0 0.13663143795624749 0.46910754811773492 0 0.1364132019148096 0.48384982340983701 0 0.13663143795624749 0.46910754811773492 0 0.1364132019148096 0.48384982340983701 0 0.14361111091913481 0.47574478002545789 0 0.1249193769550877 0.49369376296818718 0 0.1364132019148096 0.48384982340983701 0 0.14611751268168829 0.49546177892012921 0 0.1249193769550877 0.49369376296818718 0 0.14611751268168829 0.49546177892012921 0 0.1249193769550877 0.49369376296818718 0 0.12569724768963239 0.47617993877849962 0 0.1364132019148096 0.48384982340983701 0 0.1249193769550877 0.49369376296818718 0 0.13738437864054501 0.5 0 0.14611751268168829 0.49546177892012921 0 0.1364132019148096 0.48384982340983701 0 0.14611751268168829 0.49546177892012921 0 0.14718343377546941 0.48347361591025501 0 0.1669427425872391 0.49999999999999922 0 0.13738437864054501 0.5 0 0.14611751268168829 0.49546177892012921 0 0.157708884996551 0.48584061526662409 0 0.14611751268168829 0.49546177892012921 0 0.14718343377546941 0.48347361591025501 0 0.157708884996551 0.48584061526662409 0 0.1531189490294651 0.47544631339495541 0 0.14718343377546941 0.48347361591025501 0 0.14976048710833001 0.46192771033000529 0 0.1531189490294651 0.47544631339495541 0 0.14361111091913481 0.47574478002545789 0 0.14976048710833001 0.46192771033000529 0 0.13663143795624749 0.46910754811773492 0 0.14361111091913481 0.47574478002545789 0 0.1364132019148096 0.48384982340983701 0 0.14361111091913481 0.47574478002545789 0 0.14718343377546941 0.48347361591025501 0 0.1531189490294651 0.47544631339495541 0 0.14361111091913481 0.47574478002545789 0 0.14718343377546941 0.48347361591025501 0 0.35832214194920592 0.47929915408112939 0 0.34611268429232461 0.46591887339206078 0 0.3375369348076922 0.4829399206954248 0 0.35832214194920592 0.47929915408112939 0 0.35850557312216419 0.5 0 0.3375369348076922 0.4829399206954248 0 0.35850557312216419 0.5 0 0.37801407526051067 0.48065415083330842 0 0.38797204790529932 0.5 0 0.35832214194920592 0.47929915408112939 0 0.35850557312216419 0.5 0 0.37801407526051067 0.48065415083330842 0 0.35832214194920592 0.47929915408112939 0 0.36980735363827261 0.46050290225189661 0 0.37801407526051067 0.48065415083330842 0 0.36980735363827261 0.46050290225189661 0 0.34502769605759259 0.44546544446971242 0 0.36959298495063608 0.43610817863788948 0 0.35832214194920592 0.47929915408112939 0 0.36980735363827261 0.46050290225189661 0 0.34611268429232461 0.46591887339206078 0 0.36980735363827261 0.46050290225189661 0 0.34502769605759259 0.44546544446971242 0 0.34611268429232461 0.46591887339206078 0 0.36980735363827261 0.46050290225189661 0 0.34611268429232461 0.46591887339206078 0 0.34611268429232461 0.46591887339206078 0 0.3317687487832644 0.45597005559148451 0 0.32241801494637662 0.47133484453222518 0 0.34502769605759259 0.44546544446971242 0 0.34611268429232461 0.46591887339206078 0 0.3317687487832644 0.45597005559148451 0 0.34611268429232461 0.46591887339206078 0 0.32241801494637662 0.47133484453222518 0 0.34502769605759259 0.44546544446971242 0 0.3317687487832644 0.45597005559148451 0 0.32480939915707069 0.44218818576869201 0 0.34502769605759259 0.44546544446971242 0 0.32480939915707069 0.44218818576869201 0 0.33523501366627878 0.43221560569608392 0 0.3107318966111981 0.4514989769174147 0 0.3227404476219688 0.42624713816244092 0 0.3317687487832644 0.45597005559148451 0 0.32480939915707069 0.44218818576869201 0 0.3107318966111981 0.4514989769174147 0 0.32480939915707069 0.44218818576869201 0 0.3107318966111981 0.4514989769174147 0 0.3227404476219688 0.42624713816244092 0 0.3317687487832644 0.45597005559148451 0 0.32241801494637662 0.47133484453222518 0 0.3107318966111981 0.4514989769174147 0 0.32241801494637662 0.47133484453222518 0 0.3375369348076922 0.4829399206954248 0 0.31372501333874958 0.48784291822244708 0 0.34611268429232461 0.46591887339206078 0 0.32241801494637662 0.47133484453222518 0 0.3375369348076922 0.4829399206954248 0 0.35850557312216419 0.5 0 0.3375369348076922 0.4829399206954248 0 0.32903909833902928 0.5 0 0.32903909833902928 0.5 0 0.31372501333874958 0.48784291822244708 0 0.29957262355589431 0.5 0 0.3375369348076922 0.4829399206954248 0 0.32903909833902928 0.5 0 0.31372501333874958 0.48784291822244708 0 0.31372501333874958 0.48784291822244708 0 0.30130976803097798 0.48891801032572652 0 0.29957262355589431 0.5 0 0.31372501333874958 0.48784291822244708 0 0.30130976803097798 0.48891801032572652 0 0.29872334560042851 0.47675081567238892 0 0.30130976803097798 0.48891801032572652 0 0.29957262355589431 0.5 0 0.28978827390519868 0.49553967616935518 0 0.32241801494637662 0.47133484453222518 0 0.29872334560042851 0.47675081567238892 0 0.32241801494637662 0.47133484453222518 0 0.31372501333874958 0.48784291822244708 0 0.29872334560042851 0.47675081567238892 0 0.29872334560042851 0.47675081567238892 0 0.28397488520641462 0.48012192141307769 0 0.28978827390519868 0.49553967616935518 0 0.29872334560042851 0.47675081567238892 0 0.28929399795500932 0.47058792179259418 0 0.29703527816799058 0.46117092995693892 0 0.29872334560042851 0.47675081567238892 0 0.28929399795500932 0.47058792179259418 0 0.28397488520641462 0.48012192141307769 0 0.29872334560042851 0.47675081567238892 0 0.28397488520641462 0.48012192141307769 0 0.28929399795500932 0.47058792179259418 0 0.28397488520641462 0.48012192141307769 0 0.27920072977811172 0.47805830749059319 0 0.28397488520641462 0.48012192141307769 0 0.28978827390519868 0.49553967616935518 0 0.27010614877275918 0.50000000000000067 0 0.29957262355589431 0.5 0 0.28978827390519868 0.49553967616935518 0 0.27010614877275918 0.50000000000000067 0 0.30130976803097798 0.48891801032572652 0 0.29872334560042851 0.47675081567238892 0 0.28978827390519868 0.49553967616935518 0 0.29872334560042851 0.47675081567238892 0 0.28978827390519868 0.49553967616935518 0 0.28397488520641462 0.48012192141307769 0 0.27010614877275918 0.50000000000000067 0 0.27920072977811172 0.47805830749059319 0 0.27010614877275918 0.50000000000000067 0 0.26909437115437917 0.48384867389528768 0 0.26130641782501518 0.49139676135406141 0 0.27010614877275918 0.50000000000000067 0 0.27920072977811172 0.47805830749059319 0 0.26909437115437917 0.48384867389528768 0 0.27010614877275918 0.50000000000000067 0 0.27920072977811172 0.47805830749059319 0 0.27920072977811172 0.47805830749059319 0 0.27306774476234302 0.47644699960251641 0 0.26909437115437917 0.48384867389528768 0 0.27920072977811172 0.47805830749059319 0 0.27306774476234302 0.47644699960251641 0 0.27643472525740193 0.46726539210963169 0 0.26824582816420722 0.47348896141386071 0 0.27306774476234302 0.47644699960251641 0 0.27643472525740193 0.46726539210963169 0 0.26824582816420722 0.47348896141386071 0 0.26909437115437917 0.48384867389528768 0 0.25993240985832161 0.47939275616227872 0 0.26824582816420722 0.47348896141386071 0 0.27306774476234302 0.47644699960251641 0 0.26909437115437917 0.48384867389528768 0 0.24904418528453851 0.48634810883828161 0 0.25993240985832161 0.47939275616227872 0 0.25047151807745072 0.47036873115219768 0 0.26824582816420722 0.47348896141386071 0 0.25993240985832161 0.47939275616227872 0 0.26165523792153211 0.46576309323832682 0 0.25993240985832161 0.47939275616227872 0 0.25047151807745072 0.47036873115219768 0 0.26165523792153211 0.46576309323832682 0 0.27010614877275918 0.50000000000000067 0 0.25181722630913472 0.5 0 0.26130641782501518 0.49139676135406141 0 0.24904418528453851 0.48634810883828161 0 0.25993240985832161 0.47939275616227872 0 0.26130641782501518 0.49139676135406141 0 0.24904418528453851 0.48634810883828161 0 0.25181722630913472 0.5 0 0.26130641782501518 0.49139676135406141 0 0.26909437115437917 0.48384867389528768 0 0.25993240985832161 0.47939275616227872 0 0.26130641782501518 0.49139676135406141 0 0.26490489917960358 0.45079530358348557 0 0.25548676926057468 0.44017180441404491 0 0.26331147225899149 0.43380076267102891 0 0.24946733303660301 0.43176723098649622 0 0.24583280085865111 0.44361242472787987 0 0.25548676926057468 0.44017180441404491 0 0.24583280085865111 0.44361242472787987 0 0.25548676926057468 0.44017180441404491 0 0.25282491994113748 0.44831200937164878 0 0.26490489917960358 0.45079530358348557 0 0.25548676926057468 0.44017180441404491 0 0.25282491994113748 0.44831200937164878 0 0.26490489917960358 0.45079530358348557 0 0.25282491994113748 0.44831200937164878 0 0.25477099823403621 0.45804476415031298 0 0.25047151807745072 0.47036873115219768 0 0.25477099823403621 0.45804476415031298 0 0.26165523792153211 0.46576309323832682 0 0.26490489917960358 0.45079530358348557 0 0.25477099823403621 0.45804476415031298 0 0.26165523792153211 0.46576309323832682 0 0.26490489917960358 0.45079530358348557 0 0.27160577401557351 0.46248804296782559 0 0.27679169795675967 0.45600994403837303 0 0.26490489917960358 0.45079530358348557 0 0.26165523792153211 0.46576309323832682 0 0.27160577401557351 0.46248804296782559 0 0.26824582816420722 0.47348896141386071 0 0.27160577401557351 0.46248804296782559 0 0.27643472525740193 0.46726539210963169 0 0.26824582816420722 0.47348896141386071 0 0.26165523792153211 0.46576309323832682 0 0.27160577401557351 0.46248804296782559 0 0.27160577401557351 0.46248804296782559 0 0.27643472525740193 0.46726539210963169 0 0.27679169795675967 0.45600994403837303 0 0.27643472525740193 0.46726539210963169 0 0.27679169795675967 0.45600994403837303 0 0.28829531078346382 0.45611661498118572 0 0.27903440424894049 0.4453257315987294 0 0.26331147225899149 0.43380076267102891 0 0.26490489917960358 0.45079530358348557 0 0.27903440424894049 0.4453257315987294 0 0.26331147225899149 0.43380076267102891 0 0.26490489917960358 0.45079530358348557 0 0.27679169795675967 0.45600994403837303 0 0.27903440424894049 0.4453257315987294 0 0.27903440424894049 0.4453257315987294 0 0.2917470315179379 0.44281751567604499 0 0.28179675760275558 0.42932557237874241 0 0.27679169795675967 0.45600994403837303 0 0.27903440424894049 0.4453257315987294 0 0.28829531078346382 0.45611661498118572 0 0.27903440424894049 0.4453257315987294 0 0.2917470315179379 0.44281751567604499 0 0.28829531078346382 0.45611661498118572 0 0.2917470315179379 0.44281751567604499 0 0.28829531078346382 0.45611661498118572 0 0.29813183988985342 0.45090032042111128 0 0.27920072977811172 0.47805830749059319 0 0.27643472525740193 0.46726539210963169 0 0.28829531078346382 0.45611661498118572 0 0.28929399795500932 0.47058792179259418 0 0.27920072977811172 0.47805830749059319 0 0.28829531078346382 0.45611661498118572 0 0.27920072977811172 0.47805830749059319 0 0.28829531078346382 0.45611661498118572 0 0.28829531078346382 0.45611661498118572 0 0.29703527816799058 0.46117092995693892 0 0.29813183988985342 0.45090032042111128 0 0.28929399795500932 0.47058792179259418 0 0.28829531078346382 0.45611661498118572 0 0.29703527816799058 0.46117092995693892 0 0.29872334560042851 0.47675081567238892 0 0.29703527816799058 0.46117092995693892 0 0.3107318966111981 0.4514989769174147 0 0.29872334560042851 0.47675081567238892 0 0.3107318966111981 0.4514989769174147 0 0.32241801494637662 0.47133484453222518 0 0.29872334560042851 0.47675081567238892 0 0.3107318966111981 0.4514989769174147 0 0.29703527816799058 0.46117092995693892 0 0.29813183988985342 0.45090032042111128 0 0.3107318966111981 0.4514989769174147 0 0.30159082278473881 0.44219288247638061 0 0.3107318966111981 0.4514989769174147 0 0.30884109342504262 0.43428586920116352 0 0.2917470315179379 0.44281751567604499 0 0.30159082278473881 0.44219288247638061 0 0.29850225247966211 0.43146173016616862 0 0.2917470315179379 0.44281751567604499 0 0.30159082278473881 0.44219288247638061 0 0.29813183988985342 0.45090032042111128 0 0.30159082278473881 0.44219288247638061 0 0.29813183988985342 0.45090032042111128 0 0.3107318966111981 0.4514989769174147 0 0.30884109342504262 0.43428586920116352 0 0.29850225247966211 0.43146173016616862 0 0.30862162828234507 0.42004495563460759 0 0.29850225247966211 0.43146173016616862 0 0.30862162828234507 0.42004495563460759 0 0.29547148538100448 0.41817397575591742 0 0.30159082278473881 0.44219288247638061 0 0.30884109342504262 0.43428586920116352 0 0.29850225247966211 0.43146173016616862 0 0.30862162828234507 0.42004495563460759 0 0.30304430461131138 0.40735012112542651 0 0.3196782615082488 0.40265332564926309 0 0.30862162828234507 0.42004495563460759 0 0.30304430461131138 0.40735012112542651 0 0.29547148538100448 0.41817397575591742 0 0.30304430461131138 0.40735012112542651 0 0.29062365375375682 0.40708788978866228 0 0.29547148538100448 0.41817397575591742 0 0.29062365375375682 0.40708788978866228 0 0.29547148538100448 0.41817397575591742 0 0.28288479604298378 0.41446876034122271 0 0.29547148538100448 0.41817397575591742 0 0.28288479604298378 0.41446876034122271 0 0.28179675760275558 0.42932557237874241 0 0.29062365375375682 0.40708788978866228 0 0.28288479604298378 0.41446876034122271 0 0.28001120465417539 0.40182109974822727 0 0.29850225247966211 0.43146173016616862 0 0.29547148538100448 0.41817397575591742 0 0.28179675760275558 0.42932557237874241 0 0.2917470315179379 0.44281751567604499 0 0.29850225247966211 0.43146173016616862 0 0.28179675760275558 0.42932557237874241 0 0.28179675760275558 0.42932557237874241 0 0.27042562322166658 0.41684269204638819 0 0.26331147225899149 0.43380076267102891 0 0.27903440424894049 0.4453257315987294 0 0.28179675760275558 0.42932557237874241 0 0.26331147225899149 0.43380076267102891 0 0.27042562322166658 0.41684269204638819 0 0.26380858941988822 0.4002294757553399 0 0.28001120465417539 0.40182109974822727 0 0.28288479604298378 0.41446876034122271 0 0.28179675760275558 0.42932557237874241 0 0.27042562322166658 0.41684269204638819 0 0.28288479604298378 0.41446876034122271 0 0.27042562322166658 0.41684269204638819 0 0.28001120465417539 0.40182109974822727 0 0.24649952449278431 0.42147754103885982 0 0.25492995388566009 0.41993008507457552 0 0.26380858941988822 0.4002294757553399 0 0.27042562322166658 0.41684269204638819 0 0.25492995388566009 0.41993008507457552 0 0.26380858941988822 0.4002294757553399 0 0.24649952449278431 0.42147754103885982 0 0.26380858941988822 0.4002294757553399 0 0.2429624777480478 0.39890547698508871 0 0.24649952449278431 0.42147754103885982 0 0.26380858941988822 0.4002294757553399 0 0.24946733303660301 0.43176723098649622 0 0.24649952449278431 0.42147754103885982 0 0.26331147225899149 0.43380076267102891 0 0.24649952449278431 0.42147754103885982 0 0.25492995388566009 0.41993008507457552 0 0.26331147225899149 0.43380076267102891 0 0.24649952449278431 0.42147754103885982 0 0.26331147225899149 0.43380076267102891 0 0.27042562322166658 0.41684269204638819 0 0.25492995388566009 0.41993008507457552 0 0.26331147225899149 0.43380076267102891 0 0.24946733303660301 0.43176723098649622 0 0.25548676926057468 0.44017180441404491 0 0.26331147225899149 0.43380076267102891 0 0.26350653962281989 0.38010735630523079 0 0.25341304662754638 0.38974012394171498 0 0.26380858941988822 0.4002294757553399 0 0.26350653962281989 0.38010735630523079 0 0.25383912625151372 0.37755129754335942 0 0.25710864090743918 0.37145542319719338 0 0.26350653962281989 0.38010735630523079 0 0.25383912625151372 0.37755129754335942 0 0.25341304662754638 0.38974012394171498 0 0.2429624777480478 0.39890547698508871 0 0.25341304662754638 0.38974012394171498 0 0.26380858941988822 0.4002294757553399 0 0.26380858941988822 0.4002294757553399 0 0.28001120465417539 0.40182109974822727 0 0.28036865154730628 0.37990086281960789 0 0.26350653962281989 0.38010735630523079 0 0.28036865154730628 0.37990086281960789 0 0.2641967246118288 0.36596915937278562 0 0.26380858941988822 0.4002294757553399 0 0.28036865154730628 0.37990086281960789 0 0.26350653962281989 0.38010735630523079 0 0.26380858941988822 0.4002294757553399 0 0.28036865154730628 0.37990086281960789 0 0.28036865154730628 0.37990086281960789 0 0.29170647807930872 0.39362549197251728 0 0.2987730087010142 0.37934426936791982 0 0.28036865154730628 0.37990086281960789 0 0.29170647807930872 0.39362549197251728 0 0.28001120465417539 0.40182109974822727 0 0.28036865154730628 0.37990086281960789 0 0.29170647807930872 0.39362549197251728 0 0.29062365375375682 0.40708788978866228 0 0.28001120465417539 0.40182109974822727 0 0.29170647807930872 0.39362549197251728 0 0.30304430461131138 0.40735012112542651 0 0.29062365375375682 0.40708788978866228 0 0.29170647807930872 0.39362549197251728 0 0.30304430461131138 0.40735012112542651 0 0.30637452063024528 0.39219955594670219 0 0.3196782615082488 0.40265332564926309 0 0.30304430461131138 0.40735012112542651 0 0.29170647807930872 0.39362549197251728 0 0.30304430461131138 0.40735012112542651 0 0.29170647807930872 0.39362549197251728 0 0.30637452063024528 0.39219955594670219 0 0.30637452063024528 0.39219955594670219 0 0.2987730087010142 0.37934426936791982 0 0.31661607539452802 0.37905951313608538 0 0.29170647807930872 0.39362549197251728 0 0.30637452063024528 0.39219955594670219 0 0.2987730087010142 0.37934426936791982 0 0.31661607539452802 0.37905951313608538 0 0.32905198958534931 0.38831461949406398 0 0.3196782615082488 0.40265332564926309 0 0.31661607539452802 0.37905951313608538 0 0.32905198958534931 0.38831461949406398 0 0.33389487655237682 0.3658352592629312 0 0.32905198958534931 0.38831461949406398 0 0.34270248502322931 0.38427053755298168 0 0.33389487655237682 0.3658352592629312 0 0.32905198958534931 0.38831461949406398 0 0.34270248502322931 0.38427053755298168 0 0.33272146632259869 0.40525883785771122 0 0.34270248502322931 0.38427053755298168 0 0.33272146632259869 0.40525883785771122 0 0.34270248502322931 0.38427053755298168 0 0.33272146632259869 0.40525883785771122 0 0.34670895149724801 0.40816004440777182 0 0.31661607539452802 0.37905951313608538 0 0.3196782615082488 0.40265332564926309 0 0.32905198958534931 0.38831461949406398 0 0.33272146632259869 0.40525883785771122 0 0.3196782615082488 0.40265332564926309 0 0.30637452063024528 0.39219955594670219 0 0.31661607539452802 0.37905951313608538 0 0.3196782615082488 0.40265332564926309 0 0.3196782615082488 0.40265332564926309 0 0.3227404476219688 0.42624713816244092 0 0.30862162828234507 0.42004495563460759 0 0.3196782615082488 0.40265332564926309 0 0.3227404476219688 0.42624713816244092 0 0.33272146632259869 0.40525883785771122 0 0.3196782615082488 0.40265332564926309 0 0.3227404476219688 0.42624713816244092 0 0.33272146632259869 0.40525883785771122 0 0.3227404476219688 0.42624713816244092 0 0.32480939915707069 0.44218818576869201 0 0.3227404476219688 0.42624713816244092 0 0.3107318966111981 0.4514989769174147 0 0.30884109342504262 0.43428586920116352 0 0.3227404476219688 0.42624713816244092 0 0.32480939915707069 0.44218818576869201 0 0.3227404476219688 0.42624713816244092 0 0.33523501366627878 0.43221560569608392 0 0.30884109342504262 0.43428586920116352 0 0.30862162828234507 0.42004495563460759 0 0.3227404476219688 0.42624713816244092 0 0.34502769605759259 0.44546544446971242 0 0.33523501366627878 0.43221560569608392 0 0.34795858503051302 0.425881111768525 0 0.3227404476219688 0.42624713816244092 0 0.33523501366627878 0.43221560569608392 0 0.33659904832278342 0.4201421825902541 0 0.33523501366627878 0.43221560569608392 0 0.33659904832278342 0.4201421825902541 0 0.34795858503051302 0.425881111768525 0 0.33272146632259869 0.40525883785771122 0 0.3227404476219688 0.42624713816244092 0 0.33659904832278342 0.4201421825902541 0 0.33272146632259869 0.40525883785771122 0 0.33659904832278342 0.4201421825902541 0 0.34670895149724801 0.40816004440777182 0 0.33659904832278342 0.4201421825902541 0 0.34670895149724801 0.40816004440777182 0 0.34795858503051302 0.425881111768525 0 0.34670895149724801 0.40816004440777182 0 0.34795858503051302 0.425881111768525 0 0.36336601300371613 0.41450991002864218 0 0.34670895149724801 0.40816004440777182 0 0.36336601300371613 0.41450991002864218 0 0.35690611128064731 0.3988976866485166 0 0.34502769605759259 0.44546544446971242 0 0.34795858503051302 0.425881111768525 0 0.36959298495063608 0.43610817863788948 0 0.34795858503051302 0.425881111768525 0 0.36959298495063608 0.43610817863788948 0 0.36336601300371613 0.41450991002864218 0 0.36959298495063608 0.43610817863788948 0 0.36336601300371613 0.41450991002864218 0 0.38530342098431941 0.41064856824057122 0 0.36336601300371613 0.41450991002864218 0 0.3736470799201031 0.39378130610698531 0 0.38530342098431941 0.41064856824057122 0 0.3736470799201031 0.39378130610698531 0 0.3601059063978746 0.38125551426405008 0 0.35690611128064731 0.3988976866485166 0 0.36336601300371613 0.41450991002864218 0 0.3736470799201031 0.39378130610698531 0 0.35690611128064731 0.3988976866485166 0 0.3736470799201031 0.39378130610698531 0 0.3601059063978746 0.38125551426405008 0 0.37414389550204002 0.36898578533419818 0 0.34270248502322931 0.38427053755298168 0 0.3601059063978746 0.38125551426405008 0 0.35690611128064731 0.3988976866485166 0 0.34270248502322931 0.38427053755298168 0 0.3601059063978746 0.38125551426405008 0 0.35268350372385993 0.36328223724825232 0 0.34270248502322931 0.38427053755298168 0 0.34670895149724801 0.40816004440777182 0 0.35690611128064731 0.3988976866485166 0 0.35268350372385993 0.36328223724825232 0 0.36266452242448938 0.34229393694352239 0 0.35030182712711511 0.35130594720886232 0 0.35268350372385993 0.36328223724825232 0 0.36266452242448938 0.34229393694352239 0 0.35030182712711511 0.35130594720886232 0 0.35146565257524442 0.34420791440797271 0 0.36266452242448938 0.34229393694352239 0 0.35030182712711511 0.35130594720886232 0 0.35146565257524442 0.34420791440797271 0 0.34269927497721508 0.34493512072036142 0 0.35030182712711511 0.35130594720886232 0 0.35268350372385993 0.36328223724825232 0 0.33389487655237682 0.3658352592629312 0 0.34270248502322931 0.38427053755298168 0 0.35268350372385993 0.36328223724825232 0 0.3601059063978746 0.38125551426405008 0 0.35268350372385993 0.36328223724825232 0 0.37414389550204002 0.36898578533419818 0 0.35268350372385993 0.36328223724825232 0 0.37414389550204002 0.36898578533419818 0 0.36300645299402812 0.35604351837507042 0 0.37414389550204002 0.36898578533419818 0 0.37228166628853332 0.35471301169251829 0 0.36300645299402812 0.35604351837507042 0 0.35268350372385993 0.36328223724825232 0 0.36300645299402812 0.35604351837507042 0 0.36266452242448938 0.34229393694352239 0 0.37228166628853332 0.35471301169251829 0 0.36300645299402812 0.35604351837507042 0 0.36840829020790361 0.34668560051738673 0 0.36300645299402812 0.35604351837507042 0 0.36840829020790361 0.34668560051738673 0 0.36266452242448938 0.34229393694352239 0 0.36840829020790361 0.34668560051738673 0 0.36266452242448938 0.34229393694352239 0 0.36587418437400321 0.34278907974668538 0 0.37228166628853332 0.35471301169251829 0 0.36840829020790361 0.34668560051738673 0 0.37486749369974542 0.34694596905823039 0 0.37486749369974542 0.34694596905823039 0 0.37256750073976291 0.34304532959464751 0 0.37670219357667811 0.34177383067972761 0 0.36840829020790361 0.34668560051738673 0 0.37486749369974542 0.34694596905823039 0 0.37256750073976291 0.34304532959464751 0 0.36124897776362869 0.33531944770056321 0 0.36266452242448938 0.34229393694352239 0 0.36411885078159001 0.32644375487552563 0 0.37256750073976291 0.34304532959464751 0 0.36916640720496519 0.34145859007673351 0 0.37369311900952262 0.33836265764115908 0 0.37256750073976291 0.34304532959464751 0 0.37369311900952262 0.33836265764115908 0 0.37670219357667811 0.34177383067972761 0 0.36266452242448938 0.34229393694352239 0 0.37014896644917339 0.316543878568457 0 0.36770298492566261 0.33637877995368609 0 0.36266452242448938 0.34229393694352239 0 0.37368960646642962 0.31911015363466272 0 0.36770298492566261 0.33637877995368609 0 0.36985494237623989 0.33311962493185521 0 0.37368960646642962 0.31911015363466272 0 0.36266452242448938 0.34229393694352239 0 0.37368960646642962 0.31911015363466272 0 0.36266452242448938 0.34229393694352239 0 0.37014896644917339 0.316543878568457 0 0.36411885078159001 0.32644375487552563 0 0.36840829020790361 0.34668560051738673 0 0.36916640720496519 0.34145859007673351 0 0.36587418437400321 0.34278907974668538 0 0.36840829020790361 0.34668560051738673 0 0.37256750073976291 0.34304532959464751 0 0.36916640720496519 0.34145859007673351 0 0.36916640720496519 0.34145859007673351 0 0.36587418437400321 0.34278907974668538 0 0.36708394454210669 0.33994961910346172 0 0.36916640720496519 0.34145859007673351 0 0.37010024416019238 0.33739894816112592 0 0.36708394454210669 0.33994961910346172 0 0.36916640720496519 0.34145859007673351 0 0.37010024416019238 0.33739894816112592 0 0.37369311900952262 0.33836265764115908 0 0.36770298492566261 0.33637877995368609 0 0.37010024416019238 0.33739894816112592 0 0.36708394454210669 0.33994961910346172 0 0.37010024416019238 0.33739894816112592 0 0.37369311900952262 0.33836265764115908 0 0.3722735272100694 0.33425106354392481 0 0.3722735272100694 0.33425106354392481 0 0.37245621682226088 0.32924087979990557 0 0.375263113682131 0.33313320718557798 0 0.37369311900952262 0.33836265764115908 0 0.3722735272100694 0.33425106354392481 0 0.375263113682131 0.33313320718557798 0 0.3722735272100694 0.33425106354392481 0 0.37245621682226088 0.32924087979990557 0 0.36985494237623989 0.33311962493185521 0 0.37245621682226088 0.32924087979990557 0 0.37577016905582622 0.32787937856968757 0 0.375263113682131 0.33313320718557798 0 0.37010024416019238 0.33739894816112592 0 0.3722735272100694 0.33425106354392481 0 0.36985494237623989 0.33311962493185521 0 0.36770298492566261 0.33637877995368609 0 0.37010024416019238 0.33739894816112592 0 0.36985494237623989 0.33311962493185521 0 0.36128237795215928 0.33126347269122047 0 0.36124897776362869 0.33531944770056321 0 0.36411885078159001 0.32644375487552563 0 0.36150631125237548 0.32912422255951068 0 0.36128237795215928 0.33126347269122047 0 0.36411885078159001 0.32644375487552563 0 0.36150631125237548 0.32912422255951068 0 0.35994194411877378 0.32646204206530971 0 0.35835984371964152 0.33045614064968309 0 0.36128237795215928 0.33126347269122047 0 0.35899626180536931 0.33430086833413269 0 0.35835984371964152 0.33045614064968309 0 0.36150631125237548 0.32912422255951068 0 0.36128237795215928 0.33126347269122047 0 0.35835984371964152 0.33045614064968309 0 0.36128237795215928 0.33126347269122047 0 0.36124897776362869 0.33531944770056321 0 0.35899626180536931 0.33430086833413269 0 0.36124897776362869 0.33531944770056321 0 0.36001134864139028 0.33778823672905661 0 0.35899626180536931 0.33430086833413269 0 0.36124897776362869 0.33531944770056321 0 0.36001134864139028 0.33778823672905661 0 0.36266452242448938 0.34229393694352239 0 0.36001134864139028 0.33778823672905661 0 0.36266452242448938 0.34229393694352239 0 0.3582225103283424 0.33883319475427592 0 0.36266452242448938 0.34229393694352239 0 0.36587418437400321 0.34278907974668538 0 0.36708394454210669 0.33994961910346172 0 0.36770298492566261 0.33637877995368609 0 0.36266452242448938 0.34229393694352239 0 0.36708394454210669 0.33994961910346172 0 0.36266452242448938 0.34229393694352239 0 0.37368960646642962 0.31911015363466272 0 0.37014896644917339 0.316543878568457 0 0.37014896644917339 0.316543878568457 0 0.36604953812300478 0.31497278055865852 0 0.36630954626425261 0.31087512405144152 0 0.37499251130121058 0.31593455150060828 0 0.37014896644917339 0.316543878568457 0 0.37695808612291098 0.31120865645681561 0 0.37499251130121058 0.31593455150060828 0 0.37368960646642962 0.31911015363466272 0 0.37014896644917339 0.316543878568457 0 0.37014896644917339 0.316543878568457 0 0.36646072203027302 0.32009490443849897 0 0.3659238024377004 0.31770243144255911 0 0.37014896644917339 0.316543878568457 0 0.3659238024377004 0.31770243144255911 0 0.36604953812300478 0.31497278055865852 0 0.37245621682226088 0.32924087979990557 0 0.36985494237623989 0.33311962493185521 0 0.37368960646642962 0.31911015363466272 0 0.37245621682226088 0.32924087979990557 0 0.37368960646642962 0.31911015363466272 0 0.37506056064123422 0.32471797871916308 0 0.37245621682226088 0.32924087979990557 0 0.37577016905582622 0.32787937856968757 0 0.37506056064123422 0.32471797871916308 0 0.37014896644917339 0.316543878568457 0 0.36411885078159001 0.32644375487552563 0 0.36646072203027302 0.32009490443849897 0 0.36411885078159001 0.32644375487552563 0 0.35994194411877378 0.32646204206530971 0 0.36132202517978662 0.32303080634539388 0 0.36150631125237548 0.32912422255951068 0 0.36411885078159001 0.32644375487552563 0 0.35994194411877378 0.32646204206530971 0 0.36132202517978662 0.32303080634539388 0 0.36348301458407639 0.32047903077872458 0 0.35962675317161102 0.31893041505789499 0 0.36411885078159001 0.32644375487552563 0 0.36132202517978662 0.32303080634539388 0 0.36348301458407639 0.32047903077872458 0 0.36411885078159001 0.32644375487552563 0 0.36348301458407639 0.32047903077872458 0 0.36646072203027302 0.32009490443849897 0 0.36348301458407639 0.32047903077872458 0 0.36646072203027302 0.32009490443849897 0 0.3659238024377004 0.31770243144255911 0 0.3659238024377004 0.31770243144255911 0 0.36344593390349789 0.31667187251247519 0 0.36604953812300478 0.31497278055865852 0 0.36348301458407639 0.32047903077872458 0 0.3659238024377004 0.31770243144255911 0 0.36344593390349789 0.31667187251247519 0 0.36348301458407639 0.32047903077872458 0 0.36344593390349789 0.31667187251247519 0 0.35962675317161102 0.31893041505789499 0 0.36344593390349789 0.31667187251247519 0 0.35962675317161102 0.31893041505789499 0 0.35878641637012221 0.31305233625990619 0 0.36344593390349789 0.31667187251247519 0 0.36331333565659901 0.31283202127524651 0 0.35878641637012221 0.31305233625990619 0 0.36331333565659901 0.31283202127524651 0 0.36604953812300478 0.31497278055865852 0 0.36630954626425261 0.31087512405144152 0 0.36344593390349789 0.31667187251247519 0 0.36331333565659901 0.31283202127524651 0 0.36604953812300478 0.31497278055865852 0 0.35878641637012221 0.31305233625990619 0 0.35512602374864599 0.31718053618965047 0 0.35090510471213721 0.31152713165908658 0 0.35512602374864599 0.31718053618965047 0 0.34983435518440159 0.31943204998396652 0 0.35090510471213721 0.31152713165908658 0 0.35962675317161102 0.31893041505789499 0 0.35878641637012221 0.31305233625990619 0 0.35512602374864599 0.31718053618965047 0 0.35962675317161102 0.31893041505789499 0 0.35512602374864599 0.31718053618965047 0 0.35673455485560862 0.32229528426682241 0 0.35512602374864599 0.31718053618965047 0 0.35673455485560862 0.32229528426682241 0 0.34983435518440159 0.31943204998396652 0 0.35673455485560862 0.32229528426682241 0 0.35060422568955008 0.32587015674736058 0 0.34983435518440159 0.31943204998396652 0 0.35994194411877378 0.32646204206530971 0 0.36132202517978662 0.32303080634539388 0 0.35673455485560862 0.32229528426682241 0 0.36132202517978662 0.32303080634539388 0 0.35962675317161102 0.31893041505789499 0 0.35673455485560862 0.32229528426682241 0 0.35994194411877378 0.32646204206530971 0 0.35673455485560862 0.32229528426682241 0 0.35627338036128769 0.32705738058013539 0 0.35994194411877378 0.32646204206530971 0 0.35627338036128769 0.32705738058013539 0 0.35835984371964152 0.33045614064968309 0 0.35627338036128769 0.32705738058013539 0 0.35060422568955008 0.32587015674736058 0 0.35398721241228231 0.33095327650953749 0 0.35673455485560862 0.32229528426682241 0 0.35627338036128769 0.32705738058013539 0 0.35060422568955008 0.32587015674736058 0 0.35060422568955008 0.32587015674736058 0 0.34514221143703899 0.32919058107390442 0 0.34284551192874652 0.32364904383841531 0 0.35060422568955008 0.32587015674736058 0 0.34983435518440159 0.31943204998396652 0 0.34284551192874652 0.32364904383841531 0 0.34983435518440159 0.31943204998396652 0 0.34480088275632298 0.31606258733578418 0 0.35090510471213721 0.31152713165908658 0 0.34983435518440159 0.31943204998396652 0 0.34480088275632298 0.31606258733578418 0 0.34284551192874652 0.32364904383841531 0 0.35146565257524442 0.34420791440797271 0 0.36266452242448938 0.34229393694352239 0 0.35562031764263757 0.34031424282986023 0 0.35302683950207769 0.33602013814058929 0 0.35562031764263757 0.34031424282986023 0 0.35672120529774148 0.33684362974708199 0 0.35202203774268331 0.33965573310897551 0 0.35302683950207769 0.33602013814058929 0 0.35562031764263757 0.34031424282986023 0 0.35146565257524442 0.34420791440797271 0 0.35202203774268331 0.33965573310897551 0 0.35562031764263757 0.34031424282986023 0 0.36266452242448938 0.34229393694352239 0 0.35562031764263757 0.34031424282986023 0 0.3582225103283424 0.33883319475427592 0 0.35562031764263757 0.34031424282986023 0 0.3582225103283424 0.33883319475427592 0 0.35672120529774148 0.33684362974708199 0 0.36001134864139028 0.33778823672905661 0 0.3582225103283424 0.33883319475427592 0 0.35672120529774148 0.33684362974708199 0 0.36001134864139028 0.33778823672905661 0 0.35672120529774148 0.33684362974708199 0 0.35899626180536931 0.33430086833413269 0 0.35899626180536931 0.33430086833413269 0 0.35641212776078268 0.33381706902087938 0 0.35835984371964152 0.33045614064968309 0 0.35672120529774148 0.33684362974708199 0 0.35899626180536931 0.33430086833413269 0 0.35641212776078268 0.33381706902087938 0 0.35627338036128769 0.32705738058013539 0 0.35835984371964152 0.33045614064968309 0 0.35398721241228231 0.33095327650953749 0 0.35641212776078268 0.33381706902087938 0 0.35835984371964152 0.33045614064968309 0 0.35398721241228231 0.33095327650953749 0 0.35302683950207769 0.33602013814058929 0 0.35641212776078268 0.33381706902087938 0 0.35398721241228231 0.33095327650953749 0 0.35302683950207769 0.33602013814058929 0 0.35398721241228231 0.33095327650953749 0 0.34924685744035389 0.33249877391857741 0 0.35302683950207769 0.33602013814058929 0 0.35672120529774148 0.33684362974708199 0 0.35641212776078268 0.33381706902087938 0 0.35302683950207769 0.33602013814058929 0 0.34924685744035389 0.33249877391857741 0 0.34788509595764172 0.33882226599831611 0 0.35060422568955008 0.32587015674736058 0 0.34924685744035389 0.33249877391857741 0 0.34514221143703899 0.32919058107390442 0 0.35060422568955008 0.32587015674736058 0 0.35398721241228231 0.33095327650953749 0 0.34924685744035389 0.33249877391857741 0 0.34924685744035389 0.33249877391857741 0 0.34514221143703899 0.32919058107390442 0 0.34474234507332802 0.33433591834825649 0 0.34924685744035389 0.33249877391857741 0 0.34474234507332802 0.33433591834825649 0 0.34788509595764172 0.33882226599831611 0 0.34474234507332802 0.33433591834825649 0 0.34788509595764172 0.33882226599831611 0 0.34057592936449049 0.33809639891542392 0 0.35146565257524442 0.34420791440797271 0 0.34788509595764172 0.33882226599831611 0 0.34269927497721508 0.34493512072036142 0 0.35202203774268331 0.33965573310897551 0 0.35302683950207769 0.33602013814058929 0 0.34788509595764172 0.33882226599831611 0 0.35146565257524442 0.34420791440797271 0 0.35202203774268331 0.33965573310897551 0 0.34788509595764172 0.33882226599831611 0 0.34057592936449049 0.33809639891542392 0 0.33318390910610529 0.34358855052096038 0 0.34269927497721508 0.34493512072036142 0 0.34788509595764172 0.33882226599831611 0 0.34057592936449049 0.33809639891542392 0 0.34269927497721508 0.34493512072036142 0 0.34474234507332802 0.33433591834825649 0 0.34057592936449049 0.33809639891542392 0 0.33946855119551672 0.33096103471374028 0 0.34514221143703899 0.32919058107390442 0 0.34474234507332802 0.33433591834825649 0 0.33946855119551672 0.33096103471374028 0 0.34057592936449049 0.33809639891542392 0 0.33946855119551672 0.33096103471374028 0 0.33283637980140879 0.33469331179832718 0 0.33946855119551672 0.33096103471374028 0 0.33283637980140879 0.33469331179832718 0 0.33464693517381472 0.32630086361949601 0 0.33283637980140879 0.33469331179832718 0 0.33464693517381472 0.32630086361949601 0 0.3250964778074269 0.32978689602061512 0 0.34057592936449049 0.33809639891542392 0 0.33283637980140879 0.33469331179832718 0 0.33318390910610529 0.34358855052096038 0 0.33283637980140879 0.33469331179832718 0 0.33318390910610529 0.34358855052096038 0 0.32611481079287369 0.33974729713420021 0 0.34480088275632298 0.31606258733578418 0 0.33769186663180051 0.31814262317354819 0 0.34192449374142192 0.30753297203612773 0 0.34480088275632298 0.31606258733578418 0 0.33769186663180051 0.31814262317354819 0 0.34284551192874652 0.32364904383841531 0 0.33946855119551672 0.33096103471374028 0 0.34284551192874652 0.32364904383841531 0 0.33464693517381472 0.32630086361949601 0 0.33769186663180051 0.31814262317354819 0 0.34284551192874652 0.32364904383841531 0 0.33464693517381472 0.32630086361949601 0 0.34514221143703899 0.32919058107390442 0 0.33946855119551672 0.33096103471374028 0 0.34284551192874652 0.32364904383841531 0 0.33769186663180051 0.31814262317354819 0 0.33464693517381472 0.32630086361949601 0 0.32994282367798861 0.32057227217232959 0 0.33464693517381472 0.32630086361949601 0 0.32994282367798861 0.32057227217232959 0 0.3250964778074269 0.32978689602061512 0 0.33769186663180051 0.31814262317354819 0 0.32994282367798861 0.32057227217232959 0 0.32867162081685902 0.31028670060733149 0 0.32176892132522322 0.32006025561378759 0 0.31440941436971798 0.31242774502049953 0 0.32867162081685902 0.31028670060733149 0 0.32994282367798861 0.32057227217232959 0 0.32176892132522322 0.32006025561378759 0 0.32867162081685902 0.31028670060733149 0 0.32176892132522322 0.32006025561378759 0 0.31484893044661 0.32778579360563193 0 0.3250964778074269 0.32978689602061512 0 0.32994282367798861 0.32057227217232959 0 0.32176892132522322 0.32006025561378759 0 0.3250964778074269 0.32978689602061512 0 0.32176892132522322 0.32006025561378759 0 0.31484893044661 0.32778579360563193 0 0.31440941436971798 0.31242774502049953 0 0.32611481079287369 0.33974729713420021 0 0.3250964778074269 0.32978689602061512 0 0.31767498628904178 0.33862919533695518 0 0.32611481079287369 0.33974729713420021 0 0.31767498628904178 0.33862919533695518 0 0.32336406622478242 0.34852958887145069 0 0.33283637980140879 0.33469331179832718 0 0.32611481079287369 0.33974729713420021 0 0.3250964778074269 0.32978689602061512 0 0.31484893044661 0.32778579360563193 0 0.31767498628904178 0.33862919533695518 0 0.30654896287530792 0.34033791233229299 0 0.31484893044661 0.32778579360563193 0 0.3250964778074269 0.32978689602061512 0 0.31767498628904178 0.33862919533695518 0 0.31767498628904178 0.33862919533695518 0 0.31315570067328902 0.3464643712977632 0 0.32336406622478242 0.34852958887145069 0 0.31315570067328902 0.3464643712977632 0 0.31355388928080707 0.35546570062290778 0 0.32336406622478242 0.34852958887145069 0 0.32336406622478242 0.34852958887145069 0 0.33442175170730049 0.35218858713626039 0 0.32437013183195901 0.3602157298059272 0 0.31355388928080707 0.35546570062290778 0 0.32336406622478242 0.34852958887145069 0 0.32437013183195901 0.3602157298059272 0 0.33318390910610529 0.34358855052096038 0 0.32611481079287369 0.33974729713420021 0 0.32336406622478242 0.34852958887145069 0 0.35030182712711511 0.35130594720886232 0 0.33442175170730049 0.35218858713626039 0 0.33389487655237682 0.3658352592629312 0 0.33318390910610529 0.34358855052096038 0 0.32336406622478242 0.34852958887145069 0 0.33442175170730049 0.35218858713626039 0 0.35030182712711511 0.35130594720886232 0 0.33442175170730049 0.35218858713626039 0 0.34269927497721508 0.34493512072036142 0 0.33318390910610529 0.34358855052096038 0 0.33442175170730049 0.35218858713626039 0 0.34269927497721508 0.34493512072036142 0 0.34270248502322931 0.38427053755298168 0 0.35268350372385993 0.36328223724825232 0 0.33389487655237682 0.3658352592629312 0 0.33442175170730049 0.35218858713626039 0 0.33389487655237682 0.3658352592629312 0 0.32437013183195901 0.3602157298059272 0 0.31661607539452802 0.37905951313608538 0 0.33389487655237682 0.3658352592629312 0 0.32437013183195901 0.3602157298059272 0 0.31661607539452802 0.37905951313608538 0 0.31355388928080707 0.35546570062290778 0 0.32437013183195901 0.3602157298059272 0 0.31661607539452802 0.37905951313608538 0 0.31355388928080707 0.35546570062290778 0 0.31661607539452802 0.37905951313608538 0 0.31355388928080707 0.35546570062290778 0 0.30541822204374358 0.36584678197342768 0 0.2987730087010142 0.37934426936791982 0 0.31661607539452802 0.37905951313608538 0 0.30541822204374358 0.36584678197342768 0 0.30541822204374358 0.36584678197342768 0 0.30393955747459928 0.35096595789874813 0 0.29215410451095353 0.36543341035917859 0 0.2987730087010142 0.37934426936791982 0 0.30541822204374358 0.36584678197342768 0 0.29215410451095353 0.36543341035917859 0 0.31315570067328902 0.3464643712977632 0 0.30393955747459928 0.35096595789874813 0 0.30654896287530792 0.34033791233229299 0 0.31315570067328902 0.3464643712977632 0 0.31355388928080707 0.35546570062290778 0 0.30393955747459928 0.35096595789874813 0 0.31355388928080707 0.35546570062290778 0 0.30541822204374358 0.36584678197342768 0 0.30393955747459928 0.35096595789874813 0 0.30393955747459928 0.35096595789874813 0 0.29215410451095353 0.36543341035917859 0 0.30393955747459928 0.35096595789874813 0 0.29720735802849829 0.34424744790442102 0 0.29027641861796738 0.35164951467646482 0 0.30393955747459928 0.35096595789874813 0 0.29720735802849829 0.34424744790442102 0 0.30654896287530792 0.34033791233229299 0 0.29720735802849829 0.34424744790442102 0 0.29027641861796738 0.35164951467646482 0 0.28998304713239348 0.34105976447064218 0 0.30393955747459928 0.35096595789874813 0 0.29027641861796738 0.35164951467646482 0 0.29215410451095353 0.36543341035917859 0 0.29027641861796738 0.35164951467646482 0 0.29215410451095353 0.36543341035917859 0 0.27920137084664282 0.3573603676334649 0 0.29027641861796738 0.35164951467646482 0 0.27920137084664282 0.3573603676334649 0 0.28068773357058369 0.34198453751068081 0 0.29027641861796738 0.35164951467646482 0 0.28068773357058369 0.34198453751068081 0 0.28998304713239348 0.34105976447064218 0 0.28036865154730628 0.37990086281960789 0 0.29215410451095353 0.36543341035917859 0 0.27920137084664282 0.3573603676334649 0 0.28036865154730628 0.37990086281960789 0 0.2987730087010142 0.37934426936791982 0 0.29215410451095353 0.36543341035917859 0 0.28036865154730628 0.37990086281960789 0 0.29215410451095353 0.36543341035917859 0 0.28036865154730628 0.37990086281960789 0 0.27920137084664282 0.3573603676334649 0 0.26173146881309822 0.35734024057335978 0 0.28036865154730628 0.37990086281960789 0 0.26173146881309822 0.35734024057335978 0 0.28036865154730628 0.37990086281960789 0 0.26173146881309822 0.35734024057335978 0 0.2641967246118288 0.36596915937278562 0 0.27920137084664282 0.3573603676334649 0 0.27030047393074008 0.3474963096498429 0 0.26173146881309822 0.35734024057335978 0 0.27920137084664282 0.3573603676334649 0 0.27030047393074008 0.3474963096498429 0 0.28068773357058369 0.34198453751068081 0 0.2430942860788903 0.33477961832711151 0 0.26173146881309822 0.35734024057335978 0 0.27030047393074008 0.3474963096498429 0 0.26173146881309822 0.35734024057335978 0 0.26240083601839698 0.33727672217147331 0 0.23816107804029091 0.35120524212074949 0 0.26173146881309822 0.35734024057335978 0 0.2641967246118288 0.36596915937278562 0 0.23816107804029091 0.35120524212074949 0 0.2641967246118288 0.36596915937278562 0 0.2492643002430574 0.365916522193315 0 0.24311907173897271 0.36013203008567057 0 0.2641967246118288 0.36596915937278562 0 0.2492643002430574 0.365916522193315 0 0.25710864090743918 0.37145542319719338 0 0.2641967246118288 0.36596915937278562 0 0.2492643002430574 0.365916522193315 0 0.25383912625151372 0.37755129754335942 0 0.25710864090743918 0.37145542319719338 0 0.26350653962281989 0.38010735630523079 0 0.25710864090743918 0.37145542319719338 0 0.2641967246118288 0.36596915937278562 0 0.2484846271056145 0.31037308609574782 0 0.25508783524565293 0.32209220201309929 0 0.26836904206483531 0.31075971332937607 0 0.25508783524565293 0.32209220201309929 0 0.26240083601839698 0.33727672217147331 0 0.26677092012209491 0.32204036282613252 0 0.25508783524565293 0.32209220201309929 0 0.26677092012209491 0.32204036282613252 0 0.26836904206483531 0.31075971332937607 0 0.2430942860788903 0.33477961832711151 0 0.25508783524565293 0.32209220201309929 0 0.26240083601839698 0.33727672217147331 0 0.2430942860788903 0.33477961832711151 0 0.26173146881309822 0.35734024057335978 0 0.26240083601839698 0.33727672217147331 0 0.26240083601839698 0.33727672217147331 0 0.27184092000699639 0.33891315949469752 0 0.27388917516664008 0.32964775149744319 0 0.26240083601839698 0.33727672217147331 0 0.27388917516664008 0.32964775149744319 0 0.26677092012209491 0.32204036282613252 0 0.27030047393074008 0.3474963096498429 0 0.26240083601839698 0.33727672217147331 0 0.27184092000699639 0.33891315949469752 0 0.27030047393074008 0.3474963096498429 0 0.27184092000699639 0.33891315949469752 0 0.28068773357058369 0.34198453751068081 0 0.27184092000699639 0.33891315949469752 0 0.28068773357058369 0.34198453751068081 0 0.27388917516664008 0.32964775149744319 0 0.28068773357058369 0.34198453751068081 0 0.27388917516664008 0.32964775149744319 0 0.28570907475377572 0.33188311037056872 0 0.27388917516664008 0.32964775149744319 0 0.26677092012209491 0.32204036282613252 0 0.28178409254690689 0.31684790712797722 0 0.27388917516664008 0.32964775149744319 0 0.28178409254690689 0.31684790712797722 0 0.28570907475377572 0.33188311037056872 0 0.26677092012209491 0.32204036282613252 0 0.28178409254690689 0.31684790712797722 0 0.26836904206483531 0.31075971332937607 0 0.28178409254690689 0.31684790712797722 0 0.29262159606390598 0.32453461147271162 0 0.29660332646403359 0.30785121346786842 0 0.28178409254690689 0.31684790712797722 0 0.29262159606390598 0.32453461147271162 0 0.28570907475377572 0.33188311037056872 0 0.28068773357058369 0.34198453751068081 0 0.28570907475377572 0.33188311037056872 0 0.28998304713239348 0.34105976447064218 0 0.29262159606390598 0.32453461147271162 0 0.28570907475377572 0.33188311037056872 0 0.29603465069114282 0.33553421189107618 0 0.29720735802849829 0.34424744790442102 0 0.29603465069114282 0.33553421189107618 0 0.28998304713239348 0.34105976447064218 0 0.28570907475377572 0.33188311037056872 0 0.29603465069114282 0.33553421189107618 0 0.28998304713239348 0.34105976447064218 0 0.29720735802849829 0.34424744790442102 0 0.29603465069114282 0.33553421189107618 0 0.30654896287530792 0.34033791233229299 0 0.29603465069114282 0.33553421189107618 0 0.30654896287530792 0.34033791233229299 0 0.30445412428221041 0.32558903425911379 0 0.29262159606390598 0.32453461147271162 0 0.29603465069114282 0.33553421189107618 0 0.30445412428221041 0.32558903425911379 0 0.31484893044661 0.32778579360563193 0 0.30654896287530792 0.34033791233229299 0 0.30445412428221041 0.32558903425911379 0 0.31767498628904178 0.33862919533695518 0 0.31315570067328902 0.3464643712977632 0 0.30654896287530792 0.34033791233229299 0 0.30445412428221041 0.32558903425911379 0 0.29660332646403359 0.30785121346786842 0 0.31440941436971798 0.31242774502049953 0 0.29262159606390598 0.32453461147271162 0 0.30445412428221041 0.32558903425911379 0 0.29660332646403359 0.30785121346786842 0 0.31484893044661 0.32778579360563193 0 0.30445412428221041 0.32558903425911379 0 0.31440941436971798 0.31242774502049953 0 0.30822946874662033 0.29998271616579031 0 0.29660332646403359 0.30785121346786842 0 0.31440941436971798 0.31242774502049953 0 0.30822946874662033 0.29998271616579031 0 0.30055108247350393 0.28416894361273021 0 0.29660332646403359 0.30785121346786842 0 0.30822946874662033 0.29998271616579031 0 0.30055108247350393 0.28416894361273021 0 0.32109763140443309 0.29547610107375327 0 0.30055108247350393 0.28416894361273021 0 0.29660332646403359 0.30785121346786842 0 0.27430616976337108 0.29100628718303567 0 0.30055108247350393 0.28416894361273021 0 0.27430616976337108 0.29100628718303567 0 0.28443506245096839 0.27205148705280008 0 0.30055108247350393 0.28416894361273021 0 0.27430616976337108 0.29100628718303567 0 0.28178409254690689 0.31684790712797722 0 0.29660332646403359 0.30785121346786842 0 0.27430616976337108 0.29100628718303567 0 0.28178409254690689 0.31684790712797722 0 0.26836904206483531 0.31075971332937607 0 0.27430616976337108 0.29100628718303567 0 0.28178409254690689 0.31684790712797722 0 0.27430616976337108 0.29100628718303567 0 0.27430616976337108 0.29100628718303567 0 0.25121587924780342 0.29702178630611242 0 0.27430616976337108 0.29100628718303567 0 0.25953152444998728 0.28294166139542631 0 0.25121587924780342 0.29702178630611242 0 0.26836904206483531 0.31075971332937607 0 0.27430616976337108 0.29100628718303567 0 0.25121587924780342 0.29702178630611242 0 0.26836904206483531 0.31075971332937607 0 0.25121587924780342 0.29702178630611242 0 0.2484846271056145 0.31037308609574782 0 0.26836904206483531 0.31075971332937607 0 0.25121587924780342 0.29702178630611242 0 0.25102838231212438 0.26850893423506528 0 0.26790857605335527 0.26889798384773289 0 0.26221447651104962 0.2479993693513689 0 0.26790857605335527 0.26889798384773289 0 0.26221447651104962 0.2479993693513689 0 0.25953152444998728 0.28294166139542631 0 0.25102838231212438 0.26850893423506528 0 0.26790857605335527 0.26889798384773289 0 0.27430616976337108 0.29100628718303567 0 0.26790857605335527 0.26889798384773289 0 0.28443506245096839 0.27205148705280008 0 0.27430616976337108 0.29100628718303567 0 0.25953152444998728 0.28294166139542631 0 0.26790857605335527 0.26889798384773289 0 0.27430616976337108 0.29100628718303567 0 0.26790857605335527 0.26889798384773289 0 0.26790857605335527 0.26889798384773289 0 0.28119448123381058 0.25405304303149878 0 0.26221447651104962 0.2479993693513689 0 0.26790857605335527 0.26889798384773289 0 0.28119448123381058 0.25405304303149878 0 0.28443506245096839 0.27205148705280008 0 0.28119448123381058 0.25405304303149878 0 0.28443506245096839 0.27205148705280008 0 0.2982150027308012 0.26213117758900317 0 0.28119448123381058 0.25405304303149878 0 0.2982150027308012 0.26213117758900317 0 0.30328699804120918 0.24394477185791469 0 0.30055108247350393 0.28416894361273021 0 0.28443506245096839 0.27205148705280008 0 0.2982150027308012 0.26213117758900317 0 0.30055108247350393 0.28416894361273021 0 0.2982150027308012 0.26213117758900317 0 0.31879452400631653 0.25919465198291952 0 0.2982150027308012 0.26213117758900317 0 0.31879452400631653 0.25919465198291952 0 0.30328699804120918 0.24394477185791469 0 0.31879452400631653 0.25919465198291952 0 0.33092809789354199 0.24744869965648561 0 0.31845456220733243 0.24449663650262579 0 0.31879452400631653 0.25919465198291952 0 0.33565265393095528 0.25675142138279861 0 0.33982225619875311 0.26765994074234428 0 0.31879452400631653 0.25919465198291952 0 0.33982225619875311 0.26765994074234428 0 0.31879452400631653 0.25919465198291952 0 0.33565265393095528 0.25675142138279861 0 0.33092809789354199 0.24744869965648561 0 0.33565265393095528 0.25675142138279861 0 0.33982225619875311 0.26765994074234428 0 0.34536281311255052 0.25941060478944128 0 0.33565265393095528 0.25675142138279861 0 0.3433555784436142 0.25004320974280247 0 0.33092809789354199 0.24744869965648561 0 0.33565265393095528 0.25675142138279861 0 0.3433555784436142 0.25004320974280247 0 0.34536281311255052 0.25941060478944128 0 0.31879452400631653 0.25919465198291952 0 0.33982225619875311 0.26765994074234428 0 0.32679599518363661 0.27733160004242491 0 0.33982225619875311 0.26765994074234428 0 0.32679599518363661 0.27733160004242491 0 0.34056182851336592 0.28206143899133118 0 0.30055108247350393 0.28416894361273021 0 0.32679599518363661 0.27733160004242491 0 0.30055108247350393 0.28416894361273021 0 0.31879452400631653 0.25919465198291952 0 0.32679599518363661 0.27733160004242491 0 0.32679599518363661 0.27733160004242491 0 0.32109763140443309 0.29547610107375327 0 0.33248404658197278 0.28876668272462419 0 0.30055108247350393 0.28416894361273021 0 0.32679599518363661 0.27733160004242491 0 0.32109763140443309 0.29547610107375327 0 0.32109763140443309 0.29547610107375327 0 0.31440941436971798 0.31242774502049953 0 0.32867162081685902 0.31028670060733149 0 0.30822946874662033 0.29998271616579031 0 0.32109763140443309 0.29547610107375327 0 0.31440941436971798 0.31242774502049953 0 0.32867162081685902 0.31028670060733149 0 0.33472549883669622 0.29791121211074773 0 0.34192449374142192 0.30753297203612773 0 0.32109763140443309 0.29547610107375327 0 0.32867162081685902 0.31028670060733149 0 0.33472549883669622 0.29791121211074773 0 0.33472549883669622 0.29791121211074773 0 0.34281583705185747 0.29966479619329672 0 0.34192449374142192 0.30753297203612773 0 0.33769186663180051 0.31814262317354819 0 0.32867162081685902 0.31028670060733149 0 0.34192449374142192 0.30753297203612773 0 0.32679599518363661 0.27733160004242491 0 0.33248404658197278 0.28876668272462419 0 0.34056182851336592 0.28206143899133118 0 0.32109763140443309 0.29547610107375327 0 0.33472549883669622 0.29791121211074773 0 0.33248404658197278 0.28876668272462419 0 0.33472549883669622 0.29791121211074773 0 0.33248404658197278 0.28876668272462419 0 0.34417327957572558 0.29277050597204329 0 0.33472549883669622 0.29791121211074773 0 0.34281583705185747 0.29966479619329672 0 0.34417327957572558 0.29277050597204329 0 0.33248404658197278 0.28876668272462419 0 0.34056182851336592 0.28206143899133118 0 0.34417327957572558 0.29277050597204329 0 0.34056182851336592 0.28206143899133118 0 0.34979868535227071 0.28728326233729501 0 0.34417327957572558 0.29277050597204329 0 0.34056182851336592 0.28206143899133118 0 0.34979868535227071 0.28728326233729501 0 0.35183199075491411 0.27966461044832719 0 0.34417327957572558 0.29277050597204329 0 0.35334053836337709 0.29410458558147129 0 0.34972900846361488 0.30172704795696642 0 0.34979868535227071 0.28728326233729501 0 0.34417327957572558 0.29277050597204329 0 0.35334053836337709 0.29410458558147129 0 0.34979868535227071 0.28728326233729501 0 0.35334053836337709 0.29410458558147129 0 0.35722235408413222 0.28831366276426512 0 0.35334053836337709 0.29410458558147129 0 0.35826071325737319 0.3003277240158499 0 0.36091512844171192 0.29433704443458902 0 0.35334053836337709 0.29410458558147129 0 0.35722235408413222 0.28831366276426512 0 0.36091512844171192 0.29433704443458902 0 0.34979868535227071 0.28728326233729501 0 0.35722235408413222 0.28831366276426512 0 0.35183199075491411 0.27966461044832719 0 0.35722235408413222 0.28831366276426512 0 0.36152496379752869 0.28359539021876212 0 0.35183199075491411 0.27966461044832719 0 0.34480088275632298 0.31606258733578418 0 0.34192449374142192 0.30753297203612773 0 0.35090510471213721 0.31152713165908658 0 0.34192449374142192 0.30753297203612773 0 0.35090510471213721 0.31152713165908658 0 0.34972900846361488 0.30172704795696642 0 0.34281583705185747 0.29966479619329672 0 0.34417327957572558 0.29277050597204329 0 0.34972900846361488 0.30172704795696642 0 0.34281583705185747 0.29966479619329672 0 0.34192449374142192 0.30753297203612773 0 0.34972900846361488 0.30172704795696642 0 0.34972900846361488 0.30172704795696642 0 0.35826071325737319 0.3003277240158499 0 0.35721607615581658 0.30656573559573969 0 0.35334053836337709 0.29410458558147129 0 0.34972900846361488 0.30172704795696642 0 0.35826071325737319 0.3003277240158499 0 0.35090510471213721 0.31152713165908658 0 0.34972900846361488 0.30172704795696642 0 0.35721607615581658 0.30656573559573969 0 0.35878641637012221 0.31305233625990619 0 0.35090510471213721 0.31152713165908658 0 0.35721607615581658 0.30656573559573969 0 0.37014896644917339 0.316543878568457 0 0.37763341047385651 0.29079382019339128 0 0.37014896644917339 0.316543878568457 0 0.37108481648816682 0.30013899891886681 0 0.36845835323010317 0.30596496181531441 0 0.37014896644917339 0.316543878568457 0 0.37763341047385651 0.29079382019339128 0 0.37695808612291098 0.31120865645681561 0 0.37014896644917339 0.316543878568457 0 0.37108481648816682 0.30013899891886681 0 0.37763341047385651 0.29079382019339128 0 0.36630954626425261 0.31087512405144152 0 0.36228941999803421 0.30896529616435242 0 0.36543096483439103 0.3064802843427199 0 0.36331333565659901 0.31283202127524651 0 0.36630954626425261 0.31087512405144152 0 0.36228941999803421 0.30896529616435242 0 0.36331333565659901 0.31283202127524651 0 0.35878641637012221 0.31305233625990619 0 0.36228941999803421 0.30896529616435242 0 0.35878641637012221 0.31305233625990619 0 0.35721607615581658 0.30656573559573969 0 0.36228941999803421 0.30896529616435242 0 0.35721607615581658 0.30656573559573969 0 0.36228941999803421 0.30896529616435242 0 0.36268018070702418 0.30398627546106088 0 0.36630954626425261 0.31087512405144152 0 0.36543096483439103 0.3064802843427199 0 0.36845835323010317 0.30596496181531441 0 0.36228941999803421 0.30896529616435242 0 0.36543096483439103 0.3064802843427199 0 0.36268018070702418 0.30398627546106088 0 0.36543096483439103 0.3064802843427199 0 0.36607900901995372 0.30349396637540749 0 0.36845835323010317 0.30596496181531441 0 0.36607900901995372 0.30349396637540749 0 0.36268018070702418 0.30398627546106088 0 0.36558719123160882 0.29969948119116269 0 0.36607900901995372 0.30349396637540749 0 0.36558719123160882 0.29969948119116269 0 0.36823835509664099 0.30133882906677939 0 0.36543096483439103 0.3064802843427199 0 0.36607900901995372 0.30349396637540749 0 0.36268018070702418 0.30398627546106088 0 0.35826071325737319 0.3003277240158499 0 0.35721607615581658 0.30656573559573969 0 0.36268018070702418 0.30398627546106088 0 0.35826071325737319 0.3003277240158499 0 0.36268018070702418 0.30398627546106088 0 0.36558719123160882 0.29969948119116269 0 0.35826071325737319 0.3003277240158499 0 0.36558719123160882 0.29969948119116269 0 0.36091512844171192 0.29433704443458902 0 0.36871223371641282 0.29817542324200702 0 0.37108481648816682 0.30013899891886681 0 0.37014933742706652 0.29575476169949788 0 0.36558719123160882 0.29969948119116269 0 0.36871223371641282 0.29817542324200702 0 0.36734652779664789 0.29411680932906442 0 0.36558719123160882 0.29969948119116269 0 0.36871223371641282 0.29817542324200702 0 0.36823835509664099 0.30133882906677939 0 0.36871223371641282 0.29817542324200702 0 0.37108481648816682 0.30013899891886681 0 0.36823835509664099 0.30133882906677939 0 0.37108481648816682 0.30013899891886681 0 0.36823835509664099 0.30133882906677939 0 0.36845835323010317 0.30596496181531441 0 0.36607900901995372 0.30349396637540749 0 0.36823835509664099 0.30133882906677939 0 0.36845835323010317 0.30596496181531441 0 0.37014896644917339 0.316543878568457 0 0.36630954626425261 0.31087512405144152 0 0.36845835323010317 0.30596496181531441 0 0.36812955944888692 0.28419813691800921 0 0.36084998839118931 0.2761252295017701 0 0.37969218042614078 0.28371066929036243 0 0.36152496379752869 0.28359539021876212 0 0.36812955944888692 0.28419813691800921 0 0.36084998839118931 0.2761252295017701 0 0.36414496955441777 0.28941104037434479 0 0.36911771796651938 0.28986917351547109 0 0.36812955944888692 0.28419813691800921 0 0.36152496379752869 0.28359539021876212 0 0.36414496955441777 0.28941104037434479 0 0.36812955944888692 0.28419813691800921 0 0.35722235408413222 0.28831366276426512 0 0.36152496379752869 0.28359539021876212 0 0.36414496955441777 0.28941104037434479 0 0.35722235408413222 0.28831366276426512 0 0.36091512844171192 0.29433704443458902 0 0.36414496955441777 0.28941104037434479 0 0.36558719123160882 0.29969948119116269 0 0.36091512844171192 0.29433704443458902 0 0.36734652779664789 0.29411680932906442 0 0.36091512844171192 0.29433704443458902 0 0.36414496955441777 0.28941104037434479 0 0.36734652779664789 0.29411680932906442 0 0.36414496955441777 0.28941104037434479 0 0.36911771796651938 0.28986917351547109 0 0.36734652779664789 0.29411680932906442 0 0.36911771796651938 0.28986917351547109 0 0.37026464520563152 0.29279186409727531 0 0.36734652779664789 0.29411680932906442 0 0.37108481648816682 0.30013899891886681 0 0.37306860395079622 0.29341917559567809 0 0.37763341047385651 0.29079382019339128 0 0.36911771796651938 0.28986917351547109 0 0.37026464520563152 0.29279186409727531 0 0.37237913536365119 0.29056320862162688 0 0.36871223371641282 0.29817542324200702 0 0.36734652779664789 0.29411680932906442 0 0.37014933742706652 0.29575476169949788 0 0.37026464520563152 0.29279186409727531 0 0.36734652779664789 0.29411680932906442 0 0.37014933742706652 0.29575476169949788 0 0.37108481648816682 0.30013899891886681 0 0.37014933742706652 0.29575476169949788 0 0.37306860395079622 0.29341917559567809 0 0.37026464520563152 0.29279186409727531 0 0.37014933742706652 0.29575476169949788 0 0.37306860395079622 0.29341917559567809 0 0.36911771796651938 0.28986917351547109 0 0.37237913536365119 0.29056320862162688 0 0.37333201972158658 0.2878654242033048 0 0.37306860395079622 0.29341917559567809 0 0.37237913536365119 0.29056320862162688 0 0.37763341047385651 0.29079382019339128 0 0.37237913536365119 0.29056320862162688 0 0.37333201972158658 0.2878654242033048 0 0.37763341047385651 0.29079382019339128 0 0.37026464520563152 0.29279186409727531 0 0.37306860395079622 0.29341917559567809 0 0.37237913536365119 0.29056320862162688 0 0.37333201972158658 0.2878654242033048 0 0.36812955944888692 0.28419813691800921 0 0.37969218042614078 0.28371066929036243 0 0.36911771796651938 0.28986917351547109 0 0.37333201972158658 0.2878654242033048 0 0.36812955944888692 0.28419813691800921 0 0.36084998839118931 0.2761252295017701 0 0.37969218042614078 0.28371066929036243 0 0.36084998839118931 0.2761252295017701 0 0.37017340450925651 0.266060206293324 0 0.3539366042426153 0.26554047293381039 0 0.36084998839118931 0.2761252295017701 0 0.38460708535355081 0.26680105137204091 0 0.36084998839118931 0.2761252295017701 0 0.37017340450925651 0.266060206293324 0 0.38460708535355081 0.26680105137204091 0 0.3539366042426153 0.26554047293381039 0 0.38129994004966872 0.25577407136566988 0 0.37169426656027921 0.24972740256563611 0 0.37017340450925651 0.266060206293324 0 0.3539366042426153 0.26554047293381039 0 0.38129994004966872 0.25577407136566988 0 0.3539366042426153 0.26554047293381039 0 0.37169426656027921 0.24972740256563611 0 0.36205361842742478 0.24882498742118489 0 0.3539366042426153 0.26554047293381039 0 0.38129994004966872 0.25577407136566988 0 0.3539366042426153 0.26554047293381039 0 0.35175757775775729 0.2532797976346674 0 0.36205361842742478 0.24882498742118489 0 0.3433555784436142 0.25004320974280247 0 0.35175757775775729 0.2532797976346674 0 0.34536281311255052 0.25941060478944128 0 0.33982225619875311 0.26765994074234428 0 0.3539366042426153 0.26554047293381039 0 0.34536281311255052 0.25941060478944128 0 0.3539366042426153 0.26554047293381039 0 0.35175757775775729 0.2532797976346674 0 0.34536281311255052 0.25941060478944128 0 0.33982225619875311 0.26765994074234428 0 0.36084998839118931 0.2761252295017701 0 0.33982225619875311 0.26765994074234428 0 0.36084998839118931 0.2761252295017701 0 0.3539366042426153 0.26554047293381039 0 0.33982225619875311 0.26765994074234428 0 0.36084998839118931 0.2761252295017701 0 0.35183199075491411 0.27966461044832719 0 0.33982225619875311 0.26765994074234428 0 0.34056182851336592 0.28206143899133118 0 0.35183199075491411 0.27966461044832719 0 0.36152496379752869 0.28359539021876212 0 0.36084998839118931 0.2761252295017701 0 0.35183199075491411 0.27966461044832719 0 0.36084998839118931 0.2761252295017701 0 0.35183199075491411 0.27966461044832719 0 0.39945440726228237 0.27350419034528239 0 0.38460708535355081 0.26680105137204091 0 0.40768566828284042 0.25774317622192677 0 0.39945440726228237 0.27350419034528239 0 0.4092682188351508 0.26816031590002881 0 0.40768566828284042 0.25774317622192677 0 0.39945440726228237 0.27350419034528239 0 0.38460708535355081 0.26680105137204091 0 0.3904751567012596 0.27530993325585928 0 0.39945440726228237 0.27350419034528239 0 0.3904751567012596 0.27530993325585928 0 0.39488150240831521 0.28173053148540511 0 0.39945440726228237 0.27350419034528239 0 0.40366985246608472 0.28285995447659418 0 0.40929088926209078 0.279020096056181 0 0.39945440726228237 0.27350419034528239 0 0.4092682188351508 0.26816031590002881 0 0.40929088926209078 0.279020096056181 0 0.39945440726228237 0.27350419034528239 0 0.39488150240831521 0.28173053148540511 0 0.40366985246608472 0.28285995447659418 0 0.38783836144724232 0.2556839199238965 0 0.38129994004966872 0.25577407136566988 0 0.40866327585672191 0.24600766979752939 0 0.38460708535355081 0.26680105137204091 0 0.40768566828284042 0.25774317622192677 0 0.38783836144724232 0.2556839199238965 0 0.40768566828284042 0.25774317622192677 0 0.40866327585672191 0.24600766979752939 0 0.38783836144724232 0.2556839199238965 0 0.38460708535355081 0.26680105137204091 0 0.40768566828284042 0.25774317622192677 0 0.38129994004966872 0.25577407136566988 0 0.40866327585672191 0.24600766979752939 0 0.38783836144724232 0.2556839199238965 0 0.38129994004966872 0.25577407136566988 0 0.38460708535355081 0.26680105137204091 0 0.38783836144724232 0.2556839199238965 0 0.38460708535355081 0.26680105137204091 0 0.38129994004966872 0.25577407136566988 0 0.37169426656027921 0.24972740256563611 0 0.38106847269238292 0.24536179082341181 0 0.37017340450925651 0.266060206293324 0 0.38129994004966872 0.25577407136566988 0 0.38460708535355081 0.26680105137204091 0 0.36084998839118931 0.2761252295017701 0 0.38460708535355081 0.26680105137204091 0 0.37969218042614078 0.28371066929036243 0 0.38460708535355081 0.26680105137204091 0 0.3904751567012596 0.27530993325585928 0 0.37969218042614078 0.28371066929036243 0 0.38460708535355081 0.26680105137204091 0 0.37969218042614078 0.28371066929036243 0 0.3904751567012596 0.27530993325585928 0 0.37969218042614078 0.28371066929036243 0 0.39488150240831521 0.28173053148540511 0 0.37969218042614078 0.28371066929036243 0 0.37763341047385651 0.29079382019339128 0 0.40259214502479168 0.29292967641552992 0 0.37763341047385651 0.29079382019339128 0 0.4027243230010164 0.30147339632314252 0 0.37969218042614078 0.28371066929036243 0 0.37763341047385651 0.29079382019339128 0 0.37333201972158658 0.2878654242033048 0 0.37969218042614078 0.28371066929036243 0 0.37763341047385651 0.29079382019339128 0 0.37763341047385651 0.29079382019339128 0 0.37695808612291098 0.31120865645681561 0 0.38599374742651271 0.30414296713942529 0 0.37763341047385651 0.29079382019339128 0 0.38599374742651271 0.30414296713942529 0 0.4027243230010164 0.30147339632314252 0 0.37695808612291098 0.31120865645681561 0 0.38599374742651271 0.30414296713942529 0 0.38754735899376969 0.31282171123814728 0 0.38599374742651271 0.30414296713942529 0 0.4027243230010164 0.30147339632314252 0 0.38754735899376969 0.31282171123814728 0 0.4027243230010164 0.30147339632314252 0 0.3956366020903157 0.32248231082130752 0 0.38754735899376969 0.31282171123814728 0 0.37969218042614078 0.28371066929036243 0 0.40259214502479168 0.29292967641552992 0 0.37969218042614078 0.28371066929036243 0 0.39488150240831521 0.28173053148540511 0 0.40259214502479168 0.29292967641552992 0 0.37763341047385651 0.29079382019339128 0 0.4027243230010164 0.30147339632314252 0 0.40259214502479168 0.29292967641552992 0 0.4027243230010164 0.30147339632314252 0 0.40259214502479168 0.29292967641552992 0 0.41139710839419091 0.29189735433941028 0 0.40259214502479168 0.29292967641552992 0 0.40366985246608472 0.28285995447659418 0 0.41139710839419091 0.29189735433941028 0 0.39488150240831521 0.28173053148540511 0 0.40259214502479168 0.29292967641552992 0 0.40366985246608472 0.28285995447659418 0 0.40366985246608472 0.28285995447659418 0 0.41139710839419091 0.29189735433941028 0 0.40929088926209078 0.279020096056181 0 0.41139710839419091 0.29189735433941028 0 0.42781523552817591 0.31215297245289481 0 0.42226183937510081 0.28327127115801121 0 0.41139710839419091 0.29189735433941028 0 0.42226183937510081 0.28327127115801121 0 0.40929088926209078 0.279020096056181 0 0.4027243230010164 0.30147339632314252 0 0.41139710839419091 0.29189735433941028 0 0.42781523552817591 0.31215297245289481 0 0.4027243230010164 0.30147339632314252 0 0.42781523552817591 0.31215297245289481 0 0.41357021602424721 0.32279281759874212 0 0.4027243230010164 0.30147339632314252 0 0.42781523552817591 0.31215297245289481 0 0.42781523552817591 0.31215297245289481 0 0.42226183937510081 0.28327127115801121 0 0.42781523552817591 0.31215297245289481 0 0.42226183937510081 0.28327127115801121 0 0.44120727567718632 0.28746005308771089 0 0.42226183937510081 0.28327127115801121 0 0.43023391716603732 0.27040224467912161 0 0.44120727567718632 0.28746005308771089 0 0.42226183937510081 0.28327127115801121 0 0.43023391716603732 0.27040224467912161 0 0.41664462513020523 0.25422696758609492 0 0.43023391716603732 0.27040224467912161 0 0.43692075095235122 0.26433370861442979 0 0.44373838257505849 0.27050131303512348 0 0.42226183937510081 0.28327127115801121 0 0.4092682188351508 0.26816031590002881 0 0.41664462513020523 0.25422696758609492 0 0.42226183937510081 0.28327127115801121 0 0.41664462513020523 0.25422696758609492 0 0.42226183937510081 0.28327127115801121 0 0.4092682188351508 0.26816031590002881 0 0.40929088926209078 0.279020096056181 0 0.40768566828284042 0.25774317622192677 0 0.41664462513020523 0.25422696758609492 0 0.40866327585672191 0.24600766979752939 0 0.40768566828284042 0.25774317622192677 0 0.41664462513020523 0.25422696758609492 0 0.4092682188351508 0.26816031590002881 0 0.40768566828284042 0.25774317622192677 0 0.41664462513020523 0.25422696758609492 0 0.42749544465446981 0.25699566217507153 0 0.45166362976964691 0.25106894999712381 0 0.43076425121212841 0.2486853010718087 0 0.41664462513020523 0.25422696758609492 0 0.42749544465446981 0.25699566217507153 0 0.43076425121212841 0.2486853010718087 0 0.43023391716603732 0.27040224467912161 0 0.41664462513020523 0.25422696758609492 0 0.42749544465446981 0.25699566217507153 0 0.41664462513020523 0.25422696758609492 0 0.43076425121212841 0.2486853010718087 0 0.42749544465446981 0.25699566217507153 0 0.43692075095235122 0.26433370861442979 0 0.44456450099631911 0.26043047377218492 0 0.43023391716603732 0.27040224467912161 0 0.42749544465446981 0.25699566217507153 0 0.43692075095235122 0.26433370861442979 0 0.42749544465446981 0.25699566217507153 0 0.45166362976964691 0.25106894999712381 0 0.42749544465446981 0.25699566217507153 0 0.44456450099631911 0.26043047377218492 0 0.45166362976964691 0.25106894999712381 0 0.43692075095235122 0.26433370861442979 0 0.44456450099631911 0.26043047377218492 0 0.44373838257505849 0.27050131303512348 0 0.44456450099631911 0.26043047377218492 0 0.44373838257505849 0.27050131303512348 0 0.45508065662597141 0.26402805921732958 0 0.44456450099631911 0.26043047377218492 0 0.45166362976964691 0.25106894999712381 0 0.45508065662597141 0.26402805921732958 0 0.44373838257505849 0.27050131303512348 0 0.45472874274978531 0.27586911806656422 0 0.44120727567718632 0.28746005308771089 0 0.43023391716603732 0.27040224467912161 0 0.44373838257505849 0.27050131303512348 0 0.44120727567718632 0.28746005308771089 0 0.44373838257505849 0.27050131303512348 0 0.45472874274978531 0.27586911806656422 0 0.45508065662597141 0.26402805921732958 0 0.45472874274978531 0.27586911806656422 0 0.46665275363318931 0.27127710252775639 0 0.46192346945889701 0.28817835066990299 0 0.45472874274978531 0.27586911806656422 0 0.46665275363318931 0.27127710252775639 0 0.45508065662597141 0.26402805921732958 0 0.45166362976964691 0.25106894999712381 0 0.46652816171208539 0.25830808769848879 0 0.47583181488482379 0.2451422378191761 0 0.45166362976964691 0.25106894999712381 0 0.45508065662597141 0.26402805921732958 0 0.46652816171208539 0.25830808769848879 0 0.46665275363318931 0.27127710252775639 0 0.45508065662597141 0.26402805921732958 0 0.46652816171208539 0.25830808769848879 0 0.46665275363318931 0.27127710252775639 0 0.46652816171208539 0.25830808769848879 0 0.48341195364679568 0.26002408893105827 0 0.46652816171208539 0.25830808769848879 0 0.48341195364679568 0.26002408893105827 0 0.47583181488482379 0.2451422378191761 0 0.46665275363318931 0.27127710252775639 0 0.48341195364679568 0.26002408893105827 0 0.48138518434246891 0.28130646820503019 0 0.46665275363318931 0.27127710252775639 0 0.48138518434246891 0.28130646820503019 0 0.46192346945889701 0.28817835066990299 0 0.5 0.26671351767664991 0 0.5 0.29421150971207138 0 0.48138518434246891 0.28130646820503019 0 0.48341195364679568 0.26002408893105827 0 0.5 0.26671351767664991 0 0.48138518434246891 0.28130646820503019 0 0.48341195364679568 0.26002408893105827 0 0.5 0.26671351767664991 0 0.50000000000000067 0.2392155256412283 0 0.5 0.29421150971207138 0 0.47556093647901088 0.30733800586058863 0 0.5 0.32170950174749302 0 0.5 0.29421150971207138 0 0.48138518434246891 0.28130646820503019 0 0.47556093647901088 0.30733800586058863 0 0.48138518434246891 0.28130646820503019 0 0.47556093647901088 0.30733800586058863 0 0.46192346945889701 0.28817835066990299 0 0.47556093647901088 0.30733800586058863 0 0.45214514511688908 0.30370412902975941 0 0.45421880844117613 0.32339126307769928 0 0.47556093647901088 0.30733800586058863 0 0.46192346945889701 0.28817835066990299 0 0.45214514511688908 0.30370412902975941 0 0.46192346945889701 0.28817835066990299 0 0.44120727567718632 0.28746005308771089 0 0.45214514511688908 0.30370412902975941 0 0.45472874274978531 0.27586911806656422 0 0.46192346945889701 0.28817835066990299 0 0.44120727567718632 0.28746005308771089 0 0.42781523552817591 0.31215297245289481 0 0.44120727567718632 0.28746005308771089 0 0.45214514511688908 0.30370412902975941 0 0.42781523552817591 0.31215297245289481 0 0.45421880844117613 0.32339126307769928 0 0.43298436918619881 0.33903622913929549 0 0.42781523552817591 0.31215297245289481 0 0.45214514511688908 0.30370412902975941 0 0.45421880844117613 0.32339126307769928 0 0.42781523552817591 0.31215297245289481 0 0.45421880844117613 0.32339126307769928 0 0.45421880844117613 0.32339126307769928 0 0.45970761232660212 0.34692044601787542 0 0.43298436918619881 0.33903622913929549 0 0.45421880844117613 0.32339126307769928 0 0.48062238135417568 0.33462955370250519 0 0.45421880844117613 0.32339126307769928 0 0.48062238135417568 0.33462955370250519 0 0.45970761232660212 0.34692044601787542 0 0.47556093647901088 0.30733800586058863 0 0.45421880844117613 0.32339126307769928 0 0.48062238135417568 0.33462955370250519 0 0.48062238135417568 0.33462955370250519 0 0.5 0.32170950174749302 0 0.5 0.34920749378291471 0 0.47556093647901088 0.30733800586058863 0 0.48062238135417568 0.33462955370250519 0 0.5 0.32170950174749302 0 0.5 0.34920749378291471 0 0.48254603458521478 0.3522402998402685 0 0.5 0.37670548581833618 0 0.48062238135417568 0.33462955370250519 0 0.5 0.34920749378291471 0 0.48254603458521478 0.3522402998402685 0 0.48254603458521478 0.3522402998402685 0 0.46972057754862501 0.36630584452178799 0 0.45970761232660212 0.34692044601787542 0 0.48062238135417568 0.33462955370250519 0 0.48254603458521478 0.3522402998402685 0 0.45970761232660212 0.34692044601787542 0 0.48254603458521478 0.3522402998402685 0 0.46972057754862501 0.36630584452178799 0 0.5 0.37670548581833618 0 0.46972057754862501 0.36630584452178799 0 0.43815350284422228 0.36591948582569622 0 0.45848938469160699 0.38276388730883248 0 0.46972057754862501 0.36630584452178799 0 0.45970761232660212 0.34692044601787542 0 0.43815350284422228 0.36591948582569622 0 0.45970761232660212 0.34692044601787542 0 0.43815350284422228 0.36591948582569622 0 0.43298436918619881 0.33903622913929549 0 0.43815350284422228 0.36591948582569622 0 0.4167242930516859 0.35972934744593471 0 0.42344095457037051 0.38268701701273461 0 0.4167242930516859 0.35972934744593471 0 0.40101385701800268 0.38518895784325291 0 0.4167242930516859 0.35972934744593471 0 0.40181680918128981 0.35947395412181382 0 0.40101385701800268 0.38518895784325291 0 0.4167242930516859 0.35972934744593471 0 0.40869055031553031 0.33881917925707022 0 0.40181680918128981 0.35947395412181382 0 0.4167242930516859 0.35972934744593471 0 0.43298436918619881 0.33903622913929549 0 0.40869055031553031 0.33881917925707022 0 0.43815350284422228 0.36591948582569622 0 0.4167242930516859 0.35972934744593471 0 0.43298436918619881 0.33903622913929549 0 0.43815350284422228 0.36591948582569622 0 0.43298436918619881 0.33903622913929549 0 0.42781523552817591 0.31215297245289481 0 0.43298436918619881 0.33903622913929549 0 0.42781523552817591 0.31215297245289481 0 0.43298436918619881 0.33903622913929549 0 0.41357021602424721 0.32279281759874212 0 0.43298436918619881 0.33903622913929549 0 0.41357021602424721 0.32279281759874212 0 0.40869055031553031 0.33881917925707022 0 0.40869055031553031 0.33881917925707022 0 0.39369601167170543 0.33564153172070438 0 0.39209274976778918 0.34814598654190299 0 0.40869055031553031 0.33881917925707022 0 0.39369601167170543 0.33564153172070438 0 0.3956366020903157 0.32248231082130752 0 0.39369601167170543 0.33564153172070438 0 0.3956366020903157 0.32248231082130752 0 0.38362385659697051 0.32926172455430031 0 0.39369601167170543 0.33564153172070438 0 0.38635485741833753 0.33883185827426582 0 0.39209274976778918 0.34814598654190299 0 0.41357021602424721 0.32279281759874212 0 0.40869055031553031 0.33881917925707022 0 0.3956366020903157 0.32248231082130752 0 0.4027243230010164 0.30147339632314252 0 0.41357021602424721 0.32279281759874212 0 0.3956366020903157 0.32248231082130752 0 0.3956366020903157 0.32248231082130752 0 0.38754735899376969 0.31282171123814728 0 0.38479800915553353 0.32074741934569512 0 0.38754735899376969 0.31282171123814728 0 0.38479800915553353 0.32074741934569512 0 0.37917338616632867 0.3168755173424983 0 0.3956366020903157 0.32248231082130752 0 0.38479800915553353 0.32074741934569512 0 0.38362385659697051 0.32926172455430031 0 0.38479800915553353 0.32074741934569512 0 0.37832625022041982 0.32264150287239662 0 0.38362385659697051 0.32926172455430031 0 0.37577016905582622 0.32787937856968757 0 0.37832625022041982 0.32264150287239662 0 0.38362385659697051 0.32926172455430031 0 0.37577016905582622 0.32787937856968757 0 0.37506056064123422 0.32471797871916308 0 0.37832625022041982 0.32264150287239662 0 0.37368960646642962 0.31911015363466272 0 0.37506056064123422 0.32471797871916308 0 0.37832625022041982 0.32264150287239662 0 0.37695808612291098 0.31120865645681561 0 0.38754735899376969 0.31282171123814728 0 0.37917338616632867 0.3168755173424983 0 0.38479800915553353 0.32074741934569512 0 0.37832625022041982 0.32264150287239662 0 0.37917338616632867 0.3168755173424983 0 0.37368960646642962 0.31911015363466272 0 0.37832625022041982 0.32264150287239662 0 0.37917338616632867 0.3168755173424983 0 0.37499251130121058 0.31593455150060828 0 0.37368960646642962 0.31911015363466272 0 0.37917338616632867 0.3168755173424983 0 0.37499251130121058 0.31593455150060828 0 0.37695808612291098 0.31120865645681561 0 0.37917338616632867 0.3168755173424983 0 0.38635485741833753 0.33883185827426582 0 0.3795813787571668 0.3363772241379393 0 0.38278029029805521 0.34473282441648212 0 0.39369601167170543 0.33564153172070438 0 0.38635485741833753 0.33883185827426582 0 0.38362385659697051 0.32926172455430031 0 0.38635485741833753 0.33883185827426582 0 0.38362385659697051 0.32926172455430031 0 0.3795813787571668 0.3363772241379393 0 0.37577016905582622 0.32787937856968757 0 0.38362385659697051 0.32926172455430031 0 0.37868435463470768 0.3315773541462857 0 0.38362385659697051 0.32926172455430031 0 0.37868435463470768 0.3315773541462857 0 0.3795813787571668 0.3363772241379393 0 0.37577016905582622 0.32787937856968757 0 0.37868435463470768 0.3315773541462857 0 0.375263113682131 0.33313320718557798 0 0.37868435463470768 0.3315773541462857 0 0.375263113682131 0.33313320718557798 0 0.3795813787571668 0.3363772241379393 0 0.37369311900952262 0.33836265764115908 0 0.3795813787571668 0.3363772241379393 0 0.37670219357667811 0.34177383067972761 0 0.3795813787571668 0.3363772241379393 0 0.37670219357667811 0.34177383067972761 0 0.38278029029805521 0.34473282441648212 0 0.37369311900952262 0.33836265764115908 0 0.375263113682131 0.33313320718557798 0 0.3795813787571668 0.3363772241379393 0 0.3809821990389497 0.35490418517770578 0 0.39056259575344082 0.36548629952090861 0 0.39209274976778918 0.34814598654190299 0 0.37486749369974542 0.34694596905823039 0 0.37670219357667811 0.34177383067972761 0 0.38278029029805521 0.34473282441648212 0 0.37486749369974542 0.34694596905823039 0 0.38278029029805521 0.34473282441648212 0 0.3809821990389497 0.35490418517770578 0 0.38278029029805521 0.34473282441648212 0 0.3809821990389497 0.35490418517770578 0 0.39209274976778918 0.34814598654190299 0 0.38635485741833753 0.33883185827426582 0 0.38278029029805521 0.34473282441648212 0 0.39209274976778918 0.34814598654190299 0 0.37228166628853332 0.35471301169251829 0 0.37486749369974542 0.34694596905823039 0 0.3809821990389497 0.35490418517770578 0 0.37414389550204002 0.36898578533419818 0 0.3809821990389497 0.35490418517770578 0 0.39056259575344082 0.36548629952090861 0 0.37414389550204002 0.36898578533419818 0 0.39056259575344082 0.36548629952090861 0 0.40101385701800268 0.38518895784325291 0 0.37414389550204002 0.36898578533419818 0 0.37228166628853332 0.35471301169251829 0 0.3809821990389497 0.35490418517770578 0 0.39056259575344082 0.36548629952090861 0 0.40181680918128981 0.35947395412181382 0 0.40101385701800268 0.38518895784325291 0 0.39056259575344082 0.36548629952090861 0 0.40181680918128981 0.35947395412181382 0 0.39209274976778918 0.34814598654190299 0 0.40869055031553031 0.33881917925707022 0 0.40181680918128981 0.35947395412181382 0 0.39209274976778918 0.34814598654190299 0 0.40101385701800268 0.38518895784325291 0 0.38530342098431941 0.41064856824057122 0 0.40101385701800268 0.38518895784325291 0 0.38530342098431941 0.41064856824057122 0 0.41521715527738928 0.40390661881175682 0 0.3736470799201031 0.39378130610698531 0 0.37414389550204002 0.36898578533419818 0 0.40101385701800268 0.38518895784325291 0 0.3736470799201031 0.39378130610698531 0 0.40101385701800268 0.38518895784325291 0 0.38530342098431941 0.41064856824057122 0 0.36959298495063608 0.43610817863788948 0 0.38530342098431941 0.41064856824057122 0 0.36959298495063608 0.43610817863788948 0 0.38530342098431941 0.41064856824057122 0 0.3889231515195431 0.43141286456833011 0 0.3889231515195431 0.43141286456833011 0 0.40362265567455102 0.42304679086704539 0 0.39942544658573009 0.43872588670818857 0 0.40362265567455102 0.42304679086704539 0 0.41248490446316177 0.43293377153942381 0 0.39942544658573009 0.43872588670818857 0 0.38530342098431941 0.41064856824057122 0 0.3889231515195431 0.43141286456833011 0 0.40362265567455102 0.42304679086704539 0 0.38530342098431941 0.41064856824057122 0 0.40362265567455102 0.42304679086704539 0 0.41521715527738928 0.40390661881175682 0 0.40362265567455102 0.42304679086704539 0 0.42233359500988371 0.42307221464191669 0 0.41521715527738928 0.40390661881175682 0 0.40362265567455102 0.42304679086704539 0 0.41248490446316177 0.43293377153942381 0 0.42233359500988371 0.42307221464191669 0 0.41248490446316177 0.43293377153942381 0 0.42233359500988371 0.42307221464191669 0 0.42326813014219627 0.43909650749986368 0 0.42233359500988371 0.42307221464191669 0 0.43681876433844857 0.43497208046478802 0 0.42326813014219627 0.43909650749986368 0 0.42233359500988371 0.42307221464191669 0 0.43681876433844857 0.43497208046478802 0 0.43655617137350622 0.42038510460191503 0 0.42233359500988371 0.42307221464191669 0 0.42830887421762198 0.41018013153495869 0 0.41521715527738928 0.40390661881175682 0 0.42233359500988371 0.42307221464191669 0 0.42830887421762198 0.41018013153495869 0 0.43655617137350622 0.42038510460191503 0 0.42830887421762198 0.41018013153495869 0 0.43655617137350622 0.42038510460191503 0 0.439625884597032 0.40642404903869822 0 0.42978568865087441 0.39901034440009059 0 0.42344095457037051 0.38268701701273461 0 0.4433226365022459 0.39280274251209668 0 0.42978568865087441 0.39901034440009059 0 0.41521715527738928 0.40390661881175682 0 0.42344095457037051 0.38268701701273461 0 0.42830887421762198 0.41018013153495869 0 0.42978568865087441 0.39901034440009059 0 0.439625884597032 0.40642404903869822 0 0.42830887421762198 0.41018013153495869 0 0.42978568865087441 0.39901034440009059 0 0.41521715527738928 0.40390661881175682 0 0.4167242930516859 0.35972934744593471 0 0.40101385701800268 0.38518895784325291 0 0.42344095457037051 0.38268701701273461 0 0.40101385701800268 0.38518895784325291 0 0.41521715527738928 0.40390661881175682 0 0.42344095457037051 0.38268701701273461 0 0.43815350284422228 0.36591948582569622 0 0.42344095457037051 0.38268701701273461 0 0.4433226365022459 0.39280274251209668 0 0.43815350284422228 0.36591948582569622 0 0.4433226365022459 0.39280274251209668 0 0.43815350284422228 0.36591948582569622 0 0.4433226365022459 0.39280274251209668 0 0.45848938469160699 0.38276388730883248 0 0.4433226365022459 0.39280274251209668 0 0.4587292321942566 0.40377894109977869 0 0.44849177016026981 0.41968599919849731 0 0.4433226365022459 0.39280274251209668 0 0.44849177016026981 0.41968599919849731 0 0.42978568865087441 0.39901034440009059 0 0.4433226365022459 0.39280274251209668 0 0.439625884597032 0.40642404903869822 0 0.4433226365022459 0.39280274251209668 0 0.4587292321942566 0.40377894109977869 0 0.45848938469160699 0.38276388730883248 0 0.4587292321942566 0.40377894109977869 0 0.45848938469160699 0.38276388730883248 0 0.47720201034463561 0.39055994944820821 0 0.46972057754862501 0.36630584452178799 0 0.45848938469160699 0.38276388730883248 0 0.47720201034463561 0.39055994944820821 0 0.46972057754862501 0.36630584452178799 0 0.47720201034463561 0.39055994944820821 0 0.5 0.37670548581833618 0 0.47720201034463561 0.39055994944820821 0 0.5 0.40420347785375749 0 0.47329291580914951 0.41490179660840648 0 0.4587292321942566 0.40377894109977869 0 0.47720201034463561 0.39055994944820821 0 0.47329291580914951 0.41490179660840648 0 0.47720201034463561 0.39055994944820821 0 0.5 0.40420347785375749 0 0.5 0.37670548581833618 0 0.48546521128148462 0.42572005307568972 0 0.49999999999999828 0.43170146988917901 0 0.48502495584706629 0.44181750450007778 0 0.49999999999999828 0.43170146988917901 0 0.48502495584706629 0.44181750450007778 0 0.5 0.40420347785375749 0 0.48546521128148462 0.42572005307568972 0 0.47329291580914951 0.41490179660840648 0 0.5 0.40420347785375749 0 0.48546521128148462 0.42572005307568972 0 0.49999999999999828 0.43170146988917901 0 0.48546521128148462 0.42572005307568972 0 0.47462076711180717 0.43403653248997731 0 0.48502495584706629 0.44181750450007778 0 0.47329291580914951 0.41490179660840648 0 0.47462076711180717 0.43403653248997731 0 0.45927084092720188 0.43580976915473651 0 0.48546521128148462 0.42572005307568972 0 0.47329291580914951 0.41490179660840648 0 0.47462076711180717 0.43403653248997731 0 0.45927084092720188 0.43580976915473651 0 0.44849177016026981 0.41968599919849731 0 0.47329291580914951 0.41490179660840648 0 0.45927084092720188 0.43580976915473651 0 0.44849177016026981 0.41968599919849731 0 0.45927084092720188 0.43580976915473651 0 0.44849177016026981 0.41968599919849731 0 0.45165089640657707 0.43611575462809582 0 0.4587292321942566 0.40377894109977869 0 0.47329291580914951 0.41490179660840648 0 0.44849177016026981 0.41968599919849731 0 0.4433226365022459 0.39280274251209668 0 0.44849177016026981 0.41968599919849731 0 0.439625884597032 0.40642404903869822 0 0.43655617137350622 0.42038510460191503 0 0.44849177016026981 0.41968599919849731 0 0.439625884597032 0.40642404903869822 0 0.44849177016026981 0.41968599919849731 0 0.439625884597032 0.40642404903869822 0 0.44849177016026981 0.41968599919849731 0 0.45165089640657707 0.43611575462809582 0 0.44386952542921521 0.4295111469185629 0 0.44849177016026981 0.41968599919849731 0 0.45165089640657707 0.43611575462809582 0 0.45165089640657707 0.43611575462809582 0 0.44386952542921521 0.4295111469185629 0 0.44519082659473158 0.43782150968735878 0 0.43655617137350622 0.42038510460191503 0 0.44849177016026981 0.41968599919849731 0 0.44386952542921521 0.4295111469185629 0 0.43681876433844857 0.43497208046478802 0 0.43655617137350622 0.42038510460191503 0 0.44386952542921521 0.4295111469185629 0 0.43681876433844857 0.43497208046478802 0 0.44386952542921521 0.4295111469185629 0 0.44519082659473158 0.43782150968735878 0 0.43681876433844857 0.43497208046478802 0 0.44519082659473158 0.43782150968735878 0 0.44362096681603608 0.44566090358066651 0 0.43681876433844857 0.43497208046478802 0 0.44362096681603608 0.44566090358066651 0 0.43343701099378978 0.44857281610427868 0 0.44362096681603608 0.44566090358066651 0 0.44110505044236059 0.45564825146568327 0 0.43343701099378978 0.44857281610427868 0 0.44362096681603608 0.44566090358066651 0 0.45255374853073171 0.45216262504332899 0 0.45221828903371142 0.44335246171580328 0 0.44362096681603608 0.44566090358066651 0 0.45255374853073171 0.45216262504332899 0 0.44110505044236059 0.45564825146568327 0 0.44519082659473158 0.43782150968735878 0 0.44362096681603608 0.44566090358066651 0 0.45221828903371142 0.44335246171580328 0 0.45165089640657707 0.43611575462809582 0 0.44519082659473158 0.43782150968735878 0 0.45221828903371142 0.44335246171580328 0 0.45255374853073171 0.45216262504332899 0 0.44518446721829791 0.46873079822848901 0 0.44110505044236059 0.45564825146568327 0 0.44518446721829791 0.46873079822848901 0 0.44110505044236059 0.45564825146568327 0 0.43072905865294731 0.46311411437165317 0 0.47284597636140308 0.45611600571247141 0 0.46302896313844299 0.47272331085799019 0 0.45255374853073171 0.45216262504332899 0 0.44518446721829791 0.46873079822848901 0 0.47004991169413368 0.45193353911097589 0 0.47004991169413368 0.45193353911097589 0 0.47284597636140308 0.45611600571247141 0 0.46302896313844299 0.47272331085799019 0 0.44518446721829791 0.46873079822848901 0 0.47004991169413368 0.45193353911097589 0 0.46302896313844299 0.47272331085799019 0 0.44518446721829791 0.46873079822848901 0 0.47004991169413368 0.45193353911097589 0 0.45927084092720188 0.43580976915473651 0 0.47004991169413368 0.45193353911097589 0 0.45927084092720188 0.43580976915473651 0 0.45930684530103161 0.44617181272829648 0 0.47004991169413368 0.45193353911097589 0 0.47462076711180717 0.43403653248997731 0 0.45927084092720188 0.43580976915473651 0 0.47004991169413368 0.45193353911097589 0 0.45255374853073171 0.45216262504332899 0 0.45930684530103161 0.44617181272829648 0 0.47004991169413368 0.45193353911097589 0 0.45927084092720188 0.43580976915473651 0 0.45221828903371142 0.44335246171580328 0 0.45930684530103161 0.44617181272829648 0 0.45927084092720188 0.43580976915473651 0 0.45165089640657707 0.43611575462809582 0 0.45221828903371142 0.44335246171580328 0 0.45255374853073171 0.45216262504332899 0 0.45221828903371142 0.44335246171580328 0 0.45930684530103161 0.44617181272829648 0 0.47462076711180717 0.43403653248997731 0 0.47004991169413368 0.45193353911097589 0 0.48502495584706629 0.44181750450007778 0 0.48189680466807888 0.45106209462173341 0 0.47450081081676521 0.45331654521044668 0 0.48502495584706629 0.44181750450007778 0 0.47004991169413368 0.45193353911097589 0 0.48502495584706629 0.44181750450007778 0 0.47004991169413368 0.45193353911097589 0 0.47450081081676521 0.45331654521044668 0 0.48502495584706629 0.44181750450007778 0 0.47284597636140308 0.45611600571247141 0 0.48050552008400071 0.46757346096286262 0 0.46302896313844299 0.47272331085799019 0 0.47004991169413368 0.45193353911097589 0 0.47284597636140308 0.45611600571247141 0 0.47004991169413368 0.45193353911097589 0 0.47450081081676521 0.45331654521044668 0 0.47284597636140308 0.45611600571247141 0 0.47450081081676521 0.45331654521044668 0 0.47284597636140308 0.45611600571247141 0 0.47951191807974908 0.45654698881850991 0 0.47450081081676521 0.45331654521044668 0 0.47284597636140308 0.45611600571247141 0 0.47284597636140308 0.45611600571247141 0 0.48050552008400071 0.46757346096286262 0 0.47284597636140308 0.45611600571247141 0 0.48050552008400071 0.46757346096286262 0 0.47951191807974908 0.45654698881850991 0 0.48189680466807888 0.45106209462173341 0 0.47951191807974908 0.45654698881850991 0 0.4878104784684959 0.4546668375850359 0 0.48050552008400071 0.46757346096286262 0 0.47951191807974908 0.45654698881850991 0 0.4878104784684959 0.4546668375850359 0 0.48189680466807888 0.45106209462173341 0 0.47450081081676521 0.45331654521044668 0 0.47951191807974908 0.45654698881850991 0 0.48050552008400071 0.46757346096286262 0 0.4878104784684959 0.4546668375850359 0 0.49999999999999928 0.46182898591187349 0 0.48050552008400071 0.46757346096286262 0 0.49999999999999928 0.46182898591187349 0 0.49999999999999828 0.43170146988917901 0 0.4878104784684959 0.4546668375850359 0 0.49999999999999928 0.46182898591187349 0 0.49999999999999828 0.43170146988917901 0 0.4878104784684959 0.4546668375850359 0 0.48502495584706629 0.44181750450007778 0 0.48189680466807888 0.45106209462173341 0 0.4878104784684959 0.4546668375850359 0 0.48502495584706629 0.44181750450007778 0 0.49999999999999928 0.46182898591187349 0 0.5 0.5 0 0.49753071700976492 0.4930404390193398 0 0.5 0.5 0 0.47501141284236448 0.48698608464618232 0 0.44690499747156931 0.4999999999999995 0 0.5 0.5 0 0.49753071700976492 0.4930404390193398 0 0.47501141284236448 0.48698608464618232 0 0.49753071700976492 0.4930404390193398 0 0.48901811854688337 0.4803069499911008 0 0.47501141284236448 0.48698608464618232 0 0.49753071700976492 0.4930404390193398 0 0.48901811854688337 0.4803069499911008 0 0.48050552008400071 0.46757346096286262 0 0.49999999999999928 0.46182898591187349 0 0.48901811854688337 0.4803069499911008 0 0.49999999999999928 0.46182898591187349 0 0.49753071700976492 0.4930404390193398 0 0.48901811854688337 0.4803069499911008 0 0.48050552008400071 0.46757346096286262 0 0.48901811854688337 0.4803069499911008 0 0.48050552008400071 0.46757346096286262 0 0.46302896313844299 0.47272331085799019 0 0.48901811854688337 0.4803069499911008 0 0.47689100365292297 0.47689745161453417 0 0.47501141284236448 0.48698608464618232 0 0.48050552008400071 0.46757346096286262 0 0.47689100365292297 0.47689745161453417 0 0.46302896313844299 0.47272331085799019 0 0.48050552008400071 0.46757346096286262 0 0.48901811854688337 0.4803069499911008 0 0.47689100365292297 0.47689745161453417 0 0.47689100365292297 0.47689745161453417 0 0.47501141284236448 0.48698608464618232 0 0.46302896313844299 0.47272331085799019 0 0.47501141284236448 0.48698608464618232 0 0.45496698030500621 0.48636165542899479 0 0.44690499747156931 0.4999999999999995 0 0.47501141284236448 0.48698608464618232 0 0.45496698030500621 0.48636165542899479 0 0.46302896313844299 0.47272331085799019 0 0.45496698030500621 0.48636165542899479 0 0.46302896313844299 0.47272331085799019 0 0.46302896313844299 0.47272331085799019 0 0.43620850627812668 0.48062654530969717 0 0.44518446721829791 0.46873079822848901 0 0.46302896313844299 0.47272331085799019 0 0.43620850627812668 0.48062654530969717 0 0.45496698030500621 0.48636165542899479 0 0.46302896313844299 0.47272331085799019 0 0.43620850627812668 0.48062654530969717 0 0.45496698030500621 0.48636165542899479 0 0.44690499747156931 0.4999999999999995 0 0.43620850627812668 0.48062654530969717 0 0.45496698030500621 0.48636165542899479 0 0.44690499747156931 0.4999999999999995 0 0.42031902274246069 0.48552805734600057 0 0.41743852268843429 0.5 0 0.43620850627812668 0.48062654530969717 0 0.44690499747156931 0.4999999999999995 0 0.41743852268843429 0.5 0 0.43620850627812668 0.48062654530969717 0 0.42031902274246069 0.48552805734600057 0 0.41743852268843429 0.5 0 0.40134209412993838 0.48520307466421098 0 0.42031902274246069 0.48552805734600057 0 0.40973563488985532 0.47579104778557152 0 0.40134209412993838 0.48520307466421098 0 0.42031902274246069 0.48552805734600057 0 0.40973563488985532 0.47579104778557152 0 0.41789473538963601 0.46705380048502582 0 0.44518446721829791 0.46873079822848901 0 0.42031902274246069 0.48552805734600057 0 0.43072905865294731 0.46311411437165317 0 0.44518446721829791 0.46873079822848901 0 0.42031902274246069 0.48552805734600057 0 0.43620850627812668 0.48062654530969717 0 0.44518446721829791 0.46873079822848901 0 0.42031902274246069 0.48552805734600057 0 0.42031902274246069 0.48552805734600057 0 0.43072905865294731 0.46311411437165317 0 0.41789473538963601 0.46705380048502582 0 0.44110505044236059 0.45564825146568327 0 0.43072905865294731 0.46311411437165317 0 0.43343701099378978 0.44857281610427868 0 0.43072905865294731 0.46311411437165317 0 0.43343701099378978 0.44857281610427868 0 0.42053980660522761 0.45341513910658388 0 0.43072905865294731 0.46311411437165317 0 0.41789473538963601 0.46705380048502582 0 0.42053980660522761 0.45341513910658388 0 0.43681876433844857 0.43497208046478802 0 0.43343701099378978 0.44857281610427868 0 0.42326813014219627 0.43909650749986368 0 0.43343701099378978 0.44857281610427868 0 0.42326813014219627 0.43909650749986368 0 0.42053980660522761 0.45341513910658388 0 0.41248490446316177 0.43293377153942381 0 0.42326813014219627 0.43909650749986368 0 0.41215324011006321 0.44426916471351768 0 0.42326813014219627 0.43909650749986368 0 0.41215324011006321 0.44426916471351768 0 0.42053980660522761 0.45341513910658388 0 0.41215324011006321 0.44426916471351768 0 0.42053980660522761 0.45341513910658388 0 0.40575666434273311 0.45838443146516472 0 0.41248490446316177 0.43293377153942381 0 0.41215324011006321 0.44426916471351768 0 0.39942544658573009 0.43872588670818857 0 0.40973563488985532 0.47579104778557152 0 0.41789473538963601 0.46705380048502582 0 0.40575666434273311 0.45838443146516472 0 0.41789473538963601 0.46705380048502582 0 0.42053980660522761 0.45341513910658388 0 0.40575666434273311 0.45838443146516472 0 0.40973563488985532 0.47579104778557152 0 0.40575666434273311 0.45838443146516472 0 0.39457326129307041 0.46924519202038539 0 0.40575666434273311 0.45838443146516472 0 0.38748492612950952 0.44892285829301931 0 0.39457326129307041 0.46924519202038539 0 0.40575666434273311 0.45838443146516472 0 0.39942544658573009 0.43872588670818857 0 0.38748492612950952 0.44892285829301931 0 0.3889231515195431 0.43141286456833011 0 0.39942544658573009 0.43872588670818857 0 0.38748492612950952 0.44892285829301931 0 0.41215324011006321 0.44426916471351768 0 0.40575666434273311 0.45838443146516472 0 0.39942544658573009 0.43872588670818857 0 0.36980735363827261 0.46050290225189661 0 0.36959298495063608 0.43610817863788948 0 0.38748492612950952 0.44892285829301931 0 0.36959298495063608 0.43610817863788948 0 0.3889231515195431 0.43141286456833011 0 0.38748492612950952 0.44892285829301931 0 0.36980735363827261 0.46050290225189661 0 0.38748492612950952 0.44892285829301931 0 0.39457326129307041 0.46924519202038539 0 0.36980735363827261 0.46050290225189661 0 0.37801407526051067 0.48065415083330842 0 0.39457326129307041 0.46924519202038539 0 0.37801407526051067 0.48065415083330842 0 0.38797204790529932 0.5 0 0.40134209412993838 0.48520307466421098 0 0.41743852268843429 0.5 0 0.38797204790529932 0.5 0 0.40134209412993838 0.48520307466421098 0 0.40973563488985532 0.47579104778557152 0 0.40134209412993838 0.48520307466421098 0 0.39457326129307041 0.46924519202038539 0 0.37801407526051067 0.48065415083330842 0 0.40134209412993838 0.48520307466421098 0 0.39457326129307041 0.46924519202038539 0 0.33471388977496319 0.083869725553476451 0 0.32003772732572838 0.080925826065863432 0 0.34163206045391592 0.099703108374672819 0 0.32003772732572838 0.080925826065863432 0 0.34163206045391592 0.099703108374672819 0 0.33471388977496319 0.083869725553476451 0 0.34163206045391592 0.099703108374672819 0 0.35085433501378249 0.086695181415402722 0 0.33471388977496319 0.083869725553476451 0 0.34209731100959018 0.06531632876058778 0 0.3490795063897344 0.076610282135673974 0 0.33471388977496319 0.083869725553476451 0 0.34209731100959018 0.06531632876058778 0 0.32721969837032222 0.069259436753723466 0 0.33471388977496319 0.083869725553476451 0 0.32721969837032222 0.069259436753723466 0 0.32003772732572838 0.080925826065863432 0 0.31518448171420999 0.065085558788002928 0 0.32721969837032222 0.069259436753723466 0 0.32003772732572838 0.080925826065863432 0 0.32003772732572838 0.080925826065863432 0 0.31657863646219547 0.093324099257994786 0 0.34163206045391592 0.099703108374672819 0 0.32003772732572838 0.080925826065863432 0 0.31657863646219547 0.093324099257994786 0 0.30227411453462139 0.089652133027170247 0 0.33471388977496319 0.083869725553476451 0 0.32003772732572838 0.080925826065863432 0 0.31657863646219547 0.093324099257994786 0 0.32025759602694659 0.1047776340902011 0 0.34163206045391592 0.099703108374672819 0 0.31657863646219547 0.093324099257994786 0 0.32025759602694659 0.1047776340902011 0 0.30640852481201453 0.1024735992044304 0 0.32025759602694659 0.1047776340902011 0 0.31114536757858358 0.11742006929579971 0 0.30640852481201453 0.1024735992044304 0 0.32606950933900308 0.1158177097477945 0 0.31114536757858358 0.11742006929579971 0 0.3195478300457561 0.1332621056988223 0 0.32025759602694659 0.1047776340902011 0 0.32606950933900308 0.1158177097477945 0 0.31114536757858358 0.11742006929579971 0 0.33761965874988609 0.1186889285033586 0 0.34163206045391592 0.099703108374672819 0 0.34956654336434939 0.1234914401014125 0 0.32606950933900308 0.1158177097477945 0 0.33761965874988609 0.1186889285033586 0 0.34163206045391592 0.099703108374672819 0 0.32606950933900308 0.1158177097477945 0 0.33761965874988609 0.1186889285033586 0 0.33436770153514289 0.13112975471366969 0 0.33761965874988609 0.1186889285033586 0 0.34956654336434939 0.1234914401014125 0 0.33436770153514289 0.13112975471366969 0 0.32025759602694659 0.1047776340902011 0 0.32606950933900308 0.1158177097477945 0 0.34163206045391592 0.099703108374672819 0 0.34163206045391592 0.099703108374672819 0 0.35755874922647762 0.098360434014750309 0 0.36322639358210312 0.11848039068348271 0 0.34163206045391592 0.099703108374672819 0 0.36322639358210312 0.11848039068348271 0 0.34163206045391592 0.099703108374672819 0 0.35755874922647762 0.098360434014750309 0 0.35085433501378249 0.086695181415402722 0 0.34163206045391592 0.099703108374672819 0 0.34956654336434939 0.1234914401014125 0 0.36322639358210312 0.11848039068348271 0 0.36322639358210312 0.11848039068348271 0 0.37045299287494049 0.09679375479102828 0 0.38005682511468147 0.12140739343396729 0 0.35755874922647762 0.098360434014750309 0 0.36322639358210312 0.11848039068348271 0 0.37045299287494049 0.09679375479102828 0 0.35755874922647762 0.098360434014750309 0 0.37045299287494049 0.09679375479102828 0 0.35979627253246887 0.087956112087811941 0 0.37045299287494049 0.09679375479102828 0 0.36986657419494789 0.075759843690150083 0 0.37682589963749002 0.081332762740894418 0 0.37045299287494049 0.09679375479102828 0 0.35979627253246887 0.087956112087811941 0 0.36084916063519962 0.072180116148089279 0 0.37045299287494049 0.09679375479102828 0 0.36084916063519962 0.072180116148089279 0 0.36986657419494789 0.075759843690150083 0 0.37045299287494049 0.09679375479102828 0 0.36084916063519962 0.072180116148089279 0 0.35755874922647762 0.098360434014750309 0 0.35979627253246887 0.087956112087811941 0 0.35085433501378249 0.086695181415402722 0 0.35979627253246887 0.087956112087811941 0 0.35560274156159061 0.081403828627082772 0 0.36084916063519962 0.072180116148089279 0 0.33471388977496319 0.083869725553476451 0 0.35085433501378249 0.086695181415402722 0 0.3490795063897344 0.076610282135673974 0 0.35979627253246887 0.087956112087811941 0 0.35560274156159061 0.081403828627082772 0 0.35085433501378249 0.086695181415402722 0 0.35560274156159061 0.081403828627082772 0 0.35085433501378249 0.086695181415402722 0 0.3490795063897344 0.076610282135673974 0 0.34209731100959018 0.06531632876058778 0 0.3490795063897344 0.076610282135673974 0 0.36084916063519962 0.072180116148089279 0 0.36448270712015302 0.068442951443566186 0 0.36084916063519962 0.072180116148089279 0 0.35124532839545858 0.047566477505150237 0 0.35560274156159061 0.081403828627082772 0 0.3490795063897344 0.076610282135673974 0 0.36084916063519962 0.072180116148089279 0 0.36448270712015302 0.068442951443566186 0 0.36084916063519962 0.072180116148089279 0 0.36986657419494789 0.075759843690150083 0 0.36986657419494789 0.075759843690150083 0 0.37596532967213542 0.069868995675824025 0 0.37682589963749002 0.081332762740894418 0 0.36448270712015302 0.068442951443566186 0 0.36986657419494789 0.075759843690150083 0 0.37084641292541748 0.06878424193773866 0 0.36986657419494789 0.075759843690150083 0 0.37084641292541748 0.06878424193773866 0 0.37596532967213542 0.069868995675824025 0 0.36448270712015302 0.068442951443566186 0 0.37084641292541748 0.06878424193773866 0 0.37307104071443398 0.061065176941414383 0 0.37084641292541748 0.06878424193773866 0 0.37307104071443398 0.061065176941414383 0 0.37596532967213542 0.069868995675824025 0 0.36448270712015302 0.068442951443566186 0 0.37307104071443398 0.061065176941414383 0 0.37146335928247548 0.04052602251159599 0 0.36448270712015302 0.068442951443566186 0 0.37146335928247548 0.04052602251159599 0 0.35124532839545858 0.047566477505150237 0 0.36448270712015302 0.068442951443566186 0 0.37146335928247548 0.04052602251159599 0 0.37146335928247548 0.04052602251159599 0 0.35572529983931911 0.032753521421585163 0 0.36312657459820519 0.022962182453169309 0 0.37146335928247548 0.04052602251159599 0 0.35572529983931911 0.032753521421585163 0 0.35124532839545858 0.047566477505150237 0 0.35572529983931911 0.032753521421585163 0 0.35124532839545858 0.047566477505150237 0 0.3321968515854315 0.028027004478648001 0 0.36084916063519962 0.072180116148089279 0 0.35124532839545858 0.047566477505150237 0 0.34209731100959018 0.06531632876058778 0 0.36084916063519962 0.072180116148089279 0 0.35124532839545858 0.047566477505150237 0 0.36312657459820519 0.022962182453169309 0 0.35936362748920009 0.0091271431172253586 0 0.37844401144479839 0.012609093579625891 0 0.35936362748920009 0.0091271431172253586 0 0.37844401144479839 0.012609093579625891 0 0.36665723294200347 -0.001883505129568449 0 0.35936362748920009 0.0091271431172253586 0 0.36665723294200347 -0.001883505129568449 0 0.35531676971978082 -0.0033532784323768001 0 0.37146335928247548 0.04052602251159599 0 0.36312657459820519 0.022962182453169309 0 0.37844401144479839 0.012609093579625891 0 0.37146335928247548 0.04052602251159599 0 0.37844401144479839 0.012609093579625891 0 0.35572529983931911 0.032753521421585163 0 0.35063657493523293 0.0197951316358141 0 0.3321968515854315 0.028027004478648001 0 0.35572529983931911 0.032753521421585163 0 0.36312657459820519 0.022962182453169309 0 0.35063657493523293 0.0197951316358141 0 0.36312657459820519 0.022962182453169309 0 0.35063657493523293 0.0197951316358141 0 0.35936362748920009 0.0091271431172253586 0 0.35936362748920009 0.0091271431172253586 0 0.33689267375143878 0.0039255003288513873 0 0.35531676971978082 -0.0033532784323768001 0 0.35063657493523293 0.0197951316358141 0 0.35936362748920009 0.0091271431172253586 0 0.33689267375143878 0.0039255003288513873 0 0.33689267375143878 0.0039255003288513873 0 0.3321968515854315 0.028027004478648001 0 0.30352242257352219 0.0039185454548519476 0 0.35063657493523293 0.0197951316358141 0 0.33689267375143878 0.0039255003288513873 0 0.3321968515854315 0.028027004478648001 0 0.3321968515854315 0.028027004478648001 0 0.32406508202711942 0.05109974460068676 0 0.30086563814790429 0.035038583275740692 0 0.34209731100959018 0.06531632876058778 0 0.32721969837032222 0.069259436753723466 0 0.32406508202711942 0.05109974460068676 0 0.34209731100959018 0.06531632876058778 0 0.35124532839545858 0.047566477505150237 0 0.32406508202711942 0.05109974460068676 0 0.35124532839545858 0.047566477505150237 0 0.3321968515854315 0.028027004478648001 0 0.32406508202711942 0.05109974460068676 0 0.31518448171420999 0.065085558788002928 0 0.32721969837032222 0.069259436753723466 0 0.32406508202711942 0.05109974460068676 0 0.31518448171420999 0.065085558788002928 0 0.32406508202711942 0.05109974460068676 0 0.29882370077581188 0.062479238108283437 0 0.32406508202711942 0.05109974460068676 0 0.29882370077581188 0.062479238108283437 0 0.30086563814790429 0.035038583275740692 0 0.32406508202711942 0.05109974460068676 0 0.30086563814790429 0.035038583275740692 0 0.30086563814790429 0.035038583275740692 0 0.28350496565293731 0.043820562147367653 0 0.27766619426868899 0.018977421950794569 0 0.29882370077581188 0.062479238108283437 0 0.30086563814790429 0.035038583275740692 0 0.28350496565293731 0.043820562147367653 0 0.29882370077581188 0.062479238108283437 0 0.28350496565293731 0.043820562147367653 0 0.28339325744793759 0.061338593161917712 0 0.3321968515854315 0.028027004478648001 0 0.30086563814790429 0.035038583275740692 0 0.30352242257352219 0.0039185454548519476 0 0.30086563814790429 0.035038583275740692 0 0.27766619426868899 0.018977421950794569 0 0.30086563814790429 0.035038583275740692 0 0.30352242257352219 0.0039185454548519476 0 0.27766619426868899 0.018977421950794569 0 0.30352242257352219 0.0039185454548519476 0 0.27766619426868899 0.018977421950794569 0 0.27708695819087842 -0.0025378708656911609 0 0.27766619426868899 0.018977421950794569 0 0.25446675038947358 0.0029162606258486688 0 0.27766619426868899 0.018977421950794569 0 0.26047117107291767 -0.0019720443344692288 0 0.27708695819087842 -0.0025378708656911609 0 0.27766619426868899 0.018977421950794569 0 0.2600935707136679 0.019574361616358959 0 0.26464981823601458 0.038183209123269009 0 0.2600935707136679 0.019574361616358959 0 0.26464981823601458 0.038183209123269009 0 0.25044211127373811 0.032849993626191502 0 0.27766619426868899 0.018977421950794569 0 0.2600935707136679 0.019574361616358959 0 0.25446675038947358 0.0029162606258486688 0 0.27766619426868899 0.018977421950794569 0 0.25446675038947358 0.0029162606258486688 0 0.26047117107291767 -0.0019720443344692288 0 0.25446675038947358 0.0029162606258486688 0 0.26047117107291767 -0.0019720443344692288 0 0.28339325744793759 0.061338593161917712 0 0.2699795556074106 0.054659435659755229 0 0.26514968559830832 0.069915803624621298 0 0.28350496565293731 0.043820562147367653 0 0.28339325744793759 0.061338593161917712 0 0.2699795556074106 0.054659435659755229 0 0.28350496565293731 0.043820562147367653 0 0.27766619426868899 0.018977421950794569 0 0.26464981823601458 0.038183209123269009 0 0.28350496565293731 0.043820562147367653 0 0.2699795556074106 0.054659435659755229 0 0.26464981823601458 0.038183209123269009 0 0.26464981823601458 0.038183209123269009 0 0.25174039047255609 0.044464402284776217 0 0.2585751734657834 0.052327775232976027 0 0.26464981823601458 0.038183209123269009 0 0.25044211127373811 0.032849993626191502 0 0.25174039047255609 0.044464402284776217 0 0.25174039047255609 0.044464402284776217 0 0.25102243244437311 0.053297338652025752 0 0.2585751734657834 0.052327775232976027 0 0.2699795556074106 0.054659435659755229 0 0.26464981823601458 0.038183209123269009 0 0.2585751734657834 0.052327775232976027 0 0.2699795556074106 0.054659435659755229 0 0.2585751734657834 0.052327775232976027 0 0.26000268679747079 0.061003988239662958 0 0.2699795556074106 0.054659435659755229 0 0.26000268679747079 0.061003988239662958 0 0.26514968559830832 0.069915803624621298 0 0.2585751734657834 0.052327775232976027 0 0.26000268679747079 0.061003988239662958 0 0.2530174900015254 0.0600809219264858 0 0.25102243244437311 0.053297338652025752 0 0.2585751734657834 0.052327775232976027 0 0.2530174900015254 0.0600809219264858 0 0.24751669685985911 0.059618880130872708 0 0.25102243244437311 0.053297338652025752 0 0.2530174900015254 0.0600809219264858 0 0.24853219730195361 0.063845178725116872 0 0.2530174900015254 0.0600809219264858 0 0.25274476311700622 0.067427493409812952 0 0.2530174900015254 0.0600809219264858 0 0.25274476311700622 0.067427493409812952 0 0.26000268679747079 0.061003988239662958 0 0.2530174900015254 0.0600809219264858 0 0.25274476311700622 0.067427493409812952 0 0.25274476311700622 0.067427493409812952 0 0.25243039498113262 0.075895774732197205 0 0.24842415088314279 0.069033451464499671 0 0.25274476311700622 0.067427493409812952 0 0.25243039498113262 0.075895774732197205 0 0.25274476311700622 0.067427493409812952 0 0.25243039498113262 0.075895774732197205 0 0.26514968559830832 0.069915803624621298 0 0.25243039498113262 0.075895774732197205 0 0.26514968559830832 0.069915803624621298 0 0.26417250328098718 0.085299079350852347 0 0.25243039498113262 0.075895774732197205 0 0.26514968559830832 0.069915803624621298 0 0.26000268679747079 0.061003988239662958 0 0.25274476311700622 0.067427493409812952 0 0.26514968559830832 0.069915803624621298 0 0.25274476311700622 0.067427493409812952 0 0.26514968559830832 0.069915803624621298 0 0.25243039498113262 0.075895774732197205 0 0.26417250328098718 0.085299079350852347 0 0.25158482098595109 0.098673396421397969 0 0.25243039498113262 0.075895774732197205 0 0.25158482098595109 0.098673396421397969 0 0.26417250328098718 0.085299079350852347 0 0.27563544099652842 0.091217529053328833 0 0.26597619666038957 0.098681263799979324 0 0.26417250328098718 0.085299079350852347 0 0.27658940398852799 0.081360569412953818 0 0.27563544099652842 0.091217529053328833 0 0.26514968559830832 0.069915803624621298 0 0.26417250328098718 0.085299079350852347 0 0.27658940398852799 0.081360569412953818 0 0.27658940398852799 0.081360569412953818 0 0.27563544099652842 0.091217529053328833 0 0.28742128170162778 0.087331448045782731 0 0.28339325744793759 0.061338593161917712 0 0.26514968559830832 0.069915803624621298 0 0.29259370646201821 0.075420814845242989 0 0.26514968559830832 0.069915803624621298 0 0.27658940398852799 0.081360569412953818 0 0.29259370646201821 0.075420814845242989 0 0.28339325744793759 0.061338593161917712 0 0.26514968559830832 0.069915803624621298 0 0.26514968559830832 0.069915803624621298 0 0.29259370646201821 0.075420814845242989 0 0.29882370077581188 0.062479238108283437 0 0.28339325744793759 0.061338593161917712 0 0.29259370646201821 0.075420814845242989 0 0.27658940398852799 0.081360569412953818 0 0.29259370646201821 0.075420814845242989 0 0.28742128170162778 0.087331448045782731 0 0.27563544099652842 0.091217529053328833 0 0.28742128170162778 0.087331448045782731 0 0.29001374252644291 0.099006193890217781 0 0.28742128170162778 0.087331448045782731 0 0.30227411453462139 0.089652133027170247 0 0.29001374252644291 0.099006193890217781 0 0.29259370646201821 0.075420814845242989 0 0.28742128170162778 0.087331448045782731 0 0.30227411453462139 0.089652133027170247 0 0.32003772732572838 0.080925826065863432 0 0.29259370646201821 0.075420814845242989 0 0.30227411453462139 0.089652133027170247 0 0.32003772732572838 0.080925826065863432 0 0.29259370646201821 0.075420814845242989 0 0.32003772732572838 0.080925826065863432 0 0.29882370077581188 0.062479238108283437 0 0.29259370646201821 0.075420814845242989 0 0.32003772732572838 0.080925826065863432 0 0.29882370077581188 0.062479238108283437 0 0.31518448171420999 0.065085558788002928 0 0.32003772732572838 0.080925826065863432 0 0.29882370077581188 0.062479238108283437 0 0.29818169174329712 0.11066146566519899 0 0.31114536757858358 0.11742006929579971 0 0.294250496481684 0.12267566802032639 0 0.31114536757858358 0.11742006929579971 0 0.294250496481684 0.12267566802032639 0 0.30313841955192899 0.13260249050964579 0 0.29818169174329712 0.11066146566519899 0 0.31114536757858358 0.11742006929579971 0 0.30640852481201453 0.1024735992044304 0 0.30227411453462139 0.089652133027170247 0 0.30640852481201453 0.1024735992044304 0 0.29001374252644291 0.099006193890217781 0 0.29818169174329712 0.11066146566519899 0 0.30640852481201453 0.1024735992044304 0 0.29001374252644291 0.099006193890217781 0 0.31657863646219547 0.093324099257994786 0 0.30227411453462139 0.089652133027170247 0 0.30640852481201453 0.1024735992044304 0 0.29818169174329712 0.11066146566519899 0 0.29001374252644291 0.099006193890217781 0 0.28729541733308872 0.1128284558108848 0 0.29001374252644291 0.099006193890217781 0 0.28729541733308872 0.1128284558108848 0 0.27577858748266387 0.1072301355245756 0 0.29818169174329712 0.11066146566519899 0 0.28729541733308872 0.1128284558108848 0 0.294250496481684 0.12267566802032639 0 0.28729541733308872 0.1128284558108848 0 0.294250496481684 0.12267566802032639 0 0.28067449336876182 0.1220521091494646 0 0.28067449336876182 0.1220521091494646 0 0.26956705708048567 0.1198361090660386 0 0.27577858748266387 0.1072301355245756 0 0.28729541733308872 0.1128284558108848 0 0.28067449336876182 0.1220521091494646 0 0.27577858748266387 0.1072301355245756 0 0.26956705708048567 0.1198361090660386 0 0.27577858748266387 0.1072301355245756 0 0.26270963055581759 0.11098617864974181 0 0.27563544099652842 0.091217529053328833 0 0.27577858748266387 0.1072301355245756 0 0.26597619666038957 0.098681263799979324 0 0.27563544099652842 0.091217529053328833 0 0.29001374252644291 0.099006193890217781 0 0.27577858748266387 0.1072301355245756 0 0.27577858748266387 0.1072301355245756 0 0.26597619666038957 0.098681263799979324 0 0.26270963055581759 0.11098617864974181 0 0.25158482098595109 0.098673396421397969 0 0.25094552198087999 0.11589449234768209 0 0.25158482098595109 0.098673396421397969 0 0.26270963055581759 0.11098617864974181 0 0.25094552198087999 0.11589449234768209 0 0.26417250328098718 0.085299079350852347 0 0.26597619666038957 0.098681263799979324 0 0.25158482098595109 0.098673396421397969 0 0.26597619666038957 0.098681263799979324 0 0.25158482098595109 0.098673396421397969 0 0.26270963055581759 0.11098617864974181 0 0.25158482098595109 0.098673396421397969 0 0.26270963055581759 0.11098617864974181 0 0.25094552198087999 0.11589449234768209 0 0.25030622297580962 0.13311558827396619 0 0.26022612795132161 0.12333036834530881 0 0.25094552198087999 0.11589449234768209 0 0.25030622297580962 0.13311558827396619 0 0.26956705708048567 0.1198361090660386 0 0.26022612795132161 0.12333036834530881 0 0.26270963055581759 0.11098617864974181 0 0.26022612795132161 0.12333036834530881 0 0.26270963055581759 0.11098617864974181 0 0.25094552198087999 0.11589449234768209 0 0.26956705708048567 0.1198361090660386 0 0.26022612795132161 0.12333036834530881 0 0.26675796828336718 0.1380571931171293 0 0.26022612795132161 0.12333036834530881 0 0.25030622297580962 0.13311558827396619 0 0.26675796828336718 0.1380571931171293 0 0.25030622297580962 0.13311558827396619 0 0.26675796828336718 0.1380571931171293 0 0.25030622297580962 0.13311558827396619 0 0.26675796828336718 0.1380571931171293 0 0.25638724149227848 0.14295410589973731 0 0.25004344172447263 0.14019424959050239 0 0.25030622297580962 0.13311558827396619 0 0.25638724149227848 0.14295410589973731 0 0.25004344172447263 0.14019424959050239 0 0.25030622297580962 0.13311558827396619 0 0.26675796828336718 0.1380571931171293 0 0.28320971359092417 0.1429987979602943 0 0.26675796828336718 0.1380571931171293 0 0.28666270206708028 0.1324408374186071 0 0.28320971359092417 0.1429987979602943 0 0.28067449336876182 0.1220521091494646 0 0.26956705708048567 0.1198361090660386 0 0.26675796828336718 0.1380571931171293 0 0.28067449336876182 0.1220521091494646 0 0.26675796828336718 0.1380571931171293 0 0.28666270206708028 0.1324408374186071 0 0.26675796828336718 0.1380571931171293 0 0.27436529468354132 0.15433220537778311 0 0.26010861073109098 0.15248373785575309 0 0.26675796828336718 0.1380571931171293 0 0.27436529468354132 0.15433220537778311 0 0.28320971359092417 0.1429987979602943 0 0.26675796828336718 0.1380571931171293 0 0.26010861073109098 0.15248373785575309 0 0.25638724149227848 0.14295410589973731 0 0.2496536413094039 0.15044712256699261 0 0.25004344172447263 0.14019424959050239 0 0.25638724149227848 0.14295410589973731 0 0.24653130607993951 0.16237692388552691 0 0.2496536413094039 0.15044712256699261 0 0.26010861073109098 0.15248373785575309 0 0.2496536413094039 0.15044712256699261 0 0.26010861073109098 0.15248373785575309 0 0.25638724149227848 0.14295410589973731 0 0.24653130607993951 0.16237692388552691 0 0.25292738168467233 0.17649485219682931 0 0.26638423851283249 0.16867758561061549 0 0.24653130607993951 0.16237692388552691 0 0.26010861073109098 0.15248373785575309 0 0.26638423851283249 0.16867758561061549 0 0.24528107816237801 0.1907036486386274 0 0.25292738168467233 0.17649485219682931 0 0.26633433714882182 0.18577592949096661 0 0.25292738168467233 0.17649485219682931 0 0.26633433714882182 0.18577592949096661 0 0.26638423851283249 0.16867758561061549 0 0.27723266788850742 0.181048228772968 0 0.26638423851283249 0.16867758561061549 0 0.28391425324491287 0.17071999404263091 0 0.26633433714882182 0.18577592949096661 0 0.27723266788850742 0.181048228772968 0 0.26638423851283249 0.16867758561061549 0 0.27436529468354132 0.15433220537778311 0 0.26010861073109098 0.15248373785575309 0 0.26638423851283249 0.16867758561061549 0 0.27436529468354132 0.15433220537778311 0 0.26638423851283249 0.16867758561061549 0 0.28391425324491287 0.17071999404263091 0 0.27436529468354132 0.15433220537778311 0 0.28391425324491287 0.17071999404263091 0 0.29097703849613438 0.15773848939083679 0 0.28391425324491287 0.17071999404263091 0 0.2931647794093819 0.16879209887591959 0 0.29097703849613438 0.15773848939083679 0 0.2931647794093819 0.16879209887591959 0 0.29097703849613438 0.15773848939083679 0 0.30040947706207388 0.16512632217721829 0 0.28391425324491287 0.17071999404263091 0 0.28743664533084129 0.187357279865842 0 0.29743995151898561 0.17866098634217961 0 0.27723266788850742 0.181048228772968 0 0.28391425324491287 0.17071999404263091 0 0.28743664533084129 0.187357279865842 0 0.28391425324491287 0.17071999404263091 0 0.2931647794093819 0.16879209887591959 0 0.29743995151898561 0.17866098634217961 0 0.28743664533084129 0.187357279865842 0 0.29743995151898561 0.17866098634217961 0 0.29971043857951379 0.19298806906372529 0 0.29743995151898561 0.17866098634217961 0 0.30929675685570829 0.1858318568065235 0 0.29971043857951379 0.19298806906372529 0 0.29743995151898561 0.17866098634217961 0 0.3101655001798202 0.17563615506282959 0 0.30040947706207388 0.16512632217721829 0 0.29743995151898561 0.17866098634217961 0 0.3101655001798202 0.17563615506282959 0 0.30929675685570829 0.1858318568065235 0 0.30040947706207388 0.16512632217721829 0 0.30453528129870422 0.15487579661148021 0 0.32848741365188411 0.1727716232507491 0 0.29097703849613438 0.15773848939083679 0 0.30040947706207388 0.16512632217721829 0 0.30453528129870422 0.15487579661148021 0 0.2931647794093819 0.16879209887591959 0 0.29743995151898561 0.17866098634217961 0 0.30040947706207388 0.16512632217721829 0 0.29097703849613438 0.15773848939083679 0 0.30453528129870422 0.15487579661148021 0 0.29618567382365713 0.14404403195872001 0 0.30453528129870422 0.15487579661148021 0 0.30873747279203018 0.14281046260302349 0 0.29618567382365713 0.14404403195872001 0 0.30453528129870422 0.15487579661148021 0 0.30873747279203018 0.14281046260302349 0 0.32007589174333823 0.14676000458717811 0 0.30873747279203018 0.14281046260302349 0 0.30313841955192899 0.13260249050964579 0 0.3195478300457561 0.1332621056988223 0 0.31114536757858358 0.11742006929579971 0 0.30313841955192899 0.13260249050964579 0 0.3195478300457561 0.1332621056988223 0 0.30873747279203018 0.14281046260302349 0 0.30313841955192899 0.13260249050964579 0 0.29618567382365713 0.14404403195872001 0 0.294250496481684 0.12267566802032639 0 0.30313841955192899 0.13260249050964579 0 0.28666270206708028 0.1324408374186071 0 0.30313841955192899 0.13260249050964579 0 0.28666270206708028 0.1324408374186071 0 0.29618567382365713 0.14404403195872001 0 0.294250496481684 0.12267566802032639 0 0.28067449336876182 0.1220521091494646 0 0.28666270206708028 0.1324408374186071 0 0.28666270206708028 0.1324408374186071 0 0.28320971359092417 0.1429987979602943 0 0.29618567382365713 0.14404403195872001 0 0.27436529468354132 0.15433220537778311 0 0.29097703849613438 0.15773848939083679 0 0.28320971359092417 0.1429987979602943 0 0.29097703849613438 0.15773848939083679 0 0.28320971359092417 0.1429987979602943 0 0.29618567382365713 0.14404403195872001 0 0.28119448123381058 0.25405304303149878 0 0.26221447651104962 0.2479993693513689 0 0.28440499104296979 0.23439140090611099 0 0.26221447651104962 0.2479993693513689 0 0.26853130556434218 0.23400660741274959 0 0.28440499104296979 0.23439140090611099 0 0.26221447651104962 0.2479993693513689 0 0.28440499104296979 0.23439140090611099 0 0.2457442494512444 0.24022391879071339 0 0.26221447651104962 0.2479993693513689 0 0.25511338863332461 0.22468137717712711 0 0.26221447651104962 0.2479993693513689 0 0.25511338863332461 0.22468137717712711 0 0.26853130556434218 0.23400660741274959 0 0.26221447651104962 0.2479993693513689 0 0.25511338863332461 0.22468137717712711 0 0.25511338863332461 0.22468137717712711 0 0.25242827713160498 0.21540237912569379 0 0.25511338863332461 0.22468137717712711 0 0.2794126892910288 0.21617120911671081 0 0.25511338863332461 0.22468137717712711 0 0.26853130556434218 0.23400660741274959 0 0.2794126892910288 0.21617120911671081 0 0.26853130556434218 0.23400660741274959 0 0.2794126892910288 0.21617120911671081 0 0.28440499104296979 0.23439140090611099 0 0.25511338863332461 0.22468137717712711 0 0.2794126892910288 0.21617120911671081 0 0.26644318031571418 0.20408753099865831 0 0.2794126892910288 0.21617120911671081 0 0.26644318031571418 0.20408753099865831 0 0.27722953884408802 0.19656269719262509 0 0.24528107816237801 0.1907036486386274 0 0.26644318031571418 0.20408753099865831 0 0.25242827713160498 0.21540237912569379 0 0.25511338863332461 0.22468137717712711 0 0.26644318031571418 0.20408753099865831 0 0.25242827713160498 0.21540237912569379 0 0.26644318031571418 0.20408753099865831 0 0.25242827713160498 0.21540237912569379 0 0.24528107816237801 0.1907036486386274 0 0.26633433714882182 0.18577592949096661 0 0.26644318031571418 0.20408753099865831 0 0.26633433714882182 0.18577592949096661 0 0.26644318031571418 0.20408753099865831 0 0.27722953884408802 0.19656269719262509 0 0.27723266788850742 0.181048228772968 0 0.28743664533084129 0.187357279865842 0 0.27722953884408802 0.19656269719262509 0 0.26633433714882182 0.18577592949096661 0 0.27723266788850742 0.181048228772968 0 0.27722953884408802 0.19656269719262509 0 0.28743664533084129 0.187357279865842 0 0.27722953884408802 0.19656269719262509 0 0.28939512316467059 0.2005252056429343 0 0.28743664533084129 0.187357279865842 0 0.28939512316467059 0.2005252056429343 0 0.29971043857951379 0.19298806906372529 0 0.30929675685570829 0.1858318568065235 0 0.29971043857951379 0.19298806906372529 0 0.31162694501442678 0.19735313208654229 0 0.29971043857951379 0.19298806906372529 0 0.31162694501442678 0.19735313208654229 0 0.30371198994873311 0.20766104105629449 0 0.28939512316467059 0.2005252056429343 0 0.29971043857951379 0.19298806906372529 0 0.30371198994873311 0.20766104105629449 0 0.2794126892910288 0.21617120911671081 0 0.30371198994873311 0.20766104105629449 0 0.2794126892910288 0.21617120911671081 0 0.30371198994873311 0.20766104105629449 0 0.30659550557489001 0.220783432460853 0 0.2794126892910288 0.21617120911671081 0 0.27722953884408802 0.19656269719262509 0 0.28939512316467059 0.2005252056429343 0 0.2794126892910288 0.21617120911671081 0 0.28939512316467059 0.2005252056429343 0 0.30371198994873311 0.20766104105629449 0 0.30659550557489001 0.220783432460853 0 0.28440499104296979 0.23439140090611099 0 0.2794126892910288 0.21617120911671081 0 0.30659550557489001 0.220783432460853 0 0.28440499104296979 0.23439140090611099 0 0.30659550557489001 0.220783432460853 0 0.30328699804120918 0.24394477185791469 0 0.28440499104296979 0.23439140090611099 0 0.30659550557489001 0.220783432460853 0 0.30328699804120918 0.24394477185791469 0 0.31607427666693672 0.2331905299380852 0 0.28119448123381058 0.25405304303149878 0 0.30328699804120918 0.24394477185791469 0 0.28440499104296979 0.23439140090611099 0 0.3433555784436142 0.25004320974280247 0 0.34183468199228573 0.23727684870966961 0 0.33092809789354199 0.24744869965648561 0 0.34183468199228573 0.23727684870966961 0 0.3288410404878227 0.2348757256337824 0 0.33092809789354199 0.24744869965648561 0 0.3288410404878227 0.2348757256337824 0 0.33092809789354199 0.24744869965648561 0 0.31845456220733243 0.24449663650262579 0 0.31879452400631653 0.25919465198291952 0 0.30328699804120918 0.24394477185791469 0 0.31845456220733243 0.24449663650262579 0 0.30328699804120918 0.24394477185791469 0 0.31845456220733243 0.24449663650262579 0 0.31607427666693672 0.2331905299380852 0 0.3288410404878227 0.2348757256337824 0 0.31845456220733243 0.24449663650262579 0 0.31607427666693672 0.2331905299380852 0 0.3288410404878227 0.2348757256337824 0 0.31607427666693672 0.2331905299380852 0 0.32372534117020862 0.22390137225637691 0 0.30659550557489001 0.220783432460853 0 0.31607427666693672 0.2331905299380852 0 0.32372534117020862 0.22390137225637691 0 0.3288410404878227 0.2348757256337824 0 0.32372534117020862 0.22390137225637691 0 0.33832986301458301 0.22348170923356889 0 0.34183468199228573 0.23727684870966961 0 0.3288410404878227 0.2348757256337824 0 0.33832986301458301 0.22348170923356889 0 0.32372534117020862 0.22390137225637691 0 0.33832986301458301 0.22348170923356889 0 0.32878602010681029 0.20717546401559489 0 0.33832986301458301 0.22348170923356889 0 0.32878602010681029 0.20717546401559489 0 0.35089693608391498 0.21212819010674691 0 0.32878602010681029 0.20717546401559489 0 0.35097653463873058 0.19356749557033681 0 0.35089693608391498 0.21212819010674691 0 0.30659550557489001 0.220783432460853 0 0.32372534117020862 0.22390137225637691 0 0.32878602010681029 0.20717546401559489 0 0.31162694501442678 0.19735313208654229 0 0.30371198994873311 0.20766104105629449 0 0.32878602010681029 0.20717546401559489 0 0.30371198994873311 0.20766104105629449 0 0.30659550557489001 0.220783432460853 0 0.32878602010681029 0.20717546401559489 0 0.30659550557489001 0.220783432460853 0 0.32878602010681029 0.20717546401559489 0 0.32878602010681029 0.20717546401559489 0 0.31972446529152482 0.19052244909679969 0 0.3336272658304279 0.18895925974375941 0 0.31162694501442678 0.19735313208654229 0 0.32878602010681029 0.20717546401559489 0 0.31972446529152482 0.19052244909679969 0 0.30929675685570829 0.1858318568065235 0 0.31162694501442678 0.19735313208654229 0 0.31972446529152482 0.19052244909679969 0 0.32878602010681029 0.20717546401559489 0 0.3336272658304279 0.18895925974375941 0 0.35097653463873058 0.19356749557033681 0 0.32878602010681029 0.20717546401559489 0 0.35097653463873058 0.19356749557033681 0 0.3336272658304279 0.18895925974375941 0 0.35097653463873058 0.19356749557033681 0 0.35656535024169428 0.1804169243242798 0 0.35097653463873058 0.19356749557033681 0 0.35896651107905142 0.20360726904620211 0 0.35089693608391498 0.21212819010674691 0 0.35097653463873058 0.19356749557033681 0 0.36405518175537521 0.19484170215684679 0 0.35896651107905142 0.20360726904620211 0 0.35097653463873058 0.19356749557033681 0 0.36405518175537521 0.19484170215684679 0 0.35656535024169428 0.1804169243242798 0 0.36405518175537521 0.19484170215684679 0 0.35656535024169428 0.1804169243242798 0 0.38464328683150451 0.18806222539781059 0 0.36405518175537521 0.19484170215684679 0 0.36923798170140371 0.20928007436804161 0 0.38464328683150451 0.18806222539781059 0 0.36405518175537521 0.19484170215684679 0 0.36923798170140371 0.20928007436804161 0 0.35896651107905142 0.20360726904620211 0 0.36923798170140371 0.20928007436804161 0 0.36132702422268731 0.21787493872225441 0 0.35896651107905142 0.20360726904620211 0 0.36923798170140371 0.20928007436804161 0 0.36132702422268731 0.21787493872225441 0 0.37292139258550783 0.22672254500020811 0 0.36132702422268731 0.21787493872225441 0 0.35896651107905142 0.20360726904620211 0 0.35089693608391498 0.21212819010674691 0 0.34183468199228573 0.23727684870966961 0 0.33832986301458301 0.22348170923356889 0 0.35524969613090918 0.22837961108452459 0 0.36132702422268731 0.21787493872225441 0 0.35089693608391498 0.21212819010674691 0 0.35524969613090918 0.22837961108452459 0 0.33832986301458301 0.22348170923356889 0 0.35089693608391498 0.21212819010674691 0 0.35524969613090918 0.22837961108452459 0 0.36132702422268731 0.21787493872225441 0 0.35524969613090918 0.22837961108452459 0 0.37292139258550783 0.22672254500020811 0 0.35524969613090918 0.22837961108452459 0 0.37292139258550783 0.22672254500020811 0 0.36587213359177301 0.2378375665458646 0 0.37292139258550783 0.22672254500020811 0 0.36587213359177301 0.2378375665458646 0 0.3757768555661396 0.240133652284411 0 0.36587213359177301 0.2378375665458646 0 0.37169426656027921 0.24972740256563611 0 0.3757768555661396 0.240133652284411 0 0.36587213359177301 0.2378375665458646 0 0.37169426656027921 0.24972740256563611 0 0.36205361842742478 0.24882498742118489 0 0.36587213359177301 0.2378375665458646 0 0.36205361842742478 0.24882498742118489 0 0.35356337405553911 0.24205426642971811 0 0.35175757775775729 0.2532797976346674 0 0.36205361842742478 0.24882498742118489 0 0.35356337405553911 0.24205426642971811 0 0.35524969613090918 0.22837961108452459 0 0.36587213359177301 0.2378375665458646 0 0.35356337405553911 0.24205426642971811 0 0.34183468199228573 0.23727684870966961 0 0.35524969613090918 0.22837961108452459 0 0.35356337405553911 0.24205426642971811 0 0.3433555784436142 0.25004320974280247 0 0.34183468199228573 0.23727684870966961 0 0.35356337405553911 0.24205426642971811 0 0.3433555784436142 0.25004320974280247 0 0.35175757775775729 0.2532797976346674 0 0.35356337405553911 0.24205426642971811 0 0.33379856680907583 0.1437068241164389 0 0.32007589174333823 0.14676000458717811 0 0.33365817402274128 0.15789089208148979 0 0.33379856680907583 0.1437068241164389 0 0.33365817402274128 0.15789089208148979 0 0.34780073530519279 0.14835628742565241 0 0.33379856680907583 0.1437068241164389 0 0.34780073530519279 0.14835628742565241 0 0.34586764947947463 0.1362539899128139 0 0.33379856680907583 0.1437068241164389 0 0.33436770153514289 0.13112975471366969 0 0.34586764947947463 0.1362539899128139 0 0.34956654336434939 0.1234914401014125 0 0.33436770153514289 0.13112975471366969 0 0.34586764947947463 0.1362539899128139 0 0.33379856680907583 0.1437068241164389 0 0.33436770153514289 0.13112975471366969 0 0.3195478300457561 0.1332621056988223 0 0.32606950933900308 0.1158177097477945 0 0.33436770153514289 0.13112975471366969 0 0.3195478300457561 0.1332621056988223 0 0.30873747279203018 0.14281046260302349 0 0.3195478300457561 0.1332621056988223 0 0.32007589174333823 0.14676000458717811 0 0.30453528129870422 0.15487579661148021 0 0.32007589174333823 0.14676000458717811 0 0.33365817402274128 0.15789089208148979 0 0.33379856680907583 0.1437068241164389 0 0.3195478300457561 0.1332621056988223 0 0.32007589174333823 0.14676000458717811 0 0.30453528129870422 0.15487579661148021 0 0.33365817402274128 0.15789089208148979 0 0.30453528129870422 0.15487579661148021 0 0.32848741365188411 0.1727716232507491 0 0.33365817402274128 0.15789089208148979 0 0.30040947706207388 0.16512632217721829 0 0.32848741365188411 0.1727716232507491 0 0.3101655001798202 0.17563615506282959 0 0.30040947706207388 0.16512632217721829 0 0.32848741365188411 0.1727716232507491 0 0.3101655001798202 0.17563615506282959 0 0.31983557186529732 0.18171103000860481 0 0.32848741365188411 0.1727716232507491 0 0.3336272658304279 0.18895925974375941 0 0.31983557186529732 0.18171103000860481 0 0.32848741365188411 0.1727716232507491 0 0.3101655001798202 0.17563615506282959 0 0.30929675685570829 0.1858318568065235 0 0.31983557186529732 0.18171103000860481 0 0.30929675685570829 0.1858318568065235 0 0.31972446529152482 0.19052244909679969 0 0.31983557186529732 0.18171103000860481 0 0.31972446529152482 0.19052244909679969 0 0.3336272658304279 0.18895925974375941 0 0.31983557186529732 0.18171103000860481 0 0.32848741365188411 0.1727716232507491 0 0.34507730906385942 0.16855187839241309 0 0.35656535024169428 0.1804169243242798 0 0.3336272658304279 0.18895925974375941 0 0.32848741365188411 0.1727716232507491 0 0.35656535024169428 0.1804169243242798 0 0.32848741365188411 0.1727716232507491 0 0.35656535024169428 0.1804169243242798 0 0.32848741365188411 0.1727716232507491 0 0.33365817402274128 0.15789089208148979 0 0.34507730906385942 0.16855187839241309 0 0.33365817402274128 0.15789089208148979 0 0.34507730906385942 0.16855187839241309 0 0.36278106674677829 0.1609059875514994 0 0.34507730906385942 0.16855187839241309 0 0.35656535024169428 0.1804169243242798 0 0.36278106674677829 0.1609059875514994 0 0.33365817402274128 0.15789089208148979 0 0.36278106674677829 0.1609059875514994 0 0.35656535024169428 0.1804169243242798 0 0.37356219856206202 0.1741215612114578 0 0.38464328683150451 0.18806222539781059 0 0.35656535024169428 0.1804169243242798 0 0.38464328683150451 0.18806222539781059 0 0.35656535024169428 0.1804169243242798 0 0.37356219856206202 0.1741215612114578 0 0.36278106674677829 0.1609059875514994 0 0.36278106674677829 0.1609059875514994 0 0.36531512046589693 0.1378839500987098 0 0.37680076681991098 0.15092733218095339 0 0.36278106674677829 0.1609059875514994 0 0.34780073530519279 0.14835628742565241 0 0.36531512046589693 0.1378839500987098 0 0.34780073530519279 0.14835628742565241 0 0.34586764947947463 0.1362539899128139 0 0.36531512046589693 0.1378839500987098 0 0.33365817402274128 0.15789089208148979 0 0.36278106674677829 0.1609059875514994 0 0.34780073530519279 0.14835628742565241 0 0.34956654336434939 0.1234914401014125 0 0.34586764947947463 0.1362539899128139 0 0.36531512046589693 0.1378839500987098 0 0.34956654336434939 0.1234914401014125 0 0.36322639358210312 0.11848039068348271 0 0.36531512046589693 0.1378839500987098 0 0.36322639358210312 0.11848039068348271 0 0.36531512046589693 0.1378839500987098 0 0.38482072671029011 0.13725767299229241 0 0.36322639358210312 0.11848039068348271 0 0.38482072671029011 0.13725767299229241 0 0.36322639358210312 0.11848039068348271 0 0.38482072671029011 0.13725767299229241 0 0.38005682511468147 0.12140739343396729 0 0.38482072671029011 0.13725767299229241 0 0.39398634319161102 0.12556361147638159 0 0.38005682511468147 0.12140739343396729 0 0.38482072671029011 0.13725767299229241 0 0.39398634319161102 0.12556361147638159 0 0.40386822996399702 0.1370092008917044 0 0.39398634319161102 0.12556361147638159 0 0.40386822996399702 0.1370092008917044 0 0.40630256149234217 0.12337914253670321 0 0.38482072671029011 0.13725767299229241 0 0.40641505983847698 0.15603495530110209 0 0.38482072671029011 0.13725767299229241 0 0.40386822996399702 0.1370092008917044 0 0.40641505983847698 0.15603495530110209 0 0.38482072671029011 0.13725767299229241 0 0.39190395947081519 0.16392108302150901 0 0.40641505983847698 0.15603495530110209 0 0.36531512046589693 0.1378839500987098 0 0.38482072671029011 0.13725767299229241 0 0.37680076681991098 0.15092733218095339 0 0.38482072671029011 0.13725767299229241 0 0.37680076681991098 0.15092733218095339 0 0.39190395947081519 0.16392108302150901 0 0.36278106674677829 0.1609059875514994 0 0.39190395947081519 0.16392108302150901 0 0.36278106674677829 0.1609059875514994 0 0.37680076681991098 0.15092733218095339 0 0.39190395947081519 0.16392108302150901 0 0.37356219856206202 0.1741215612114578 0 0.36278106674677829 0.1609059875514994 0 0.39190395947081519 0.16392108302150901 0 0.37356219856206202 0.1741215612114578 0 0.39190395947081519 0.16392108302150901 0 0.38464328683150451 0.18806222539781059 0 0.4059128807594603 0.17981630131623391 0 0.39190395947081519 0.16392108302150901 0 0.38464328683150451 0.18806222539781059 0 0.39190395947081519 0.16392108302150901 0 0.42102685219485209 0.16693617849151851 0 0.40641505983847698 0.15603495530110209 0 0.4059128807594603 0.17981630131623391 0 0.39190395947081519 0.16392108302150901 0 0.42102685219485209 0.16693617849151851 0 0.42102685219485209 0.16693617849151851 0 0.40641505983847698 0.15603495530110209 0 0.41490094777653419 0.14712571815411829 0 0.39190395947081519 0.16392108302150901 0 0.42102685219485209 0.16693617849151851 0 0.4059128807594603 0.17981630131623391 0 0.42102685219485209 0.16693617849151851 0 0.42759287120751482 0.1799189573059411 0 0.4059128807594603 0.17981630131623391 0 0.42759287120751482 0.1799189573059411 0 0.42045703890892938 0.19185412915784311 0 0.42102685219485209 0.16693617849151851 0 0.42759287120751482 0.1799189573059411 0 0.45014974491888898 0.16995127396152809 0 0.42759287120751482 0.1799189573059411 0 0.42045703890892938 0.19185412915784311 0 0.43799329450951457 0.1898848624547933 0 0.42102685219485209 0.16693617849151851 0 0.45014974491888898 0.16995127396152809 0 0.42102685219485209 0.16693617849151851 0 0.43641214087317609 0.15776157540708571 0 0.42820809332857229 0.14540676379554701 0 0.42102685219485209 0.16693617849151851 0 0.43641214087317609 0.15776157540708571 0 0.45014974491888898 0.16995127396152809 0 0.43641214087317609 0.15776157540708571 0 0.42820809332857229 0.14540676379554701 0 0.44305345270963392 0.14224085277467549 0 0.42820809332857229 0.14540676379554701 0 0.43267139290449452 0.12562392175117529 0 0.41815906511665779 0.13368892679480551 0 0.42820809332857229 0.14540676379554701 0 0.43267139290449452 0.12562392175117529 0 0.44305345270963392 0.14224085277467549 0 0.43267139290449452 0.12562392175117529 0 0.41815906511665779 0.13368892679480551 0 0.41840244549433692 0.1204435227777134 0 0.41815906511665779 0.13368892679480551 0 0.41840244549433692 0.1204435227777134 0 0.40630256149234217 0.12337914253670321 0 0.40386822996399702 0.1370092008917044 0 0.41815906511665779 0.13368892679480551 0 0.40630256149234217 0.12337914253670321 0 0.40386822996399702 0.1370092008917044 0 0.41815906511665779 0.13368892679480551 0 0.41490094777653419 0.14712571815411829 0 0.42102685219485209 0.16693617849151851 0 0.42820809332857229 0.14540676379554701 0 0.41490094777653419 0.14712571815411829 0 0.40386822996399702 0.1370092008917044 0 0.40641505983847698 0.15603495530110209 0 0.41490094777653419 0.14712571815411829 0 0.42820809332857229 0.14540676379554701 0 0.41815906511665779 0.13368892679480551 0 0.41490094777653419 0.14712571815411829 0 0.39196586341458151 0.242441409442547 0 0.40329821407583749 0.23025496453590971 0 0.40866327585672191 0.24600766979752939 0 0.38129994004966872 0.25577407136566988 0 0.39196586341458151 0.242441409442547 0 0.40866327585672191 0.24600766979752939 0 0.38129994004966872 0.25577407136566988 0 0.39196586341458151 0.242441409442547 0 0.38106847269238292 0.24536179082341181 0 0.37169426656027921 0.24972740256563611 0 0.38106847269238292 0.24536179082341181 0 0.3757768555661396 0.240133652284411 0 0.37292139258550783 0.22672254500020811 0 0.3757768555661396 0.240133652284411 0 0.38460543787124563 0.238732418458795 0 0.38106847269238292 0.24536179082341181 0 0.3757768555661396 0.240133652284411 0 0.38460543787124563 0.238732418458795 0 0.39196586341458151 0.242441409442547 0 0.38106847269238292 0.24536179082341181 0 0.38460543787124563 0.238732418458795 0 0.39196586341458151 0.242441409442547 0 0.38460543787124563 0.238732418458795 0 0.38844350160088592 0.2284985707660753 0 0.37292139258550783 0.22672254500020811 0 0.38460543787124563 0.238732418458795 0 0.38844350160088592 0.2284985707660753 0 0.37292139258550783 0.22672254500020811 0 0.38844350160088592 0.2284985707660753 0 0.38369130631537601 0.21297307403445409 0 0.38844350160088592 0.2284985707660753 0 0.39679964264504158 0.21937630878092959 0 0.38369130631537601 0.21297307403445409 0 0.38844350160088592 0.2284985707660753 0 0.39679964264504158 0.21937630878092959 0 0.40329821407583749 0.23025496453590971 0 0.39196586341458151 0.242441409442547 0 0.38844350160088592 0.2284985707660753 0 0.40329821407583749 0.23025496453590971 0 0.39679964264504158 0.21937630878092959 0 0.40329821407583749 0.23025496453590971 0 0.41066806580544729 0.2160617609406458 0 0.39598296716959969 0.20626700748070109 0 0.40513352984814438 0.19492560706685999 0 0.41066806580544729 0.2160617609406458 0 0.39679964264504158 0.21937630878092959 0 0.39598296716959969 0.20626700748070109 0 0.41066806580544729 0.2160617609406458 0 0.39679964264504158 0.21937630878092959 0 0.39598296716959969 0.20626700748070109 0 0.38369130631537601 0.21297307403445409 0 0.36923798170140371 0.20928007436804161 0 0.37292139258550783 0.22672254500020811 0 0.38369130631537601 0.21297307403445409 0 0.36923798170140371 0.20928007436804161 0 0.38369130631537601 0.21297307403445409 0 0.38464328683150451 0.18806222539781059 0 0.39598296716959969 0.20626700748070109 0 0.38369130631537601 0.21297307403445409 0 0.38464328683150451 0.18806222539781059 0 0.39598296716959969 0.20626700748070109 0 0.38464328683150451 0.18806222539781059 0 0.40513352984814438 0.19492560706685999 0 0.4059128807594603 0.17981630131623391 0 0.38464328683150451 0.18806222539781059 0 0.40513352984814438 0.19492560706685999 0 0.40513352984814438 0.19492560706685999 0 0.42045703890892938 0.19185412915784311 0 0.42444067869502011 0.20693424997503959 0 0.4059128807594603 0.17981630131623391 0 0.40513352984814438 0.19492560706685999 0 0.42045703890892938 0.19185412915784311 0 0.42045703890892938 0.19185412915784311 0 0.42444067869502011 0.20693424997503959 0 0.43799329450951457 0.1898848624547933 0 0.42444067869502011 0.20693424997503959 0 0.44184419378540352 0.2076794424592901 0 0.43799329450951457 0.1898848624547933 0 0.42444067869502011 0.20693424997503959 0 0.4302098735549707 0.2206458244329694 0 0.44184419378540352 0.2076794424592901 0 0.42444067869502011 0.20693424997503959 0 0.41066806580544729 0.2160617609406458 0 0.4302098735549707 0.2206458244329694 0 0.40513352984814438 0.19492560706685999 0 0.42444067869502011 0.20693424997503959 0 0.41066806580544729 0.2160617609406458 0 0.41066806580544729 0.2160617609406458 0 0.41777320819135039 0.22984229758728861 0 0.4302098735549707 0.2206458244329694 0 0.40329821407583749 0.23025496453590971 0 0.41066806580544729 0.2160617609406458 0 0.41777320819135039 0.22984229758728861 0 0.4302098735549707 0.2206458244329694 0 0.43602661166377499 0.2362412682293889 0 0.44584438813649652 0.2203436080528294 0 0.41777320819135039 0.22984229758728861 0 0.4302098735549707 0.2206458244329694 0 0.43602661166377499 0.2362412682293889 0 0.43602661166377499 0.2362412682293889 0 0.43076425121212841 0.2486853010718087 0 0.40866327585672191 0.24600766979752939 0 0.43602661166377499 0.2362412682293889 0 0.40866327585672191 0.24600766979752939 0 0.41777320819135039 0.22984229758728861 0 0.43602661166377499 0.2362412682293889 0 0.40866327585672191 0.24600766979752939 0 0.41664462513020523 0.25422696758609492 0 0.43076425121212841 0.2486853010718087 0 0.40866327585672191 0.24600766979752939 0 0.40329821407583749 0.23025496453590971 0 0.41777320819135039 0.22984229758728861 0 0.40866327585672191 0.24600766979752939 0 0.45166362976964691 0.25106894999712381 0 0.45384283414141641 0.23962742592169059 0 0.47583181488482379 0.2451422378191761 0 0.45166362976964691 0.25106894999712381 0 0.47583181488482379 0.2451422378191761 0 0.45384283414141641 0.23962742592169059 0 0.47692141707070451 0.23056955077157251 0 0.45166362976964691 0.25106894999712381 0 0.43076425121212841 0.2486853010718087 0 0.45384283414141641 0.23962742592169059 0 0.43602661166377499 0.2362412682293889 0 0.43076425121212841 0.2486853010718087 0 0.45384283414141641 0.23962742592169059 0 0.43076425121212841 0.2486853010718087 0 0.45384283414141641 0.23962742592169059 0 0.43602661166377499 0.2362412682293889 0 0.46338994747082818 0.22647486666124839 0 0.43602661166377499 0.2362412682293889 0 0.44584438813649652 0.2203436080528294 0 0.46338994747082818 0.22647486666124839 0 0.43602661166377499 0.2362412682293889 0 0.45384283414141641 0.23962742592169059 0 0.46338994747082818 0.22647486666124839 0 0.44584438813649652 0.2203436080528294 0 0.46338994747082818 0.22647486666124839 0 0.4574246187180494 0.20998202225832771 0 0.45384283414141641 0.23962742592169059 0 0.46338994747082818 0.22647486666124839 0 0.47692141707070451 0.23056955077157251 0 0.46338994747082818 0.22647486666124839 0 0.4574246187180494 0.20998202225832771 0 0.47311107537994651 0.21060674662752529 0 0.4574246187180494 0.20998202225832771 0 0.46861366351278472 0.19789432193598561 0 0.47311107537994651 0.21060674662752529 0 0.44584438813649652 0.2203436080528294 0 0.4574246187180494 0.20998202225832771 0 0.44184419378540352 0.2076794424592901 0 0.4302098735549707 0.2206458244329694 0 0.44584438813649652 0.2203436080528294 0 0.44184419378540352 0.2076794424592901 0 0.4574246187180494 0.20998202225832771 0 0.44184419378540352 0.2076794424592901 0 0.45120510308892831 0.19507838461398491 0 0.44184419378540352 0.2076794424592901 0 0.43799329450951457 0.1898848624547933 0 0.45120510308892831 0.19507838461398491 0 0.4574246187180494 0.20998202225832771 0 0.45120510308892831 0.19507838461398491 0 0.46861366351278472 0.19789432193598561 0 0.45120510308892831 0.19507838461398491 0 0.46861366351278472 0.19789432193598561 0 0.45014974491888898 0.16995127396152809 0 0.46861366351278472 0.19789432193598561 0 0.48377650321145821 0.20030440734603891 0 0.47890777313388699 0.17818810929941131 0 0.46861366351278472 0.19789432193598561 0 0.48377650321145821 0.20030440734603891 0 0.47311107537994651 0.21060674662752529 0 0.48377650321145821 0.20030440734603891 0 0.5 0.19442179120654851 0 0.47890777313388699 0.17818810929941131 0 0.48377650321145821 0.20030440734603891 0 0.5 0.19442179120654851 0 0.49075328327788142 0.2167084650931079 0 0.5 0.19442179120654851 0 0.49075328327788142 0.2167084650931079 0 0.49999999999999339 0.2215116756214566 0 0.48377650321145821 0.20030440734603891 0 0.49075328327788142 0.2167084650931079 0 0.47311107537994651 0.21060674662752529 0 0.46338994747082818 0.22647486666124839 0 0.49075328327788142 0.2167084650931079 0 0.47311107537994651 0.21060674662752529 0 0.46338994747082818 0.22647486666124839 0 0.49075328327788142 0.2167084650931079 0 0.46338994747082818 0.22647486666124839 0 0.49075328327788142 0.2167084650931079 0 0.47692141707070451 0.23056955077157251 0 0.47692141707070451 0.23056955077157251 0 0.49999999999999339 0.2215116756214566 0 0.50000000000000067 0.2392155256412283 0 0.49075328327788142 0.2167084650931079 0 0.47692141707070451 0.23056955077157251 0 0.49999999999999339 0.2215116756214566 0 0.47692141707070451 0.23056955077157251 0 0.49999999999999339 0.2215116756214566 0 0.50000000000000067 0.2392155256412283 0 0.47583181488482379 0.2451422378191761 0 0.48341195364679568 0.26002408893105827 0 0.50000000000000067 0.2392155256412283 0 0.47583181488482379 0.2451422378191761 0 0.47692141707070451 0.23056955077157251 0 0.50000000000000067 0.2392155256412283 0 0.47583181488482379 0.2451422378191761 0 0.45384283414141641 0.23962742592169059 0 0.47692141707070451 0.23056955077157251 0 0.47583181488482379 0.2451422378191761 0 0.46053260521531592 0.14091734283165991 0 0.45014974491888898 0.16995127396152809 0 0.47759274938693741 0.15337993901402261 0 0.46053260521531592 0.14091734283165991 0 0.47596637305353268 0.1236489788231635 0 0.45094723062946279 0.12208098845927939 0 0.46053260521531592 0.14091734283165991 0 0.44305345270963392 0.14224085277467549 0 0.45094723062946279 0.12208098845927939 0 0.43267139290449452 0.12562392175117529 0 0.44305345270963392 0.14224085277467549 0 0.45094723062946279 0.12208098845927939 0 0.46053260521531592 0.14091734283165991 0 0.44305345270963392 0.14224085277467549 0 0.45014974491888898 0.16995127396152809 0 0.43641214087317609 0.15776157540708571 0 0.44305345270963392 0.14224085277467549 0 0.45014974491888898 0.16995127396152809 0 0.42759287120751482 0.1799189573059411 0 0.43799329450951457 0.1898848624547933 0 0.45014974491888898 0.16995127396152809 0 0.43799329450951457 0.1898848624547933 0 0.45120510308892831 0.19507838461398491 0 0.45014974491888898 0.16995127396152809 0 0.46861366351278472 0.19789432193598561 0 0.45014974491888898 0.16995127396152809 0 0.47890777313388699 0.17818810929941131 0 0.45014974491888898 0.16995127396152809 0 0.47890777313388699 0.17818810929941131 0 0.47759274938693741 0.15337993901402261 0 0.5 0.19442179120654851 0 0.47890777313388699 0.17818810929941131 0 0.5 0.16733190679164031 0 0.47890777313388699 0.17818810929941131 0 0.5 0.16733190679164031 0 0.47759274938693741 0.15337993901402261 0 0.5 0.16733190679164031 0 0.47759274938693741 0.15337993901402261 0 0.5 0.14024202237673219 0 0.46053260521531592 0.14091734283165991 0 0.47759274938693741 0.15337993901402261 0 0.47596637305353268 0.1236489788231635 0 0.5 0.14024202237673219 0 0.5 0.11315213796182411 0 0.47596637305353268 0.1236489788231635 0 0.47759274938693741 0.15337993901402261 0 0.5 0.14024202237673219 0 0.47596637305353268 0.1236489788231635 0 0.5 0.11315213796182411 0 0.48146508414057748 0.097867616362435003 0 0.47596637305353268 0.1236489788231635 0 0.5 0.11315213796182411 0 0.48146508414057748 0.097867616362435003 0 0.5 0.08606225354691599 0 0.48146508414057748 0.097867616362435003 0 0.46684480345772023 0.083704774648097419 0 0.46085076100455152 0.1051260388446932 0 0.48146508414057748 0.097867616362435003 0 0.47596637305353268 0.1236489788231635 0 0.46085076100455152 0.1051260388446932 0 0.5 0.08606225354691599 0 0.48297411160829701 0.071419164250366693 0 0.5 0.058972369132007867 0 0.48146508414057748 0.097867616362435003 0 0.5 0.08606225354691599 0 0.48297411160829701 0.071419164250366693 0 0.48146508414057748 0.097867616362435003 0 0.48297411160829701 0.071419164250366693 0 0.46684480345772023 0.083704774648097419 0 0.48297411160829701 0.071419164250366693 0 0.46368779630991369 0.062884433647911922 0 0.46684480345772023 0.083704774648097419 0 0.46368779630991369 0.062884433647911922 0 0.4455316944648699 0.078385408113317706 0 0.46368779630991369 0.062884433647911922 0 0.46684480345772023 0.083704774648097419 0 0.4455316944648699 0.078385408113317706 0 0.46684480345772023 0.083704774648097419 0 0.4455316944648699 0.078385408113317706 0 0.46085076100455152 0.1051260388446932 0 0.4455316944648699 0.078385408113317706 0 0.46085076100455152 0.1051260388446932 0 0.43655847815144871 0.087567909291679069 0 0.4455316944648699 0.078385408113317706 0 0.43655847815144871 0.087567909291679069 0 0.43300293116684879 0.070359854062556224 0 0.4455316944648699 0.078385408113317706 0 0.43300293116684879 0.070359854062556224 0 0.44432728466234178 0.059795406129610977 0 0.46368779630991369 0.062884433647911922 0 0.4455316944648699 0.078385408113317706 0 0.44432728466234178 0.059795406129610977 0 0.47596637305353268 0.1236489788231635 0 0.46085076100455152 0.1051260388446932 0 0.45094723062946279 0.12208098845927939 0 0.46085076100455152 0.1051260388446932 0 0.43655847815144871 0.087567909291679069 0 0.46085076100455152 0.1051260388446932 0 0.43845481143497073 0.110031162788742 0 0.43302597451412722 0.09911942802672713 0 0.46085076100455152 0.1051260388446932 0 0.43302597451412722 0.09911942802672713 0 0.43655847815144871 0.087567909291679069 0 0.43267139290449452 0.12562392175117529 0 0.45094723062946279 0.12208098845927939 0 0.43845481143497073 0.110031162788742 0 0.46085076100455152 0.1051260388446932 0 0.45094723062946279 0.12208098845927939 0 0.43845481143497073 0.110031162788742 0 0.43267139290449452 0.12562392175117529 0 0.43845481143497073 0.110031162788742 0 0.42512360996164289 0.1101942667169049 0 0.43267139290449452 0.12562392175117529 0 0.42512360996164289 0.1101942667169049 0 0.41840244549433692 0.1204435227777134 0 0.42512360996164289 0.1101942667169049 0 0.41840244549433692 0.1204435227777134 0 0.41145911669595331 0.1096997076075869 0 0.41840244549433692 0.1204435227777134 0 0.41145911669595331 0.1096997076075869 0 0.40630256149234217 0.12337914253670321 0 0.41145911669595331 0.1096997076075869 0 0.41782870111656589 0.098086010242617663 0 0.40188519574572068 0.098349840232826835 0 0.41782870111656589 0.098086010242617663 0 0.41132824907511162 0.087668761689670915 0 0.40188519574572068 0.098349840232826835 0 0.42512360996164289 0.1101942667169049 0 0.41145911669595331 0.1096997076075869 0 0.41782870111656589 0.098086010242617663 0 0.41782870111656589 0.098086010242617663 0 0.43302597451412722 0.09911942802672713 0 0.42198136315300161 0.08812274721924529 0 0.42512360996164289 0.1101942667169049 0 0.41782870111656589 0.098086010242617663 0 0.43302597451412722 0.09911942802672713 0 0.43845481143497073 0.110031162788742 0 0.42512360996164289 0.1101942667169049 0 0.43302597451412722 0.09911942802672713 0 0.43655847815144871 0.087567909291679069 0 0.42198136315300161 0.08812274721924529 0 0.41226619529834591 0.070009779738664735 0 0.43655847815144871 0.087567909291679069 0 0.41226619529834591 0.070009779738664735 0 0.43302597451412722 0.09911942802672713 0 0.43655847815144871 0.087567909291679069 0 0.42198136315300161 0.08812274721924529 0 0.43300293116684879 0.070359854062556224 0 0.41226619529834591 0.070009779738664735 0 0.42739758089851382 0.054541393999090262 0 0.43655847815144871 0.087567909291679069 0 0.43300293116684879 0.070359854062556224 0 0.41226619529834591 0.070009779738664735 0 0.42198136315300161 0.08812274721924529 0 0.41226619529834591 0.070009779738664735 0 0.41132824907511162 0.087668761689670915 0 0.41226619529834591 0.070009779738664735 0 0.41132824907511162 0.087668761689670915 0 0.39992923875424519 0.082621500021195282 0 0.41782870111656589 0.098086010242617663 0 0.42198136315300161 0.08812274721924529 0 0.41132824907511162 0.087668761689670915 0 0.41132824907511162 0.087668761689670915 0 0.39992923875424519 0.082621500021195282 0 0.40188519574572068 0.098349840232826835 0 0.39992923875424519 0.082621500021195282 0 0.38759228221014619 0.095233220303727467 0 0.40188519574572068 0.098349840232826835 0 0.39992923875424519 0.082621500021195282 0 0.38759228221014619 0.095233220303727467 0 0.41226619529834591 0.070009779738664735 0 0.39707386889515511 0.070908779594843374 0 0.39683376059791597 0.058855427163935138 0 0.41226619529834591 0.070009779738664735 0 0.39683376059791597 0.058855427163935138 0 0.41226619529834591 0.070009779738664735 0 0.39992923875424519 0.082621500021195282 0 0.41226619529834591 0.070009779738664735 0 0.39992923875424519 0.082621500021195282 0 0.39707386889515511 0.070908779594843374 0 0.39992923875424519 0.082621500021195282 0 0.39707386889515511 0.070908779594843374 0 0.38583977896057609 0.075316135258006081 0 0.39707386889515511 0.070908779594843374 0 0.38282045226763678 0.060547433734587333 0 0.39683376059791597 0.058855427163935138 0 0.39707386889515511 0.070908779594843374 0 0.38583977896057609 0.075316135258006081 0 0.38282045226763678 0.060547433734587333 0 0.38583977896057609 0.075316135258006081 0 0.37596532967213542 0.069868995675824025 0 0.37682589963749002 0.081332762740894418 0 0.37307104071443398 0.061065176941414383 0 0.37596532967213542 0.069868995675824025 0 0.38282045226763678 0.060547433734587333 0 0.38583977896057609 0.075316135258006081 0 0.37596532967213542 0.069868995675824025 0 0.38282045226763678 0.060547433734587333 0 0.39992923875424519 0.082621500021195282 0 0.38412803848747967 0.086259474622970303 0 0.38759228221014619 0.095233220303727467 0 0.39992923875424519 0.082621500021195282 0 0.38583977896057609 0.075316135258006081 0 0.38412803848747967 0.086259474622970303 0 0.37045299287494049 0.09679375479102828 0 0.38412803848747967 0.086259474622970303 0 0.38759228221014619 0.095233220303727467 0 0.38583977896057609 0.075316135258006081 0 0.38412803848747967 0.086259474622970303 0 0.37682589963749002 0.081332762740894418 0 0.37045299287494049 0.09679375479102828 0 0.38412803848747967 0.086259474622970303 0 0.37682589963749002 0.081332762740894418 0 0.37045299287494049 0.09679375479102828 0 0.38005682511468147 0.12140739343396729 0 0.37045299287494049 0.09679375479102828 0 0.38759228221014619 0.095233220303727467 0 0.38890959528695412 0.1083938038889192 0 0.37045299287494049 0.09679375479102828 0 0.38890959528695412 0.1083938038889192 0 0.38005682511468147 0.12140739343396729 0 0.39398634319161102 0.12556361147638159 0 0.38890959528695412 0.1083938038889192 0 0.38005682511468147 0.12140739343396729 0 0.39398634319161102 0.12556361147638159 0 0.38890959528695412 0.1083938038889192 0 0.39948393258462489 0.11301500309558379 0 0.39398634319161102 0.12556361147638159 0 0.40630256149234217 0.12337914253670321 0 0.39948393258462489 0.11301500309558379 0 0.41145911669595331 0.1096997076075869 0 0.40630256149234217 0.12337914253670321 0 0.39948393258462489 0.11301500309558379 0 0.41145911669595331 0.1096997076075869 0 0.39948393258462489 0.11301500309558379 0 0.40188519574572068 0.098349840232826835 0 0.38759228221014619 0.095233220303727467 0 0.38890959528695412 0.1083938038889192 0 0.40188519574572068 0.098349840232826835 0 0.38890959528695412 0.1083938038889192 0 0.39948393258462489 0.11301500309558379 0 0.40188519574572068 0.098349840232826835 0 0.3912475249538237 0.025882868266216091 0 0.40325323122183843 0.024352223252143548 0 0.39536881189699241 0.01378873843063998 0 0.3912475249538237 0.025882868266216091 0 0.40325323122183843 0.024352223252143548 0 0.39805180056669343 0.032772735105760037 0 0.40325323122183843 0.024352223252143548 0 0.39805180056669343 0.032772735105760037 0 0.40655765028286611 0.035582104639029083 0 0.40325323122183843 0.024352223252143548 0 0.39536881189699241 0.01378873843063998 0 0.40720094273855439 0.01372602960598159 0 0.40060323373222451 0.0042547197705496897 0 0.39536881189699241 0.01378873843063998 0 0.40720094273855439 0.01372602960598159 0 0.40060323373222451 0.0042547197705496897 0 0.41081432206005303 0.0037114498956348132 0 0.4046584776842293 -0.0050702490882302163 0 0.40060323373222451 0.0042547197705496897 0 0.41081432206005303 0.0037114498956348132 0 0.40720094273855439 0.01372602960598159 0 0.40060323373222451 0.0042547197705496897 0 0.39025836247721268 0.0036292771787240202 0 0.39531848553630572 -0.0042569273994520467 0 0.40060323373222451 0.0042547197705496897 0 0.39536881189699241 0.01378873843063998 0 0.39025836247721268 0.0036292771787240202 0 0.37844401144479839 0.012609093579625891 0 0.38356146703633898 -0.0078565650350033434 0 0.37844401144479839 0.012609093579625891 0 0.39025836247721268 0.0036292771787240202 0 0.38356146703633898 -0.0078565650350033434 0 0.39536881189699241 0.01378873843063998 0 0.37844401144479839 0.012609093579625891 0 0.39025836247721268 0.0036292771787240202 0 0.3912475249538237 0.025882868266216091 0 0.37844401144479839 0.012609093579625891 0 0.38063223185621792 0.036578263657106522 0 0.37844401144479839 0.012609093579625891 0 0.38063223185621792 0.036578263657106522 0 0.37146335928247548 0.04052602251159599 0 0.37844401144479839 0.012609093579625891 0 0.38063223185621792 0.036578263657106522 0 0.3912475249538237 0.025882868266216091 0 0.39536881189699241 0.01378873843063998 0 0.37844401144479839 0.012609093579625891 0 0.37146335928247548 0.04052602251159599 0 0.38063223185621792 0.036578263657106522 0 0.38282045226763678 0.060547433734587333 0 0.3912475249538237 0.025882868266216091 0 0.38063223185621792 0.036578263657106522 0 0.3908528121234538 0.035995570554822158 0 0.38063223185621792 0.036578263657106522 0 0.38791705742610771 0.044539104287684539 0 0.3908528121234538 0.035995570554822158 0 0.38791705742610771 0.044539104287684539 0 0.38282045226763678 0.060547433734587333 0 0.39079668350586277 0.051215399393808793 0 0.37307104071443398 0.061065176941414383 0 0.37146335928247548 0.04052602251159599 0 0.38282045226763678 0.060547433734587333 0 0.38063223185621792 0.036578263657106522 0 0.38791705742610771 0.044539104287684539 0 0.38282045226763678 0.060547433734587333 0 0.38063223185621792 0.036578263657106522 0 0.38282045226763678 0.060547433734587333 0 0.38282045226763678 0.060547433734587333 0 0.39683376059791597 0.058855427163935138 0 0.39079668350586277 0.051215399393808793 0 0.41226619529834591 0.070009779738664735 0 0.39683376059791597 0.058855427163935138 0 0.40948896714378957 0.05055434744181983 0 0.39683376059791597 0.058855427163935138 0 0.39079668350586277 0.051215399393808793 0 0.39674782008621368 0.04348041067995833 0 0.39683376059791597 0.058855427163935138 0 0.39674782008621368 0.04348041067995833 0 0.40948896714378957 0.05055434744181983 0 0.3908528121234538 0.035995570554822158 0 0.39805180056669343 0.032772735105760037 0 0.39674782008621368 0.04348041067995833 0 0.3912475249538237 0.025882868266216091 0 0.3908528121234538 0.035995570554822158 0 0.39805180056669343 0.032772735105760037 0 0.38791705742610771 0.044539104287684539 0 0.3908528121234538 0.035995570554822158 0 0.39674782008621368 0.04348041067995833 0 0.38791705742610771 0.044539104287684539 0 0.39079668350586277 0.051215399393808793 0 0.39674782008621368 0.04348041067995833 0 0.39674782008621368 0.04348041067995833 0 0.40655765028286611 0.035582104639029083 0 0.40948896714378957 0.05055434744181983 0 0.39805180056669343 0.032772735105760037 0 0.39674782008621368 0.04348041067995833 0 0.40655765028286611 0.035582104639029083 0 0.40655765028286611 0.035582104639029083 0 0.41713079569888262 0.040856968430241461 0 0.41557099838193923 0.024039796491718179 0 0.41713079569888262 0.040856968430241461 0 0.42755741698364552 0.032815777208855347 0 0.41557099838193923 0.024039796491718179 0 0.40655765028286611 0.035582104639029083 0 0.41713079569888262 0.040856968430241461 0 0.40948896714378957 0.05055434744181983 0 0.41226619529834591 0.070009779738664735 0 0.40948896714378957 0.05055434744181983 0 0.42739758089851382 0.054541393999090262 0 0.41713079569888262 0.040856968430241461 0 0.40948896714378957 0.05055434744181983 0 0.42739758089851382 0.054541393999090262 0 0.41226619529834591 0.070009779738664735 0 0.42739758089851382 0.054541393999090262 0 0.43300293116684879 0.070359854062556224 0 0.42739758089851382 0.054541393999090262 0 0.44432728466234178 0.059795406129610977 0 0.41713079569888262 0.040856968430241461 0 0.42739758089851382 0.054541393999090262 0 0.42755741698364552 0.032815777208855347 0 0.42739758089851382 0.054541393999090262 0 0.42755741698364552 0.032815777208855347 0 0.44252896649868317 0.039073008259517338 0 0.42739758089851382 0.054541393999090262 0 0.44252896649868317 0.039073008259517338 0 0.42755741698364552 0.032815777208855347 0 0.4358194844604939 0.024219735287320941 0 0.44252896649868317 0.039073008259517338 0 0.42755741698364552 0.032815777208855347 0 0.41557099838193923 0.024039796491718179 0 0.4265644217351573 0.014684511896395219 0 0.4358194844604939 0.024219735287320941 0 0.4265644217351573 0.014684511896395219 0 0.44548351627008242 0.01642882659412407 0 0.42755741698364552 0.032815777208855347 0 0.4358194844604939 0.024219735287320941 0 0.4265644217351573 0.014684511896395219 0 0.41557099838193923 0.024039796491718179 0 0.4165272652869268 0.01155925859927168 0 0.4265644217351573 0.014684511896395219 0 0.41557099838193923 0.024039796491718179 0 0.40720094273855439 0.01372602960598159 0 0.4165272652869268 0.01155925859927168 0 0.40325323122183843 0.024352223252143548 0 0.41557099838193923 0.024039796491718179 0 0.40720094273855439 0.01372602960598159 0 0.40325323122183843 0.024352223252143548 0 0.40655765028286611 0.035582104639029083 0 0.41557099838193923 0.024039796491718179 0 0.41081432206005303 0.0037114498956348132 0 0.40720094273855439 0.01372602960598159 0 0.4165272652869268 0.01155925859927168 0 0.4165272652869268 0.01155925859927168 0 0.42248564151892998 0.0016345051066286029 0 0.4265644217351573 0.014684511896395219 0 0.41081432206005303 0.0037114498956348132 0 0.4165272652869268 0.01155925859927168 0 0.42248564151892998 0.0016345051066286029 0 0.42248564151892998 0.0016345051066286029 0 0.4265644217351573 0.014684511896395219 0 0.4382820622288856 -0.0014159552958160841 0 0.4265644217351573 0.014684511896395219 0 0.44548351627008242 0.01642882659412407 0 0.4382820622288856 -0.0014159552958160841 0 0.45100246047295739 0.0046664116742636159 0 0.44548351627008242 0.01642882659412407 0 0.4382820622288856 -0.0014159552958160841 0 0.45100246047295739 0.0046664116742636159 0 0.44548351627008242 0.01642882659412407 0 0.4580470330794123 0.0188547641718908 0 0.4358194844604939 0.024219735287320941 0 0.4514029071021442 0.02821869916314456 0 0.44548351627008242 0.01642882659412407 0 0.4358194844604939 0.024219735287320941 0 0.4514029071021442 0.02821869916314456 0 0.44252896649868317 0.039073008259517338 0 0.4514029071021442 0.02821869916314456 0 0.44548351627008242 0.01642882659412407 0 0.4580470330794123 0.0188547641718908 0 0.4514029071021442 0.02821869916314456 0 0.4580470330794123 0.0188547641718908 0 0.46553563141862692 0.027383902935855992 0 0.4580470330794123 0.0188547641718908 0 0.46553563141862692 0.027383902935855992 0 0.471035018561343 0.01684384088441979 0 0.4580470330794123 0.0188547641718908 0 0.4620271672997433 0.0081957990277541914 0 0.471035018561343 0.01684384088441979 0 0.4620271672997433 0.0081957990277541914 0 0.47207727543944228 0.0077163925679632076 0 0.45540766643685782 -0.0078732224449345398 0 0.4620271672997433 0.0081957990277541914 0 0.47207727543944228 0.0077163925679632076 0 0.471035018561343 0.01684384088441979 0 0.45100246047295739 0.0046664116742636159 0 0.4620271672997433 0.0081957990277541914 0 0.45540766643685782 -0.0078732224449345398 0 0.45100246047295739 0.0046664116742636159 0 0.4580470330794123 0.0188547641718908 0 0.4620271672997433 0.0081957990277541914 0 0.42739758089851382 0.054541393999090262 0 0.44432728466234178 0.059795406129610977 0 0.44252896649868317 0.039073008259517338 0 0.44432728466234178 0.059795406129610977 0 0.44252896649868317 0.039073008259517338 0 0.46100281088556699 0.043351957730158222 0 0.4514029071021442 0.02821869916314456 0 0.44252896649868317 0.039073008259517338 0 0.46100281088556699 0.043351957730158222 0 0.4514029071021442 0.02821869916314456 0 0.46553563141862692 0.027383902935855992 0 0.46100281088556699 0.043351957730158222 0 0.46553563141862692 0.027383902935855992 0 0.46100281088556699 0.043351957730158222 0 0.4764725540003833 0.035303178421407518 0 0.46368779630991369 0.062884433647911922 0 0.44432728466234178 0.059795406129610977 0 0.46100281088556699 0.043351957730158222 0 0.48297411160829701 0.071419164250366693 0 0.46368779630991369 0.062884433647911922 0 0.48184389815495748 0.047383459182506117 0 0.46368779630991369 0.062884433647911922 0 0.46100281088556699 0.043351957730158222 0 0.48184389815495748 0.047383459182506117 0 0.46368779630991369 0.062884433647911922 0 0.48184389815495748 0.047383459182506117 0 0.46100281088556699 0.043351957730158222 0 0.48184389815495748 0.047383459182506117 0 0.4764725540003833 0.035303178421407518 0 0.48184389815495748 0.047383459182506117 0 0.50000000000000089 0.031882484717099757 0 0.48184389815495748 0.047383459182506117 0 0.50000000000000089 0.031882484717099757 0 0.5 0.058972369132007867 0 0.48184389815495748 0.047383459182506117 0 0.4764725540003833 0.035303178421407518 0 0.50000000000000089 0.031882484717099757 0 0.48297411160829701 0.071419164250366693 0 0.48184389815495748 0.047383459182506117 0 0.5 0.058972369132007867 0 0.48173822001607031 0.002441982684480838 0 0.47207727543944228 0.0077163925679632076 0 0.45540766643685782 -0.0078732224449345398 0 0.48073089036299149 0.01447516008145705 0 0.48088876464914698 0.0066420825236524483 0 0.47207727543944228 0.0077163925679632076 0 0.48088876464914698 0.0066420825236524483 0 0.48173822001607031 0.002441982684480838 0 0.48944624590280772 0.014576472087587141 0 0.48073089036299149 0.01447516008145705 0 0.48088876464914698 0.0066420825236524483 0 0.48944624590280772 0.014576472087587141 0 0.48088876464914698 0.0066420825236524483 0 0.48173822001607031 0.002441982684480838 0 0.47207727543944228 0.0077163925679632076 0 0.48088876464914698 0.0066420825236524483 0 0.48173822001607031 0.002441982684480838 0 0.48073089036299149 0.01447516008145705 0 0.47207727543944228 0.0077163925679632076 0 0.471035018561343 0.01684384088441979 0 0.46553563141862692 0.027383902935855992 0 0.471035018561343 0.01684384088441979 0 0.48098968552297122 0.023479159592672289 0 0.46553563141862692 0.027383902935855992 0 0.4764725540003833 0.035303178421407518 0 0.48098968552297122 0.023479159592672289 0 0.48073089036299149 0.01447516008145705 0 0.471035018561343 0.01684384088441979 0 0.48098968552297122 0.023479159592672289 0 0.48073089036299149 0.01447516008145705 0 0.48098968552297122 0.023479159592672289 0 0.48944624590280772 0.014576472087587141 0 0.50000000000000089 0.031882484717099757 0 0.50000000000000044 0.0095961811708810997 0 0.48944624590280772 0.014576472087587141 0 0.4764725540003833 0.035303178421407518 0 0.50000000000000089 0.031882484717099757 0 0.48098968552297122 0.023479159592672289 0 0.50000000000000089 0.031882484717099757 0 0.48098968552297122 0.023479159592672289 0 0.48944624590280772 0.014576472087587141 0 0.48173822001607031 0.002441982684480838 0 0.50000000000000044 0.0095961811708810997 0 0.48944624590280772 0.014576472087587141 0 0.48173822001607031 0.002441982684480838 0 0.50000000000000044 0.0095961811708810997 0 0.48173822001607031 0.002441982684480838 0 0.50000000000000044 0.0095961811708810997 0 0.5 -0.01553848795347695 0 0.48173822001607031 0.002441982684480838 0 0.5 -0.01553848795347695 0 0.48723509010938909 -0.024737082977995831 0 0.48173822001607031 0.002441982684480838 0 0.48723509010938909 -0.024737082977995831 0 0.48173822001607031 0.002441982684480838 0 0.46944239540012012 -0.021901386132034111 0 0.45540766643685782 -0.0078732224449345398 0 0.48173822001607031 0.002441982684480838 0 0.46944239540012012 -0.021901386132034111 0 0.48723509010938909 -0.024737082977995831 0 0.46944239540012012 -0.021901386132034111 0 0.48723509010938909 -0.024737082977995831 0 0.47311684284700922 -0.039980301183512167 0 0.5 -0.01553848795347695 0 0.48723509010938909 -0.024737082977995831 0 0.5 -0.040673157077835087 0 0.48723509010938909 -0.024737082977995831 0 0.49273196020270971 -0.051916148640471983 0 0.48034048547664182 -0.050194577481915269 0 0.48723509010938909 -0.024737082977995831 0 0.49273196020270971 -0.051916148640471983 0 0.48723509010938909 -0.024737082977995831 0 0.5 -0.040673157077835087 0 0.49273196020270971 -0.051916148640471983 0 0.5 -0.040673157077835087 0 0.49273196020270971 -0.051916148640471983 0 0.5 -0.065807826202193331 0 0.49273196020270971 -0.051916148640471983 0 0.48384360039889979 -0.062204599920787272 0 0.48034048547664182 -0.050194577481915269 0 0.48034048547664182 -0.050194577481915269 0 0.47035120232490191 -0.060528185902064997 0 0.47311684284700922 -0.039980301183512167 0 0.47035120232490191 -0.060528185902064997 0 0.47311684284700922 -0.039980301183512167 0 0.48384360039889979 -0.062204599920787272 0 0.48034048547664182 -0.050194577481915269 0 0.47035120232490191 -0.060528185902064997 0 0.48723509010938909 -0.024737082977995831 0 0.48034048547664182 -0.050194577481915269 0 0.47311684284700922 -0.039980301183512167 0 0.46944239540012012 -0.021901386132034111 0 0.47311684284700922 -0.039980301183512167 0 0.44971415759127392 -0.039358306738208573 0 0.47035120232490191 -0.060528185902064997 0 0.47311684284700922 -0.039980301183512167 0 0.44971415759127392 -0.039358306738208573 0 0.47035120232490191 -0.060528185902064997 0 0.44971415759127392 -0.039358306738208573 0 0.47035120232490191 -0.060528185902064997 0 0.43963483674523918 -0.055334607978488382 0 0.44971415759127392 -0.039358306738208573 0 0.43963483674523918 -0.055334607978488382 0 0.44971415759127392 -0.039358306738208573 0 0.42419530264354072 -0.042652000491910397 0 0.46944239540012012 -0.021901386132034111 0 0.44971415759127392 -0.039358306738208573 0 0.45540766643685782 -0.0078732224449345398 0 0.44971415759127392 -0.039358306738208573 0 0.42907711285764621 -0.01818842757435184 0 0.44971415759127392 -0.039358306738208573 0 0.45540766643685782 -0.0078732224449345398 0 0.42907711285764621 -0.01818842757435184 0 0.45540766643685782 -0.0078732224449345398 0 0.42907711285764621 -0.01818842757435184 0 0.45100246047295739 0.0046664116742636159 0 0.4382820622288856 -0.0014159552958160841 0 0.45540766643685782 -0.0078732224449345398 0 0.4382820622288856 -0.0014159552958160841 0 0.45540766643685782 -0.0078732224449345398 0 0.42907711285764621 -0.01818842757435184 0 0.48173822001607031 0.002441982684480838 0 0.45540766643685782 -0.0078732224449345398 0 0.47129126618897188 -0.1223351355815797 0 0.47148248434309947 -0.114916285604633 0 0.48087269318342413 -0.1216818802472065 0 0.47148248434309947 -0.114916285604633 0 0.48087269318342413 -0.1216818802472065 0 0.47838814501791832 -0.1066654575105275 0 0.48087269318342413 -0.1216818802472065 0 0.48924328608656842 -0.1141618265083332 0 0.47838814501791832 -0.1066654575105275 0 0.5 -0.1122204549214597 0 0.48924328608656842 -0.1141618265083332 0 0.5 -0.13349841451636779 0 0.48087269318342413 -0.1216818802472065 0 0.48924328608656842 -0.1141618265083332 0 0.5 -0.13349841451636779 0 0.5 -0.1122204549214597 0 0.48924328608656842 -0.1141618265083332 0 0.48827073793524339 -0.097774102912636218 0 0.48924328608656842 -0.1141618265083332 0 0.48827073793524339 -0.097774102912636218 0 0.47838814501791832 -0.1066654575105275 0 0.5 -0.1122204549214597 0 0.48827073793524339 -0.097774102912636218 0 0.50000000000000266 -0.090942495326551576 0 0.47652975213937199 -0.091635549067057065 0 0.46683976751390588 -0.086617099886465918 0 0.46456669494636288 -0.10350535152343909 0 0.48827073793524339 -0.097774102912636218 0 0.47838814501791832 -0.1066654575105275 0 0.47652975213937199 -0.091635549067057065 0 0.47148248434309947 -0.114916285604633 0 0.47838814501791832 -0.1066654575105275 0 0.46456669494636288 -0.10350535152343909 0 0.47838814501791832 -0.1066654575105275 0 0.47652975213937199 -0.091635549067057065 0 0.46456669494636288 -0.10350535152343909 0 0.48827073793524339 -0.097774102912636218 0 0.47652975213937199 -0.091635549067057065 0 0.48517560116245317 -0.075735340614307423 0 0.47652975213937199 -0.091635549067057065 0 0.48517560116245317 -0.075735340614307423 0 0.46683976751390588 -0.086617099886465918 0 0.47652975213937199 -0.091635549067057065 0 0.46683976751390588 -0.086617099886465918 0 0.50000000000000266 -0.090942495326551576 0 0.49822883029603021 -0.079095214302948247 0 0.5 -0.065807826202193331 0 0.48827073793524339 -0.097774102912636218 0 0.50000000000000266 -0.090942495326551576 0 0.48517560116245317 -0.075735340614307423 0 0.50000000000000266 -0.090942495326551576 0 0.48517560116245317 -0.075735340614307423 0 0.50000000000000266 -0.090942495326551576 0 0.49822883029603021 -0.079095214302948247 0 0.48517560116245317 -0.075735340614307423 0 0.49273196020270971 -0.051916148640471983 0 0.49822883029603021 -0.079095214302948247 0 0.48384360039889979 -0.062204599920787272 0 0.49822883029603021 -0.079095214302948247 0 0.48517560116245317 -0.075735340614307423 0 0.49273196020270971 -0.051916148640471983 0 0.48384360039889979 -0.062204599920787272 0 0.49822883029603021 -0.079095214302948247 0 0.49273196020270971 -0.051916148640471983 0 0.49822883029603021 -0.079095214302948247 0 0.5 -0.065807826202193331 0 0.47035120232490191 -0.060528185902064997 0 0.48517560116245317 -0.075735340614307423 0 0.47035120232490191 -0.060528185902064997 0 0.48517560116245317 -0.075735340614307423 0 0.46683976751390588 -0.086617099886465918 0 0.48384360039889979 -0.062204599920787272 0 0.47035120232490191 -0.060528185902064997 0 0.48517560116245317 -0.075735340614307423 0 0.47035120232490191 -0.060528185902064997 0 0.46683976751390588 -0.086617099886465918 0 0.47035120232490191 -0.060528185902064997 0 0.44249197108241189 -0.074007360679063244 0 0.46683976751390588 -0.086617099886465918 0 0.47035120232490191 -0.060528185902064997 0 0.43963483674523918 -0.055334607978488382 0 0.44249197108241189 -0.074007360679063244 0 0.44249197108241189 -0.074007360679063244 0 0.46683976751390588 -0.086617099886465918 0 0.4490662803509099 -0.094083529251462475 0 0.44249197108241189 -0.074007360679063244 0 0.4490662803509099 -0.094083529251462475 0 0.42834270349958448 -0.099226311759436261 0 0.44249197108241189 -0.074007360679063244 0 0.46683976751390588 -0.086617099886465918 0 0.46683976751390588 -0.086617099886465918 0 0.46456669494636288 -0.10350535152343909 0 0.4490662803509099 -0.094083529251462475 0 0.46683976751390588 -0.086617099886465918 0 0.46456669494636288 -0.10350535152343909 0 0.46456669494636288 -0.10350535152343909 0 0.4490662803509099 -0.094083529251462475 0 0.44386094964032902 -0.11054798122052439 0 0.4490662803509099 -0.094083529251462475 0 0.44386094964032902 -0.11054798122052439 0 0.42834270349958448 -0.099226311759436261 0 0.44386094964032902 -0.11054798122052439 0 0.46257396642688631 -0.12529077885077469 0 0.45239247298790419 -0.125419693033265 0 0.44386094964032902 -0.11054798122052439 0 0.42916935431308728 -0.1205456085246996 0 0.4435038969132965 -0.12540022695152131 0 0.44386094964032902 -0.11054798122052439 0 0.45239247298790419 -0.125419693033265 0 0.4435038969132965 -0.12540022695152131 0 0.44386094964032902 -0.11054798122052439 0 0.46229362237882032 -0.1203936031604123 0 0.46257396642688631 -0.12529077885077469 0 0.46456669494636288 -0.10350535152343909 0 0.46229362237882032 -0.1203936031604123 0 0.46456669494636288 -0.10350535152343909 0 0.44386094964032902 -0.11054798122052439 0 0.46229362237882032 -0.1203936031604123 0 0.44386094964032902 -0.11054798122052439 0 0.46257396642688631 -0.12529077885077469 0 0.47148248434309947 -0.114916285604633 0 0.46456669494636288 -0.10350535152343909 0 0.46229362237882032 -0.1203936031604123 0 0.47129126618897188 -0.1223351355815797 0 0.46229362237882032 -0.1203936031604123 0 0.46257396642688631 -0.12529077885077469 0 0.47129126618897188 -0.1223351355815797 0 0.47148248434309947 -0.114916285604633 0 0.46229362237882032 -0.1203936031604123 0 0.44386094964032902 -0.11054798122052439 0 0.42916935431308728 -0.1205456085246996 0 0.42834270349958448 -0.099226311759436261 0 0.41143930547928681 -0.11934523636421419 0 0.42916935431308728 -0.1205456085246996 0 0.42834270349958448 -0.099226311759436261 0 0.41143930547928681 -0.11934523636421419 0 0.40555832972599831 -0.095826118330896617 0 0.41143930547928681 -0.11934523636421419 0 0.42834270349958448 -0.099226311759436261 0 0.40555832972599831 -0.095826118330896617 0 0.42834270349958448 -0.099226311759436261 0 0.41884290658632428 -0.080552882507727325 0 0.40555832972599831 -0.095826118330896617 0 0.41884290658632428 -0.080552882507727325 0 0.39967735397270959 -0.072307000297579083 0 0.40555832972599831 -0.095826118330896617 0 0.44249197108241189 -0.074007360679063244 0 0.42834270349958448 -0.099226311759436261 0 0.41884290658632428 -0.080552882507727325 0 0.44249197108241189 -0.074007360679063244 0 0.41814417465091752 -0.061397621471661459 0 0.43963483674523918 -0.055334607978488382 0 0.44249197108241189 -0.074007360679063244 0 0.41814417465091752 -0.061397621471661459 0 0.44249197108241189 -0.074007360679063244 0 0.41884290658632428 -0.080552882507727325 0 0.41814417465091752 -0.061397621471661459 0 0.41884290658632428 -0.080552882507727325 0 0.39967735397270959 -0.072307000297579083 0 0.41814417465091752 -0.061397621471661459 0 0.39967735397270959 -0.072307000297579083 0 0.38669795957132042 -0.057310603286660967 0 0.37240766699872252 -0.068318548019290964 0 0.39967735397270959 -0.072307000297579083 0 0.37781097748786241 -0.089314889372882261 0 0.37240766699872252 -0.068318548019290964 0 0.39967735397270959 -0.072307000297579083 0 0.37781097748786241 -0.089314889372882261 0 0.40555832972599831 -0.095826118330896617 0 0.39967735397270959 -0.072307000297579083 0 0.40555832972599831 -0.095826118330896617 0 0.40555832972599831 -0.095826118330896617 0 0.38953803654933628 -0.10754997095337659 0 0.39823574772599779 -0.11763079726210079 0 0.37781097748786241 -0.089314889372882261 0 0.40555832972599831 -0.095826118330896617 0 0.38953803654933628 -0.10754997095337659 0 0.37781097748786241 -0.089314889372882261 0 0.38953803654933628 -0.10754997095337659 0 0.37644505785585192 -0.1058120404938334 0 0.38953803654933628 -0.10754997095337659 0 0.37644505785585192 -0.1058120404938334 0 0.37720890243704291 -0.12310924361699779 0 0.38953803654933628 -0.10754997095337659 0 0.37720890243704291 -0.12310924361699779 0 0.38918813321375051 -0.12739880168557821 0 0.38953803654933628 -0.10754997095337659 0 0.39823574772599779 -0.11763079726210079 0 0.38918813321375051 -0.12739880168557821 0 0.41143930547928681 -0.11934523636421419 0 0.39823574772599779 -0.11763079726210079 0 0.40257569972698831 -0.13396225485532559 0 0.41143930547928681 -0.11934523636421419 0 0.40555832972599831 -0.095826118330896617 0 0.39823574772599779 -0.11763079726210079 0 0.42011428296152808 -0.02169968792975261 0 0.41401194260749391 -0.028450411104576211 0 0.41343304557213612 -0.018371446868227208 0 0.42011428296152808 -0.02169968792975261 0 0.41343304557213612 -0.018371446868227208 0 0.41928481904255338 -0.01548900553927589 0 0.42011428296152808 -0.02169968792975261 0 0.41928481904255338 -0.01548900553927589 0 0.42542521438275183 -0.0144422395697206 0 0.42011428296152808 -0.02169968792975261 0 0.41401194260749391 -0.028450411104576211 0 0.42742255973229643 -0.030069766767760062 0 0.41401194260749391 -0.028450411104576211 0 0.40522076275047969 -0.019933987949522329 0 0.40044964155059998 -0.029094842751199331 0 0.41401194260749391 -0.028450411104576211 0 0.41343304557213612 -0.018371446868227208 0 0.40522076275047969 -0.019933987949522329 0 0.41343304557213612 -0.018371446868227208 0 0.40806592415966281 -0.01253819616599721 0 0.40522076275047969 -0.019933987949522329 0 0.40806592415966281 -0.01253819616599721 0 0.4135204533098043 -0.0054466611181140526 0 0.41498054603746559 -0.011947546426581419 0 0.41343304557213612 -0.018371446868227208 0 0.40806592415966281 -0.01253819616599721 0 0.41498054603746559 -0.011947546426581419 0 0.41081432206005303 0.0037114498956348132 0 0.4135204533098043 -0.0054466611181140526 0 0.4046584776842293 -0.0050702490882302163 0 0.40806592415966281 -0.01253819616599721 0 0.4135204533098043 -0.0054466611181140526 0 0.4046584776842293 -0.0050702490882302163 0 0.41081432206005303 0.0037114498956348132 0 0.42248564151892998 0.0016345051066286029 0 0.4135204533098043 -0.0054466611181140526 0 0.42248564151892998 0.0016345051066286029 0 0.4135204533098043 -0.0054466611181140526 0 0.42119781252485211 -0.0083000839364812864 0 0.41343304557213612 -0.018371446868227208 0 0.41498054603746559 -0.011947546426581419 0 0.41928481904255338 -0.01548900553927589 0 0.4135204533098043 -0.0054466611181140526 0 0.41498054603746559 -0.011947546426581419 0 0.42119781252485211 -0.0083000839364812864 0 0.41498054603746559 -0.011947546426581419 0 0.42119781252485211 -0.0083000839364812864 0 0.41928481904255338 -0.01548900553927589 0 0.42542521438275183 -0.0144422395697206 0 0.42820760236351979 -0.0076976995852137747 0 0.42907711285764621 -0.01818842757435184 0 0.4382820622288856 -0.0014159552958160841 0 0.42820760236351979 -0.0076976995852137747 0 0.42907711285764621 -0.01818842757435184 0 0.42119781252485211 -0.0083000839364812864 0 0.41928481904255338 -0.01548900553927589 0 0.42542521438275183 -0.0144422395697206 0 0.42248564151892998 0.0016345051066286029 0 0.4382820622288856 -0.0014159552958160841 0 0.42820760236351979 -0.0076976995852137747 0 0.42119781252485211 -0.0083000839364812864 0 0.42542521438275183 -0.0144422395697206 0 0.42820760236351979 -0.0076976995852137747 0 0.42248564151892998 0.0016345051066286029 0 0.42119781252485211 -0.0083000839364812864 0 0.42820760236351979 -0.0076976995852137747 0 0.44971415759127392 -0.039358306738208573 0 0.42907711285764621 -0.01818842757435184 0 0.42742255973229643 -0.030069766767760062 0 0.42011428296152808 -0.02169968792975261 0 0.42907711285764621 -0.01818842757435184 0 0.42742255973229643 -0.030069766767760062 0 0.42011428296152808 -0.02169968792975261 0 0.42542521438275183 -0.0144422395697206 0 0.42907711285764621 -0.01818842757435184 0 0.42011428296152808 -0.02169968792975261 0 0.42907711285764621 -0.01818842757435184 0 0.42542521438275183 -0.0144422395697206 0 0.42907711285764621 -0.01818842757435184 0 0.44971415759127392 -0.039358306738208573 0 0.42742255973229643 -0.030069766767760062 0 0.42419530264354072 -0.042652000491910397 0 0.41401194260749391 -0.028450411104576211 0 0.42742255973229643 -0.030069766767760062 0 0.42419530264354072 -0.042652000491910397 0 0.43963483674523918 -0.055334607978488382 0 0.42419530264354072 -0.042652000491910397 0 0.41814417465091752 -0.061397621471661459 0 0.41814417465091752 -0.061397621471661459 0 0.41107184061272262 -0.047596707948501772 0 0.39379637821942232 -0.04878788226426127 0 0.42419530264354072 -0.042652000491910397 0 0.41814417465091752 -0.061397621471661459 0 0.41107184061272262 -0.047596707948501772 0 0.41401194260749391 -0.028450411104576211 0 0.42419530264354072 -0.042652000491910397 0 0.40815150693701141 -0.037549327566173699 0 0.42419530264354072 -0.042652000491910397 0 0.41107184061272262 -0.047596707948501772 0 0.40815150693701141 -0.037549327566173699 0 0.41401194260749391 -0.028450411104576211 0 0.40815150693701141 -0.037549327566173699 0 0.40044964155059998 -0.029094842751199331 0 0.41107184061272262 -0.047596707948501772 0 0.40815150693701141 -0.037549327566173699 0 0.39379637821942232 -0.04878788226426127 0 0.40815150693701141 -0.037549327566173699 0 0.39379637821942232 -0.04878788226426127 0 0.40044964155059998 -0.029094842751199331 0 0.39379637821942232 -0.04878788226426127 0 0.38867892262788012 -0.028322223649632432 0 0.39379637821942232 -0.04878788226426127 0 0.38867892262788012 -0.028322223649632432 0 0.40044964155059998 -0.029094842751199331 0 0.39967735397270959 -0.072307000297579083 0 0.39379637821942232 -0.04878788226426127 0 0.38669795957132042 -0.057310603286660967 0 0.41814417465091752 -0.061397621471661459 0 0.39379637821942232 -0.04878788226426127 0 0.39967735397270959 -0.072307000297579083 0 0.39379637821942232 -0.04878788226426127 0 0.39967735397270959 -0.072307000297579083 0 0.41814417465091752 -0.061397621471661459 0 0.39379637821942232 -0.04878788226426127 0 0.39379637821942232 -0.04878788226426127 0 0.38896036142985008 -0.046283306103098283 0 0.38669795957132042 -0.057310603286660967 0 0.37839056082150663 -0.050608978831784571 0 0.37240766699872252 -0.068318548019290964 0 0.38669795957132042 -0.057310603286660967 0 0.37839056082150663 -0.050608978831784571 0 0.38896036142985008 -0.046283306103098283 0 0.39379637821942232 -0.04878788226426127 0 0.38669795957132042 -0.057310603286660967 0 0.38896036142985008 -0.046283306103098283 0 0.39379637821942232 -0.04878788226426127 0 0.38896036142985008 -0.046283306103098283 0 0.38867892262788012 -0.028322223649632432 0 0.3834615598562825 -0.037386722635115492 0 0.38896036142985008 -0.046283306103098283 0 0.38867892262788012 -0.028322223649632432 0 0.37839056082150663 -0.050608978831784571 0 0.3834615598562825 -0.037386722635115492 0 0.38896036142985008 -0.046283306103098283 0 0.37839056082150663 -0.050608978831784571 0 0.3834615598562825 -0.037386722635115492 0 0.37356965880113402 -0.040783236975350308 0 0.38867892262788012 -0.028322223649632432 0 0.38356146703633898 -0.0078565650350033434 0 0.3834615598562825 -0.037386722635115492 0 0.37600683512296651 -0.014087071697862221 0 0.37356965880113402 -0.040783236975350308 0 0.3834615598562825 -0.037386722635115492 0 0.38867892262788012 -0.028322223649632432 0 0.37600683512296651 -0.014087071697862221 0 0.38867892262788012 -0.028322223649632432 0 0.37600683512296651 -0.014087071697862221 0 0.38356146703633898 -0.0078565650350033434 0 0.38867892262788012 -0.028322223649632432 0 0.39658225960386179 -0.014459285545308009 0 0.38356146703633898 -0.0078565650350033434 0 0.38867892262788012 -0.028322223649632432 0 0.40044964155059998 -0.029094842751199331 0 0.39658225960386179 -0.014459285545308009 0 0.40522076275047969 -0.019933987949522329 0 0.40044964155059998 -0.029094842751199331 0 0.39658225960386179 -0.014459285545308009 0 0.40806592415966281 -0.01253819616599721 0 0.40522076275047969 -0.019933987949522329 0 0.39658225960386179 -0.014459285545308009 0 0.40060323373222451 0.0042547197705496897 0 0.4046584776842293 -0.0050702490882302163 0 0.39531848553630572 -0.0042569273994520467 0 0.40806592415966281 -0.01253819616599721 0 0.4046584776842293 -0.0050702490882302163 0 0.39658225960386179 -0.014459285545308009 0 0.4046584776842293 -0.0050702490882302163 0 0.39658225960386179 -0.014459285545308009 0 0.39531848553630572 -0.0042569273994520467 0 0.39658225960386179 -0.014459285545308009 0 0.39531848553630572 -0.0042569273994520467 0 0.38356146703633898 -0.0078565650350033434 0 0.39025836247721268 0.0036292771787240202 0 0.39531848553630572 -0.0042569273994520467 0 0.38356146703633898 -0.0078565650350033434 0 0.37844401144479839 0.012609093579625891 0 0.37600683512296651 -0.014087071697862221 0 0.37844401144479839 0.012609093579625891 0 0.37600683512296651 -0.014087071697862221 0 0.38356146703633898 -0.0078565650350033434 0 0.37600683512296651 -0.014087071697862221 0 0.36665723294200347 -0.001883505129568449 0 0.35850646790810559 -0.01395473468271459 0 0.37844401144479839 0.012609093579625891 0 0.37600683512296651 -0.014087071697862221 0 0.36665723294200347 -0.001883505129568449 0 0.36665723294200347 -0.001883505129568449 0 0.35531676971978082 -0.0033532784323768001 0 0.35850646790810559 -0.01395473468271459 0 0.37600683512296651 -0.014087071697862221 0 0.37356965880113402 -0.040783236975350308 0 0.37600683512296651 -0.014087071697862221 0 0.36404947753274258 -0.026706798856440471 0 0.35850646790810559 -0.01395473468271459 0 0.37600683512296651 -0.014087071697862221 0 0.36404947753274258 -0.026706798856440471 0 0.37356965880113402 -0.040783236975350308 0 0.34748556133762742 -0.02738266599094942 0 0.35850646790810559 -0.01395473468271459 0 0.34370628527030811 -0.0115647124322744 0 0.36404947753274258 -0.026706798856440471 0 0.34748556133762742 -0.02738266599094942 0 0.35850646790810559 -0.01395473468271459 0 0.36404947753274258 -0.026706798856440471 0 0.34748556133762742 -0.02738266599094942 0 0.36012817770438982 -0.039413746555128387 0 0.33689267375143878 0.0039255003288513873 0 0.35531676971978082 -0.0033532784323768001 0 0.34370628527030811 -0.0115647124322744 0 0.35531676971978082 -0.0033532784323768001 0 0.35850646790810559 -0.01395473468271459 0 0.34370628527030811 -0.0115647124322744 0 0.33689267375143878 0.0039255003288513873 0 0.34370628527030811 -0.0115647124322744 0 0.32469666258817742 -0.019557632270551 0 0.33689267375143878 0.0039255003288513873 0 0.30352242257352219 0.0039185454548519476 0 0.32469666258817742 -0.019557632270551 0 0.34748556133762742 -0.02738266599094942 0 0.34370628527030811 -0.0115647124322744 0 0.32469666258817742 -0.019557632270551 0 0.34748556133762742 -0.02738266599094942 0 0.32469666258817742 -0.019557632270551 0 0.33457477032001748 -0.043965109755099818 0 0.31326255248553708 -0.043768501277314603 0 0.32924913997341337 -0.063603686862235317 0 0.31014365419524398 -0.06072536978512106 0 0.31326255248553708 -0.043768501277314603 0 0.32924913997341337 -0.063603686862235317 0 0.31326255248553708 -0.043768501277314603 0 0.33457477032001748 -0.043965109755099818 0 0.32924913997341337 -0.063603686862235317 0 0.32469666258817742 -0.019557632270551 0 0.31326255248553708 -0.043768501277314603 0 0.33457477032001748 -0.043965109755099818 0 0.33457477032001748 -0.043965109755099818 0 0.34313363496153881 -0.061193084728204693 0 0.35029003257871461 -0.048624574981710279 0 0.33457477032001748 -0.043965109755099818 0 0.34313363496153881 -0.061193084728204693 0 0.32924913997341337 -0.063603686862235317 0 0.35029003257871461 -0.048624574981710279 0 0.36524615827173029 -0.053571455971191423 0 0.35631850447425872 -0.066333179594821989 0 0.34313363496153881 -0.061193084728204693 0 0.35029003257871461 -0.048624574981710279 0 0.35631850447425872 -0.066333179594821989 0 0.35029003257871461 -0.048624574981710279 0 0.36012817770438982 -0.039413746555128387 0 0.36524615827173029 -0.053571455971191423 0 0.34748556133762742 -0.02738266599094942 0 0.33457477032001748 -0.043965109755099818 0 0.35029003257871461 -0.048624574981710279 0 0.34748556133762742 -0.02738266599094942 0 0.35029003257871461 -0.048624574981710279 0 0.36012817770438982 -0.039413746555128387 0 0.36404947753274258 -0.026706798856440471 0 0.36012817770438982 -0.039413746555128387 0 0.37356965880113402 -0.040783236975350308 0 0.36012817770438982 -0.039413746555128387 0 0.37356965880113402 -0.040783236975350308 0 0.36524615827173029 -0.053571455971191423 0 0.37839056082150663 -0.050608978831784571 0 0.36524615827173029 -0.053571455971191423 0 0.37240766699872252 -0.068318548019290964 0 0.37839056082150663 -0.050608978831784571 0 0.37356965880113402 -0.040783236975350308 0 0.36524615827173029 -0.053571455971191423 0 0.36524615827173029 -0.053571455971191423 0 0.37240766699872252 -0.068318548019290964 0 0.35631850447425872 -0.066333179594821989 0 0.37240766699872252 -0.068318548019290964 0 0.36259903827425999 -0.08213590949324566 0 0.35631850447425872 -0.066333179594821989 0 0.37781097748786241 -0.089314889372882261 0 0.37240766699872252 -0.068318548019290964 0 0.36259903827425999 -0.08213590949324566 0 0.37781097748786241 -0.089314889372882261 0 0.36259903827425999 -0.08213590949324566 0 0.3612223149491664 -0.1032740580320769 0 0.34523572746128989 -0.083438872447156087 0 0.3612223149491664 -0.1032740580320769 0 0.36259903827425999 -0.08213590949324566 0 0.34523572746128989 -0.083438872447156087 0 0.3612223149491664 -0.1032740580320769 0 0.34313363496153881 -0.061193084728204693 0 0.34523572746128989 -0.083438872447156087 0 0.35631850447425872 -0.066333179594821989 0 0.36259903827425999 -0.08213590949324566 0 0.34523572746128989 -0.083438872447156087 0 0.35631850447425872 -0.066333179594821989 0 0.37720890243704291 -0.12310924361699779 0 0.36253108037134668 -0.1248744885805331 0 0.3612223149491664 -0.1032740580320769 0 0.37644505785585192 -0.1058120404938334 0 0.37720890243704291 -0.12310924361699779 0 0.3612223149491664 -0.1032740580320769 0 0.37720890243704291 -0.12310924361699779 0 0.3612223149491664 -0.1032740580320769 0 0.37781097748786241 -0.089314889372882261 0 0.37644505785585192 -0.1058120404938334 0 0.3612223149491664 -0.1032740580320769 0 0.34523572746128989 -0.083438872447156087 0 0.3612223149491664 -0.1032740580320769 0 0.33932087337301742 -0.1007066993955318 0 0.3612223149491664 -0.1032740580320769 0 0.34941185211170689 -0.1127717253903176 0 0.33932087337301742 -0.1007066993955318 0 0.36253108037134668 -0.1248744885805331 0 0.33587402752894302 -0.122350175475488 0 0.36253108037134668 -0.1248744885805331 0 0.34941185211170689 -0.1127717253903176 0 0.33587402752894302 -0.122350175475488 0 0.36253108037134668 -0.1248744885805331 0 0.3612223149491664 -0.1032740580320769 0 0.34941185211170689 -0.1127717253903176 0 0.34941185211170689 -0.1127717253903176 0 0.33587402752894302 -0.122350175475488 0 0.33932087337301742 -0.1007066993955318 0 0.33587402752894302 -0.122350175475488 0 0.33932087337301742 -0.1007066993955318 0 0.31943204723016899 -0.10139701157958859 0 0.33932087337301742 -0.1007066993955318 0 0.31943204723016899 -0.10139701157958859 0 0.32474927095682959 -0.081008353448563344 0 0.33587402752894302 -0.122350175475488 0 0.31943204723016899 -0.10139701157958859 0 0.3092169746865393 -0.1198258623704429 0 0.33587402752894302 -0.122350175475488 0 0.3092169746865393 -0.1198258623704429 0 0.34523572746128989 -0.083438872447156087 0 0.32924913997341337 -0.063603686862235317 0 0.32474927095682959 -0.081008353448563344 0 0.34523572746128989 -0.083438872447156087 0 0.32924913997341337 -0.063603686862235317 0 0.34313363496153881 -0.061193084728204693 0 0.34523572746128989 -0.083438872447156087 0 0.32924913997341337 -0.063603686862235317 0 0.34523572746128989 -0.083438872447156087 0 0.33932087337301742 -0.1007066993955318 0 0.32474927095682959 -0.081008353448563344 0 0.31943204723016899 -0.10139701157958859 0 0.32474927095682959 -0.081008353448563344 0 0.31117343018006932 -0.08835554327446378 0 0.32474927095682959 -0.081008353448563344 0 0.30201438303726968 -0.075929904193525521 0 0.32474927095682959 -0.081008353448563344 0 0.30201438303726968 -0.075929904193525521 0 0.31117343018006932 -0.08835554327446378 0 0.32924913997341337 -0.063603686862235317 0 0.32474927095682959 -0.081008353448563344 0 0.31014365419524398 -0.06072536978512106 0 0.32474927095682959 -0.081008353448563344 0 0.30201438303726968 -0.075929904193525521 0 0.31014365419524398 -0.06072536978512106 0 0.30201438303726968 -0.075929904193525521 0 0.31014365419524398 -0.06072536978512106 0 0.29222542489931519 -0.060978945333093171 0 0.31117343018006932 -0.08835554327446378 0 0.29442961060618023 -0.089764156713605506 0 0.30306705175182019 -0.101009202806625 0 0.30201438303726968 -0.075929904193525521 0 0.31117343018006932 -0.08835554327446378 0 0.29442961060618023 -0.089764156713605506 0 0.29442961060618023 -0.089764156713605506 0 0.28691460331806928 -0.079185378374353493 0 0.27734124638624891 -0.089737863242296378 0 0.30201438303726968 -0.075929904193525521 0 0.29442961060618023 -0.089764156713605506 0 0.28691460331806928 -0.079185378374353493 0 0.30201438303726968 -0.075929904193525521 0 0.27927949511770961 -0.070851454938488739 0 0.29222542489931519 -0.060978945333093171 0 0.30201438303726968 -0.075929904193525521 0 0.27927949511770961 -0.070851454938488739 0 0.30201438303726968 -0.075929904193525521 0 0.28691460331806928 -0.079185378374353493 0 0.27927949511770961 -0.070851454938488739 0 0.28691460331806928 -0.079185378374353493 0 0.27927949511770961 -0.070851454938488739 0 0.27809334201771629 -0.079209584513290715 0 0.28691460331806928 -0.079185378374353493 0 0.27927949511770961 -0.070851454938488739 0 0.27927949511770961 -0.070851454938488739 0 0.27868582307562201 -0.055886184139343542 0 0.29222542489931519 -0.060978945333093171 0 0.31943204723016899 -0.10139701157958859 0 0.3092169746865393 -0.1198258623704429 0 0.30306705175182019 -0.101009202806625 0 0.3092169746865393 -0.1198258623704429 0 0.30306705175182019 -0.101009202806625 0 0.28879183359809052 -0.10393054527906551 0 0.31943204723016899 -0.10139701157958859 0 0.31117343018006932 -0.08835554327446378 0 0.30306705175182019 -0.101009202806625 0 0.28879183359809052 -0.10393054527906551 0 0.28255992184413548 -0.11730154926539781 0 0.27267591943638608 -0.1048970298088977 0 0.29442961060618023 -0.089764156713605506 0 0.28879183359809052 -0.10393054527906551 0 0.27734124638624891 -0.089737863242296378 0 0.29442961060618023 -0.089764156713605506 0 0.30306705175182019 -0.101009202806625 0 0.28879183359809052 -0.10393054527906551 0 0.3092169746865393 -0.1198258623704429 0 0.28255992184413548 -0.11730154926539781 0 0.3092169746865393 -0.1198258623704429 0 0.28879183359809052 -0.10393054527906551 0 0.28255992184413548 -0.11730154926539781 0 0.3092169746865393 -0.1198258623704429 0 0.28255992184413548 -0.11730154926539781 0 0.28721398294742878 -0.13035474923543569 0 0.28255992184413548 -0.11730154926539781 0 0.26776517015272971 -0.1222840496799191 0 0.28721398294742878 -0.13035474923543569 0 0.28255992184413548 -0.11730154926539781 0 0.26776517015272971 -0.1222840496799191 0 0.27267591943638608 -0.1048970298088977 0 0.26776517015272971 -0.1222840496799191 0 0.27267591943638608 -0.1048970298088977 0 0.26047800574605201 -0.11084537767631369 0 0.28879183359809052 -0.10393054527906551 0 0.27267591943638608 -0.1048970298088977 0 0.27734124638624891 -0.089737863242296378 0 0.27267591943638608 -0.1048970298088977 0 0.27734124638624891 -0.089737863242296378 0 0.26256105175446781 -0.092679464148907056 0 0.25771864553297669 -0.099620140202181948 0 0.26047800574605201 -0.11084537767631369 0 0.24375228786211539 -0.116580291014256 0 0.27267591943638608 -0.1048970298088977 0 0.25771864553297669 -0.099620140202181948 0 0.26256105175446781 -0.092679464148907056 0 0.25771864553297669 -0.099620140202181948 0 0.25304747237378489 -0.090741332181114118 0 0.24292322406264641 -0.096552741650977186 0 0.25771864553297669 -0.099620140202181948 0 0.26256105175446781 -0.092679464148907056 0 0.25304747237378489 -0.090741332181114118 0 0.27267591943638608 -0.1048970298088977 0 0.25771864553297669 -0.099620140202181948 0 0.26047800574605201 -0.11084537767631369 0 0.26776517015272971 -0.1222840496799191 0 0.26153006621115998 -0.13421007507225571 0 0.24375228786211539 -0.116580291014256 0 0.26776517015272971 -0.1222840496799191 0 0.24375228786211539 -0.116580291014256 0 0.26776517015272971 -0.1222840496799191 0 0.26047800574605201 -0.11084537767631369 0 0.24375228786211539 -0.116580291014256 0 0.27927949511770961 -0.070851454938488739 0 0.25811154610651499 -0.066123023671663908 0 0.26329678137076351 -0.053405898285071182 0 0.27927949511770961 -0.070851454938488739 0 0.25811154610651499 -0.066123023671663908 0 0.26883802324883782 -0.077063641498024305 0 0.27927949511770961 -0.070851454938488739 0 0.25811154610651499 -0.066123023671663908 0 0.26883802324883782 -0.077063641498024305 0 0.27927949511770961 -0.070851454938488739 0 0.27809334201771629 -0.079209584513290715 0 0.26883802324883782 -0.077063641498024305 0 0.27809334201771629 -0.079209584513290715 0 0.27734124638624891 -0.089737863242296378 0 0.26883802324883782 -0.077063641498024305 0 0.27734124638624891 -0.089737863242296378 0 0.25202197504294188 -0.078400955310045109 0 0.28691460331806928 -0.079185378374353493 0 0.27809334201771629 -0.079209584513290715 0 0.27734124638624891 -0.089737863242296378 0 0.27734124638624891 -0.089737863242296378 0 0.26256105175446781 -0.092679464148907056 0 0.25202197504294188 -0.078400955310045109 0 0.27734124638624891 -0.089737863242296378 0 0.25202197504294188 -0.078400955310045109 0 0.26256105175446781 -0.092679464148907056 0 0.25304747237378489 -0.090741332181114118 0 0.25202197504294188 -0.078400955310045109 0 0.25304747237378489 -0.090741332181114118 0 0.25202197504294188 -0.078400955310045109 0 0.24624903761231479 -0.086847438891893419 0 0.26883802324883782 -0.077063641498024305 0 0.25202197504294188 -0.078400955310045109 0 0.25811154610651499 -0.066123023671663908 0 0.25811154610651499 -0.066123023671663908 0 0.26329678137076351 -0.053405898285071182 0 0.24870160087168189 -0.052882304334001928 0 0.26329678137076351 -0.053405898285071182 0 0.24870160087168189 -0.052882304334001928 0 0.24731406762381819 -0.035960341631652723 0 0.27927949511770961 -0.070851454938488739 0 0.26329678137076351 -0.053405898285071182 0 0.27868582307562201 -0.055886184139343542 0 0.27927949511770961 -0.070851454938488739 0 0.26329678137076351 -0.053405898285071182 0 0.26329678137076351 -0.053405898285071182 0 0.27868582307562201 -0.055886184139343542 0 0.27337213238318842 -0.044040078526876879 0 0.27868582307562201 -0.055886184139343542 0 0.27337213238318842 -0.044040078526876879 0 0.28525528160713332 -0.050154543613187753 0 0.26329678137076351 -0.053405898285071182 0 0.27337213238318842 -0.044040078526876879 0 0.26311483972878968 -0.036713614733010089 0 0.27337213238318842 -0.044040078526876879 0 0.27217486102646721 -0.027861542379398439 0 0.28494473946257981 -0.034556038004921102 0 0.27337213238318842 -0.044040078526876879 0 0.26311483972878968 -0.036713614733010089 0 0.27217486102646721 -0.027861542379398439 0 0.27337213238318842 -0.044040078526876879 0 0.28525528160713332 -0.050154543613187753 0 0.28494473946257981 -0.034556038004921102 0 0.26311483972878968 -0.036713614733010089 0 0.25941635623971138 -0.02230021284205122 0 0.24731406762381819 -0.035960341631652723 0 0.26329678137076351 -0.053405898285071182 0 0.24731406762381819 -0.035960341631652723 0 0.26329678137076351 -0.053405898285071182 0 0.26311483972878968 -0.036713614733010089 0 0.24731406762381819 -0.035960341631652723 0 0.25941635623971138 -0.02230021284205122 0 0.24731406762381819 -0.035960341631652723 0 0.2482857443068576 -0.021714794414400052 0 0.25941635623971138 -0.02230021284205122 0 0.25508119948702751 -0.010083838205662381 0 0.2482857443068576 -0.021714794414400052 0 0.26311483972878968 -0.036713614733010089 0 0.25941635623971138 -0.02230021284205122 0 0.27217486102646721 -0.027861542379398439 0 0.2541426920980116 -0.0036136263454906951 0 0.25508119948702751 -0.010083838205662381 0 0.24138147174972829 -0.0061427828714447699 0 0.2541426920980116 -0.0036136263454906951 0 0.25508119948702751 -0.010083838205662381 0 0.26047117107291767 -0.0019720443344692288 0 0.25446675038947358 0.0029162606258486688 0 0.2541426920980116 -0.0036136263454906951 0 0.26047117107291767 -0.0019720443344692288 0 0.25941635623971138 -0.02230021284205122 0 0.25508119948702751 -0.010083838205662381 0 0.26474460583379889 -0.01023883548432745 0 0.25941635623971138 -0.02230021284205122 0 0.26474460583379889 -0.01023883548432745 0 0.27166734417845928 -0.01430021117376327 0 0.25508119948702751 -0.010083838205662381 0 0.26474460583379889 -0.01023883548432745 0 0.26047117107291767 -0.0019720443344692288 0 0.26474460583379889 -0.01023883548432745 0 0.26047117107291767 -0.0019720443344692288 0 0.27708695819087842 -0.0025378708656911609 0 0.26474460583379889 -0.01023883548432745 0 0.27166734417845928 -0.01430021117376327 0 0.27708695819087842 -0.0025378708656911609 0 0.27166734417845928 -0.01430021117376327 0 0.27708695819087842 -0.0025378708656911609 0 0.28469269166600031 -0.01545933141113482 0 0.27217486102646721 -0.027861542379398439 0 0.28469269166600031 -0.01545933141113482 0 0.28494473946257981 -0.034556038004921102 0 0.25941635623971138 -0.02230021284205122 0 0.27166734417845928 -0.01430021117376327 0 0.27217486102646721 -0.027861542379398439 0 0.27166734417845928 -0.01430021117376327 0 0.27217486102646721 -0.027861542379398439 0 0.28469269166600031 -0.01545933141113482 0 0.28469269166600031 -0.01545933141113482 0 0.29727596499766062 -0.023933315692393788 0 0.28494473946257981 -0.034556038004921102 0 0.30352242257352219 0.0039185454548519476 0 0.28469269166600031 -0.01545933141113482 0 0.29727596499766062 -0.023933315692393788 0 0.30352242257352219 0.0039185454548519476 0 0.27708695819087842 -0.0025378708656911609 0 0.28469269166600031 -0.01545933141113482 0 0.30352242257352219 0.0039185454548519476 0 0.32469666258817742 -0.019557632270551 0 0.29727596499766062 -0.023933315692393788 0 0.32469666258817742 -0.019557632270551 0 0.31326255248553708 -0.043768501277314603 0 0.29727596499766062 -0.023933315692393788 0 0.31326255248553708 -0.043768501277314603 0 0.29727596499766062 -0.023933315692393788 0 0.2968975050950291 -0.045887416406534938 0 0.31326255248553708 -0.043768501277314603 0 0.29727596499766062 -0.023933315692393788 0 0.31326255248553708 -0.043768501277314603 0 0.2968975050950291 -0.045887416406534938 0 0.31014365419524398 -0.06072536978512106 0 0.2968975050950291 -0.045887416406534938 0 0.31014365419524398 -0.06072536978512106 0 0.29222542489931519 -0.060978945333093171 0 0.2968975050950291 -0.045887416406534938 0 0.29222542489931519 -0.060978945333093171 0 0.28525528160713332 -0.050154543613187753 0 0.27868582307562201 -0.055886184139343542 0 0.29222542489931519 -0.060978945333093171 0 0.28525528160713332 -0.050154543613187753 0 0.2968975050950291 -0.045887416406534938 0 0.28525528160713332 -0.050154543613187753 0 0.28494473946257981 -0.034556038004921102 0 0.29727596499766062 -0.023933315692393788 0 0.2968975050950291 -0.045887416406534938 0 0.28494473946257981 -0.034556038004921102 0 0.29579617193404978 -0.19432558104056491 0 0.30588539897632072 -0.22256652654210629 0 0.2776594049058328 -0.2175861504380624 0 0.29579617193404978 -0.19432558104056491 0 0.2776594049058328 -0.2175861504380624 0 0.2764107852420567 -0.19644220614923899 0 0.29579617193404978 -0.19432558104056491 0 0.2764107852420567 -0.19644220614923899 0 0.2792899687438003 -0.18116405860585089 0 0.29579617193404978 -0.19432558104056491 0 0.31045946319455608 -0.20263901644370941 0 0.31057073564158039 -0.17760626025882659 0 0.29579617193404978 -0.19432558104056491 0 0.30588539897632072 -0.22256652654210629 0 0.31045946319455608 -0.20263901644370941 0 0.30588539897632072 -0.22256652654210629 0 0.32020032842118662 -0.2136972324735969 0 0.29579617193404978 -0.19432558104056491 0 0.31045946319455608 -0.20263901644370941 0 0.30588539897632072 -0.22256652654210629 0 0.29681701546221179 -0.23419681124085551 0 0.31597462601859122 -0.25080747204364812 0 0.30111904597271899 -0.2536098058489899 0 0.30588539897632072 -0.22256652654210629 0 0.29681701546221179 -0.23419681124085551 0 0.31597462601859122 -0.25080747204364812 0 0.30588539897632072 -0.22256652654210629 0 0.31597462601859122 -0.25080747204364812 0 0.29681701546221179 -0.23419681124085551 0 0.31597462601859122 -0.25080747204364812 0 0.29681701546221179 -0.23419681124085551 0 0.30111904597271899 -0.2536098058489899 0 0.28456511698073272 -0.25518130134833977 0 0.29681701546221179 -0.23419681124085551 0 0.27830026498091959 -0.23745462562099759 0 0.28456511698073272 -0.25518130134833977 0 0.30588539897632072 -0.22256652654210629 0 0.29681701546221179 -0.23419681124085551 0 0.2776594049058328 -0.2175861504380624 0 0.29681701546221179 -0.23419681124085551 0 0.27830026498091959 -0.23745462562099759 0 0.2776594049058328 -0.2175861504380624 0 0.29681701546221179 -0.23419681124085551 0 0.2776594049058328 -0.2175861504380624 0 0.26584409390649738 -0.23415831621220631 0 0.27830026498091959 -0.23745462562099759 0 0.2776594049058328 -0.2175861504380624 0 0.26584409390649738 -0.23415831621220631 0 0.25658827463044448 -0.2222138965281123 0 0.2776594049058328 -0.2175861504380624 0 0.27830026498091959 -0.23745462562099759 0 0.28456511698073272 -0.25518130134833977 0 0.26629969424128969 -0.25192769388052821 0 0.26584409390649738 -0.23415831621220631 0 0.27830026498091959 -0.23745462562099759 0 0.26629969424128969 -0.25192769388052821 0 0.26584409390649738 -0.23415831621220631 0 0.25037283077400019 -0.2416092145933311 0 0.26629969424128969 -0.25192769388052821 0 0.25037283077400019 -0.2416092145933311 0 0.25658827463044448 -0.2222138965281123 0 0.2446094219978813 -0.2276121794933563 0 0.26584409390649738 -0.23415831621220631 0 0.25037283077400019 -0.2416092145933311 0 0.25658827463044448 -0.2222138965281123 0 0.25658827463044448 -0.2222138965281123 0 0.2776594049058328 -0.2175861504380624 0 0.25850179434945381 -0.20097548963526929 0 0.25658827463044448 -0.2222138965281123 0 0.25850179434945381 -0.20097548963526929 0 0.23907695871134879 -0.21289681242661959 0 0.2776594049058328 -0.2175861504380624 0 0.25850179434945381 -0.20097548963526929 0 0.2776594049058328 -0.2175861504380624 0 0.2764107852420567 -0.19644220614923899 0 0.25850179434945381 -0.20097548963526929 0 0.2764107852420567 -0.19644220614923899 0 0.25850179434945381 -0.20097548963526929 0 0.26539786460737957 -0.18100391429238191 0 0.25850179434945381 -0.20097548963526929 0 0.26539786460737957 -0.18100391429238191 0 0.23934418379307471 -0.18436482883247621 0 0.26539786460737957 -0.18100391429238191 0 0.25449645062408999 -0.16331052089379791 0 0.23934418379307471 -0.18436482883247621 0 0.26539786460737957 -0.18100391429238191 0 0.25449645062408999 -0.16331052089379791 0 0.27043371620885309 -0.16438603764101259 0 0.25449645062408999 -0.16331052089379791 0 0.27043371620885309 -0.16438603764101259 0 0.2633734196266177 -0.15149826902969399 0 0.27043371620885309 -0.16438603764101259 0 0.2792899687438003 -0.18116405860585089 0 0.28570694489177878 -0.1660846355390232 0 0.27043371620885309 -0.16438603764101259 0 0.27930784456020519 -0.15183985913025491 0 0.28570694489177878 -0.1660846355390232 0 0.26539786460737957 -0.18100391429238191 0 0.27043371620885309 -0.16438603764101259 0 0.2792899687438003 -0.18116405860585089 0 0.2764107852420567 -0.19644220614923899 0 0.26539786460737957 -0.18100391429238191 0 0.2792899687438003 -0.18116405860585089 0 0.26153006621115998 -0.13421007507225571 0 0.24375228786211539 -0.116580291014256 0 0.24955680073527009 -0.143898101237383 0 0.26153006621115998 -0.13421007507225571 0 0.24375228786211539 -0.116580291014256 0 0.25449645062408999 -0.16331052089379791 0 0.2633734196266177 -0.15149826902969399 0 0.24955680073527009 -0.143898101237383 0 0.26153006621115998 -0.13421007507225571 0 0.2633734196266177 -0.15149826902969399 0 0.24955680073527009 -0.143898101237383 0 0.27043371620885309 -0.16438603764101259 0 0.2633734196266177 -0.15149826902969399 0 0.27930784456020519 -0.15183985913025491 0 0.27561771784950778 -0.13784369003748159 0 0.28570694489177878 -0.1660846355390232 0 0.26153006621115998 -0.13421007507225571 0 0.27930784456020519 -0.15183985913025491 0 0.27561771784950778 -0.13784369003748159 0 0.27930784456020519 -0.15183985913025491 0 0.27561771784950778 -0.13784369003748159 0 0.28570694489177878 -0.1660846355390232 0 0.26153006621115998 -0.13421007507225571 0 0.2633734196266177 -0.15149826902969399 0 0.27930784456020519 -0.15183985913025491 0 0.26153006621115998 -0.13421007507225571 0 0.27930784456020519 -0.15183985913025491 0 0.26776517015272971 -0.1222840496799191 0 0.27561771784950778 -0.13784369003748159 0 0.28721398294742878 -0.13035474923543569 0 0.26776517015272971 -0.1222840496799191 0 0.26153006621115998 -0.13421007507225571 0 0.27561771784950778 -0.13784369003748159 0 0.27561771784950778 -0.13784369003748159 0 0.28721398294742878 -0.13035474923543569 0 0.28891568690104508 -0.14625428249578579 0 0.28721398294742878 -0.13035474923543569 0 0.28891568690104508 -0.14625428249578579 0 0.29920842625061578 -0.1386190615635868 0 0.28891568690104508 -0.14625428249578579 0 0.29920842625061578 -0.1386190615635868 0 0.29789574789403661 -0.15876522012859751 0 0.27561771784950778 -0.13784369003748159 0 0.28891568690104508 -0.14625428249578579 0 0.28570694489177878 -0.1660846355390232 0 0.30985117626407932 -0.1486491484402036 0 0.29920842625061578 -0.1386190615635868 0 0.29789574789403661 -0.15876522012859751 0 0.30985117626407932 -0.1486491484402036 0 0.29789574789403661 -0.15876522012859751 0 0.3134799250960158 -0.16133035304856411 0 0.30985117626407932 -0.1486491484402036 0 0.29920842625061578 -0.1386190615635868 0 0.31980994510895661 -0.13408045692276491 0 0.3092169746865393 -0.1198258623704429 0 0.28721398294742878 -0.13035474923543569 0 0.29920842625061578 -0.1386190615635868 0 0.3092169746865393 -0.1198258623704429 0 0.29920842625061578 -0.1386190615635868 0 0.31980994510895661 -0.13408045692276491 0 0.29579617193404978 -0.19432558104056491 0 0.2792899687438003 -0.18116405860585089 0 0.28570694489177878 -0.1660846355390232 0 0.29579617193404978 -0.19432558104056491 0 0.28570694489177878 -0.1660846355390232 0 0.29579617193404978 -0.19432558104056491 0 0.28570694489177878 -0.1660846355390232 0 0.29784246694311001 -0.17248502473641619 0 0.28891568690104508 -0.14625428249578579 0 0.28570694489177878 -0.1660846355390232 0 0.29789574789403661 -0.15876522012859751 0 0.28570694489177878 -0.1660846355390232 0 0.29789574789403661 -0.15876522012859751 0 0.29784246694311001 -0.17248502473641619 0 0.29789574789403661 -0.15876522012859751 0 0.31057073564158039 -0.17760626025882659 0 0.3134799250960158 -0.16133035304856411 0 0.29789574789403661 -0.15876522012859751 0 0.31057073564158039 -0.17760626025882659 0 0.29784246694311001 -0.17248502473641619 0 0.29789574789403661 -0.15876522012859751 0 0.31057073564158039 -0.17760626025882659 0 0.29579617193404978 -0.19432558104056491 0 0.31057073564158039 -0.17760626025882659 0 0.29784246694311001 -0.17248502473641619 0 0.31057073564158039 -0.17760626025882659 0 0.33117051957001492 -0.16690810347740409 0 0.33960500058918919 -0.18923554211963439 0 0.31057073564158039 -0.17760626025882659 0 0.32324572338912438 -0.19644730038905581 0 0.3134799250960158 -0.16133035304856411 0 0.33117051957001492 -0.16690810347740409 0 0.32297156368297691 -0.15191279281852399 0 0.31057073564158039 -0.17760626025882659 0 0.3134799250960158 -0.16133035304856411 0 0.33117051957001492 -0.16690810347740409 0 0.33117051957001492 -0.16690810347740409 0 0.34312821131240068 -0.1490342399984359 0 0.35150112372442083 -0.17432517416681301 0 0.33117051957001492 -0.16690810347740409 0 0.35150112372442083 -0.17432517416681301 0 0.33960500058918919 -0.18923554211963439 0 0.33587402752894302 -0.122350175475488 0 0.3092169746865393 -0.1198258623704429 0 0.31980994510895661 -0.13408045692276491 0 0.30985117626407932 -0.1486491484402036 0 0.31980994510895661 -0.13408045692276491 0 0.32297156368297691 -0.15191279281852399 0 0.30985117626407932 -0.1486491484402036 0 0.3134799250960158 -0.16133035304856411 0 0.32297156368297691 -0.15191279281852399 0 0.33117051957001492 -0.16690810347740409 0 0.32297156368297691 -0.15191279281852399 0 0.34312821131240068 -0.1490342399984359 0 0.31980994510895661 -0.13408045692276491 0 0.32297156368297691 -0.15191279281852399 0 0.34312821131240068 -0.1490342399984359 0 0.33587402752894302 -0.122350175475488 0 0.31980994510895661 -0.13408045692276491 0 0.34312821131240068 -0.1490342399984359 0 0.36253108037134668 -0.1248744885805331 0 0.33587402752894302 -0.122350175475488 0 0.3555623608711499 -0.1359942506039106 0 0.33587402752894302 -0.122350175475488 0 0.34312821131240068 -0.1490342399984359 0 0.3555623608711499 -0.1359942506039106 0 0.34312821131240068 -0.1490342399984359 0 0.3555623608711499 -0.1359942506039106 0 0.36858459771950869 -0.15733985743645959 0 0.3555623608711499 -0.1359942506039106 0 0.36652086356581781 -0.12946943863695781 0 0.36858459771950869 -0.15733985743645959 0 0.36652086356581781 -0.12946943863695781 0 0.36858459771950869 -0.15733985743645959 0 0.36652086356581781 -0.12946943863695781 0 0.36858459771950869 -0.15733985743645959 0 0.3787995421462832 -0.1425544525875144 0 0.36652086356581781 -0.12946943863695781 0 0.37808333446084269 -0.1309391893982525 0 0.3787995421462832 -0.1425544525875144 0 0.36253108037134668 -0.1248744885805331 0 0.36652086356581781 -0.12946943863695781 0 0.37808333446084269 -0.1309391893982525 0 0.36253108037134668 -0.1248744885805331 0 0.3555623608711499 -0.1359942506039106 0 0.36652086356581781 -0.12946943863695781 0 0.35150112372442083 -0.17432517416681301 0 0.37064833187319962 -0.1852102762359614 0 0.35587008128221181 -0.19822302573298239 0 0.35150112372442083 -0.17432517416681301 0 0.35587008128221181 -0.19822302573298239 0 0.33960500058918919 -0.18923554211963439 0 0.34312821131240068 -0.1490342399984359 0 0.35150112372442083 -0.17432517416681301 0 0.36858459771950869 -0.15733985743645959 0 0.36858459771950869 -0.15733985743645959 0 0.37064833187319962 -0.1852102762359614 0 0.35150112372442083 -0.17432517416681301 0 0.36858459771950869 -0.15733985743645959 0 0.37064833187319962 -0.1852102762359614 0 0.36858459771950869 -0.15733985743645959 0 0.37064833187319962 -0.1852102762359614 0 0.3834788620725188 -0.17954848884060079 0 0.37064833187319962 -0.1852102762359614 0 0.37271206602689039 -0.21308069503546309 0 0.38139900114097952 -0.20469292352659629 0 0.37064833187319962 -0.1852102762359614 0 0.37271206602689039 -0.21308069503546309 0 0.37064833187319962 -0.1852102762359614 0 0.37271206602689039 -0.21308069503546309 0 0.35587008128221181 -0.19822302573298239 0 0.37271206602689039 -0.21308069503546309 0 0.35603419272415182 -0.2169366224123114 0 0.35587008128221181 -0.19822302573298239 0 0.35603419272415182 -0.2169366224123114 0 0.35587008128221181 -0.19822302573298239 0 0.33592071113666833 -0.21528834051928489 0 0.35587008128221181 -0.19822302573298239 0 0.33960500058918919 -0.18923554211963439 0 0.33592071113666833 -0.21528834051928489 0 0.33960500058918919 -0.18923554211963439 0 0.33592071113666833 -0.21528834051928489 0 0.32324572338912438 -0.19644730038905581 0 0.33592071113666833 -0.21528834051928489 0 0.32324572338912438 -0.19644730038905581 0 0.33592071113666833 -0.21528834051928489 0 0.32020032842118662 -0.2136972324735969 0 0.32324572338912438 -0.19644730038905581 0 0.31045946319455608 -0.20263901644370941 0 0.32020032842118662 -0.2136972324735969 0 0.32324572338912438 -0.19644730038905581 0 0.31057073564158039 -0.17760626025882659 0 0.33960500058918919 -0.18923554211963439 0 0.32324572338912438 -0.19644730038905581 0 0.31045946319455608 -0.20263901644370941 0 0.31057073564158039 -0.17760626025882659 0 0.32324572338912438 -0.19644730038905581 0 0.32549034540926353 -0.23154497847382799 0 0.33517615116993849 -0.24743488902137309 0 0.31597462601859122 -0.25080747204364812 0 0.30588539897632072 -0.22256652654210629 0 0.32549034540926353 -0.23154497847382799 0 0.31597462601859122 -0.25080747204364812 0 0.30588539897632072 -0.22256652654210629 0 0.32020032842118662 -0.2136972324735969 0 0.32549034540926353 -0.23154497847382799 0 0.33592071113666833 -0.21528834051928489 0 0.32020032842118662 -0.2136972324735969 0 0.32549034540926353 -0.23154497847382799 0 0.33592071113666833 -0.21528834051928489 0 0.32549034540926353 -0.23154497847382799 0 0.34859569888421221 -0.23412938064951411 0 0.33592071113666833 -0.21528834051928489 0 0.34859569888421221 -0.23412938064951411 0 0.32549034540926353 -0.23154497847382799 0 0.33517615116993849 -0.24743488902137309 0 0.34859569888421221 -0.23412938064951411 0 0.33517615116993849 -0.24743488902137309 0 0.34859569888421221 -0.23412938064951411 0 0.35185333732921159 -0.25428502110151557 0 0.34859569888421221 -0.23412938064951411 0 0.36075586336603621 -0.2426037127049111 0 0.35185333732921159 -0.25428502110151557 0 0.34859569888421221 -0.23412938064951411 0 0.36291464790978972 -0.22902601310760301 0 0.36075586336603621 -0.2426037127049111 0 0.35603419272415182 -0.2169366224123114 0 0.34859569888421221 -0.23412938064951411 0 0.36291464790978972 -0.22902601310760301 0 0.35603419272415182 -0.2169366224123114 0 0.33592071113666833 -0.21528834051928489 0 0.34859569888421221 -0.23412938064951411 0 0.37271206602689039 -0.21308069503546309 0 0.35603419272415182 -0.2169366224123114 0 0.36291464790978972 -0.22902601310760301 0 0.37271206602689039 -0.21308069503546309 0 0.37477580018058132 -0.24095111383496479 0 0.37555308153547928 -0.22286467051027881 0 0.37271206602689039 -0.21308069503546309 0 0.37477580018058132 -0.24095111383496479 0 0.37271206602689039 -0.21308069503546309 0 0.36291464790978972 -0.22902601310760301 0 0.37477580018058132 -0.24095111383496479 0 0.36075586336603621 -0.2426037127049111 0 0.37477580018058132 -0.24095111383496479 0 0.36563983252638571 -0.25462703483095822 0 0.36291464790978972 -0.22902601310760301 0 0.36075586336603621 -0.2426037127049111 0 0.37477580018058132 -0.24095111383496479 0 0.37477580018058132 -0.24095111383496479 0 0.39321551516580561 -0.23618023300957031 0 0.38725375881062551 -0.25185160038302579 0 0.39321551516580561 -0.23618023300957031 0 0.41087794879613182 -0.2494957955088617 0 0.40741230325918792 -0.23450562481703699 0 0.39321551516580561 -0.23618023300957031 0 0.41087794879613182 -0.2494957955088617 0 0.39321551516580561 -0.23618023300957031 0 0.38725375881062551 -0.25185160038302579 0 0.39640803358832022 -0.25154779433757402 0 0.39321551516580561 -0.23618023300957031 0 0.41087794879613182 -0.2494957955088617 0 0.39640803358832022 -0.25154779433757402 0 0.4055308246994358 -0.22407667781788709 0 0.39424069285124719 -0.22310079746779379 0 0.40434357831770951 -0.21487406561090469 0 0.4055308246994358 -0.22407667781788709 0 0.39424069285124719 -0.22310079746779379 0 0.40741230325918792 -0.23450562481703699 0 0.39321551516580561 -0.23618023300957031 0 0.39424069285124719 -0.22310079746779379 0 0.40741230325918792 -0.23450562481703699 0 0.37477580018058132 -0.24095111383496479 0 0.39321551516580561 -0.23618023300957031 0 0.37555308153547928 -0.22286467051027881 0 0.39424069285124719 -0.22310079746779379 0 0.37555308153547928 -0.22286467051027881 0 0.38300691860546521 -0.21527996176244341 0 0.39321551516580561 -0.23618023300957031 0 0.37555308153547928 -0.22286467051027881 0 0.39321551516580561 -0.23618023300957031 0 0.39424069285124719 -0.22310079746779379 0 0.37555308153547928 -0.22286467051027881 0 0.37271206602689039 -0.21308069503546309 0 0.37555308153547928 -0.22286467051027881 0 0.38300691860546521 -0.21527996176244341 0 0.37271206602689039 -0.21308069503546309 0 0.38139900114097952 -0.20469292352659629 0 0.38300691860546521 -0.21527996176244341 0 0.38139900114097952 -0.20469292352659629 0 0.39078770323730427 -0.19674260859680251 0 0.39112975147272949 -0.2126607222720846 0 0.38139900114097952 -0.20469292352659629 0 0.38300691860546521 -0.21527996176244341 0 0.39112975147272949 -0.2126607222720846 0 0.39424069285124719 -0.22310079746779379 0 0.38300691860546521 -0.21527996176244341 0 0.39112975147272949 -0.2126607222720846 0 0.37064833187319962 -0.1852102762359614 0 0.38139900114097952 -0.20469292352659629 0 0.39078770323730427 -0.19674260859680251 0 0.39078770323730427 -0.19674260859680251 0 0.40475141021500721 -0.1910589369573561 0 0.39510197637232292 -0.1839605883432579 0 0.39078770323730427 -0.19674260859680251 0 0.40426546228868082 -0.20108352786525729 0 0.397631623829106 -0.20634023108626229 0 0.39078770323730427 -0.19674260859680251 0 0.40426546228868082 -0.20108352786525729 0 0.40475141021500721 -0.1910589369573561 0 0.39078770323730427 -0.19674260859680251 0 0.39112975147272949 -0.2126607222720846 0 0.397631623829106 -0.20634023108626229 0 0.39112975147272949 -0.2126607222720846 0 0.397631623829106 -0.20634023108626229 0 0.40434357831770951 -0.21487406561090469 0 0.39424069285124719 -0.22310079746779379 0 0.39112975147272949 -0.2126607222720846 0 0.40434357831770951 -0.21487406561090469 0 0.40426546228868082 -0.20108352786525729 0 0.397631623829106 -0.20634023108626229 0 0.40434357831770951 -0.21487406561090469 0 0.40434357831770951 -0.21487406561090469 0 0.41713092845542321 -0.20900944133272009 0 0.41612672436959858 -0.22382622337581301 0 0.40426546228868082 -0.20108352786525729 0 0.40434357831770951 -0.21487406561090469 0 0.41713092845542321 -0.20900944133272009 0 0.41713092845542321 -0.20900944133272009 0 0.42330136258736267 -0.2174116668913772 0 0.41612672436959858 -0.22382622337581301 0 0.40475141021500721 -0.1910589369573561 0 0.41487892771890261 -0.19826025474908979 0 0.4146572714410397 -0.186958864794112 0 0.40426546228868082 -0.20108352786525729 0 0.41713092845542321 -0.20900944133272009 0 0.41487892771890261 -0.19826025474908979 0 0.40426546228868082 -0.20108352786525729 0 0.40475141021500721 -0.1910589369573561 0 0.41487892771890261 -0.19826025474908979 0 0.41713092845542321 -0.20900944133272009 0 0.41487892771890261 -0.19826025474908979 0 0.42701217502226602 -0.19751647228806199 0 0.41487892771890261 -0.19826025474908979 0 0.42053294087941678 -0.1923617771039739 0 0.42701217502226602 -0.19751647228806199 0 0.42053294087941678 -0.1923617771039739 0 0.4146572714410397 -0.186958864794112 0 0.42558338933545942 -0.1867115165846317 0 0.41487892771890261 -0.19826025474908979 0 0.42053294087941678 -0.1923617771039739 0 0.4146572714410397 -0.186958864794112 0 0.42701217502226602 -0.19751647228806199 0 0.43844209377108118 -0.18689286854296691 0 0.44355474576021348 -0.2050869029196882 0 0.42053294087941678 -0.1923617771039739 0 0.42701217502226602 -0.19751647228806199 0 0.42558338933545942 -0.1867115165846317 0 0.42701217502226602 -0.19751647228806199 0 0.42558338933545942 -0.1867115165846317 0 0.43844209377108118 -0.18689286854296691 0 0.42701217502226602 -0.19751647228806199 0 0.43006687167525981 -0.21185300334864521 0 0.44355474576021348 -0.2050869029196882 0 0.41713092845542321 -0.20900944133272009 0 0.42330136258736267 -0.2174116668913772 0 0.43006687167525981 -0.21185300334864521 0 0.42330136258736267 -0.2174116668913772 0 0.43006687167525981 -0.21185300334864521 0 0.42988092584916948 -0.2249579995083304 0 0.41713092845542321 -0.20900944133272009 0 0.42701217502226602 -0.19751647228806199 0 0.43006687167525981 -0.21185300334864521 0 0.43006687167525981 -0.21185300334864521 0 0.42988092584916948 -0.2249579995083304 0 0.44009267276725389 -0.2176624614444449 0 0.42330136258736267 -0.2174116668913772 0 0.42988092584916948 -0.2249579995083304 0 0.41612672436959858 -0.22382622337581301 0 0.42988092584916948 -0.2249579995083304 0 0.43458399188612801 -0.2397076170126072 0 0.42159465327244361 -0.23640953485310751 0 0.42988092584916948 -0.2249579995083304 0 0.42159465327244361 -0.23640953485310751 0 0.41612672436959858 -0.22382622337581301 0 0.42988092584916948 -0.2249579995083304 0 0.43458399188612801 -0.2397076170126072 0 0.44416109061426973 -0.22983272991065171 0 0.43458399188612801 -0.2397076170126072 0 0.42656562700980838 -0.24831468624349931 0 0.4372088962240912 -0.25169219704383999 0 0.43458399188612801 -0.2397076170126072 0 0.42656562700980838 -0.24831468624349931 0 0.42159465327244361 -0.23640953485310751 0 0.42656562700980838 -0.24831468624349931 0 0.42159465327244361 -0.23640953485310751 0 0.41087794879613182 -0.2494957955088617 0 0.42159465327244361 -0.23640953485310751 0 0.41087794879613182 -0.2494957955088617 0 0.40741230325918792 -0.23450562481703699 0 0.4055308246994358 -0.22407667781788709 0 0.40741230325918792 -0.23450562481703699 0 0.41612672436959858 -0.22382622337581301 0 0.4055308246994358 -0.22407667781788709 0 0.40434357831770951 -0.21487406561090469 0 0.41612672436959858 -0.22382622337581301 0 0.42159465327244361 -0.23640953485310751 0 0.40741230325918792 -0.23450562481703699 0 0.41612672436959858 -0.22382622337581301 0 0.39823574772599779 -0.11763079726210079 0 0.40257569972698831 -0.13396225485532559 0 0.38918813321375051 -0.12739880168557821 0 0.40257569972698831 -0.13396225485532559 0 0.38918813321375051 -0.12739880168557821 0 0.39017348084279901 -0.13955387731924049 0 0.38918813321375051 -0.12739880168557821 0 0.37808333446084269 -0.1309391893982525 0 0.39017348084279901 -0.13955387731924049 0 0.37720890243704291 -0.12310924361699779 0 0.36253108037134668 -0.1248744885805331 0 0.38918813321375051 -0.12739880168557821 0 0.36253108037134668 -0.1248744885805331 0 0.38918813321375051 -0.12739880168557821 0 0.37808333446084269 -0.1309391893982525 0 0.36253108037134668 -0.1248744885805331 0 0.38918813321375051 -0.12739880168557821 0 0.37808333446084269 -0.1309391893982525 0 0.39017348084279901 -0.13955387731924049 0 0.3787995421462832 -0.1425544525875144 0 0.36858459771950869 -0.15733985743645959 0 0.3787995421462832 -0.1425544525875144 0 0.38535727780346091 -0.1527557998392445 0 0.39017348084279901 -0.13955387731924049 0 0.3787995421462832 -0.1425544525875144 0 0.38535727780346091 -0.1527557998392445 0 0.40257569972698831 -0.13396225485532559 0 0.39822107621443897 -0.1501202070538992 0 0.41732028123257531 -0.14286435439753159 0 0.40257569972698831 -0.13396225485532559 0 0.39017348084279901 -0.13955387731924049 0 0.39822107621443897 -0.1501202070538992 0 0.39017348084279901 -0.13955387731924049 0 0.38535727780346091 -0.1527557998392445 0 0.39822107621443897 -0.1501202070538992 0 0.39822107621443897 -0.1501202070538992 0 0.39107178753907162 -0.16851380255406381 0 0.40713652226246821 -0.16744863749245631 0 0.39107178753907162 -0.16851380255406381 0 0.40713652226246821 -0.16744863749245631 0 0.38535727780346091 -0.1527557998392445 0 0.39822107621443897 -0.1501202070538992 0 0.39107178753907162 -0.16851380255406381 0 0.39107178753907162 -0.16851380255406381 0 0.40460499843718001 -0.17902112385493851 0 0.40713652226246821 -0.16744863749245631 0 0.36858459771950869 -0.15733985743645959 0 0.38535727780346091 -0.1527557998392445 0 0.39107178753907162 -0.16851380255406381 0 0.36858459771950869 -0.15733985743645959 0 0.39107178753907162 -0.16851380255406381 0 0.3834788620725188 -0.17954848884060079 0 0.39107178753907162 -0.16851380255406381 0 0.3834788620725188 -0.17954848884060079 0 0.39510197637232292 -0.1839605883432579 0 0.39078770323730427 -0.19674260859680251 0 0.3834788620725188 -0.17954848884060079 0 0.39510197637232292 -0.1839605883432579 0 0.37064833187319962 -0.1852102762359614 0 0.39078770323730427 -0.19674260859680251 0 0.3834788620725188 -0.17954848884060079 0 0.39107178753907162 -0.16851380255406381 0 0.39510197637232292 -0.1839605883432579 0 0.40460499843718001 -0.17902112385493851 0 0.40475141021500721 -0.1910589369573561 0 0.39510197637232292 -0.1839605883432579 0 0.40460499843718001 -0.17902112385493851 0 0.40475141021500721 -0.1910589369573561 0 0.40460499843718001 -0.17902112385493851 0 0.4146572714410397 -0.186958864794112 0 0.40460499843718001 -0.17902112385493851 0 0.41491102279317088 -0.17618591298838529 0 0.4146572714410397 -0.186958864794112 0 0.40460499843718001 -0.17902112385493851 0 0.41491102279317088 -0.17618591298838529 0 0.40713652226246821 -0.16744863749245631 0 0.41491102279317088 -0.17618591298838529 0 0.42527009306055918 -0.1746571334479238 0 0.4232012569858648 -0.16638347243084889 0 0.41491102279317088 -0.17618591298838529 0 0.42095079563492938 -0.18072636251124541 0 0.42527009306055918 -0.1746571334479238 0 0.41491102279317088 -0.17618591298838529 0 0.42095079563492938 -0.18072636251124541 0 0.4146572714410397 -0.186958864794112 0 0.42095079563492938 -0.18072636251124541 0 0.4146572714410397 -0.186958864794112 0 0.42558338933545942 -0.1867115165846317 0 0.43180268423531071 -0.1802632517690351 0 0.42527009306055918 -0.1746571334479238 0 0.44880083799057491 -0.164686103644653 0 0.42095079563492938 -0.18072636251124541 0 0.42558338933545942 -0.1867115165846317 0 0.43180268423531071 -0.1802632517690351 0 0.42558338933545942 -0.1867115165846317 0 0.43180268423531071 -0.1802632517690351 0 0.43844209377108118 -0.18689286854296691 0 0.42095079563492938 -0.18072636251124541 0 0.43180268423531071 -0.1802632517690351 0 0.42527009306055918 -0.1746571334479238 0 0.42527009306055918 -0.1746571334479238 0 0.4232012569858648 -0.16638347243084889 0 0.44880083799057491 -0.164686103644653 0 0.4232012569858648 -0.16638347243084889 0 0.43334283997313311 -0.15135273030925811 0 0.44880083799057491 -0.164686103644653 0 0.4232012569858648 -0.16638347243084889 0 0.44880083799057491 -0.164686103644653 0 0.42527009306055918 -0.1746571334479238 0 0.4232012569858648 -0.16638347243084889 0 0.4232012569858648 -0.16638347243084889 0 0.40713652226246821 -0.16744863749245631 0 0.41732028123257531 -0.14286435439753159 0 0.41491102279317088 -0.17618591298838529 0 0.4232012569858648 -0.16638347243084889 0 0.40713652226246821 -0.16744863749245631 0 0.4232012569858648 -0.16638347243084889 0 0.40713652226246821 -0.16744863749245631 0 0.4232012569858648 -0.16638347243084889 0 0.41732028123257531 -0.14286435439753159 0 0.39822107621443897 -0.1501202070538992 0 0.40713652226246821 -0.16744863749245631 0 0.41732028123257531 -0.14286435439753159 0 0.41732028123257531 -0.14286435439753159 0 0.43334283997313311 -0.15135273030925811 0 0.43763345530417341 -0.13584027725706749 0 0.4232012569858648 -0.16638347243084889 0 0.41732028123257531 -0.14286435439753159 0 0.43334283997313311 -0.15135273030925811 0 0.42916935431308728 -0.1205456085246996 0 0.41732028123257531 -0.14286435439753159 0 0.43763345530417341 -0.13584027725706749 0 0.42916935431308728 -0.1205456085246996 0 0.4435038969132965 -0.12540022695152131 0 0.43763345530417341 -0.13584027725706749 0 0.41143930547928681 -0.11934523636421419 0 0.42916935431308728 -0.1205456085246996 0 0.41732028123257531 -0.14286435439753159 0 0.41143930547928681 -0.11934523636421419 0 0.40257569972698831 -0.13396225485532559 0 0.41732028123257531 -0.14286435439753159 0 0.41143930547928681 -0.11934523636421419 0 0.41732028123257531 -0.14286435439753159 0 0.46257396642688631 -0.12529077885077469 0 0.46381730130484328 -0.1363472541609663 0 0.4585659370706795 -0.1308283620105129 0 0.46381730130484328 -0.1363472541609663 0 0.4585659370706795 -0.1308283620105129 0 0.45274550479158487 -0.1345999168850856 0 0.46381730130484328 -0.1363472541609663 0 0.45274550479158487 -0.1345999168850856 0 0.46138481906560302 -0.14686228775601681 0 0.46257396642688631 -0.12529077885077469 0 0.4585659370706795 -0.1308283620105129 0 0.45239247298790419 -0.125419693033265 0 0.4585659370706795 -0.1308283620105129 0 0.45239247298790419 -0.125419693033265 0 0.45274550479158487 -0.1345999168850856 0 0.45239247298790419 -0.125419693033265 0 0.4435038969132965 -0.12540022695152131 0 0.45274550479158487 -0.1345999168850856 0 0.4435038969132965 -0.12540022695152131 0 0.43763345530417341 -0.13584027725706749 0 0.45274550479158487 -0.1345999168850856 0 0.43763345530417341 -0.13584027725706749 0 0.45274550479158487 -0.1345999168850856 0 0.44678149142501389 -0.1466682631704162 0 0.43334283997313311 -0.15135273030925811 0 0.44678149142501389 -0.1466682631704162 0 0.44880083799057491 -0.164686103644653 0 0.44678149142501389 -0.1466682631704162 0 0.46138481906560302 -0.14686228775601681 0 0.44880083799057491 -0.164686103644653 0 0.43334283997313311 -0.15135273030925811 0 0.43763345530417341 -0.13584027725706749 0 0.44678149142501389 -0.1466682631704162 0 0.45274550479158487 -0.1345999168850856 0 0.44678149142501389 -0.1466682631704162 0 0.46138481906560302 -0.14686228775601681 0 0.46138481906560302 -0.14686228775601681 0 0.44880083799057491 -0.164686103644653 0 0.47440041899528501 -0.16298873485845719 0 0.44880083799057491 -0.164686103644653 0 0.46834799031954211 -0.17915452781490099 0 0.47440041899528501 -0.16298873485845719 0 0.44880083799057491 -0.164686103644653 0 0.47440041899528501 -0.16298873485845719 0 0.43180268423531071 -0.1802632517690351 0 0.44880083799057491 -0.164686103644653 0 0.43844209377108118 -0.18689286854296691 0 0.44880083799057491 -0.164686103644653 0 0.43844209377108118 -0.18689286854296691 0 0.45508032593701309 -0.1914137801830845 0 0.44880083799057491 -0.164686103644653 0 0.46834799031954211 -0.17915452781490099 0 0.45508032593701309 -0.1914137801830845 0 0.46834799031954211 -0.17915452781490099 0 0.48419704391512092 -0.17843144908975531 0 0.47440041899528501 -0.16298873485845719 0 0.46834799031954211 -0.17915452781490099 0 0.48419704391512092 -0.17843144908975531 0 0.47823681026078202 -0.19812675643970101 0 0.48419704391512092 -0.17843144908975531 0 0.49999999999999523 -0.16129136607226169 0 0.5 -0.1905958602634561 0 0.49999999999999523 -0.16129136607226169 0 0.47440041899528501 -0.16298873485845719 0 0.50000000000000067 -0.1547763741112759 0 0.48419704391512092 -0.17843144908975531 0 0.49999999999999523 -0.16129136607226169 0 0.47440041899528501 -0.16298873485845719 0 0.49999999999999523 -0.16129136607226169 0 0.47440041899528501 -0.16298873485845719 0 0.46138481906560302 -0.14686228775601681 0 0.47440041899528501 -0.16298873485845719 0 0.48128698321344371 -0.14003357648102521 0 0.46381730130484328 -0.1363472541609663 0 0.46138481906560302 -0.14686228775601681 0 0.48128698321344371 -0.14003357648102521 0 0.50000000000000067 -0.1547763741112759 0 0.48128698321344371 -0.14003357648102521 0 0.50000000000000067 -0.1547763741112759 0 0.5 -0.13349841451636779 0 0.48128698321344371 -0.14003357648102521 0 0.47440041899528501 -0.16298873485845719 0 0.50000000000000067 -0.1547763741112759 0 0.48128698321344371 -0.14003357648102521 0 0.48087269318342413 -0.1216818802472065 0 0.5 -0.13349841451636779 0 0.48128698321344371 -0.14003357648102521 0 0.46257396642688631 -0.12529077885077469 0 0.48128698321344371 -0.14003357648102521 0 0.46257396642688631 -0.12529077885077469 0 0.46381730130484328 -0.1363472541609663 0 0.48128698321344371 -0.14003357648102521 0 0.47129126618897188 -0.1223351355815797 0 0.48087269318342413 -0.1216818802472065 0 0.48128698321344371 -0.14003357648102521 0 0.47129126618897188 -0.1223351355815797 0 0.46257396642688631 -0.12529077885077469 0 0.48128698321344371 -0.14003357648102521 0 0.46029750420545162 -0.23134667767863379 0 0.45079963313025367 -0.219495204315066 0 0.46126535540865482 -0.21094244298034759 0 0.46029750420545162 -0.23134667767863379 0 0.46126535540865482 -0.21094244298034759 0 0.47937109712497578 -0.22608105856418539 0 0.46029750420545162 -0.23134667767863379 0 0.44856132313442931 -0.24393079079591279 0 0.47387431588802909 -0.25499376211151131 0 0.46029750420545162 -0.23134667767863379 0 0.44856132313442931 -0.24393079079591279 0 0.44416109061426973 -0.22983272991065171 0 0.43458399188612801 -0.2397076170126072 0 0.44856132313442931 -0.24393079079591279 0 0.4372088962240912 -0.25169219704383999 0 0.43458399188612801 -0.2397076170126072 0 0.44856132313442931 -0.24393079079591279 0 0.44416109061426973 -0.22983272991065171 0 0.46029750420545162 -0.23134667767863379 0 0.44416109061426973 -0.22983272991065171 0 0.45079963313025367 -0.219495204315066 0 0.44416109061426973 -0.22983272991065171 0 0.45079963313025367 -0.219495204315066 0 0.44009267276725389 -0.2176624614444449 0 0.42988092584916948 -0.2249579995083304 0 0.44416109061426973 -0.22983272991065171 0 0.44009267276725389 -0.2176624614444449 0 0.45079963313025367 -0.219495204315066 0 0.44355474576021348 -0.2050869029196882 0 0.46126535540865482 -0.21094244298034759 0 0.43006687167525981 -0.21185300334864521 0 0.44009267276725389 -0.2176624614444449 0 0.44355474576021348 -0.2050869029196882 0 0.45079963313025367 -0.219495204315066 0 0.44009267276725389 -0.2176624614444449 0 0.44355474576021348 -0.2050869029196882 0 0.43844209377108118 -0.18689286854296691 0 0.44355474576021348 -0.2050869029196882 0 0.45508032593701309 -0.1914137801830845 0 0.46834799031954211 -0.17915452781490099 0 0.45508032593701309 -0.1914137801830845 0 0.47823681026078202 -0.19812675643970101 0 0.44355474576021348 -0.2050869029196882 0 0.45508032593701309 -0.1914137801830845 0 0.46126535540865482 -0.21094244298034759 0 0.45508032593701309 -0.1914137801830845 0 0.46126535540865482 -0.21094244298034759 0 0.47823681026078202 -0.19812675643970101 0 0.46126535540865482 -0.21094244298034759 0 0.47823681026078202 -0.19812675643970101 0 0.47937109712497578 -0.22608105856418539 0 0.48419704391512092 -0.17843144908975531 0 0.47823681026078202 -0.19812675643970101 0 0.5 -0.1905958602634561 0 0.47823681026078202 -0.19812675643970101 0 0.5 -0.1905958602634561 0 0.5 -0.21990035445465039 0 0.47823681026078202 -0.19812675643970101 0 0.5 -0.21990035445465039 0 0.47937109712497578 -0.22608105856418539 0 0.5 -0.21990035445465039 0 0.47937109712497578 -0.22608105856418539 0 0.50000000000000444 -0.24920484864584491 0 0.46029750420545162 -0.23134667767863379 0 0.47937109712497578 -0.22608105856418539 0 0.47387431588802909 -0.25499376211151131 0 0.47937109712497578 -0.22608105856418539 0 0.50000000000000444 -0.24920484864584491 0 0.47387431588802909 -0.25499376211151131 0 0.50000000000000444 -0.24920484864584491 0 0.4915669900217115 -0.25615479242606781 0 0.5 -0.27170772691138367 0 0.50000000000000444 -0.24920484864584491 0 0.4915669900217115 -0.25615479242606781 0 0.47387431588802909 -0.25499376211151131 0 0.50000000000000444 -0.24920484864584491 0 0.47387431588802909 -0.25499376211151131 0 0.4915669900217115 -0.25615479242606781 0 0.48280749151585822 -0.27129304150170008 0 0.47954864786353962 -0.26301133191085868 0 0.4915669900217115 -0.25615479242606781 0 0.5 -0.27170772691138367 0 0.48280749151585822 -0.27129304150170008 0 0.5 -0.27170772691138367 0 0.48280749151585822 -0.27129304150170008 0 0.48951500520952212 -0.28458010338455908 0 0.48280749151585822 -0.27129304150170008 0 0.47474596181800061 -0.28621450290334632 0 0.48951500520952212 -0.28458010338455908 0 0.48280749151585822 -0.27129304150170008 0 0.47416229901770612 -0.26612875971404459 0 0.47954864786353962 -0.26301133191085868 0 0.48280749151585822 -0.27129304150170008 0 0.47416229901770612 -0.26612875971404459 0 0.47052118473631321 -0.27447720361836658 0 0.47416229901770612 -0.26612875971404459 0 0.47052118473631321 -0.27447720361836658 0 0.46319689217890331 -0.26835660325056299 0 0.48280749151585822 -0.27129304150170008 0 0.47052118473631321 -0.27447720361836658 0 0.47474596181800061 -0.28621450290334632 0 0.4915669900217115 -0.25615479242606781 0 0.46965781089888248 -0.25846873400162218 0 0.4915669900217115 -0.25615479242606781 0 0.47387431588802909 -0.25499376211151131 0 0.46965781089888248 -0.25846873400162218 0 0.4915669900217115 -0.25615479242606781 0 0.47954864786353962 -0.26301133191085868 0 0.46965781089888248 -0.25846873400162218 0 0.47416229901770612 -0.26612875971404459 0 0.47954864786353962 -0.26301133191085868 0 0.46965781089888248 -0.25846873400162218 0 0.47416229901770612 -0.26612875971404459 0 0.46965781089888248 -0.25846873400162218 0 0.46319689217890331 -0.26835660325056299 0 0.46965781089888248 -0.25846873400162218 0 0.46319689217890331 -0.26835660325056299 0 0.4477486317760534 -0.26078267557717671 0 0.44856132313442931 -0.24393079079591279 0 0.47387431588802909 -0.25499376211151131 0 0.4477486317760534 -0.26078267557717671 0 0.47387431588802909 -0.25499376211151131 0 0.4477486317760534 -0.26078267557717671 0 0.46965781089888248 -0.25846873400162218 0 0.4477486317760534 -0.26078267557717671 0 0.47387431588802909 -0.25499376211151131 0 0.46965781089888248 -0.25846873400162218 0 0.4477486317760534 -0.26078267557717671 0 0.47052118473631321 -0.27447720361836658 0 0.45389453446556111 -0.28192564334160541 0 0.47474596181800061 -0.28621450290334632 0 0.47052118473631321 -0.27447720361836658 0 0.46319689217890331 -0.26835660325056299 0 0.45389453446556111 -0.28192564334160541 0 0.46319689217890331 -0.26835660325056299 0 0.4477486317760534 -0.26078267557717671 0 0.45389453446556111 -0.28192564334160541 0 0.45389453446556111 -0.28192564334160541 0 0.430823863629894 -0.26453285558412298 0 0.45389453446556111 -0.28192564334160541 0 0.430823863629894 -0.26453285558412298 0 0.43570592202634773 -0.28205449164250063 0 0.4477486317760534 -0.26078267557717671 0 0.45389453446556111 -0.28192564334160541 0 0.430823863629894 -0.26453285558412298 0 0.4477486317760534 -0.26078267557717671 0 0.42854038242645709 -0.26281135800815408 0 0.44856132313442931 -0.24393079079591279 0 0.4477486317760534 -0.26078267557717671 0 0.4372088962240912 -0.25169219704383999 0 0.4477486317760534 -0.26078267557717671 0 0.42854038242645709 -0.26281135800815408 0 0.4372088962240912 -0.25169219704383999 0 0.4477486317760534 -0.26078267557717671 0 0.430823863629894 -0.26453285558412298 0 0.44815314542162782 -0.30273998798419938 0 0.44271266904340639 -0.31513600928105973 0 0.43092107089682352 -0.30573631325696571 0 0.44815314542162782 -0.30273998798419938 0 0.43874415768382158 -0.29310671547163403 0 0.43092107089682352 -0.30573631325696571 0 0.43874415768382158 -0.29310671547163403 0 0.45389453446556111 -0.28192564334160541 0 0.43570592202634773 -0.28205449164250063 0 0.44815314542162782 -0.30273998798419938 0 0.43874415768382158 -0.29310671547163403 0 0.45389453446556111 -0.28192564334160541 0 0.45389453446556111 -0.28192564334160541 0 0.46668010371271101 -0.29937682325086112 0 0.47474596181800061 -0.28621450290334632 0 0.44815314542162782 -0.30273998798419938 0 0.45389453446556111 -0.28192564334160541 0 0.46668010371271101 -0.29937682325086112 0 0.46668010371271101 -0.29937682325086112 0 0.45907432653114449 -0.32014896664993769 0 0.44815314542162782 -0.30273998798419938 0 0.46668010371271101 -0.29937682325086112 0 0.45907432653114449 -0.32014896664993769 0 0.46668010371271101 -0.29937682325086112 0 0.48375110351916628 -0.30725513966339157 0 0.45907432653114449 -0.32014896664993769 0 0.46668010371271101 -0.29937682325086112 0 0.48375110351916628 -0.30725513966339157 0 0.47474596181800061 -0.28621450290334632 0 0.48375110351916628 -0.30725513966339157 0 0.47474596181800061 -0.28621450290334632 0 0.48951500520952212 -0.28458010338455908 0 0.48375110351916628 -0.30725513966339157 0 0.5 -0.29421060517692271 0 0.48951500520952212 -0.28458010338455908 0 0.5 -0.27170772691138367 0 0.5 -0.29421060517692271 0 0.48951500520952212 -0.28458010338455908 0 0.48375110351916628 -0.30725513966339157 0 0.5 -0.29421060517692271 0 0.49999999999999972 -0.31671348344246159 0 0.48375110351916628 -0.30725513966339157 0 0.49999999999999972 -0.31671348344246159 0 0.48658745812515303 -0.32591538654610069 0 0.49999999999999972 -0.31671348344246159 0 0.49107839048707969 -0.33844651150006611 0 0.49999999999999972 -0.31671348344246159 0 0.48658745812515303 -0.32591538654610069 0 0.49107839048707969 -0.33844651150006611 0 0.49999999999999972 -0.31671348344246159 0 0.5 -0.34354646621870782 0 0.49107839048707969 -0.33844651150006611 0 0.48658745812515303 -0.32591538654610069 0 0.49107839048707969 -0.33844651150006611 0 0.48013111160135669 -0.33592777501669763 0 0.48658745812515303 -0.32591538654610069 0 0.48013111160135669 -0.33592777501669763 0 0.47588582758327369 -0.32632043512378739 0 0.48013111160135669 -0.33592777501669763 0 0.46883970942210401 -0.33989811375075968 0 0.47588582758327369 -0.32632043512378739 0 0.48375110351916628 -0.30725513966339157 0 0.48658745812515303 -0.32591538654610069 0 0.47588582758327369 -0.32632043512378739 0 0.48375110351916628 -0.30725513966339157 0 0.47588582758327369 -0.32632043512378739 0 0.45907432653114449 -0.32014896664993769 0 0.5 -0.37037944899495368 0 0.48466784746851571 -0.3739080713738358 0 0.48215678097416009 -0.36017953955767068 0 0.5 -0.34354646621870782 0 0.49107839048707969 -0.33844651150006611 0 0.48215678097416009 -0.36017953955767068 0 0.49107839048707969 -0.33844651150006611 0 0.48013111160135669 -0.33592777501669763 0 0.48215678097416009 -0.36017953955767068 0 0.5 -0.34354646621870782 0 0.5 -0.37037944899495368 0 0.48215678097416009 -0.36017953955767068 0 0.49107839048707969 -0.33844651150006611 0 0.48215678097416009 -0.36017953955767068 0 0.48013111160135669 -0.33592777501669763 0 0.46883970942210401 -0.33989811375075968 0 0.48215678097416009 -0.36017953955767068 0 0.46883970942210401 -0.33989811375075968 0 0.48215678097416009 -0.36017953955767068 0 0.46166172922915721 -0.35810144835948332 0 0.48215678097416009 -0.36017953955767068 0 0.47323517146124039 -0.38191256761527542 0 0.48215678097416009 -0.36017953955767068 0 0.4671179630262795 -0.37324494563770522 0 0.47323517146124039 -0.38191256761527542 0 0.48466784746851571 -0.3739080713738358 0 0.48215678097416009 -0.36017953955767068 0 0.47323517146124039 -0.38191256761527542 0 0.48215678097416009 -0.36017953955767068 0 0.4671179630262795 -0.37324494563770522 0 0.46166172922915721 -0.35810144835948332 0 0.45652460043480969 -0.37267172771365881 0 0.46166172922915721 -0.35810144835948332 0 0.44386277216801179 -0.36169325344809122 0 0.45652460043480969 -0.37267172771365881 0 0.4671179630262795 -0.37324494563770522 0 0.46166172922915721 -0.35810144835948332 0 0.46883970942210401 -0.33989811375075968 0 0.46166172922915721 -0.35810144835948332 0 0.45146854934957792 -0.34092111004901438 0 0.43963091224731599 -0.34751792105314822 0 0.44386277216801179 -0.36169325344809122 0 0.45146854934957792 -0.34092111004901438 0 0.44386277216801179 -0.36169325344809122 0 0.45146854934957792 -0.34092111004901438 0 0.46166172922915721 -0.35810144835948332 0 0.44386277216801179 -0.36169325344809122 0 0.45146854934957792 -0.34092111004901438 0 0.44386277216801179 -0.36169325344809122 0 0.43376943787959182 -0.36708850497004442 0 0.43808065797110041 -0.37748478958974491 0 0.45652460043480969 -0.37267172771365881 0 0.44386277216801179 -0.36169325344809122 0 0.44783900322824399 -0.38008781189722518 0 0.44386277216801179 -0.36169325344809122 0 0.43808065797110041 -0.37748478958974491 0 0.44386277216801179 -0.36169325344809122 0 0.43808065797110041 -0.37748478958974491 0 0.44783900322824399 -0.38008781189722518 0 0.45652460043480969 -0.37267172771365881 0 0.44386277216801179 -0.36169325344809122 0 0.46883970942210401 -0.33989811375075968 0 0.45907432653114449 -0.32014896664993769 0 0.45146854934957792 -0.34092111004901438 0 0.45907432653114449 -0.32014896664993769 0 0.45146854934957792 -0.34092111004901438 0 0.46883970942210401 -0.33989811375075968 0 0.47588582758327369 -0.32632043512378739 0 0.45907432653114449 -0.32014896664993769 0 0.43963091224731599 -0.34751792105314822 0 0.45146854934957792 -0.34092111004901438 0 0.43565299676263758 -0.3352386806192425 0 0.45146854934957792 -0.34092111004901438 0 0.44493724809618768 -0.32603283426431229 0 0.43565299676263758 -0.3352386806192425 0 0.45907432653114449 -0.32014896664993769 0 0.45146854934957792 -0.34092111004901438 0 0.44493724809618768 -0.32603283426431229 0 0.45907432653114449 -0.32014896664993769 0 0.44493724809618768 -0.32603283426431229 0 0.44271266904340639 -0.31513600928105973 0 0.44493724809618768 -0.32603283426431229 0 0.44271266904340639 -0.31513600928105973 0 0.43047755427124879 -0.32102194424988317 0 0.44815314542162782 -0.30273998798419938 0 0.45907432653114449 -0.32014896664993769 0 0.44271266904340639 -0.31513600928105973 0 0.44271266904340639 -0.31513600928105973 0 0.43047755427124879 -0.32102194424988317 0 0.43092107089682352 -0.30573631325696571 0 0.43047755427124879 -0.32102194424988317 0 0.41919911313656122 -0.31385112706466711 0 0.41739686236043672 -0.32199345155319897 0 0.43047755427124879 -0.32102194424988317 0 0.41919911313656122 -0.31385112706466711 0 0.43092107089682352 -0.30573631325696571 0 0.43047755427124879 -0.32102194424988317 0 0.42053718701310799 -0.32957674384091618 0 0.41739686236043672 -0.32199345155319897 0 0.44493724809618768 -0.32603283426431229 0 0.43047755427124879 -0.32102194424988317 0 0.43565299676263758 -0.3352386806192425 0 0.43565299676263758 -0.3352386806192425 0 0.42053718701310799 -0.32957674384091618 0 0.4250793590774925 -0.34540704162396091 0 0.43963091224731599 -0.34751792105314822 0 0.43565299676263758 -0.3352386806192425 0 0.4250793590774925 -0.34540704162396091 0 0.43047755427124879 -0.32102194424988317 0 0.43565299676263758 -0.3352386806192425 0 0.42053718701310799 -0.32957674384091618 0 0.4062959459869725 -0.32912082979983148 0 0.4250793590774925 -0.34540704162396091 0 0.41055923831377589 -0.34398547157316572 0 0.42053718701310799 -0.32957674384091618 0 0.4062959459869725 -0.32912082979983148 0 0.4250793590774925 -0.34540704162396091 0 0.4062959459869725 -0.32912082979983148 0 0.4250793590774925 -0.34540704162396091 0 0.42053718701310799 -0.32957674384091618 0 0.4062959459869725 -0.32912082979983148 0 0.40802480504278882 -0.32457497099322458 0 0.4062959459869725 -0.32912082979983148 0 0.40802480504278882 -0.32457497099322458 0 0.4062959459869725 -0.32912082979983148 0 0.40802480504278882 -0.32457497099322458 0 0.40572459905769331 -0.31910551143285631 0 0.40802480504278882 -0.32457497099322458 0 0.4119015194344513 -0.31818912214386269 0 0.41739686236043672 -0.32199345155319897 0 0.40802480504278882 -0.32457497099322458 0 0.4119015194344513 -0.31818912214386269 0 0.40572459905769331 -0.31910551143285631 0 0.4119015194344513 -0.31818912214386269 0 0.41919911313656122 -0.31385112706466711 0 0.40916221757477672 -0.31142054967536659 0 0.4119015194344513 -0.31818912214386269 0 0.40572459905769331 -0.31910551143285631 0 0.40916221757477672 -0.31142054967536659 0 0.4119015194344513 -0.31818912214386269 0 0.41919911313656122 -0.31385112706466711 0 0.41739686236043672 -0.32199345155319897 0 0.42053718701310799 -0.32957674384091618 0 0.40802480504278882 -0.32457497099322458 0 0.41739686236043672 -0.32199345155319897 0 0.44386277216801179 -0.36169325344809122 0 0.43376943787959182 -0.36708850497004442 0 0.42728564025893462 -0.35958684797927032 0 0.42489657602010461 -0.37065940299189432 0 0.43376943787959182 -0.36708850497004442 0 0.43808065797110041 -0.37748478958974491 0 0.42489657602010461 -0.37065940299189432 0 0.43376943787959182 -0.36708850497004442 0 0.42728564025893462 -0.35958684797927032 0 0.44386277216801179 -0.36169325344809122 0 0.4250793590774925 -0.34540704162396091 0 0.43963091224731599 -0.34751792105314822 0 0.44386277216801179 -0.36169325344809122 0 0.4250793590774925 -0.34540704162396091 0 0.44386277216801179 -0.36169325344809122 0 0.42728564025893462 -0.35958684797927032 0 0.4250793590774925 -0.34540704162396091 0 0.42728564025893462 -0.35958684797927032 0 0.4250793590774925 -0.34540704162396091 0 0.41069622259092692 -0.35617360609135817 0 0.4250793590774925 -0.34540704162396091 0 0.41055923831377589 -0.34398547157316572 0 0.41069622259092692 -0.35617360609135817 0 0.41055923831377589 -0.34398547157316572 0 0.41069622259092692 -0.35617360609135817 0 0.40016542559971202 -0.34524040877751239 0 0.42489657602010461 -0.37065940299189432 0 0.42728564025893462 -0.35958684797927032 0 0.41069622259092692 -0.35617360609135817 0 0.42489657602010461 -0.37065940299189432 0 0.41069622259092692 -0.35617360609135817 0 0.4070765621089808 -0.37107032214525337 0 0.42489657602010461 -0.37065940299189432 0 0.41069622259092692 -0.35617360609135817 0 0.39585190457779329 -0.37201308858561799 0 0.3940349052124521 -0.36135998775519362 0 0.38601585554704992 -0.38244526212700758 0 0.41069622259092692 -0.35617360609135817 0 0.4070765621089808 -0.37107032214525337 0 0.3940349052124521 -0.36135998775519362 0 0.4070765621089808 -0.37107032214525337 0 0.39585190457779329 -0.37201308858561799 0 0.3940349052124521 -0.36135998775519362 0 0.39585190457779329 -0.37201308858561799 0 0.3940349052124521 -0.36135998775519362 0 0.3940349052124521 -0.36135998775519362 0 0.40016542559971202 -0.34524040877751239 0 0.38974443050024338 -0.33620485529262373 0 0.3940349052124521 -0.36135998775519362 0 0.38974443050024338 -0.33620485529262373 0 0.3940349052124521 -0.36135998775519362 0 0.40016542559971202 -0.34524040877751239 0 0.41069622259092692 -0.35617360609135817 0 0.3940349052124521 -0.36135998775519362 0 0.40016542559971202 -0.34524040877751239 0 0.3940349052124521 -0.36135998775519362 0 0.38974443050024338 -0.33620485529262373 0 0.37368731816096312 -0.34897020548070451 0 0.3940349052124521 -0.36135998775519362 0 0.38601585554704992 -0.38244526212700758 0 0.3940349052124521 -0.36135998775519362 0 0.38601585554704992 -0.38244526212700758 0 0.3689120952668708 -0.37284951495870189 0 0.3940349052124521 -0.36135998775519362 0 0.3689120952668708 -0.37284951495870189 0 0.37368731816096312 -0.34897020548070451 0 0.4062959459869725 -0.32912082979983148 0 0.40572459905769331 -0.31910551143285631 0 0.39816778062817881 -0.31191488097197773 0 0.4062959459869725 -0.32912082979983148 0 0.38974443050024338 -0.33620485529262373 0 0.38545395578803499 -0.31104972283005378 0 0.4062959459869725 -0.32912082979983148 0 0.38545395578803499 -0.31104972283005378 0 0.4062959459869725 -0.32912082979983148 0 0.38545395578803499 -0.31104972283005378 0 0.39816778062817881 -0.31191488097197773 0 0.40572459905769331 -0.31910551143285631 0 0.39816778062817881 -0.31191488097197773 0 0.40916221757477672 -0.31142054967536659 0 0.4062959459869725 -0.32912082979983148 0 0.40016542559971202 -0.34524040877751239 0 0.38974443050024338 -0.33620485529262373 0 0.4062959459869725 -0.32912082979983148 0 0.40016542559971202 -0.34524040877751239 0 0.4062959459869725 -0.32912082979983148 0 0.41055923831377589 -0.34398547157316572 0 0.40016542559971202 -0.34524040877751239 0 0.38974443050024338 -0.33620485529262373 0 0.36945761595668469 -0.32738841673247931 0 0.37368731816096312 -0.34897020548070451 0 0.38974443050024338 -0.33620485529262373 0 0.38545395578803499 -0.31104972283005378 0 0.36945761595668469 -0.32738841673247931 0 0.38974443050024338 -0.33620485529262373 0 0.38545395578803499 -0.31104972283005378 0 0.38545395578803499 -0.31104972283005378 0 0.38245755150739558 -0.29348174920317632 0 0.37101427446782781 -0.29852975601036341 0 0.38545395578803499 -0.31104972283005378 0 0.38245755150739558 -0.29348174920317632 0 0.38545395578803499 -0.31104972283005378 0 0.37101427446782781 -0.29852975601036341 0 0.38545395578803499 -0.31104972283005378 0 0.39567659353887108 -0.29306988619604551 0 0.38245755150739558 -0.29348174920317632 0 0.39816778062817881 -0.31191488097197773 0 0.40563314249086863 -0.30155395497769039 0 0.39567659353887108 -0.29306988619604551 0 0.38545395578803499 -0.31104972283005378 0 0.39816778062817881 -0.31191488097197773 0 0.39567659353887108 -0.29306988619604551 0 0.39816778062817881 -0.31191488097197773 0 0.40563314249086863 -0.30155395497769039 0 0.40916221757477672 -0.31142054967536659 0 0.39567659353887108 -0.29306988619604551 0 0.40514250542832608 -0.27022331558021301 0 0.41160024963212011 -0.28933460066763711 0 0.40563314249086863 -0.30155395497769039 0 0.39567659353887108 -0.29306988619604551 0 0.41160024963212011 -0.28933460066763711 0 0.38245755150739558 -0.29348174920317632 0 0.37946114722675722 -0.27591377557629859 0 0.39567659353887108 -0.29306988619604551 0 0.38245755150739558 -0.29348174920317632 0 0.37946114722675722 -0.27591377557629859 0 0.38245755150739558 -0.29348174920317632 0 0.37795999762798671 -0.28395322059410122 0 0.37946114722675722 -0.27591377557629859 0 0.37519981906117678 -0.29055939022370142 0 0.38245755150739558 -0.29348174920317632 0 0.37101427446782781 -0.29852975601036341 0 0.37519981906117678 -0.29055939022370142 0 0.38245755150739558 -0.29348174920317632 0 0.37795999762798671 -0.28395322059410122 0 0.37795999762798671 -0.28395322059410122 0 0.37946114722675722 -0.27591377557629859 0 0.37739853904771847 -0.27637080706343392 0 0.37739853904771847 -0.27637080706343392 0 0.37683953433427181 -0.26882153263446662 0 0.37273728942595791 -0.27740364396778311 0 0.37795999762798671 -0.28395322059410122 0 0.37739853904771847 -0.27637080706343392 0 0.37273728942595791 -0.27740364396778311 0 0.37946114722675722 -0.27591377557629859 0 0.38774772661347989 -0.26664574742688191 0 0.3964002279028962 -0.26984905957103239 0 0.37946114722675722 -0.27591377557629859 0 0.3964002279028962 -0.26984905957103239 0 0.37795999762798671 -0.28395322059410122 0 0.37739853904771847 -0.27637080706343392 0 0.37739853904771847 -0.27637080706343392 0 0.37273728942595791 -0.27740364396778311 0 0.37946114722675722 -0.27591377557629859 0 0.37739853904771847 -0.27637080706343392 0 0.37683953433427181 -0.26882153263446662 0 0.37946114722675722 -0.27591377557629859 0 0.37739853904771847 -0.27637080706343392 0 0.37946114722675722 -0.27591377557629859 0 0.37843581040967561 -0.26746760801825881 0 0.38284686623937531 -0.26497045393317709 0 0.37946114722675722 -0.27591377557629859 0 0.37683953433427181 -0.26882153263446662 0 0.37843581040967561 -0.26746760801825881 0 0.37739853904771847 -0.27637080706343392 0 0.37683953433427181 -0.26882153263446662 0 0.37683953433427181 -0.26882153263446662 0 0.37843581040967561 -0.26746760801825881 0 0.37946114722675722 -0.27591377557629859 0 0.38774772661347989 -0.26664574742688191 0 0.38284686623937531 -0.26497045393317709 0 0.37477580018058132 -0.24095111383496479 0 0.37683953433427181 -0.26882153263446662 0 0.38107906364546162 -0.25934379353391329 0 0.37477580018058132 -0.24095111383496479 0 0.37683953433427181 -0.26882153263446662 0 0.37477580018058132 -0.24095111383496479 0 0.38107906364546162 -0.25934379353391329 0 0.38725375881062551 -0.25185160038302579 0 0.37843581040967561 -0.26746760801825881 0 0.38107906364546162 -0.25934379353391329 0 0.38284686623937531 -0.26497045393317709 0 0.37683953433427181 -0.26882153263446662 0 0.37843581040967561 -0.26746760801825881 0 0.38107906364546162 -0.25934379353391329 0 0.38107906364546162 -0.25934379353391329 0 0.38632261189823958 -0.26200045239958702 0 0.38284686623937531 -0.26497045393317709 0 0.38774772661347989 -0.26664574742688191 0 0.38632261189823958 -0.26200045239958702 0 0.38284686623937531 -0.26497045393317709 0 0.38774772661347989 -0.26664574742688191 0 0.38955528694719099 -0.2630172622662057 0 0.39295554709344072 -0.26445586107842978 0 0.38774772661347989 -0.26664574742688191 0 0.38632261189823958 -0.26200045239958702 0 0.38955528694719099 -0.2630172622662057 0 0.38632261189823958 -0.26200045239958702 0 0.38955528694719099 -0.2630172622662057 0 0.39119526218360401 -0.25896698815992442 0 0.38632261189823958 -0.26200045239958702 0 0.38725375881062551 -0.25185160038302579 0 0.39119526218360401 -0.25896698815992442 0 0.38107906364546162 -0.25934379353391329 0 0.38632261189823958 -0.26200045239958702 0 0.38725375881062551 -0.25185160038302579 0 0.40314688718896508 -0.2619981766022052 0 0.39707581272688741 -0.26613449373937459 0 0.41345304600685079 -0.26440480953867462 0 0.39707581272688741 -0.26613449373937459 0 0.41345304600685079 -0.26440480953867462 0 0.38725375881062551 -0.25185160038302579 0 0.39640803358832022 -0.25154779433757402 0 0.39119526218360401 -0.25896698815992442 0 0.39640803358832022 -0.25154779433757402 0 0.39702034872720737 -0.26014738253762237 0 0.39119526218360401 -0.25896698815992442 0 0.39702034872720737 -0.26014738253762237 0 0.39119526218360401 -0.25896698815992442 0 0.39295554709344072 -0.26445586107842978 0 0.38955528694719099 -0.2630172622662057 0 0.39119526218360401 -0.25896698815992442 0 0.39295554709344072 -0.26445586107842978 0 0.39702034872720737 -0.26014738253762237 0 0.39295554709344072 -0.26445586107842978 0 0.39707581272688741 -0.26613449373937459 0 0.39702034872720737 -0.26014738253762237 0 0.40314688718896508 -0.2619981766022052 0 0.39707581272688741 -0.26613449373937459 0 0.40314688718896508 -0.2619981766022052 0 0.40257909468765629 -0.25704117102420471 0 0.40998094690083942 -0.2590606397541646 0 0.39702034872720737 -0.26014738253762237 0 0.40314688718896508 -0.2619981766022052 0 0.40257909468765629 -0.25704117102420471 0 0.39640803358832022 -0.25154779433757402 0 0.39702034872720737 -0.26014738253762237 0 0.40257909468765629 -0.25704117102420471 0 0.41087794879613182 -0.2494957955088617 0 0.39640803358832022 -0.25154779433757402 0 0.40257909468765629 -0.25704117102420471 0 0.40514250542832608 -0.27022331558021301 0 0.3964002279028962 -0.26984905957103239 0 0.41345304600685079 -0.26440480953867462 0 0.37946114722675722 -0.27591377557629859 0 0.40514250542832608 -0.27022331558021301 0 0.3964002279028962 -0.26984905957103239 0 0.39707581272688741 -0.26613449373937459 0 0.3964002279028962 -0.26984905957103239 0 0.41345304600685079 -0.26440480953867462 0 0.37946114722675722 -0.27591377557629859 0 0.40514250542832608 -0.27022331558021301 0 0.3964002279028962 -0.26984905957103239 0 0.41345304600685079 -0.26440480953867462 0 0.39567659353887108 -0.29306988619604551 0 0.37946114722675722 -0.27591377557629859 0 0.40514250542832608 -0.27022331558021301 0 0.38774772661347989 -0.26664574742688191 0 0.39295554709344072 -0.26445586107842978 0 0.3964002279028962 -0.26984905957103239 0 0.39295554709344072 -0.26445586107842978 0 0.39707581272688741 -0.26613449373937459 0 0.3964002279028962 -0.26984905957103239 0 0.40514250542832608 -0.27022331558021301 0 0.41345304600685079 -0.26440480953867462 0 0.430823863629894 -0.26453285558412298 0 0.40514250542832608 -0.27022331558021301 0 0.430823863629894 -0.26453285558412298 0 0.40514250542832608 -0.27022331558021301 0 0.42166373126508722 -0.27984448092147479 0 0.41160024963212011 -0.28933460066763711 0 0.40514250542832608 -0.27022331558021301 0 0.42166373126508722 -0.27984448092147479 0 0.430823863629894 -0.26453285558412298 0 0.41087794879613182 -0.2494957955088617 0 0.41984775782459283 -0.2623632460968765 0 0.42854038242645709 -0.26281135800815408 0 0.41087794879613182 -0.2494957955088617 0 0.42854038242645709 -0.26281135800815408 0 0.41087794879613182 -0.2494957955088617 0 0.40257909468765629 -0.25704117102420471 0 0.40998094690083942 -0.2590606397541646 0 0.41087794879613182 -0.2494957955088617 0 0.40998094690083942 -0.2590606397541646 0 0.41984775782459283 -0.2623632460968765 0 0.40314688718896508 -0.2619981766022052 0 0.40998094690083942 -0.2590606397541646 0 0.41345304600685079 -0.26440480953867462 0 0.41345304600685079 -0.26440480953867462 0 0.41984775782459283 -0.2623632460968765 0 0.42854038242645709 -0.26281135800815408 0 0.40998094690083942 -0.2590606397541646 0 0.41345304600685079 -0.26440480953867462 0 0.41984775782459283 -0.2623632460968765 0 0.41345304600685079 -0.26440480953867462 0 0.42854038242645709 -0.26281135800815408 0 0.41345304600685079 -0.26440480953867462 0 0.41984775782459283 -0.2623632460968765 0 0.42656562700980838 -0.24831468624349931 0 0.41087794879613182 -0.2494957955088617 0 0.42854038242645709 -0.26281135800815408 0 0.4477486317760534 -0.26078267557717671 0 0.42854038242645709 -0.26281135800815408 0 0.430823863629894 -0.26453285558412298 0 0.41345304600685079 -0.26440480953867462 0 0.42854038242645709 -0.26281135800815408 0 0.430823863629894 -0.26453285558412298 0 0.42854038242645709 -0.26281135800815408 0 0.430823863629894 -0.26453285558412298 0 0.42656562700980838 -0.24831468624349931 0 0.42854038242645709 -0.26281135800815408 0 0.4372088962240912 -0.25169219704383999 0 0.42166373126508722 -0.27984448092147479 0 0.430823863629894 -0.26453285558412298 0 0.43570592202634773 -0.28205449164250063 0 0.42166373126508722 -0.27984448092147479 0 0.43570592202634773 -0.28205449164250063 0 0.42504611560874761 -0.29307714113289868 0 0.43874415768382158 -0.29310671547163403 0 0.43570592202634773 -0.28205449164250063 0 0.42504611560874761 -0.29307714113289868 0 0.43874415768382158 -0.29310671547163403 0 0.42504611560874761 -0.29307714113289868 0 0.43092107089682352 -0.30573631325696571 0 0.41919911313656122 -0.31385112706466711 0 0.43092107089682352 -0.30573631325696571 0 0.41692698488998292 -0.30249561446253759 0 0.42504611560874761 -0.29307714113289868 0 0.43092107089682352 -0.30573631325696571 0 0.41692698488998292 -0.30249561446253759 0 0.41919911313656122 -0.31385112706466711 0 0.41692698488998292 -0.30249561446253759 0 0.40916221757477672 -0.31142054967536659 0 0.40563314249086863 -0.30155395497769039 0 0.41692698488998292 -0.30249561446253759 0 0.40916221757477672 -0.31142054967536659 0 0.40563314249086863 -0.30155395497769039 0 0.41692698488998292 -0.30249561446253759 0 0.41160024963212011 -0.28933460066763711 0 0.42166373126508722 -0.27984448092147479 0 0.42504611560874761 -0.29307714113289868 0 0.41160024963212011 -0.28933460066763711 0 0.42504611560874761 -0.29307714113289868 0 0.41692698488998292 -0.30249561446253759 0 0.41160024963212011 -0.28933460066763711 0 0.5 -0.5 0 0.47532784176218862 -0.47257481327436679 0 0.43264288253940292 -0.48275234633568048 0 0.5 -0.5 0 0.41749257905485199 -0.50000000000000033 0 0.43264288253940292 -0.48275234633568048 0 0.47532784176218862 -0.47257481327436679 0 0.44779318602395363 -0.46550469267136052 0 0.43264288253940292 -0.48275234633568048 0 0.44779318602395363 -0.46550469267136052 0 0.43264288253940292 -0.48275234633568048 0 0.5 -0.5 0 0.47532784176218862 -0.47257481327436679 0 0.49999999999999828 -0.44642064777577001 0 0.47532784176218862 -0.47257481327436679 0 0.47918453573141367 -0.4495963838019249 0 0.46294348950850428 -0.44825703900704061 0 0.47532784176218862 -0.47257481327436679 0 0.49999999999999828 -0.44642064777577001 0 0.47918453573141367 -0.4495963838019249 0 0.49999999999999828 -0.44642064777577001 0 0.47846681165496419 -0.4311330351505217 0 0.49999999999999828 -0.44642064777577001 0 0.47918453573141367 -0.4495963838019249 0 0.47846681165496419 -0.4311330351505217 0 0.47918453573141367 -0.4495963838019249 0 0.46294348950850428 -0.44825703900704061 0 0.47846681165496419 -0.4311330351505217 0 0.46294348950850428 -0.44825703900704061 0 0.44442683605218691 -0.44583817528272968 0 0.45721208074107311 -0.43281318479414382 0 0.46294348950850428 -0.44825703900704061 0 0.44779318602395363 -0.46550469267136052 0 0.47532784176218862 -0.47257481327436679 0 0.46294348950850428 -0.44825703900704061 0 0.44779318602395363 -0.46550469267136052 0 0.44779318602395363 -0.46550469267136052 0 0.44442683605218691 -0.44583817528272968 0 0.43057418754349119 -0.46211781715143319 0 0.46294348950850428 -0.44825703900704061 0 0.44779318602395363 -0.46550469267136052 0 0.44442683605218691 -0.44583817528272968 0 0.44442683605218691 -0.44583817528272968 0 0.44324354583686831 -0.42153379012121539 0 0.45721208074107311 -0.43281318479414382 0 0.44442683605218691 -0.44583817528272968 0 0.44324354583686831 -0.42153379012121539 0 0.42653452723640378 -0.44279137365393179 0 0.44324354583686831 -0.42153379012121539 0 0.45693362330993059 -0.41584542252527262 0 0.45721208074107311 -0.43281318479414382 0 0.45693362330993059 -0.41584542252527262 0 0.4354004349648965 -0.40055780990002432 0 0.44324354583686831 -0.42153379012121539 0 0.45693362330993059 -0.41584542252527262 0 0.4354004349648965 -0.40055780990002432 0 0.45693362330993059 -0.41584542252527262 0 0.46461049463358839 -0.41117161714406408 0 0.47846681165496419 -0.4311330351505217 0 0.45693362330993059 -0.41584542252527262 0 0.46461049463358839 -0.41117161714406408 0 0.45329728287846061 -0.39963099679296588 0 0.46294348950850428 -0.44825703900704061 0 0.45721208074107311 -0.43281318479414382 0 0.47846681165496419 -0.4311330351505217 0 0.45693362330993059 -0.41584542252527262 0 0.45721208074107311 -0.43281318479414382 0 0.47846681165496419 -0.4311330351505217 0 0.45693362330993059 -0.41584542252527262 0 0.47846681165496419 -0.4311330351505217 0 0.49999999999999828 -0.44642064777577001 0 0.47846681165496419 -0.4311330351505217 0 0.5 -0.42181653977348488 0 0.5 -0.42181653977348488 0 0.48394518954555588 -0.41195106762427058 0 0.49999999999999789 -0.3972124317711998 0 0.47846681165496419 -0.4311330351505217 0 0.5 -0.42181653977348488 0 0.48394518954555588 -0.41195106762427058 0 0.46461049463358839 -0.41117161714406408 0 0.47846681165496419 -0.4311330351505217 0 0.48394518954555588 -0.41195106762427058 0 0.46461049463358839 -0.41117161714406408 0 0.48394518954555588 -0.41195106762427058 0 0.47664864143922919 -0.39842171428208217 0 0.47664864143922919 -0.39842171428208217 0 0.47975395238035062 -0.3854291032725421 0 0.46812846895096999 -0.38912968091376021 0 0.47664864143922919 -0.39842171428208217 0 0.49999999999999789 -0.3972124317711998 0 0.48779058149940679 -0.38751051868815611 0 0.48394518954555588 -0.41195106762427058 0 0.47664864143922919 -0.39842171428208217 0 0.49999999999999789 -0.3972124317711998 0 0.47664864143922919 -0.39842171428208217 0 0.49999999999999789 -0.3972124317711998 0 0.5 -0.37037944899495368 0 0.49999999999999789 -0.3972124317711998 0 0.48779058149940679 -0.38751051868815611 0 0.5 -0.37037944899495368 0 0.48466784746851571 -0.3739080713738358 0 0.48779058149940679 -0.38751051868815611 0 0.48466784746851571 -0.3739080713738358 0 0.47975395238035062 -0.3854291032725421 0 0.47323517146124039 -0.38191256761527542 0 0.48466784746851571 -0.3739080713738358 0 0.48779058149940679 -0.38751051868815611 0 0.47975395238035062 -0.3854291032725421 0 0.47664864143922919 -0.39842171428208217 0 0.48779058149940679 -0.38751051868815611 0 0.47975395238035062 -0.3854291032725421 0 0.47975395238035062 -0.3854291032725421 0 0.47323517146124039 -0.38191256761527542 0 0.46812846895096999 -0.38912968091376021 0 0.46918642870160698 -0.38365020197922722 0 0.47323517146124039 -0.38191256761527542 0 0.46812846895096999 -0.38912968091376021 0 0.4671179630262795 -0.37324494563770522 0 0.46918642870160698 -0.38365020197922722 0 0.47323517146124039 -0.38191256761527542 0 0.45652460043480969 -0.37267172771365881 0 0.4671179630262795 -0.37324494563770522 0 0.46918642870160698 -0.38365020197922722 0 0.45652460043480969 -0.37267172771365881 0 0.46918642870160698 -0.38365020197922722 0 0.45652460043480969 -0.37267172771365881 0 0.45606522570456098 -0.38599652494351028 0 0.44783900322824399 -0.38008781189722518 0 0.45652460043480969 -0.37267172771365881 0 0.46918642870160698 -0.38365020197922722 0 0.45606522570456098 -0.38599652494351028 0 0.46918642870160698 -0.38365020197922722 0 0.45606522570456098 -0.38599652494351028 0 0.46812846895096999 -0.38912968091376021 0 0.46461049463358839 -0.41117161714406408 0 0.47664864143922919 -0.39842171428208217 0 0.45329728287846061 -0.39963099679296588 0 0.47664864143922919 -0.39842171428208217 0 0.45329728287846061 -0.39963099679296588 0 0.47664864143922919 -0.39842171428208217 0 0.46812846895096999 -0.38912968091376021 0 0.45329728287846061 -0.39963099679296588 0 0.46461049463358839 -0.41117161714406408 0 0.45329728287846061 -0.39963099679296588 0 0.45606522570456098 -0.38599652494351028 0 0.46812846895096999 -0.38912968091376021 0 0.45329728287846061 -0.39963099679296588 0 0.45693362330993059 -0.41584542252527262 0 0.45329728287846061 -0.39963099679296588 0 0.4354004349648965 -0.40055780990002432 0 0.45329728287846061 -0.39963099679296588 0 0.4354004349648965 -0.40055780990002432 0 0.45329728287846061 -0.39963099679296588 0 0.4390969294492823 -0.3851451998924304 0 0.4354004349648965 -0.40055780990002432 0 0.45329728287846061 -0.39963099679296588 0 0.4390969294492823 -0.3851451998924304 0 0.45606522570456098 -0.38599652494351028 0 0.4390969294492823 -0.3851451998924304 0 0.44783900322824399 -0.38008781189722518 0 0.45606522570456098 -0.38599652494351028 0 0.45329728287846061 -0.39963099679296588 0 0.4390969294492823 -0.3851451998924304 0 0.4390969294492823 -0.3851451998924304 0 0.43808065797110041 -0.37748478958974491 0 0.44783900322824399 -0.38008781189722518 0 0.42782015831496062 -0.38505662608606978 0 0.4354004349648965 -0.40055780990002432 0 0.41188669282555868 -0.38386409155992901 0 0.42489657602010461 -0.37065940299189432 0 0.4390969294492823 -0.3851451998924304 0 0.42782015831496062 -0.38505662608606978 0 0.42489657602010461 -0.37065940299189432 0 0.4390969294492823 -0.3851451998924304 0 0.43808065797110041 -0.37748478958974491 0 0.42489657602010461 -0.37065940299189432 0 0.4390969294492823 -0.3851451998924304 0 0.4390969294492823 -0.3851451998924304 0 0.42782015831496062 -0.38505662608606978 0 0.4354004349648965 -0.40055780990002432 0 0.4354004349648965 -0.40055780990002432 0 0.41188669282555868 -0.38386409155992901 0 0.4354004349648965 -0.40055780990002432 0 0.40669862042327182 -0.40204417319942209 0 0.4354004349648965 -0.40055780990002432 0 0.40669862042327182 -0.40204417319942209 0 0.41188669282555868 -0.38386409155992901 0 0.42489657602010461 -0.37065940299189432 0 0.42782015831496062 -0.38505662608606978 0 0.41188669282555868 -0.38386409155992901 0 0.42489657602010461 -0.37065940299189432 0 0.4070765621089808 -0.37107032214525337 0 0.41188669282555868 -0.38386409155992901 0 0.4070765621089808 -0.37107032214525337 0 0.39585190457779329 -0.37201308858561799 0 0.39886607975096749 -0.38470810625682389 0 0.40669862042327182 -0.40204417319942209 0 0.41188669282555868 -0.38386409155992901 0 0.39886607975096749 -0.38470810625682389 0 0.4070765621089808 -0.37107032214525337 0 0.41188669282555868 -0.38386409155992901 0 0.39886607975096749 -0.38470810625682389 0 0.39585190457779329 -0.37201308858561799 0 0.39886607975096749 -0.38470810625682389 0 0.38601585554704992 -0.38244526212700758 0 0.39886607975096749 -0.38470810625682389 0 0.38601585554704992 -0.38244526212700758 0 0.37799680588164719 -0.40353053649882148 0 0.38601585554704992 -0.38244526212700758 0 0.37799680588164719 -0.40353053649882148 0 0.38601585554704992 -0.38244526212700758 0 0.37799680588164719 -0.40353053649882148 0 0.36816388811638329 -0.39545065246060412 0 0.37799680588164719 -0.40353053649882148 0 0.37635446215448021 -0.40784891206015261 0 0.37799680588164719 -0.40353053649882148 0 0.37505152225636262 -0.40368306209891941 0 0.37635446215448021 -0.40784891206015261 0 0.37799680588164719 -0.40353053649882148 0 0.37505152225636262 -0.40368306209891941 0 0.40669862042327182 -0.40204417319942209 0 0.39886607975096749 -0.38470810625682389 0 0.37799680588164719 -0.40353053649882148 0 0.40669862042327182 -0.40204417319942209 0 0.37799680588164719 -0.40353053649882148 0 0.40669862042327182 -0.40204417319942209 0 0.38553791301154328 -0.41840677215457472 0 0.40567792500840172 -0.4277251834563135 0 0.40669862042327182 -0.40204417319942209 0 0.37799680588164719 -0.40353053649882148 0 0.38553791301154328 -0.41840677215457472 0 0.38553791301154328 -0.41840677215457472 0 0.36905142820508552 -0.42917232846767789 0 0.37241381966677689 -0.417360225696081 0 0.38553791301154328 -0.41840677215457472 0 0.37635446215448021 -0.40784891206015261 0 0.37241381966677689 -0.417360225696081 0 0.37799680588164719 -0.40353053649882148 0 0.38553791301154328 -0.41840677215457472 0 0.37635446215448021 -0.40784891206015261 0 0.38553791301154328 -0.41840677215457472 0 0.38807715457860831 -0.4388905332329941 0 0.36905142820508552 -0.42917232846767789 0 0.38553791301154328 -0.41840677215457472 0 0.40567792500840172 -0.4277251834563135 0 0.38807715457860831 -0.4388905332329941 0 0.40567792500840172 -0.4277251834563135 0 0.42351101069396863 -0.41893046606618117 0 0.42653452723640378 -0.44279137365393179 0 0.4354004349648965 -0.40055780990002432 0 0.40669862042327182 -0.40204417319942209 0 0.42351101069396863 -0.41893046606618117 0 0.40669862042327182 -0.40204417319942209 0 0.40567792500840172 -0.4277251834563135 0 0.42351101069396863 -0.41893046606618117 0 0.44324354583686831 -0.42153379012121539 0 0.4354004349648965 -0.40055780990002432 0 0.42351101069396863 -0.41893046606618117 0 0.44324354583686831 -0.42153379012121539 0 0.42653452723640378 -0.44279137365393179 0 0.44324354583686831 -0.42153379012121539 0 0.42351101069396863 -0.41893046606618117 0 0.42653452723640378 -0.44279137365393179 0 0.44442683605218691 -0.44583817528272968 0 0.42653452723640378 -0.44279137365393179 0 0.43057418754349119 -0.46211781715143319 0 0.42653452723640378 -0.44279137365393179 0 0.43057418754349119 -0.46211781715143319 0 0.40982550863593931 -0.46404895718664829 0 0.42653452723640378 -0.44279137365393179 0 0.40982550863593931 -0.46404895718664829 0 0.42653452723640378 -0.44279137365393179 0 0.40982550863593931 -0.46404895718664829 0 0.4036378289262339 -0.44671034290208689 0 0.40567792500840172 -0.4277251834563135 0 0.42653452723640378 -0.44279137365393179 0 0.4036378289262339 -0.44671034290208689 0 0.40567792500840172 -0.4277251834563135 0 0.4036378289262339 -0.44671034290208689 0 0.38807715457860831 -0.4388905332329941 0 0.4036378289262339 -0.44671034290208689 0 0.38807715457860831 -0.4388905332329941 0 0.38807402917181633 -0.46009566698054732 0 0.38807715457860831 -0.4388905332329941 0 0.3733961412993268 -0.45022493016754961 0 0.36905142820508552 -0.42917232846767789 0 0.38807715457860831 -0.4388905332329941 0 0.38807402917181633 -0.46009566698054732 0 0.3733961412993268 -0.45022493016754961 0 0.38807402917181633 -0.46009566698054732 0 0.36593927904035028 -0.47432204071884282 0 0.3733961412993268 -0.45022493016754961 0 0.40982550863593931 -0.46404895718664829 0 0.4036378289262339 -0.44671034290208689 0 0.38807402917181633 -0.46009566698054732 0 0.40982550863593931 -0.46404895718664829 0 0.39311649003547477 -0.48530654071936469 0 0.40982550863593931 -0.46404895718664829 0 0.38807402917181633 -0.46009566698054732 0 0.39311649003547477 -0.48530654071936469 0 0.38807402917181633 -0.46009566698054732 0 0.39311649003547477 -0.48530654071936469 0 0.36593927904035028 -0.47432204071884282 0 0.37603974257992701 -0.49999999999999978 0 0.39311649003547477 -0.48530654071936469 0 0.36593927904035028 -0.47432204071884282 0 0.37603974257992701 -0.49999999999999978 0 0.39676616081738958 -0.5 0 0.39311649003547477 -0.48530654071936469 0 0.39676616081738958 -0.5 0 0.39311649003547477 -0.48530654071936469 0 0.41749257905485199 -0.50000000000000033 0 0.40982550863593931 -0.46404895718664829 0 0.41749257905485199 -0.50000000000000033 0 0.43264288253940292 -0.48275234633568048 0 0.40982550863593931 -0.46404895718664829 0 0.39311649003547477 -0.48530654071936469 0 0.41749257905485199 -0.50000000000000033 0 0.43057418754349119 -0.46211781715143319 0 0.40982550863593931 -0.46404895718664829 0 0.43264288253940292 -0.48275234633568048 0 0.44779318602395363 -0.46550469267136052 0 0.43057418754349119 -0.46211781715143319 0 0.43264288253940292 -0.48275234633568048 0 0.41749257905485199 -0.50000000000000033 0 0.43264288253940292 -0.48275234633568048 0 0.32215468257820618 -0.5 0 0.33760568703239408 -0.47417818032706111 0 0.31005432530219129 -0.48106067464861729 0 0.33760568703239408 -0.47417818032706111 0 0.3189449745883719 -0.46117016543644002 0 0.31005432530219129 -0.48106067464861729 0 0.32215468257820618 -0.5 0 0.33760568703239408 -0.47417818032706111 0 0.34909721257906662 -0.5 0 0.37603974257992701 -0.49999999999999978 0 0.34909721257906662 -0.5 0 0.36593927904035028 -0.47432204071884282 0 0.37603974257992701 -0.49999999999999978 0 0.36593927904035028 -0.47432204071884282 0 0.33760568703239408 -0.47417818032706111 0 0.34909721257906662 -0.5 0 0.36593927904035028 -0.47432204071884282 0 0.33760568703239408 -0.47417818032706111 0 0.36593927904035028 -0.47432204071884282 0 0.35583881550077368 -0.44864408143768569 0 0.36593927904035028 -0.47432204071884282 0 0.35583881550077368 -0.44864408143768569 0 0.36593927904035028 -0.47432204071884282 0 0.3733961412993268 -0.45022493016754961 0 0.35583881550077368 -0.44864408143768569 0 0.3733961412993268 -0.45022493016754961 0 0.35583881550077368 -0.44864408143768569 0 0.36905142820508552 -0.42917232846767789 0 0.35583881550077368 -0.44864408143768569 0 0.33540415989768779 -0.44905252560006492 0 0.34573835196119679 -0.42296612215652868 0 0.33760568703239408 -0.47417818032706111 0 0.35583881550077368 -0.44864408143768569 0 0.33540415989768779 -0.44905252560006492 0 0.33760568703239408 -0.47417818032706111 0 0.33540415989768779 -0.44905252560006492 0 0.3189449745883719 -0.46117016543644002 0 0.33540415989768779 -0.44905252560006492 0 0.3189449745883719 -0.46117016543644002 0 0.32126124445813709 -0.43429719032362252 0 0.3189449745883719 -0.46117016543644002 0 0.32126124445813709 -0.43429719032362252 0 0.30480654487456732 -0.44641521679941309 0 0.32126124445813709 -0.43429719032362252 0 0.3193156137706864 -0.40941365839269389 0 0.29937418247959258 -0.41817563384508599 0 0.3193156137706864 -0.40941365839269389 0 0.34573835196119679 -0.42296612215652868 0 0.33563788842162012 -0.39728816287537172 0 0.34573835196119679 -0.42296612215652868 0 0.33563788842162012 -0.39728816287537172 0 0.33540415989768779 -0.44905252560006492 0 0.32126124445813709 -0.43429719032362252 0 0.34573835196119679 -0.42296612215652868 0 0.32126124445813709 -0.43429719032362252 0 0.3193156137706864 -0.40941365839269389 0 0.34573835196119679 -0.42296612215652868 0 0.35583881550077368 -0.44864408143768569 0 0.34573835196119679 -0.42296612215652868 0 0.36905142820508552 -0.42917232846767789 0 0.35583881550077368 -0.44864408143768569 0 0.34573835196119679 -0.42296612215652868 0 0.36905142820508552 -0.42917232846767789 0 0.37241381966677689 -0.417360225696081 0 0.36195200988480669 -0.41065981681110758 0 0.36990343230398692 -0.40830781576793279 0 0.37241381966677689 -0.417360225696081 0 0.36195200988480669 -0.41065981681110758 0 0.37635446215448021 -0.40784891206015261 0 0.36990343230398692 -0.40830781576793279 0 0.37241381966677689 -0.417360225696081 0 0.37505152225636262 -0.40368306209891941 0 0.37635446215448021 -0.40784891206015261 0 0.36990343230398692 -0.40830781576793279 0 0.36990343230398692 -0.40830781576793279 0 0.36195200988480669 -0.41065981681110758 0 0.36876771314038492 -0.40452533678464098 0 0.34573835196119679 -0.42296612215652868 0 0.36195200988480669 -0.41065981681110758 0 0.35211107663302149 -0.40015425695529971 0 0.34573835196119679 -0.42296612215652868 0 0.36905142820508552 -0.42917232846767789 0 0.36195200988480669 -0.41065981681110758 0 0.34573835196119679 -0.42296612215652868 0 0.35211107663302149 -0.40015425695529971 0 0.33563788842162012 -0.39728816287537172 0 0.35211107663302149 -0.40015425695529971 0 0.35352794608594401 -0.38791341326287138 0 0.33563788842162012 -0.39728816287537172 0 0.35211107663302149 -0.40015425695529971 0 0.36816388811638329 -0.39545065246060412 0 0.35352794608594401 -0.38791341326287138 0 0.36195200988480669 -0.41065981681110758 0 0.36816388811638329 -0.39545065246060412 0 0.36876771314038492 -0.40452533678464098 0 0.36195200988480669 -0.41065981681110758 0 0.35211107663302149 -0.40015425695529971 0 0.36816388811638329 -0.39545065246060412 0 0.37505152225636262 -0.40368306209891941 0 0.36816388811638329 -0.39545065246060412 0 0.36876771314038492 -0.40452533678464098 0 0.37799680588164719 -0.40353053649882148 0 0.37505152225636262 -0.40368306209891941 0 0.36816388811638329 -0.39545065246060412 0 0.37505152225636262 -0.40368306209891941 0 0.36990343230398692 -0.40830781576793279 0 0.36876771314038492 -0.40452533678464098 0 0.38601585554704992 -0.38244526212700758 0 0.36816388811638329 -0.39545065246060412 0 0.3689120952668708 -0.37284951495870189 0 0.36816388811638329 -0.39545065246060412 0 0.35352794608594401 -0.38791341326287138 0 0.3689120952668708 -0.37284951495870189 0 0.35352794608594401 -0.38791341326287138 0 0.33563788842162012 -0.39728816287537172 0 0.34467783115022588 -0.37252705130409253 0 0.35352794608594401 -0.38791341326287138 0 0.3689120952668708 -0.37284951495870189 0 0.34467783115022588 -0.37252705130409253 0 0.33563788842162012 -0.39728816287537172 0 0.3255374248820434 -0.37161020359421471 0 0.33563788842162012 -0.39728816287537172 0 0.34467783115022588 -0.37252705130409253 0 0.3255374248820434 -0.37161020359421471 0 0.3193156137706864 -0.40941365839269389 0 0.33563788842162012 -0.39728816287537172 0 0.30534853388527528 -0.38930881101125692 0 0.33563788842162012 -0.39728816287537172 0 0.30534853388527528 -0.38930881101125692 0 0.3255374248820434 -0.37161020359421471 0 0.30534853388527528 -0.38930881101125692 0 0.3255374248820434 -0.37161020359421471 0 0.30525369772634148 -0.37164386163485291 0 0.30534853388527528 -0.38930881101125692 0 0.28783989868818821 -0.37644057584389279 0 0.30525369772634148 -0.37164386163485291 0 0.3193156137706864 -0.40941365839269389 0 0.30534853388527528 -0.38930881101125692 0 0.29937418247959258 -0.41817563384508599 0 0.30534853388527528 -0.38930881101125692 0 0.28922044672054198 -0.39637746652331562 0 0.29937418247959258 -0.41817563384508599 0 0.28922044672054198 -0.39637746652331562 0 0.27510086349567708 -0.39798721671617321 0 0.28320928432356041 -0.41012407252970262 0 0.28922044672054198 -0.39637746652331562 0 0.28783989868818821 -0.37644057584389279 0 0.27924907625512951 -0.38731579260330862 0 0.30534853388527528 -0.38930881101125692 0 0.28922044672054198 -0.39637746652331562 0 0.28783989868818821 -0.37644057584389279 0 0.30534853388527528 -0.38930881101125692 0 0.28783989868818821 -0.37644057584389279 0 0.28783989868818821 -0.37644057584389279 0 0.27447250226623809 -0.37821124143188289 0 0.27924907625512951 -0.38731579260330862 0 0.27447250226623809 -0.37821124143188289 0 0.27924907625512951 -0.38731579260330862 0 0.26961167010500181 -0.38756246250127813 0 0.27447250226623809 -0.37821124143188289 0 0.26961167010500181 -0.38756246250127813 0 0.26423397132697279 -0.37890457124200982 0 0.26961167010500181 -0.38756246250127813 0 0.26423397132697279 -0.37890457124200982 0 0.25687819372407023 -0.38903915957053298 0 0.26423397132697279 -0.37890457124200982 0 0.25687819372407023 -0.38903915957053298 0 0.24987622704845311 -0.37613765202982719 0 0.25108303853213881 -0.40002667887407228 0 0.26390234922262928 -0.39930308446362528 0 0.256136481120742 -0.41447562176841068 0 0.25687819372407023 -0.38903915957053298 0 0.25108303853213881 -0.40002667887407228 0 0.24309899287842279 -0.39271330151873202 0 0.25687819372407023 -0.38903915957053298 0 0.25108303853213881 -0.40002667887407228 0 0.26390234922262928 -0.39930308446362528 0 0.26961167010500181 -0.38756246250127813 0 0.25687819372407023 -0.38903915957053298 0 0.26390234922262928 -0.39930308446362528 0 0.26390234922262928 -0.39930308446362528 0 0.27510086349567708 -0.39798721671617321 0 0.2708804648698091 -0.41009655218672442 0 0.26961167010500181 -0.38756246250127813 0 0.26390234922262928 -0.39930308446362528 0 0.27510086349567708 -0.39798721671617321 0 0.28922044672054198 -0.39637746652331562 0 0.27924907625512951 -0.38731579260330862 0 0.27510086349567708 -0.39798721671617321 0 0.27924907625512951 -0.38731579260330862 0 0.26961167010500181 -0.38756246250127813 0 0.27510086349567708 -0.39798721671617321 0 0.27510086349567708 -0.39798721671617321 0 0.2708804648698091 -0.41009655218672442 0 0.28320928432356041 -0.41012407252970262 0 0.2708804648698091 -0.41009655218672442 0 0.256136481120742 -0.41447562176841068 0 0.27433621812851161 -0.42550461519375637 0 0.2708804648698091 -0.41009655218672442 0 0.27433621812851161 -0.42550461519375637 0 0.28320928432356041 -0.41012407252970262 0 0.26390234922262928 -0.39930308446362528 0 0.2708804648698091 -0.41009655218672442 0 0.256136481120742 -0.41447562176841068 0 0.25108303853213881 -0.40002667887407228 0 0.256136481120742 -0.41447562176841068 0 0.24629253832767661 -0.41022035877505542 0 0.256136481120742 -0.41447562176841068 0 0.25513396950241118 -0.43290986753561628 0 0.2453827316299185 -0.42192330194190181 0 0.256136481120742 -0.41447562176841068 0 0.25513396950241118 -0.43290986753561628 0 0.27433621812851161 -0.42550461519375637 0 0.25513396950241118 -0.43290986753561628 0 0.27433621812851161 -0.42550461519375637 0 0.26752346795397081 -0.44788636482661331 0 0.27433621812851161 -0.42550461519375637 0 0.29937418247959258 -0.41817563384508599 0 0.28546596250580908 -0.44246723239800262 0 0.29937418247959258 -0.41817563384508599 0 0.30480654487456732 -0.44641521679941309 0 0.28546596250580908 -0.44246723239800262 0 0.28922044672054198 -0.39637746652331562 0 0.28320928432356041 -0.41012407252970262 0 0.29937418247959258 -0.41817563384508599 0 0.27433621812851161 -0.42550461519375637 0 0.28320928432356041 -0.41012407252970262 0 0.29937418247959258 -0.41817563384508599 0 0.32126124445813709 -0.43429719032362252 0 0.29937418247959258 -0.41817563384508599 0 0.30480654487456732 -0.44641521679941309 0 0.3189449745883719 -0.46117016543644002 0 0.30480654487456732 -0.44641521679941309 0 0.28880919487484108 -0.4658549053918814 0 0.30480654487456732 -0.44641521679941309 0 0.28880919487484108 -0.4658549053918814 0 0.28546596250580908 -0.44246723239800262 0 0.27433621812851161 -0.42550461519375637 0 0.28546596250580908 -0.44246723239800262 0 0.26752346795397081 -0.44788636482661331 0 0.28880919487484108 -0.4658549053918814 0 0.28546596250580908 -0.44246723239800262 0 0.26752346795397081 -0.44788636482661331 0 0.25513396950241118 -0.43290986753561628 0 0.26752346795397081 -0.44788636482661331 0 0.24480843210435321 -0.45079661158300749 0 0.26752346795397081 -0.44788636482661331 0 0.2588368117714554 -0.46700690363883102 0 0.24480843210435321 -0.45079661158300749 0 0.28880919487484108 -0.4658549053918814 0 0.26752346795397081 -0.44788636482661331 0 0.2588368117714554 -0.46700690363883102 0 0.28880919487484108 -0.4658549053918814 0 0.2588368117714554 -0.46700690363883102 0 0.27227655507569209 -0.48076744006000099 0 0.2588368117714554 -0.46700690363883102 0 0.27227655507569209 -0.48076744006000099 0 0.25270961841775552 -0.48460016746525392 0 0.2588368117714554 -0.46700690363883102 0 0.25270961841775552 -0.48460016746525392 0 0.23949561189523169 -0.47426551941090739 0 0.25270961841775552 -0.48460016746525392 0 0.26826962257648529 -0.5 0 0.2413270925756249 -0.5 0 0.27227655507569209 -0.48076744006000099 0 0.25270961841775552 -0.48460016746525392 0 0.26826962257648529 -0.5 0 0.27227655507569209 -0.48076744006000099 0 0.26826962257648529 -0.5 0 0.29521215257734579 -0.5 0 0.28880919487484108 -0.4658549053918814 0 0.27227655507569209 -0.48076744006000099 0 0.29521215257734579 -0.5 0 0.28880919487484108 -0.4658549053918814 0 0.29521215257734579 -0.5 0 0.31005432530219129 -0.48106067464861729 0 0.3189449745883719 -0.46117016543644002 0 0.28880919487484108 -0.4658549053918814 0 0.31005432530219129 -0.48106067464861729 0 0.32215468257820618 -0.5 0 0.29521215257734579 -0.5 0 0.31005432530219129 -0.48106067464861729 0 0.33463237856908817 -0.28956894479377399 0 0.33485830675890288 -0.30442904333306592 0 0.35657459314761941 -0.2860097891906741 0 0.33463237856908817 -0.28956894479377399 0 0.32894302133540282 -0.28710755170783531 0 0.35195887039823659 -0.28200771363307098 0 0.32894302133540282 -0.28710755170783531 0 0.35195887039823659 -0.28200771363307098 0 0.32894302133540282 -0.28710755170783531 0 0.33255663915089151 -0.29722249741805129 0 0.33463237856908817 -0.28956894479377399 0 0.32894302133540282 -0.28710755170783531 0 0.33255663915089151 -0.29722249741805129 0 0.32894302133540282 -0.28710755170783531 0 0.33255663915089151 -0.29722249741805129 0 0.32301709761150521 -0.2972128627914089 0 0.33485830675890288 -0.30442904333306592 0 0.34824447571033601 -0.30253517369681238 0 0.34533870308018377 -0.31598934501886372 0 0.33485830675890288 -0.30442904333306592 0 0.33255663915089151 -0.29722249741805129 0 0.32434770264142349 -0.30499280498860082 0 0.33463237856908817 -0.28956894479377399 0 0.33485830675890288 -0.30442904333306592 0 0.33255663915089151 -0.29722249741805129 0 0.32301709761150521 -0.2972128627914089 0 0.32434770264142349 -0.30499280498860082 0 0.3171485971304504 -0.30589952111326829 0 0.32434770264142349 -0.30499280498860082 0 0.3171485971304504 -0.30589952111326829 0 0.31314202037018413 -0.32284829747545468 0 0.33485830675890288 -0.30442904333306592 0 0.32434770264142349 -0.30499280498860082 0 0.31314202037018413 -0.32284829747545468 0 0.33255663915089151 -0.29722249741805129 0 0.32301709761150521 -0.2972128627914089 0 0.32434770264142349 -0.30499280498860082 0 0.3171485971304504 -0.30589952111326829 0 0.31208952779935789 -0.2908419387292881 0 0.30833746379913463 -0.30503745501229762 0 0.32301709761150521 -0.2972128627914089 0 0.3171485971304504 -0.30589952111326829 0 0.31208952779935789 -0.2908419387292881 0 0.32894302133540282 -0.28710755170783531 0 0.31611371382327402 -0.28007222207304999 0 0.31208952779935789 -0.2908419387292881 0 0.32894302133540282 -0.28710755170783531 0 0.32301709761150521 -0.2972128627914089 0 0.31208952779935789 -0.2908419387292881 0 0.32894302133540282 -0.28710755170783531 0 0.31208952779935789 -0.2908419387292881 0 0.32894302133540282 -0.28710755170783531 0 0.32245882367699719 -0.26895751187574157 0 0.32894302133540282 -0.28710755170783531 0 0.31611371382327402 -0.28007222207304999 0 0.32245882367699719 -0.26895751187574157 0 0.31611371382327402 -0.28007222207304999 0 0.32245882367699719 -0.26895751187574157 0 0.30706455279928557 -0.27339796693147528 0 0.32245882367699719 -0.26895751187574157 0 0.30981211567343969 -0.26250129009931661 0 0.30706455279928557 -0.27339796693147528 0 0.32245882367699719 -0.26895751187574157 0 0.31597462601859122 -0.25080747204364812 0 0.32245882367699719 -0.26895751187574157 0 0.31597462601859122 -0.25080747204364812 0 0.30981211567343969 -0.26250129009931661 0 0.32245882367699719 -0.26895751187574157 0 0.31597462601859122 -0.25080747204364812 0 0.33396674820841349 -0.26640759283836002 0 0.31597462601859122 -0.25080747204364812 0 0.33396674820841349 -0.26640759283836002 0 0.33517615116993849 -0.24743488902137309 0 0.33396674820841349 -0.26640759283836002 0 0.35185333732921159 -0.25428502110151557 0 0.33517615116993849 -0.24743488902137309 0 0.31597462601859122 -0.25080747204364812 0 0.33396674820841349 -0.26640759283836002 0 0.32894302133540282 -0.28710755170783531 0 0.32245882367699719 -0.26895751187574157 0 0.33396674820841349 -0.26640759283836002 0 0.33396674820841349 -0.26640759283836002 0 0.35195887039823659 -0.28200771363307098 0 0.32894302133540282 -0.28710755170783531 0 0.33396674820841349 -0.26640759283836002 0 0.35195887039823659 -0.28200771363307098 0 0.33396674820841349 -0.26640759283836002 0 0.35159414215374007 -0.26901089914998932 0 0.35195887039823659 -0.28200771363307098 0 0.35159414215374007 -0.26901089914998932 0 0.36459381448795669 -0.2792080702757721 0 0.35195887039823659 -0.28200771363307098 0 0.36459381448795669 -0.2792080702757721 0 0.35195887039823659 -0.28200771363307098 0 0.33396674820841349 -0.26640759283836002 0 0.35159414215374007 -0.26901089914998932 0 0.35185333732921159 -0.25428502110151557 0 0.35159414215374007 -0.26901089914998932 0 0.35185333732921159 -0.25428502110151557 0 0.36435388824524378 -0.26651308148643732 0 0.37477580018058132 -0.24095111383496479 0 0.37683953433427181 -0.26882153263446662 0 0.36563983252638571 -0.25462703483095822 0 0.36075586336603621 -0.2426037127049111 0 0.35185333732921159 -0.25428502110151557 0 0.36563983252638571 -0.25462703483095822 0 0.35185333732921159 -0.25428502110151557 0 0.36563983252638571 -0.25462703483095822 0 0.36435388824524378 -0.26651308148643732 0 0.37683953433427181 -0.26882153263446662 0 0.36563983252638571 -0.25462703483095822 0 0.36435388824524378 -0.26651308148643732 0 0.36459381448795669 -0.2792080702757721 0 0.36308990924476459 -0.28048364807874221 0 0.35195887039823659 -0.28200771363307098 0 0.36459381448795669 -0.2792080702757721 0 0.36308990924476459 -0.28048364807874221 0 0.37273728942595791 -0.27740364396778311 0 0.36459381448795669 -0.2792080702757721 0 0.36308990924476459 -0.28048364807874221 0 0.35159414215374007 -0.26901089914998932 0 0.36459381448795669 -0.2792080702757721 0 0.36435388824524378 -0.26651308148643732 0 0.37683953433427181 -0.26882153263446662 0 0.36459381448795669 -0.2792080702757721 0 0.36435388824524378 -0.26651308148643732 0 0.36459381448795669 -0.2792080702757721 0 0.37273728942595791 -0.27740364396778311 0 0.37683953433427181 -0.26882153263446662 0 0.36459381448795669 -0.2792080702757721 0 0.37273728942595791 -0.27740364396778311 0 0.37683953433427181 -0.26882153263446662 0 0.36459381448795669 -0.2792080702757721 0 0.36308990924476459 -0.28048364807874221 0 0.37273728942595791 -0.27740364396778311 0 0.37795999762798671 -0.28395322059410122 0 0.37273728942595791 -0.27740364396778311 0 0.36936745264149701 -0.28627283508716472 0 0.35657459314761941 -0.2860097891906741 0 0.35620629985463748 -0.30371251724464648 0 0.37101427446782781 -0.29852975601036341 0 0.36308990924476459 -0.28048364807874221 0 0.37273728942595791 -0.27740364396778311 0 0.36936745264149701 -0.28627283508716472 0 0.37519981906117678 -0.29055939022370142 0 0.37795999762798671 -0.28395322059410122 0 0.36936745264149701 -0.28627283508716472 0 0.37519981906117678 -0.29055939022370142 0 0.36936745264149701 -0.28627283508716472 0 0.37101427446782781 -0.29852975601036341 0 0.36936745264149701 -0.28627283508716472 0 0.35657459314761941 -0.2860097891906741 0 0.37101427446782781 -0.29852975601036341 0 0.35657459314761941 -0.2860097891906741 0 0.37101427446782781 -0.29852975601036341 0 0.36308990924476459 -0.28048364807874221 0 0.36936745264149701 -0.28627283508716472 0 0.35657459314761941 -0.2860097891906741 0 0.36308990924476459 -0.28048364807874221 0 0.35657459314761941 -0.2860097891906741 0 0.36308990924476459 -0.28048364807874221 0 0.35366972758071469 -0.28349111722646431 0 0.33463237856908817 -0.28956894479377399 0 0.35366972758071469 -0.28349111722646431 0 0.33463237856908817 -0.28956894479377399 0 0.35366972758071469 -0.28349111722646431 0 0.35195887039823659 -0.28200771363307098 0 0.36308990924476459 -0.28048364807874221 0 0.35366972758071469 -0.28349111722646431 0 0.35195887039823659 -0.28200771363307098 0 0.33485830675890288 -0.30442904333306592 0 0.35657459314761941 -0.2860097891906741 0 0.36308990924476459 -0.28048364807874221 0 0.35366972758071469 -0.28349111722646431 0 0.35657459314761941 -0.2860097891906741 0 0.33463237856908817 -0.28956894479377399 0 0.35366972758071469 -0.28349111722646431 0 0.35657459314761941 -0.2860097891906741 0 0.35366972758071469 -0.28349111722646431 0 0.35657459314761941 -0.2860097891906741 0 0.35366972758071469 -0.28349111722646431 0 0.35195887039823659 -0.28200771363307098 0 0.35620629985463748 -0.30371251724464648 0 0.36380134767337091 -0.31365371592763602 0 0.34533870308018377 -0.31598934501886372 0 0.35657459314761941 -0.2860097891906741 0 0.34824447571033601 -0.30253517369681238 0 0.35620629985463748 -0.30371251724464648 0 0.33485830675890288 -0.30442904333306592 0 0.35657459314761941 -0.2860097891906741 0 0.34824447571033601 -0.30253517369681238 0 0.34824447571033601 -0.30253517369681238 0 0.35620629985463748 -0.30371251724464648 0 0.34533870308018377 -0.31598934501886372 0 0.38545395578803499 -0.31104972283005378 0 0.37101427446782781 -0.29852975601036341 0 0.36380134767337091 -0.31365371592763602 0 0.35620629985463748 -0.30371251724464648 0 0.37101427446782781 -0.29852975601036341 0 0.36380134767337091 -0.31365371592763602 0 0.38545395578803499 -0.31104972283005378 0 0.36380134767337091 -0.31365371592763602 0 0.36945761595668469 -0.32738841673247931 0 0.36380134767337091 -0.31365371592763602 0 0.36945761595668469 -0.32738841673247931 0 0.35533723689285712 -0.32525253772940937 0 0.36945761595668469 -0.32738841673247931 0 0.35618710249729552 -0.34088690244721892 0 0.35533723689285712 -0.32525253772940937 0 0.36945761595668469 -0.32738841673247931 0 0.35618710249729552 -0.34088690244721892 0 0.37368731816096312 -0.34897020548070451 0 0.35618710249729552 -0.34088690244721892 0 0.33810128782584858 -0.35072533414536311 0 0.34064131712366241 -0.33181983138849169 0 0.35618710249729552 -0.34088690244721892 0 0.35533723689285712 -0.32525253772940937 0 0.34064131712366241 -0.33181983138849169 0 0.34533870308018377 -0.31598934501886372 0 0.35533723689285712 -0.32525253772940937 0 0.34064131712366241 -0.33181983138849169 0 0.36380134767337091 -0.31365371592763602 0 0.34533870308018377 -0.31598934501886372 0 0.35533723689285712 -0.32525253772940937 0 0.3689120952668708 -0.37284951495870189 0 0.37368731816096312 -0.34897020548070451 0 0.35738528973841999 -0.35772904562383351 0 0.35618710249729552 -0.34088690244721892 0 0.37368731816096312 -0.34897020548070451 0 0.35738528973841999 -0.35772904562383351 0 0.35618710249729552 -0.34088690244721892 0 0.35738528973841999 -0.35772904562383351 0 0.33810128782584858 -0.35072533414536311 0 0.35738528973841999 -0.35772904562383351 0 0.34467783115022588 -0.37252705130409253 0 0.33810128782584858 -0.35072533414536311 0 0.3689120952668708 -0.37284951495870189 0 0.35738528973841999 -0.35772904562383351 0 0.34467783115022588 -0.37252705130409253 0 0.34467783115022588 -0.37252705130409253 0 0.33810128782584858 -0.35072533414536311 0 0.3255374248820434 -0.37161020359421471 0 0.31543696134246668 -0.34593224431305769 0 0.3255374248820434 -0.37161020359421471 0 0.30900602422585888 -0.35865430802761772 0 0.31543696134246668 -0.34593224431305769 0 0.3255374248820434 -0.37161020359421471 0 0.33810128782584858 -0.35072533414536311 0 0.31543696134246668 -0.34593224431305769 0 0.3255374248820434 -0.37161020359421471 0 0.3255374248820434 -0.37161020359421471 0 0.30525369772634148 -0.37164386163485291 0 0.30900602422585888 -0.35865430802761772 0 0.34533870308018377 -0.31598934501886372 0 0.33130220335757699 -0.32186248444176119 0 0.34064131712366241 -0.33181983138849169 0 0.33485830675890288 -0.30442904333306592 0 0.34533870308018377 -0.31598934501886372 0 0.33130220335757699 -0.32186248444176119 0 0.33810128782584858 -0.35072533414536311 0 0.34064131712366241 -0.33181983138849169 0 0.3268430880468266 -0.33457206034663262 0 0.33130220335757699 -0.32186248444176119 0 0.34064131712366241 -0.33181983138849169 0 0.3268430880468266 -0.33457206034663262 0 0.31543696134246668 -0.34593224431305769 0 0.3268430880468266 -0.33457206034663262 0 0.31314202037018413 -0.32284829747545468 0 0.33810128782584858 -0.35072533414536311 0 0.31543696134246668 -0.34593224431305769 0 0.3268430880468266 -0.33457206034663262 0 0.33130220335757699 -0.32186248444176119 0 0.3268430880468266 -0.33457206034663262 0 0.31314202037018413 -0.32284829747545468 0 0.33485830675890288 -0.30442904333306592 0 0.31314202037018413 -0.32284829747545468 0 0.3171485971304504 -0.30589952111326829 0 0.31314202037018413 -0.32284829747545468 0 0.3109911447756647 -0.31350988965823029 0 0.33485830675890288 -0.30442904333306592 0 0.33130220335757699 -0.32186248444176119 0 0.31314202037018413 -0.32284829747545468 0 0.31314202037018413 -0.32284829747545468 0 0.30533649780288991 -0.32025428503190068 0 0.3109911447756647 -0.31350988965823029 0 0.30533649780288991 -0.32025428503190068 0 0.3109911447756647 -0.31350988965823029 0 0.30833746379913463 -0.30503745501229762 0 0.31543696134246668 -0.34593224431305769 0 0.30533649780288991 -0.32025428503190068 0 0.30314188851555429 -0.3464145030398364 0 0.30533649780288991 -0.32025428503190068 0 0.29792146783109758 -0.32077626486014349 0 0.30314188851555429 -0.3464145030398364 0 0.31543696134246668 -0.34593224431305769 0 0.31314202037018413 -0.32284829747545468 0 0.30533649780288991 -0.32025428503190068 0 0.29792146783109758 -0.32077626486014349 0 0.30314188851555429 -0.3464145030398364 0 0.31543696134246668 -0.34593224431305769 0 0.30533649780288991 -0.32025428503190068 0 0.29792146783109758 -0.32077626486014349 0 0.29422135484035322 -0.33366994296298719 0 0.30314188851555429 -0.3464145030398364 0 0.29422135484035322 -0.33366994296298719 0 0.29546103181119637 -0.34185893253319311 0 0.30314188851555429 -0.3464145030398364 0 0.29422135484035322 -0.33366994296298719 0 0.29546103181119637 -0.34185893253319311 0 0.28827175492889229 -0.34275780055790278 0 0.29546103181119637 -0.34185893253319311 0 0.28827175492889229 -0.34275780055790278 0 0.29811044553331972 -0.34650788457159087 0 0.29422135484035322 -0.33366994296298719 0 0.28827175492889229 -0.34275780055790278 0 0.27955848846152698 -0.33666113426449551 0 0.29422135484035322 -0.33366994296298719 0 0.28744860979629389 -0.32474860906702402 0 0.27955848846152698 -0.33666113426449551 0 0.28744860979629389 -0.32474860906702402 0 0.29019889155513462 -0.31620785207956748 0 0.28097437988070417 -0.31138482246715898 0 0.29792146783109758 -0.32077626486014349 0 0.29019889155513462 -0.31620785207956748 0 0.29244758100571983 -0.32385066724243061 0 0.29422135484035322 -0.33366994296298719 0 0.28744860979629389 -0.32474860906702402 0 0.29244758100571983 -0.32385066724243061 0 0.29792146783109758 -0.32077626486014349 0 0.29422135484035322 -0.33366994296298719 0 0.29244758100571983 -0.32385066724243061 0 0.28744860979629389 -0.32474860906702402 0 0.29019889155513462 -0.31620785207956748 0 0.29244758100571983 -0.32385066724243061 0 0.30525369772634148 -0.37164386163485291 0 0.30031449930387721 -0.36082981960256849 0 0.30900602422585888 -0.35865430802761772 0 0.30525369772634148 -0.37164386163485291 0 0.30031449930387721 -0.36082981960256849 0 0.29483415024835152 -0.36747827247447862 0 0.30080593951138668 -0.35381036279877531 0 0.30900602422585888 -0.35865430802761772 0 0.30314188851555429 -0.3464145030398364 0 0.30080593951138668 -0.35381036279877531 0 0.29811044553331972 -0.34650788457159087 0 0.29345683997832372 -0.35664529875226292 0 0.30031449930387721 -0.36082981960256849 0 0.30080593951138668 -0.35381036279877531 0 0.30900602422585888 -0.35865430802761772 0 0.30031449930387721 -0.36082981960256849 0 0.30080593951138668 -0.35381036279877531 0 0.29345683997832372 -0.35664529875226292 0 0.31543696134246668 -0.34593224431305769 0 0.30900602422585888 -0.35865430802761772 0 0.30314188851555429 -0.3464145030398364 0 0.30080593951138668 -0.35381036279877531 0 0.30314188851555429 -0.3464145030398364 0 0.29811044553331972 -0.34650788457159087 0 0.29546103181119637 -0.34185893253319311 0 0.30314188851555429 -0.3464145030398364 0 0.29811044553331972 -0.34650788457159087 0 0.29811044553331972 -0.34650788457159087 0 0.29345683997832372 -0.35664529875226292 0 0.28122462644821988 -0.35688066365974619 0 0.28827175492889229 -0.34275780055790278 0 0.29811044553331972 -0.34650788457159087 0 0.28122462644821988 -0.35688066365974619 0 0.28827175492889229 -0.34275780055790278 0 0.28122462644821988 -0.35688066365974619 0 0.27955848846152698 -0.33666113426449551 0 0.29811044553331972 -0.34650788457159087 0 0.28122462644821988 -0.35688066365974619 0 0.29345683997832372 -0.35664529875226292 0 0.28676543400443838 -0.36101512068260139 0 0.28122462644821988 -0.35688066365974619 0 0.28676543400443838 -0.36101512068260139 0 0.28122462644821988 -0.35688066365974619 0 0.28783989868818821 -0.37644057584389279 0 0.30525369772634148 -0.37164386163485291 0 0.29483415024835152 -0.36747827247447862 0 0.28783989868818821 -0.37644057584389279 0 0.28676543400443838 -0.36101512068260139 0 0.27033126349110148 -0.36357234067652822 0 0.29357505063040601 -0.36145191270551408 0 0.28676543400443838 -0.36101512068260139 0 0.29483415024835152 -0.36747827247447862 0 0.30031449930387721 -0.36082981960256849 0 0.29357505063040601 -0.36145191270551408 0 0.29483415024835152 -0.36747827247447862 0 0.30031449930387721 -0.36082981960256849 0 0.29345683997832372 -0.35664529875226292 0 0.29357505063040601 -0.36145191270551408 0 0.29345683997832372 -0.35664529875226292 0 0.29357505063040601 -0.36145191270551408 0 0.28676543400443838 -0.36101512068260139 0 0.28783989868818821 -0.37644057584389279 0 0.28676543400443838 -0.36101512068260139 0 0.29483415024835152 -0.36747827247447862 0 0.28783989868818821 -0.37644057584389279 0 0.27033126349110148 -0.36357234067652822 0 0.28783989868818821 -0.37644057584389279 0 0.27447250226623809 -0.37821124143188289 0 0.27033126349110148 -0.36357234067652822 0 0.28676543400443838 -0.36101512068260139 0 0.27033126349110148 -0.36357234067652822 0 0.28122462644821988 -0.35688066365974619 0 0.27447250226623809 -0.37821124143188289 0 0.26423397132697279 -0.37890457124200982 0 0.27033126349110148 -0.36357234067652822 0 0.27033126349110148 -0.36357234067652822 0 0.28122462644821988 -0.35688066365974619 0 0.28122462644821988 -0.35688066365974619 0 0.26082083375001269 -0.34165569813656432 0 0.27033126349110148 -0.36357234067652822 0 0.28122462644821988 -0.35688066365974619 0 0.26082083375001269 -0.34165569813656432 0 0.28122462644821988 -0.35688066365974619 0 0.27955848846152698 -0.33666113426449551 0 0.26082083375001269 -0.34165569813656432 0 0.27033126349110148 -0.36357234067652822 0 0.25099839141978419 -0.34936335514031408 0 0.27033126349110148 -0.36357234067652822 0 0.25099839141978419 -0.34936335514031408 0 0.26082083375001269 -0.34165569813656432 0 0.27033126349110148 -0.36357234067652822 0 0.25099839141978419 -0.34936335514031408 0 0.24534349961555019 -0.36253701182870851 0 0.26423397132697279 -0.37890457124200982 0 0.27033126349110148 -0.36357234067652822 0 0.24987622704845311 -0.37613765202982719 0 0.27033126349110148 -0.36357234067652822 0 0.24534349961555019 -0.36253701182870851 0 0.24987622704845311 -0.37613765202982719 0 0.27033126349110148 -0.36357234067652822 0 0.24987622704845311 -0.37613765202982719 0 0.28744860979629389 -0.32474860906702402 0 0.26598899428458778 -0.32103793389256657 0 0.27955848846152698 -0.33666113426449551 0 0.28744860979629389 -0.32474860906702402 0 0.26598899428458778 -0.32103793389256657 0 0.28097437988070417 -0.31138482246715898 0 0.26598899428458778 -0.32103793389256657 0 0.27955848846152698 -0.33666113426449551 0 0.26082083375001269 -0.34165569813656432 0 0.26082083375001269 -0.34165569813656432 0 0.2404170410518052 -0.32643073261338312 0 0.26598899428458778 -0.32103793389256657 0 0.26082083375001269 -0.34165569813656432 0 0.2404170410518052 -0.32643073261338312 0 0.25099839141978419 -0.34936335514031408 0 0.26082083375001269 -0.34165569813656432 0 0.2404170410518052 -0.32643073261338312 0 0.26598899428458778 -0.32103793389256657 0 0.24423538898563429 -0.30587701823941071 0 0.2404170410518052 -0.32643073261338312 0 0.26846821806613752 -0.30050752245993012 0 0.24423538898563429 -0.30587701823941071 0 0.25301376652256202 -0.2892367573709661 0 0.26846821806613752 -0.30050752245993012 0 0.24423538898563429 -0.30587701823941071 0 0.26598899428458778 -0.32103793389256657 0 0.26846821806613752 -0.30050752245993012 0 0.24423538898563429 -0.30587701823941071 0 0.25301376652256202 -0.2892367573709661 0 0.26500420865911251 -0.28331687632378699 0 0.26846821806613752 -0.30050752245993012 0 0.25301376652256202 -0.2892367573709661 0 0.26500420865911251 -0.28331687632378699 0 0.2507153324002197 -0.27704953531328702 0 0.26500420865911251 -0.28331687632378699 0 0.27805302037335089 -0.28584974436810762 0 0.26846821806613752 -0.30050752245993012 0 0.27805302037335089 -0.28584974436810762 0 0.26846821806613752 -0.30050752245993012 0 0.29270104714664102 -0.29513802668045069 0 0.26500420865911251 -0.28331687632378699 0 0.27805302037335089 -0.28584974436810762 0 0.27342558025451552 -0.27498979272208851 0 0.26598899428458778 -0.32103793389256657 0 0.26846821806613752 -0.30050752245993012 0 0.28097437988070417 -0.31138482246715898 0 0.26846821806613752 -0.30050752245993012 0 0.28097437988070417 -0.31138482246715898 0 0.29270104714664102 -0.29513802668045069 0 0.26846821806613752 -0.30050752245993012 0 0.29270104714664102 -0.29513802668045069 0 0.29792146783109758 -0.32077626486014349 0 0.29270104714664102 -0.29513802668045069 0 0.29019889155513462 -0.31620785207956748 0 0.28097437988070417 -0.31138482246715898 0 0.29270104714664102 -0.29513802668045069 0 0.29792146783109758 -0.32077626486014349 0 0.29019889155513462 -0.31620785207956748 0 0.29270104714664102 -0.29513802668045069 0 0.29792146783109758 -0.32077626486014349 0 0.29270104714664102 -0.29513802668045069 0 0.29523603426331357 -0.29457632575074338 0 0.27805302037335089 -0.28584974436810762 0 0.29026987947112831 -0.28319821192468808 0 0.29270104714664102 -0.29513802668045069 0 0.27805302037335089 -0.28584974436810762 0 0.29026987947112831 -0.28319821192468808 0 0.28863308206368682 -0.27515966401439529 0 0.29026987947112831 -0.28319821192468808 0 0.29523603426331357 -0.29457632575074338 0 0.29026987947112831 -0.28319821192468808 0 0.29523603426331357 -0.29457632575074338 0 0.30320790951940702 -0.28313078900162059 0 0.29026987947112831 -0.28319821192468808 0 0.29270104714664102 -0.29513802668045069 0 0.29523603426331357 -0.29457632575074338 0 0.29026987947112831 -0.28319821192468808 0 0.29270104714664102 -0.29513802668045069 0 0.29270104714664102 -0.29513802668045069 0 0.29523603426331357 -0.29457632575074338 0 0.29523603426331357 -0.29457632575074338 0 0.31208952779935789 -0.2908419387292881 0 0.29523603426331357 -0.29457632575074338 0 0.30320790951940702 -0.28313078900162059 0 0.31208952779935789 -0.2908419387292881 0 0.29523603426331357 -0.29457632575074338 0 0.31208952779935789 -0.2908419387292881 0 0.30833746379913463 -0.30503745501229762 0 0.31611371382327402 -0.28007222207304999 0 0.30320790951940702 -0.28313078900162059 0 0.31208952779935789 -0.2908419387292881 0 0.30533649780288991 -0.32025428503190068 0 0.29523603426331357 -0.29457632575074338 0 0.30833746379913463 -0.30503745501229762 0 0.30533649780288991 -0.32025428503190068 0 0.29792146783109758 -0.32077626486014349 0 0.29523603426331357 -0.29457632575074338 0 0.30533649780288991 -0.32025428503190068 0 0.29523603426331357 -0.29457632575074338 0 0.3171485971304504 -0.30589952111326829 0 0.3109911447756647 -0.31350988965823029 0 0.30833746379913463 -0.30503745501229762 0 0.29812220868357159 -0.26533402464574418 0 0.30111904597271899 -0.2536098058489899 0 0.30981211567343969 -0.26250129009931661 0 0.31597462601859122 -0.25080747204364812 0 0.30111904597271899 -0.2536098058489899 0 0.30981211567343969 -0.26250129009931661 0 0.29812220868357159 -0.26533402464574418 0 0.30981211567343969 -0.26250129009931661 0 0.30706455279928557 -0.27339796693147528 0 0.31611371382327402 -0.28007222207304999 0 0.30320790951940702 -0.28313078900162059 0 0.30706455279928557 -0.27339796693147528 0 0.29026987947112831 -0.28319821192468808 0 0.30320790951940702 -0.28313078900162059 0 0.29755036247591721 -0.27602563541609298 0 0.30320790951940702 -0.28313078900162059 0 0.30706455279928557 -0.27339796693147528 0 0.29755036247591721 -0.27602563541609298 0 0.29812220868357159 -0.26533402464574418 0 0.30706455279928557 -0.27339796693147528 0 0.29755036247591721 -0.27602563541609298 0 0.29812220868357159 -0.26533402464574418 0 0.29755036247591721 -0.27602563541609298 0 0.28863308206368682 -0.27515966401439529 0 0.29026987947112831 -0.28319821192468808 0 0.28863308206368682 -0.27515966401439529 0 0.29026987947112831 -0.28319821192468808 0 0.29755036247591721 -0.27602563541609298 0 0.28863308206368682 -0.27515966401439529 0 0.28863308206368682 -0.27515966401439529 0 0.28456511698073272 -0.25518130134833977 0 0.29812220868357159 -0.26533402464574418 0 0.28863308206368682 -0.27515966401439529 0 0.28456511698073272 -0.25518130134833977 0 0.29812220868357159 -0.26533402464574418 0 0.30111904597271899 -0.2536098058489899 0 0.28456511698073272 -0.25518130134833977 0 0.28863308206368682 -0.27515966401439529 0 0.28456511698073272 -0.25518130134833977 0 0.27223885194073971 -0.26265851400849172 0 0.28456511698073272 -0.25518130134833977 0 0.27223885194073971 -0.26265851400849172 0 0.26629969424128969 -0.25192769388052821 0 0.27223885194073971 -0.26265851400849172 0 0.26629969424128969 -0.25192769388052821 0 0.2629172406837702 -0.26740365320709081 0 0.26500420865911251 -0.28331687632378699 0 0.27342558025451552 -0.27498979272208851 0 0.2629172406837702 -0.26740365320709081 0 0.28863308206368682 -0.27515966401439529 0 0.27223885194073971 -0.26265851400849172 0 0.27342558025451552 -0.27498979272208851 0 0.27805302037335089 -0.28584974436810762 0 0.28863308206368682 -0.27515966401439529 0 0.27342558025451552 -0.27498979272208851 0 0.27223885194073971 -0.26265851400849172 0 0.27342558025451552 -0.27498979272208851 0 0.2629172406837702 -0.26740365320709081 0 0.26500420865911251 -0.28331687632378699 0 0.2629172406837702 -0.26740365320709081 0 0.2507153324002197 -0.27704953531328702 0 0.2629172406837702 -0.26740365320709081 0 0.2507153324002197 -0.27704953531328702 0 0.2466218950091964 -0.26012473444713258 0 0.25037283077400019 -0.2416092145933311 0 0.26629969424128969 -0.25192769388052821 0 0.2466218950091964 -0.26012473444713258 0 0.26629969424128969 -0.25192769388052821 0 0.2629172406837702 -0.26740365320709081 0 0.2466218950091964 -0.26012473444713258 0 0.25037283077400019 -0.2416092145933311 0 0.2466218950091964 -0.26012473444713258 0 0.2339549802858914 -0.24933471903745599 0 0.2466218950091964 -0.26012473444713258 0 0.22717476572977791 -0.26325637954660608 0 0.2339549802858914 -0.24933471903745599 0 0.2466218950091964 -0.26012473444713258 0 0.23628574795648369 -0.27498419313581679 0 0.22717476572977791 -0.26325637954660608 0 0.2507153324002197 -0.27704953531328702 0 0.2466218950091964 -0.26012473444713258 0 0.23628574795648369 -0.27498419313581679 0 0.2507153324002197 -0.27704953531328702 0 0.23628574795648369 -0.27498419313581679 0 0.24044913557019401 -0.28723099739492908 0 0.2247339410531527 -0.27667652802353632 0 0.21554844428562811 -0.26491471108287651 0 0.21653111649902579 -0.28712771180040292 0 0.23628574795648369 -0.27498419313581679 0 0.2247339410531527 -0.27667652802353632 0 0.22717476572977791 -0.26325637954660608 0 0.2247339410531527 -0.27667652802353632 0 0.22717476572977791 -0.26325637954660608 0 0.21554844428562811 -0.26491471108287651 0 0.22717476572977791 -0.26325637954660608 0 0.22331750647786899 -0.25281133177650322 0 0.2339549802858914 -0.24933471903745599 0 0.22717476572977791 -0.26325637954660608 0 0.22331750647786899 -0.25281133177650322 0 0.21554844428562811 -0.26491471108287651 0 0.2084475354763706 -0.25511513831035743 0 0.21554844428562811 -0.26491471108287651 0 0.1982966667633215 -0.26354120971092698 0 0.21554844428562811 -0.26491471108287651 0 0.21456577207223029 -0.24270171036535029 0 0.22331750647786899 -0.25281133177650322 0 0.21554844428562811 -0.26491471108287651 0 0.21456577207223029 -0.24270171036535029 0 0.2084475354763706 -0.25511513831035743 0 0.21554844428562811 -0.26491471108287651 0 0.21336353465090491 -0.24693864317134839 0 0.21554844428562811 -0.26491471108287651 0 0.21336353465090491 -0.24693864317134839 0 0.21456577207223029 -0.24270171036535029 0 0.2084475354763706 -0.25511513831035743 0 0.1982966667633215 -0.26354120971092698 0 0.2080714594183444 -0.2424179483002232 0 0.1982966667633215 -0.26354120971092698 0 0.2080714594183444 -0.2424179483002232 0 0.21554844428562811 -0.26491471108287651 0 0.21653111649902579 -0.28712771180040292 0 0.21554844428562811 -0.26491471108287651 0 0.20859607852913339 -0.28093905456482821 0 0.21653111649902579 -0.28712771180040292 0 0.21554844428562811 -0.26491471108287651 0 0.20859607852913339 -0.28093905456482821 0 0.2011380539128553 -0.27767933622792518 0 0.21554844428562811 -0.26491471108287651 0 0.2011380539128553 -0.27767933622792518 0 0.1982966667633215 -0.26354120971092698 0 0.1982966667633215 -0.26354120971092698 0 0.18852187410829821 -0.28466447112163068 0 0.1982966667633215 -0.26354120971092698 0 0.18852187410829821 -0.28466447112163068 0 0.1845366839674035 -0.26640487959885623 0 0.2011380539128553 -0.27767933622792518 0 0.1982966667633215 -0.26354120971092698 0 0.18852187410829821 -0.28466447112163068 0 0.1982966667633215 -0.26354120971092698 0 0.2080714594183444 -0.2424179483002232 0 0.19254414318066221 -0.24961624770678509 0 0.1982966667633215 -0.26354120971092698 0 0.18706352147094041 -0.25756661524031438 0 0.1845366839674035 -0.26640487959885623 0 0.1982966667633215 -0.26354120971092698 0 0.18706352147094041 -0.25756661524031438 0 0.19254414318066221 -0.24961624770678509 0 0.18706352147094041 -0.25756661524031438 0 0.19254414318066221 -0.24961624770678509 0 0.18399505531774341 -0.24981832115951039 0 0.20249447748908611 -0.29813355613580778 0 0.1976485991634879 -0.30796138879627621 0 0.19462594870140809 -0.30164723750547567 0 0.20249447748908611 -0.29813355613580778 0 0.19462594870140809 -0.30164723750547567 0 0.19392418081794471 -0.29575522021664652 0 0.20249447748908611 -0.29813355613580778 0 0.1976485991634879 -0.30796138879627621 0 0.20782414549410869 -0.30817847155873718 0 0.1976485991634879 -0.30796138879627621 0 0.20782414549410869 -0.30817847155873718 0 0.20282381327660201 -0.31505297042611552 0 0.1976485991634879 -0.30796138879627621 0 0.19009702279388629 -0.3064242775921906 0 0.18802618722583669 -0.31833181955932999 0 0.1976485991634879 -0.30796138879627621 0 0.19009702279388629 -0.3064242775921906 0 0.19462594870140809 -0.30164723750547567 0 0.19009702279388629 -0.3064242775921906 0 0.19462594870140809 -0.30164723750547567 0 0.1880606218677118 -0.30022154946313712 0 0.19462594870140809 -0.30164723750547567 0 0.19110113081553529 -0.29631368747161629 0 0.19392418081794471 -0.29575522021664652 0 0.1880606218677118 -0.30022154946313712 0 0.19110113081553529 -0.29631368747161629 0 0.18734834214976739 -0.29514628785519947 0 0.19462594870140809 -0.30164723750547567 0 0.1880606218677118 -0.30022154946313712 0 0.19110113081553529 -0.29631368747161629 0 0.20249447748908611 -0.29813355613580778 0 0.18747516626574931 -0.28692639975368628 0 0.20249447748908611 -0.29813355613580778 0 0.19392418081794471 -0.29575522021664652 0 0.18747516626574931 -0.28692639975368628 0 0.19110113081553529 -0.29631368747161629 0 0.19392418081794471 -0.29575522021664652 0 0.18747516626574931 -0.28692639975368628 0 0.19110113081553529 -0.29631368747161629 0 0.18747516626574931 -0.28692639975368628 0 0.18734834214976739 -0.29514628785519947 0 0.18852187410829821 -0.28466447112163068 0 0.19787122383615691 -0.29172525818392958 0 0.18852187410829821 -0.28466447112163068 0 0.19731262536099689 -0.28481999283041842 0 0.19787122383615691 -0.29172525818392958 0 0.18852187410829821 -0.28466447112163068 0 0.19787122383615691 -0.29172525818392958 0 0.18747516626574931 -0.28692639975368628 0 0.18852187410829821 -0.28466447112163068 0 0.18747516626574931 -0.28692639975368628 0 0.2011380539128553 -0.27767933622792518 0 0.18852187410829821 -0.28466447112163068 0 0.19731262536099689 -0.28481999283041842 0 0.201719349586677 -0.2852109057881882 0 0.19787122383615691 -0.29172525818392958 0 0.206049533411369 -0.28982701925762389 0 0.19731262536099689 -0.28481999283041842 0 0.201719349586677 -0.2852109057881882 0 0.19787122383615691 -0.29172525818392958 0 0.2011380539128553 -0.27767933622792518 0 0.19731262536099689 -0.28481999283041842 0 0.201719349586677 -0.2852109057881882 0 0.20249447748908611 -0.29813355613580778 0 0.19787122383615691 -0.29172525818392958 0 0.18747516626574931 -0.28692639975368628 0 0.20249447748908611 -0.29813355613580778 0 0.19787122383615691 -0.29172525818392958 0 0.206049533411369 -0.28982701925762389 0 0.20249447748908611 -0.29813355613580778 0 0.206049533411369 -0.28982701925762389 0 0.20903552332543929 -0.29406903275804652 0 0.206049533411369 -0.28982701925762389 0 0.20903552332543929 -0.29406903275804652 0 0.21653111649902579 -0.28712771180040292 0 0.20249447748908611 -0.29813355613580778 0 0.20903552332543929 -0.29406903275804652 0 0.2123558614978226 -0.29827812898856709 0 0.20859607852913339 -0.28093905456482821 0 0.206049533411369 -0.28982701925762389 0 0.21653111649902579 -0.28712771180040292 0 0.20859607852913339 -0.28093905456482821 0 0.201719349586677 -0.2852109057881882 0 0.206049533411369 -0.28982701925762389 0 0.20859607852913339 -0.28093905456482821 0 0.2011380539128553 -0.27767933622792518 0 0.201719349586677 -0.2852109057881882 0 0.20903552332543929 -0.29406903275804652 0 0.21653111649902579 -0.28712771180040292 0 0.2123558614978226 -0.29827812898856709 0 0.21653111649902579 -0.28712771180040292 0 0.2175137887124228 -0.30934071251792922 0 0.21653111649902579 -0.28712771180040292 0 0.2123558614978226 -0.29827812898856709 0 0.2175137887124228 -0.30934071251792922 0 0.20249447748908611 -0.29813355613580778 0 0.2123558614978226 -0.29827812898856709 0 0.2175137887124228 -0.30934071251792922 0 0.20249447748908611 -0.29813355613580778 0 0.2175137887124228 -0.30934071251792922 0 0.20782414549410869 -0.30817847155873718 0 0.2176214393273678 -0.31177412129290383 0 0.20282381327660201 -0.31505297042611552 0 0.20249447748908611 -0.29813355613580778 0 0.20782414549410869 -0.30817847155873718 0 0.2175137887124228 -0.30934071251792922 0 0.20782414549410869 -0.30817847155873718 0 0.2175137887124228 -0.30934071251792922 0 0.2176214393273678 -0.31177412129290383 0 0.2175137887124228 -0.30934071251792922 0 0.2176214393273678 -0.31177412129290383 0 0.2175137887124228 -0.30934071251792922 0 0.2176214393273678 -0.31177412129290383 0 0.21999804566891551 -0.31122614102315033 0 0.21999804566891551 -0.31122614102315033 0 0.24423538898563429 -0.30587701823941071 0 0.2175137887124228 -0.30934071251792922 0 0.21999804566891551 -0.31122614102315033 0 0.22812963079484819 -0.29309964455197901 0 0.21999804566891551 -0.31122614102315033 0 0.22812963079484819 -0.29309964455197901 0 0.21999804566891551 -0.31122614102315033 0 0.22812963079484819 -0.29309964455197901 0 0.24423538898563429 -0.30587701823941071 0 0.2176214393273678 -0.31177412129290383 0 0.21999804566891551 -0.31122614102315033 0 0.2175137887124228 -0.30934071251792922 0 0.21999804566891551 -0.31122614102315033 0 0.23628574795648369 -0.27498419313581679 0 0.22812963079484819 -0.29309964455197901 0 0.2247339410531527 -0.27667652802353632 0 0.21653111649902579 -0.28712771180040292 0 0.22812963079484819 -0.29309964455197901 0 0.23628574795648369 -0.27498419313581679 0 0.2247339410531527 -0.27667652802353632 0 0.22812963079484819 -0.29309964455197901 0 0.21653111649902579 -0.28712771180040292 0 0.2175137887124228 -0.30934071251792922 0 0.22812963079484819 -0.29309964455197901 0 0.23628574795648369 -0.27498419313581679 0 0.22812963079484819 -0.29309964455197901 0 0.24044913557019401 -0.28723099739492908 0 0.25301376652256202 -0.2892367573709661 0 0.24044913557019401 -0.28723099739492908 0 0.24423538898563429 -0.30587701823941071 0 0.22812963079484819 -0.29309964455197901 0 0.24044913557019401 -0.28723099739492908 0 0.24423538898563429 -0.30587701823941071 0 0.25301376652256202 -0.2892367573709661 0 0.2507153324002197 -0.27704953531328702 0 0.24044913557019401 -0.28723099739492908 0 0.21999804566891551 -0.31122614102315033 0 0.24423538898563429 -0.30587701823941071 0 0.2404170410518052 -0.32643073261338312 0 0.25099839141978419 -0.34936335514031408 0 0.2316655193484673 -0.33515436960409939 0 0.25099839141978419 -0.34936335514031408 0 0.2404170410518052 -0.32643073261338312 0 0.2316655193484673 -0.33515436960409939 0 0.2404170410518052 -0.32643073261338312 0 0.2316655193484673 -0.33515436960409939 0 0.2247705650129608 -0.32491873692320528 0 0.2316655193484673 -0.33515436960409939 0 0.22208049410379579 -0.34309390150507102 0 0.22867514261462599 -0.34782526071452929 0 0.2316655193484673 -0.33515436960409939 0 0.22208049410379579 -0.34309390150507102 0 0.220555537226792 -0.33578323097752499 0 0.22208049410379579 -0.34309390150507102 0 0.220555537226792 -0.33578323097752499 0 0.21451162402718699 -0.34512658597487872 0 0.220555537226792 -0.33578323097752499 0 0.2247705650129608 -0.32491873692320528 0 0.21820242441149371 -0.32490710899175251 0 0.2316655193484673 -0.33515436960409939 0 0.220555537226792 -0.33578323097752499 0 0.2247705650129608 -0.32491873692320528 0 0.21999804566891551 -0.31122614102315033 0 0.2404170410518052 -0.32643073261338312 0 0.2247705650129608 -0.32491873692320528 0 0.21999804566891551 -0.31122614102315033 0 0.2404170410518052 -0.32643073261338312 0 0.2247705650129608 -0.32491873692320528 0 0.21780935440599439 -0.31602188338433101 0 0.21820242441149371 -0.32490710899175251 0 0.21999804566891551 -0.31122614102315033 0 0.2247705650129608 -0.32491873692320528 0 0.21780935440599439 -0.31602188338433101 0 0.21999804566891551 -0.31122614102315033 0 0.21780935440599439 -0.31602188338433101 0 0.23679608458568241 -0.3713456781615978 0 0.24534349961555019 -0.36253701182870851 0 0.24987622704845311 -0.37613765202982719 0 0.23679608458568241 -0.3713456781615978 0 0.24534349961555019 -0.36253701182870851 0 0.23133102347449649 -0.35950822589080189 0 0.25099839141978419 -0.34936335514031408 0 0.2316655193484673 -0.33515436960409939 0 0.23760271529458479 -0.35087764463569071 0 0.24534349961555019 -0.36253701182870851 0 0.23760271529458479 -0.35087764463569071 0 0.23133102347449649 -0.35950822589080189 0 0.25099839141978419 -0.34936335514031408 0 0.24534349961555019 -0.36253701182870851 0 0.23760271529458479 -0.35087764463569071 0 0.2316655193484673 -0.33515436960409939 0 0.23760271529458479 -0.35087764463569071 0 0.22867514261462599 -0.34782526071452929 0 0.22208049410379579 -0.34309390150507102 0 0.22076837523631451 -0.35267920974236072 0 0.21451162402718699 -0.34512658597487872 0 0.22208049410379579 -0.34309390150507102 0 0.22867514261462599 -0.34782526071452929 0 0.22076837523631451 -0.35267920974236072 0 0.22076837523631451 -0.35267920974236072 0 0.22341137818785181 -0.36337688942730773 0 0.21609027172906259 -0.36087537471117581 0 0.22076837523631451 -0.35267920974236072 0 0.23133102347449649 -0.35950822589080189 0 0.22341137818785181 -0.36337688942730773 0 0.22867514261462599 -0.34782526071452929 0 0.22076837523631451 -0.35267920974236072 0 0.23133102347449649 -0.35950822589080189 0 0.23760271529458479 -0.35087764463569071 0 0.22867514261462599 -0.34782526071452929 0 0.23133102347449649 -0.35950822589080189 0 0.23133102347449649 -0.35950822589080189 0 0.22341137818785181 -0.36337688942730773 0 0.22699371624108439 -0.37103399677892651 0 0.22341137818785181 -0.36337688942730773 0 0.22699371624108439 -0.37103399677892651 0 0.21663927632257499 -0.37152038636996992 0 0.22699371624108439 -0.37103399677892651 0 0.21663927632257499 -0.37152038636996992 0 0.22189277223980711 -0.38054577212349588 0 0.23679608458568241 -0.3713456781615978 0 0.22699371624108439 -0.37103399677892651 0 0.23010576568282681 -0.37607478874810818 0 0.23679608458568241 -0.3713456781615978 0 0.23133102347449649 -0.35950822589080189 0 0.22699371624108439 -0.37103399677892651 0 0.21663927632257499 -0.37152038636996992 0 0.20683644217058031 -0.36558797855932218 0 0.20576161095015591 -0.37595213443190167 0 0.22341137818785181 -0.36337688942730773 0 0.21663927632257499 -0.37152038636996992 0 0.21609027172906259 -0.36087537471117581 0 0.21609027172906259 -0.36087537471117581 0 0.20683644217058031 -0.36558797855932218 0 0.21089823393406021 -0.35324530101306001 0 0.21663927632257499 -0.37152038636996992 0 0.21609027172906259 -0.36087537471117581 0 0.20683644217058031 -0.36558797855932218 0 0.19940837682496099 -0.35689206815154528 0 0.20777431361625601 -0.33831058893907762 0 0.21089823393406021 -0.35324530101306001 0 0.19940837682496099 -0.35689206815154528 0 0.20777431361625601 -0.33831058893907762 0 0.20683644217058031 -0.36558797855932218 0 0.21089823393406021 -0.35324530101306001 0 0.19940837682496099 -0.35689206815154528 0 0.22076837523631451 -0.35267920974236072 0 0.21609027172906259 -0.36087537471117581 0 0.21089823393406021 -0.35324530101306001 0 0.21089823393406021 -0.35324530101306001 0 0.21451162402718699 -0.34512658597487872 0 0.20777431361625601 -0.33831058893907762 0 0.22076837523631451 -0.35267920974236072 0 0.21089823393406021 -0.35324530101306001 0 0.21451162402718699 -0.34512658597487872 0 0.1971616983813648 -0.34495631128618592 0 0.19940837682496099 -0.35689206815154528 0 0.20777431361625601 -0.33831058893907762 0 0.1971616983813648 -0.34495631128618592 0 0.18787137947787569 -0.35180034780069419 0 0.18864170350563411 -0.33720407153827198 0 0.1971616983813648 -0.34495631128618592 0 0.18787137947787569 -0.35180034780069419 0 0.19940837682496099 -0.35689206815154528 0 0.20683644217058031 -0.36558797855932218 0 0.20576161095015591 -0.37595213443190167 0 0.1910424400336663 -0.37547354736401328 0 0.18787137947787569 -0.35180034780069419 0 0.19940837682496099 -0.35689206815154528 0 0.1910424400336663 -0.37547354736401328 0 0.19940837682496099 -0.35689206815154528 0 0.1910424400336663 -0.37547354736401328 0 0.20683644217058031 -0.36558797855932218 0 0.19940837682496099 -0.35689206815154528 0 0.1910424400336663 -0.37547354736401328 0 0.21780935440599439 -0.31602188338433101 0 0.20777431361625601 -0.33831058893907762 0 0.21780935440599439 -0.31602188338433101 0 0.20777431361625601 -0.33831058893907762 0 0.20282381327660201 -0.31505297042611552 0 0.21780935440599439 -0.31602188338433101 0 0.21820242441149371 -0.32490710899175251 0 0.20777431361625601 -0.33831058893907762 0 0.2176214393273678 -0.31177412129290383 0 0.20282381327660201 -0.31505297042611552 0 0.2176214393273678 -0.31177412129290383 0 0.21780935440599439 -0.31602188338433101 0 0.20282381327660201 -0.31505297042611552 0 0.2176214393273678 -0.31177412129290383 0 0.21780935440599439 -0.31602188338433101 0 0.2176214393273678 -0.31177412129290383 0 0.21999804566891551 -0.31122614102315033 0 0.21780935440599439 -0.31602188338433101 0 0.21780935440599439 -0.31602188338433101 0 0.21820242441149371 -0.32490710899175251 0 0.220555537226792 -0.33578323097752499 0 0.21820242441149371 -0.32490710899175251 0 0.20777431361625601 -0.33831058893907762 0 0.220555537226792 -0.33578323097752499 0 0.21451162402718699 -0.34512658597487872 0 0.20777431361625601 -0.33831058893907762 0 0.21451162402718699 -0.34512658597487872 0 0.20777431361625601 -0.33831058893907762 0 0.1971616983813648 -0.34495631128618592 0 0.20777431361625601 -0.33831058893907762 0 0.18864170350563411 -0.33720407153827198 0 0.20777431361625601 -0.33831058893907762 0 0.18802618722583669 -0.31833181955932999 0 0.20777431361625601 -0.33831058893907762 0 0.18864170350563411 -0.33720407153827198 0 0.18802618722583669 -0.31833181955932999 0 0.20777431361625601 -0.33831058893907762 0 0.20282381327660201 -0.31505297042611552 0 0.18802618722583669 -0.31833181955932999 0 0.20282381327660201 -0.31505297042611552 0 0.18802618722583669 -0.31833181955932999 0 0.1976485991634879 -0.30796138879627621 0 0.20282381327660201 -0.31505297042611552 0 0.18802618722583669 -0.31833181955932999 0 0.18802618722583669 -0.31833181955932999 0 0.1791507244663583 -0.32983729973660558 0 0.16791254130802971 -0.3227885891963716 0 0.18802618722583669 -0.31833181955932999 0 0.17151825735526699 -0.31325416760549368 0 0.16791254130802971 -0.3227885891963716 0 0.18802618722583669 -0.31833181955932999 0 0.16791254130802971 -0.3227885891963716 0 0.18864170350563411 -0.33720407153827198 0 0.18802618722583669 -0.31833181955932999 0 0.1791507244663583 -0.32983729973660558 0 0.17202246582593331 -0.34102471865244838 0 0.1791507244663583 -0.32983729973660558 0 0.16791254130802971 -0.3227885891963716 0 0.18787137947787569 -0.35180034780069419 0 0.18864170350563411 -0.33720407153827198 0 0.17202246582593331 -0.34102471865244838 0 0.18864170350563411 -0.33720407153827198 0 0.17202246582593331 -0.34102471865244838 0 0.1791507244663583 -0.32983729973660558 0 0.17202246582593331 -0.34102471865244838 0 0.1546435437787094 -0.34381338892778002 0 0.1557586906108582 -0.32786840018592928 0 0.17202246582593331 -0.34102471865244838 0 0.16791254130802971 -0.3227885891963716 0 0.1557586906108582 -0.32786840018592928 0 0.16791254130802971 -0.3227885891963716 0 0.1557586906108582 -0.32786840018592928 0 0.1602411687519314 -0.31190927739118429 0 0.17151825735526699 -0.31325416760549368 0 0.16791254130802971 -0.3227885891963716 0 0.1602411687519314 -0.31190927739118429 0 0.18787137947787569 -0.35180034780069419 0 0.17662324672053431 -0.35795823269279659 0 0.1910424400336663 -0.37547354736401328 0 0.17662324672053431 -0.35795823269279659 0 0.17035242753357599 -0.36877211446365682 0 0.1910424400336663 -0.37547354736401328 0 0.17035242753357599 -0.36877211446365682 0 0.1910424400336663 -0.37547354736401328 0 0.1737051017910701 -0.38004230502140057 0 0.18787137947787569 -0.35180034780069419 0 0.17202246582593331 -0.34102471865244838 0 0.17662324672053431 -0.35795823269279659 0 0.17202246582593331 -0.34102471865244838 0 0.17662324672053431 -0.35795823269279659 0 0.16265844046108829 -0.35526087104265458 0 0.17202246582593331 -0.34102471865244838 0 0.16265844046108829 -0.35526087104265458 0 0.1546435437787094 -0.34381338892778002 0 0.17662324672053431 -0.35795823269279659 0 0.16265844046108829 -0.35526087104265458 0 0.17035242753357599 -0.36877211446365682 0 0.16265844046108829 -0.35526087104265458 0 0.1569593121701936 -0.36832063090657668 0 0.17035242753357599 -0.36877211446365682 0 0.1569593121701936 -0.36832063090657668 0 0.17035242753357599 -0.36877211446365682 0 0.16307541855137739 -0.37743582412871929 0 0.14536400873927011 -0.3681220756701501 0 0.1426630499740982 -0.35652090160864008 0 0.13524945632583441 -0.37311377610700652 0 0.16265844046108829 -0.35526087104265458 0 0.1569593121701936 -0.36832063090657668 0 0.1426630499740982 -0.35652090160864008 0 0.14536400873927011 -0.3681220756701501 0 0.13524945632583441 -0.37311377610700652 0 0.14973869037300869 -0.38096853745143089 0 0.1569593121701936 -0.36832063090657668 0 0.14536400873927011 -0.3681220756701501 0 0.14973869037300869 -0.38096853745143089 0 0.1569593121701936 -0.36832063090657668 0 0.14536400873927011 -0.3681220756701501 0 0.1426630499740982 -0.35652090160864008 0 0.1546435437787094 -0.34381338892778002 0 0.1426630499740982 -0.35652090160864008 0 0.1424354920479888 -0.33775294740649747 0 0.16265844046108829 -0.35526087104265458 0 0.1546435437787094 -0.34381338892778002 0 0.1426630499740982 -0.35652090160864008 0 0.13449730155472761 -0.34743155680512378 0 0.12784456261830821 -0.36308533366748658 0 0.123981461538115 -0.35128285539313481 0 0.1426630499740982 -0.35652090160864008 0 0.13449730155472761 -0.34743155680512378 0 0.1424354920479888 -0.33775294740649747 0 0.1426630499740982 -0.35652090160864008 0 0.13449730155472761 -0.34743155680512378 0 0.12784456261830821 -0.36308533366748658 0 0.13449730155472761 -0.34743155680512378 0 0.13051916655351839 -0.33696304048325831 0 0.123981461538115 -0.35128285539313481 0 0.1426630499740982 -0.35652090160864008 0 0.12784456261830821 -0.36308533366748658 0 0.13524945632583441 -0.37311377610700652 0 0.12784456261830821 -0.36308533366748658 0 0.13524945632583441 -0.37311377610700652 0 0.12609635470998201 -0.38402791619100712 0 0.14855409589738661 -0.31441038212804873 0 0.1557586906108582 -0.32786840018592928 0 0.1602411687519314 -0.31190927739118429 0 0.1445015266660287 -0.32337949759917511 0 0.14855409589738661 -0.31441038212804873 0 0.13871327718005111 -0.31332369293528212 0 0.1445015266660287 -0.32337949759917511 0 0.14855409589738661 -0.31441038212804873 0 0.1557586906108582 -0.32786840018592928 0 0.1546435437787094 -0.34381338892778002 0 0.1557586906108582 -0.32786840018592928 0 0.1424354920479888 -0.33775294740649747 0 0.1445015266660287 -0.32337949759917511 0 0.1557586906108582 -0.32786840018592928 0 0.1424354920479888 -0.33775294740649747 0 0.1445015266660287 -0.32337949759917511 0 0.1424354920479888 -0.33775294740649747 0 0.13219802669416811 -0.32498852212276208 0 0.1424354920479888 -0.33775294740649747 0 0.13051916655351839 -0.33696304048325831 0 0.13219802669416811 -0.32498852212276208 0 0.13449730155472761 -0.34743155680512378 0 0.1424354920479888 -0.33775294740649747 0 0.13051916655351839 -0.33696304048325831 0 0.13051916655351839 -0.33696304048325831 0 0.13219802669416811 -0.32498852212276208 0 0.12260601330919629 -0.33072698382653798 0 0.1445015266660287 -0.32337949759917511 0 0.13219802669416811 -0.32498852212276208 0 0.13871327718005111 -0.31332369293528212 0 0.13219802669416811 -0.32498852212276208 0 0.1265219532001009 -0.3124330460259736 0 0.1192961391526948 -0.32261879728377291 0 0.13219802669416811 -0.32498852212276208 0 0.13871327718005111 -0.31332369293528212 0 0.1265219532001009 -0.3124330460259736 0 0.1265219532001009 -0.3124330460259736 0 0.1332586495603032 -0.30031372317270688 0 0.1198701537204314 -0.30089140532399938 0 0.1332586495603032 -0.30031372317270688 0 0.1242383748246253 -0.29131174999725179 0 0.1198701537204314 -0.30089140532399938 0 0.13871327718005111 -0.31332369293528212 0 0.1265219532001009 -0.3124330460259736 0 0.1332586495603032 -0.30031372317270688 0 0.13871327718005111 -0.31332369293528212 0 0.1332586495603032 -0.30031372317270688 0 0.147245411062319 -0.30441698656302629 0 0.14855409589738661 -0.31441038212804873 0 0.13871327718005111 -0.31332369293528212 0 0.147245411062319 -0.30441698656302629 0 0.147245411062319 -0.30441698656302629 0 0.15432967412725099 -0.29846298066074151 0 0.14327492933615671 -0.29425024746867751 0 0.1332586495603032 -0.30031372317270688 0 0.147245411062319 -0.30441698656302629 0 0.14327492933615671 -0.29425024746867751 0 0.147245411062319 -0.30441698656302629 0 0.15432967412725099 -0.29846298066074151 0 0.1602411687519314 -0.31190927739118429 0 0.14855409589738661 -0.31441038212804873 0 0.147245411062319 -0.30441698656302629 0 0.1602411687519314 -0.31190927739118429 0 0.15432967412725099 -0.29846298066074151 0 0.1517600770447052 -0.28164214899084639 0 0.14327492933615671 -0.29425024746867751 0 0.1517600770447052 -0.28164214899084639 0 0.14327492933615671 -0.29425024746867751 0 0.13646338677899769 -0.28546266283427663 0 0.1332586495603032 -0.30031372317270688 0 0.14327492933615671 -0.29425024746867751 0 0.13646338677899769 -0.28546266283427663 0 0.1332586495603032 -0.30031372317270688 0 0.13646338677899769 -0.28546266283427663 0 0.1242383748246253 -0.29131174999725179 0 0.13646338677899769 -0.28546266283427663 0 0.1233023238440631 -0.28097148456094378 0 0.1242383748246253 -0.29131174999725179 0 0.1517600770447052 -0.28164214899084639 0 0.13646338677899769 -0.28546266283427663 0 0.1311170075682456 -0.27142576198599933 0 0.1517600770447052 -0.28164214899084639 0 0.1311170075682456 -0.27142576198599933 0 0.1364827709165429 -0.26618641562940759 0 0.13646338677899769 -0.28546266283427663 0 0.1311170075682456 -0.27142576198599933 0 0.1233023238440631 -0.28097148456094378 0 0.1311170075682456 -0.27142576198599933 0 0.1364827709165429 -0.26618641562940759 0 0.1212054647883809 -0.25073068226796852 0 0.1364827709165429 -0.26618641562940759 0 0.13217397618885759 -0.25462043987800831 0 0.1212054647883809 -0.25073068226796852 0 0.1364827709165429 -0.26618641562940759 0 0.1212054647883809 -0.25073068226796852 0 0.1364827709165429 -0.26618641562940759 0 0.13217397618885759 -0.25462043987800831 0 0.14275904560399111 -0.25945725309375861 0 0.13217397618885759 -0.25462043987800831 0 0.1429630926125974 -0.2502577086919005 0 0.14275904560399111 -0.25945725309375861 0 0.1429630926125974 -0.2502577086919005 0 0.16574248336044761 -0.26746108990676593 0 0.1429630926125974 -0.2502577086919005 0 0.15128247879849499 -0.26292486595599002 0 0.16574248336044761 -0.26746108990676593 0 0.1429630926125974 -0.2502577086919005 0 0.16574248336044761 -0.26746108990676593 0 0.16001236861667459 -0.2513654190734112 0 0.1429630926125974 -0.2502577086919005 0 0.14275904560399111 -0.25945725309375861 0 0.15128247879849499 -0.26292486595599002 0 0.1364827709165429 -0.26618641562940759 0 0.14275904560399111 -0.25945725309375861 0 0.15128247879849499 -0.26292486595599002 0 0.1517600770447052 -0.28164214899084639 0 0.1364827709165429 -0.26618641562940759 0 0.15128247879849499 -0.26292486595599002 0 0.1517600770447052 -0.28164214899084639 0 0.15128247879849499 -0.26292486595599002 0 0.15776774232478771 -0.26956647822523339 0 0.1517600770447052 -0.28164214899084639 0 0.1311170075682456 -0.27142576198599933 0 0.1517600770447052 -0.28164214899084639 0 0.1364827709165429 -0.26618641562940759 0 0.1517600770447052 -0.28164214899084639 0 0.16209364730358741 -0.27452888323759039 0 0.16594555478614451 -0.28284233368471318 0 0.1517600770447052 -0.28164214899084639 0 0.16209364730358741 -0.27452888323759039 0 0.15776774232478771 -0.26956647822523339 0 0.16209364730358741 -0.27452888323759039 0 0.15776774232478771 -0.26956647822523339 0 0.16574248336044761 -0.26746108990676593 0 0.15128247879849499 -0.26292486595599002 0 0.15776774232478771 -0.26956647822523339 0 0.16574248336044761 -0.26746108990676593 0 0.16209364730358741 -0.27452888323759039 0 0.16574248336044761 -0.26746108990676593 0 0.16920230535812411 -0.27329149954452342 0 0.16209364730358741 -0.27452888323759039 0 0.16920230535812411 -0.27329149954452342 0 0.16594555478614451 -0.28284233368471318 0 0.16920230535812411 -0.27329149954452342 0 0.1710222018321049 -0.28124575318360368 0 0.16594555478614451 -0.28284233368471318 0 0.16574248336044761 -0.26746108990676593 0 0.16001236861667459 -0.2513654190734112 0 0.16988601458932601 -0.2589500224365659 0 0.16574248336044761 -0.26746108990676593 0 0.16988601458932601 -0.2589500224365659 0 0.17628584543496439 -0.26683535894776161 0 0.16001236861667459 -0.2513654190734112 0 0.16988601458932601 -0.2589500224365659 0 0.16978669848249819 -0.25098739912941831 0 0.1767458594742066 -0.25730285456071711 0 0.17619278994504239 -0.24587918172992959 0 0.18399505531774341 -0.24981832115951039 0 0.16978669848249819 -0.25098739912941831 0 0.1767458594742066 -0.25730285456071711 0 0.17619278994504239 -0.24587918172992959 0 0.16988601458932601 -0.2589500224365659 0 0.16978669848249819 -0.25098739912941831 0 0.1767458594742066 -0.25730285456071711 0 0.16988601458932601 -0.2589500224365659 0 0.1767458594742066 -0.25730285456071711 0 0.17628584543496439 -0.26683535894776161 0 0.1767458594742066 -0.25730285456071711 0 0.17628584543496439 -0.26683535894776161 0 0.1845366839674035 -0.26640487959885623 0 0.1767458594742066 -0.25730285456071711 0 0.18706352147094041 -0.25756661524031438 0 0.1845366839674035 -0.26640487959885623 0 0.1767458594742066 -0.25730285456071711 0 0.18706352147094041 -0.25756661524031438 0 0.18399505531774341 -0.24981832115951039 0 0.18852187410829821 -0.28466447112163068 0 0.17628584543496439 -0.26683535894776161 0 0.1845366839674035 -0.26640487959885623 0 0.18852187410829821 -0.28466447112163068 0 0.16574248336044761 -0.26746108990676593 0 0.18852187410829821 -0.28466447112163068 0 0.16574248336044761 -0.26746108990676593 0 0.17628584543496439 -0.26683535894776161 0 0.16920230535812411 -0.27329149954452342 0 0.18747516626574931 -0.28692639975368628 0 0.17602993407772211 -0.2832030986568283 0 0.18852187410829821 -0.28466447112163068 0 0.16574248336044761 -0.26746108990676593 0 0.16920230535812411 -0.27329149954452342 0 0.16920230535812411 -0.27329149954452342 0 0.18747516626574931 -0.28692639975368628 0 0.16920230535812411 -0.27329149954452342 0 0.1710222018321049 -0.28124575318360368 0 0.17602993407772211 -0.2832030986568283 0 0.18747516626574931 -0.28692639975368628 0 0.1806905449634813 -0.28832929748571318 0 0.17602993407772211 -0.2832030986568283 0 0.18852187410829821 -0.28466447112163068 0 0.16920230535812411 -0.27329149954452342 0 0.18747516626574931 -0.28692639975368628 0 0.18747516626574931 -0.28692639975368628 0 0.1806905449634813 -0.28832929748571318 0 0.18301660310609241 -0.29114958545392738 0 0.17291101310642881 -0.28564608084835003 0 0.17864991096044419 -0.29495009963706692 0 0.16594555478614451 -0.28284233368471318 0 0.1806905449634813 -0.28832929748571318 0 0.17602993407772211 -0.2832030986568283 0 0.17673138357400531 -0.28840876668861409 0 0.17602993407772211 -0.2832030986568283 0 0.17673138357400531 -0.28840876668861409 0 0.17291101310642881 -0.28564608084835003 0 0.1710222018321049 -0.28124575318360368 0 0.17602993407772211 -0.2832030986568283 0 0.17291101310642881 -0.28564608084835003 0 0.17673138357400531 -0.28840876668861409 0 0.17291101310642881 -0.28564608084835003 0 0.17864991096044419 -0.29495009963706692 0 0.17673138357400531 -0.28840876668861409 0 0.17909088347012619 -0.29088019083727579 0 0.17864991096044419 -0.29495009963706692 0 0.1806905449634813 -0.28832929748571318 0 0.17673138357400531 -0.28840876668861409 0 0.17909088347012619 -0.29088019083727579 0 0.17909088347012619 -0.29088019083727579 0 0.17864991096044419 -0.29495009963706692 0 0.18114425154506539 -0.29221912984395187 0 0.18747516626574931 -0.28692639975368628 0 0.18734834214976739 -0.29514628785519947 0 0.1827564496500734 -0.29712351473235832 0 0.18747516626574931 -0.28692639975368628 0 0.18301660310609241 -0.29114958545392738 0 0.1827564496500734 -0.29712351473235832 0 0.18114425154506539 -0.29221912984395187 0 0.18301660310609241 -0.29114958545392738 0 0.1827564496500734 -0.29712351473235832 0 0.17864991096044419 -0.29495009963706692 0 0.18114425154506539 -0.29221912984395187 0 0.1827564496500734 -0.29712351473235832 0 0.18747516626574931 -0.28692639975368628 0 0.1827564496500734 -0.29712351473235832 0 0.1806905449634813 -0.28832929748571318 0 0.18114425154506539 -0.29221912984395187 0 0.18301660310609241 -0.29114958545392738 0 0.1806905449634813 -0.28832929748571318 0 0.17909088347012619 -0.29088019083727579 0 0.18114425154506539 -0.29221912984395187 0 0.18802618722583669 -0.31833181955932999 0 0.18221347423979239 -0.30458962683289892 0 0.1698931321352706 -0.29998698427508858 0 0.1880606218677118 -0.30022154946313712 0 0.18734834214976739 -0.29514628785519947 0 0.1827564496500734 -0.29712351473235832 0 0.19009702279388629 -0.3064242775921906 0 0.1880606218677118 -0.30022154946313712 0 0.18221347423979239 -0.30458962683289892 0 0.18802618722583669 -0.31833181955932999 0 0.17151825735526699 -0.31325416760549368 0 0.1698931321352706 -0.29998698427508858 0 0.1880606218677118 -0.30022154946313712 0 0.18221347423979239 -0.30458962683289892 0 0.1827564496500734 -0.29712351473235832 0 0.18802618722583669 -0.31833181955932999 0 0.1698931321352706 -0.29998698427508858 0 0.17864991096044419 -0.29495009963706692 0 0.1827564496500734 -0.29712351473235832 0 0.17837824174639511 -0.29916255636935318 0 0.18221347423979239 -0.30458962683289892 0 0.1827564496500734 -0.29712351473235832 0 0.17837824174639511 -0.29916255636935318 0 0.19009702279388629 -0.3064242775921906 0 0.18802618722583669 -0.31833181955932999 0 0.18221347423979239 -0.30458962683289892 0 0.18221347423979239 -0.30458962683289892 0 0.17837824174639511 -0.29916255636935318 0 0.1698931321352706 -0.29998698427508858 0 0.17864991096044419 -0.29495009963706692 0 0.17837824174639511 -0.29916255636935318 0 0.1698931321352706 -0.29998698427508858 0 0.17151825735526699 -0.31325416760549368 0 0.1698931321352706 -0.29998698427508858 0 0.1602411687519314 -0.31190927739118429 0 0.15432967412725099 -0.29846298066074151 0 0.1698931321352706 -0.29998698427508858 0 0.1602411687519314 -0.31190927739118429 0 0.1517600770447052 -0.28164214899084639 0 0.17864991096044419 -0.29495009963706692 0 0.1698931321352706 -0.29998698427508858 0 0.1517600770447052 -0.28164214899084639 0 0.1698931321352706 -0.29998698427508858 0 0.15432967412725099 -0.29846298066074151 0 0.1517600770447052 -0.28164214899084639 0 0.1698931321352706 -0.29998698427508858 0 0.1517600770447052 -0.28164214899084639 0 0.17864991096044419 -0.29495009963706692 0 0.1517600770447052 -0.28164214899084639 0 0.17864991096044419 -0.29495009963706692 0 0.16594555478614451 -0.28284233368471318 0 0.1710222018321049 -0.28124575318360368 0 0.17291101310642881 -0.28564608084835003 0 0.16594555478614451 -0.28284233368471318 0 0.21438456257476449 -0.5 0 0.2048745361024723 -0.48472171768082351 0 0.18744203257390391 -0.5 0 0.19122796324104871 -0.48466606029959602 0 0.2048745361024723 -0.48472171768082351 0 0.18744203257390391 -0.5 0 0.19122796324104871 -0.48466606029959602 0 0.20365346230900849 -0.47086657296764728 0 0.1938641377332887 -0.4633108835168005 0 0.19122796324104871 -0.48466606029959602 0 0.20365346230900849 -0.47086657296764728 0 0.2048745361024723 -0.48472171768082351 0 0.21766866328091511 -0.47157360957620892 0 0.2048745361024723 -0.48472171768082351 0 0.22288060450936709 -0.48400008360299168 0 0.20365346230900849 -0.47086657296764728 0 0.21766866328091511 -0.47157360957620892 0 0.2048745361024723 -0.48472171768082351 0 0.21438456257476449 -0.5 0 0.2048745361024723 -0.48472171768082351 0 0.22288060450936709 -0.48400008360299168 0 0.21438456257476449 -0.5 0 0.23633351028628971 -0.48712361601618398 0 0.2413270925756249 -0.5 0 0.21438456257476449 -0.5 0 0.23633351028628971 -0.48712361601618398 0 0.22288060450936709 -0.48400008360299168 0 0.25270961841775552 -0.48460016746525392 0 0.23633351028628971 -0.48712361601618398 0 0.2413270925756249 -0.5 0 0.25270961841775552 -0.48460016746525392 0 0.23633351028628971 -0.48712361601618398 0 0.23949561189523169 -0.47426551941090739 0 0.23949561189523169 -0.47426551941090739 0 0.22288060450936709 -0.48400008360299168 0 0.22545312399173489 -0.46028769725088831 0 0.21766866328091511 -0.47157360957620892 0 0.22288060450936709 -0.48400008360299168 0 0.22545312399173489 -0.46028769725088831 0 0.23633351028628971 -0.48712361601618398 0 0.23949561189523169 -0.47426551941090739 0 0.22288060450936709 -0.48400008360299168 0 0.22288060450936709 -0.48400008360299168 0 0.22545312399173489 -0.46028769725088831 0 0.21766866328091511 -0.47157360957620892 0 0.22545312399173489 -0.46028769725088831 0 0.2186728293425339 -0.44755637628226819 0 0.2588368117714554 -0.46700690363883102 0 0.23949561189523169 -0.47426551941090739 0 0.2409729068143365 -0.46262444708906358 0 0.22545312399173489 -0.46028769725088831 0 0.2409729068143365 -0.46262444708906358 0 0.24480843210435321 -0.45079661158300749 0 0.2588368117714554 -0.46700690363883102 0 0.2409729068143365 -0.46262444708906358 0 0.24480843210435321 -0.45079661158300749 0 0.23949561189523169 -0.47426551941090739 0 0.22545312399173489 -0.46028769725088831 0 0.2409729068143365 -0.46262444708906358 0 0.24480843210435321 -0.45079661158300749 0 0.22802564347410281 -0.43657531089878487 0 0.2418992233321238 -0.43333026798624508 0 0.25513396950241118 -0.43290986753561628 0 0.24480843210435321 -0.45079661158300749 0 0.2418992233321238 -0.43333026798624508 0 0.22545312399173489 -0.46028769725088831 0 0.22802564347410281 -0.43657531089878487 0 0.2186728293425339 -0.44755637628226819 0 0.21246462128442831 -0.43168381348743168 0 0.22802564347410281 -0.43657531089878487 0 0.22545312399173489 -0.46028769725088831 0 0.2186728293425339 -0.44755637628226819 0 0.22802564347410281 -0.43657531089878487 0 0.22545312399173489 -0.46028769725088831 0 0.24480843210435321 -0.45079661158300749 0 0.22802564347410281 -0.43657531089878487 0 0.20442019459899149 -0.44533796874460208 0 0.2186728293425339 -0.44755637628226819 0 0.21246462128442831 -0.43168381348743168 0 0.21766866328091511 -0.47157360957620892 0 0.20442019459899149 -0.44533796874460208 0 0.21766866328091511 -0.47157360957620892 0 0.20442019459899149 -0.44533796874460208 0 0.2186728293425339 -0.44755637628226819 0 0.20365346230900849 -0.47086657296764728 0 0.21766866328091511 -0.47157360957620892 0 0.20442019459899149 -0.44533796874460208 0 0.20365346230900849 -0.47086657296764728 0 0.20442019459899149 -0.44533796874460208 0 0.1938641377332887 -0.4633108835168005 0 0.20442019459899149 -0.44533796874460208 0 0.18484232774876749 -0.43033534366960768 0 0.18590039067086719 -0.44115637567916172 0 0.20442019459899149 -0.44533796874460208 0 0.18923595964957429 -0.45067509688328122 0 0.18590039067086719 -0.44115637567916172 0 0.20442019459899149 -0.44533796874460208 0 0.1938641377332887 -0.4633108835168005 0 0.18923595964957429 -0.45067509688328122 0 0.20442019459899149 -0.44533796874460208 0 0.1911717259170673 -0.41910232791299562 0 0.20473537155931409 -0.42802668409371708 0 0.20442019459899149 -0.44533796874460208 0 0.1911717259170673 -0.41910232791299562 0 0.20442019459899149 -0.44533796874460208 0 0.1911717259170673 -0.41910232791299562 0 0.18484232774876749 -0.43033534366960768 0 0.1911717259170673 -0.41910232791299562 0 0.21088494443676881 -0.41598262622983972 0 0.20473537155931409 -0.42802668409371708 0 0.18851111772050869 -0.41383358608972459 0 0.208966154163157 -0.40126827473642579 0 0.1911717259170673 -0.41910232791299562 0 0.21088494443676881 -0.41598262622983972 0 0.1911717259170673 -0.41910232791299562 0 0.18851111772050869 -0.41383358608972459 0 0.21088494443676881 -0.41598262622983972 0 0.18851111772050869 -0.41383358608972459 0 0.21088494443676881 -0.41598262622983972 0 0.208966154163157 -0.40126827473642579 0 0.1911717259170673 -0.41910232791299562 0 0.18851111772050869 -0.41383358608972459 0 0.21088494443676881 -0.41598262622983972 0 0.22155668588658281 -0.40529615173032069 0 0.208966154163157 -0.40126827473642579 0 0.21088494443676881 -0.41598262622983972 0 0.20473537155931409 -0.42802668409371708 0 0.21246462128442831 -0.43168381348743168 0 0.21088494443676881 -0.41598262622983972 0 0.21246462128442831 -0.43168381348743168 0 0.21959695705502991 -0.42408781639437282 0 0.20442019459899149 -0.44533796874460208 0 0.20473537155931409 -0.42802668409371708 0 0.21246462128442831 -0.43168381348743168 0 0.21246462128442831 -0.43168381348743168 0 0.21959695705502991 -0.42408781639437282 0 0.22802564347410281 -0.43657531089878487 0 0.22802564347410281 -0.43657531089878487 0 0.23614533994983331 -0.4244462479719151 0 0.23059816295646979 -0.4128629245466815 0 0.22802564347410281 -0.43657531089878487 0 0.23059816295646979 -0.4128629245466815 0 0.21959695705502991 -0.42408781639437282 0 0.22802564347410281 -0.43657531089878487 0 0.23059816295646979 -0.4128629245466815 0 0.22802564347410281 -0.43657531089878487 0 0.2418992233321238 -0.43333026798624508 0 0.23614533994983331 -0.4244462479719151 0 0.2418992233321238 -0.43333026798624508 0 0.23614533994983331 -0.4244462479719151 0 0.2453827316299185 -0.42192330194190181 0 0.25513396950241118 -0.43290986753561628 0 0.2418992233321238 -0.43333026798624508 0 0.2453827316299185 -0.42192330194190181 0 0.256136481120742 -0.41447562176841068 0 0.2453827316299185 -0.42192330194190181 0 0.24629253832767661 -0.41022035877505542 0 0.2453827316299185 -0.42192330194190181 0 0.24629253832767661 -0.41022035877505542 0 0.2366098857920339 -0.41191154353144788 0 0.23614533994983331 -0.4244462479719151 0 0.2366098857920339 -0.41191154353144788 0 0.23059816295646979 -0.4128629245466815 0 0.23614533994983331 -0.4244462479719151 0 0.2453827316299185 -0.42192330194190181 0 0.2366098857920339 -0.41191154353144788 0 0.24629253832767661 -0.41022035877505542 0 0.2366098857920339 -0.41191154353144788 0 0.2422505545635501 -0.40276464775944387 0 0.21088494443676881 -0.41598262622983972 0 0.23059816295646979 -0.4128629245466815 0 0.2366098857920339 -0.41191154353144788 0 0.23059816295646979 -0.4128629245466815 0 0.23156745731421779 -0.4039283829592023 0 0.23059816295646979 -0.4128629245466815 0 0.22155668588658281 -0.40529615173032069 0 0.23156745731421779 -0.4039283829592023 0 0.23059816295646979 -0.4128629245466815 0 0.23156745731421779 -0.4039283829592023 0 0.21088494443676881 -0.41598262622983972 0 0.23059816295646979 -0.4128629245466815 0 0.22155668588658281 -0.40529615173032069 0 0.21088494443676881 -0.41598262622983972 0 0.21959695705502991 -0.42408781639437282 0 0.23059816295646979 -0.4128629245466815 0 0.2366098857920339 -0.41191154353144788 0 0.23059816295646979 -0.4128629245466815 0 0.22155668588658281 -0.40529615173032069 0 0.22942119060580499 -0.38870296338312649 0 0.208966154163157 -0.40126827473642579 0 0.22155668588658281 -0.40529615173032069 0 0.23156745731421779 -0.4039283829592023 0 0.22942119060580499 -0.38870296338312649 0 0.22942119060580499 -0.38870296338312649 0 0.208966154163157 -0.40126827473642579 0 0.23156745731421779 -0.4039283829592023 0 0.24309899287842279 -0.39271330151873202 0 0.2422505545635501 -0.40276464775944387 0 0.2366098857920339 -0.41191154353144788 0 0.23156745731421779 -0.4039283829592023 0 0.2422505545635501 -0.40276464775944387 0 0.23156745731421779 -0.4039283829592023 0 0.24309899287842279 -0.39271330151873202 0 0.22942119060580499 -0.38870296338312649 0 0.25108303853213881 -0.40002667887407228 0 0.24629253832767661 -0.41022035877505542 0 0.2422505545635501 -0.40276464775944387 0 0.25108303853213881 -0.40002667887407228 0 0.24309899287842279 -0.39271330151873202 0 0.2422505545635501 -0.40276464775944387 0 0.24987622704845311 -0.37613765202982719 0 0.22942119060580499 -0.38870296338312649 0 0.24309899287842279 -0.39271330151873202 0 0.24987622704845311 -0.37613765202982719 0 0.22942119060580499 -0.38870296338312649 0 0.24987622704845311 -0.37613765202982719 0 0.23474048966473349 -0.38137370792841258 0 0.22942119060580499 -0.38870296338312649 0 0.25687819372407023 -0.38903915957053298 0 0.24309899287842279 -0.39271330151873202 0 0.24987622704845311 -0.37613765202982719 0 0.23679608458568241 -0.3713456781615978 0 0.24987622704845311 -0.37613765202982719 0 0.23474048966473349 -0.38137370792841258 0 0.23474048966473349 -0.38137370792841258 0 0.23010576568282681 -0.37607478874810818 0 0.22189277223980711 -0.38054577212349588 0 0.23474048966473349 -0.38137370792841258 0 0.22189277223980711 -0.38054577212349588 0 0.20961824525516401 -0.3936281247522696 0 0.23474048966473349 -0.38137370792841258 0 0.22942119060580499 -0.38870296338312649 0 0.20961824525516401 -0.3936281247522696 0 0.23679608458568241 -0.3713456781615978 0 0.23474048966473349 -0.38137370792841258 0 0.23010576568282681 -0.37607478874810818 0 0.23474048966473349 -0.38137370792841258 0 0.20961824525516401 -0.3936281247522696 0 0.22699371624108439 -0.37103399677892651 0 0.23010576568282681 -0.37607478874810818 0 0.22189277223980711 -0.38054577212349588 0 0.21663927632257499 -0.37152038636996992 0 0.22189277223980711 -0.38054577212349588 0 0.21119602619295649 -0.38157571206759561 0 0.21663927632257499 -0.37152038636996992 0 0.21119602619295649 -0.38157571206759561 0 0.20576161095015591 -0.37595213443190167 0 0.21119602619295649 -0.38157571206759561 0 0.20576161095015591 -0.37595213443190167 0 0.20229958674085519 -0.38616776423662919 0 0.21119602619295649 -0.38157571206759561 0 0.20961824525516401 -0.3936281247522696 0 0.20229958674085519 -0.38616776423662919 0 0.22189277223980711 -0.38054577212349588 0 0.21119602619295649 -0.38157571206759561 0 0.20961824525516401 -0.3936281247522696 0 0.22942119060580499 -0.38870296338312649 0 0.208966154163157 -0.40126827473642579 0 0.20961824525516401 -0.3936281247522696 0 0.20961824525516401 -0.3936281247522696 0 0.18449600084559339 -0.40588254157612419 0 0.20961824525516401 -0.3936281247522696 0 0.19262774622386039 -0.39991289132556063 0 0.20229958674085519 -0.38616776423662919 0 0.18851111772050869 -0.41383358608972459 0 0.20961824525516401 -0.3936281247522696 0 0.18449600084559339 -0.40588254157612419 0 0.19262774622386039 -0.39991289132556063 0 0.193172237845981 -0.38760648281860499 0 0.20229958674085519 -0.38616776423662919 0 0.20961824525516401 -0.3936281247522696 0 0.19262774622386039 -0.39991289132556063 0 0.18449600084559339 -0.40588254157612419 0 0.18851111772050869 -0.41383358608972459 0 0.208966154163157 -0.40126827473642579 0 0.20961824525516401 -0.3936281247522696 0 0.19262774622386039 -0.39991289132556063 0 0.18963514604776821 -0.39361523539988952 0 0.193172237845981 -0.38760648281860499 0 0.19262774622386039 -0.39991289132556063 0 0.18963514604776821 -0.39361523539988952 0 0.18221634088723479 -0.40136818287387582 0 0.18963514604776821 -0.39361523539988952 0 0.193172237845981 -0.38760648281860499 0 0.18267650324237161 -0.39405502657648112 0 0.193172237845981 -0.38760648281860499 0 0.1910424400336663 -0.37547354736401328 0 0.18267650324237161 -0.39405502657648112 0 0.20576161095015591 -0.37595213443190167 0 0.1910424400336663 -0.37547354736401328 0 0.20229958674085519 -0.38616776423662919 0 0.193172237845981 -0.38760648281860499 0 0.1910424400336663 -0.37547354736401328 0 0.20229958674085519 -0.38616776423662919 0 0.1910424400336663 -0.37547354736401328 0 0.17822948803450961 -0.38676940160015832 0 0.1737051017910701 -0.38004230502140057 0 0.1910424400336663 -0.37547354736401328 0 0.18267650324237161 -0.39405502657648112 0 0.1910424400336663 -0.37547354736401328 0 0.17822948803450961 -0.38676940160015832 0 0.18267650324237161 -0.39405502657648112 0 0.17822948803450961 -0.38676940160015832 0 0.17910183421640119 -0.39520059623836468 0 0.1646215608890387 -0.38907553280053181 0 0.17822948803450961 -0.38676940160015832 0 0.1737051017910701 -0.38004230502140057 0 0.1646215608890387 -0.38907553280053181 0 0.17822948803450961 -0.38676940160015832 0 0.18267650324237161 -0.39405502657648112 0 0.17910183421640119 -0.39520059623836468 0 0.18221634088723479 -0.40136818287387582 0 0.17910183421640119 -0.39520059623836468 0 0.15805845094365739 -0.40474493864538458 0 0.18963514604776821 -0.39361523539988952 0 0.18267650324237161 -0.39405502657648112 0 0.18221634088723479 -0.40136818287387582 0 0.18267650324237161 -0.39405502657648112 0 0.18221634088723479 -0.40136818287387582 0 0.17910183421640119 -0.39520059623836468 0 0.18221634088723479 -0.40136818287387582 0 0.17910183421640119 -0.39520059623836468 0 0.19262774622386039 -0.39991289132556063 0 0.18221634088723479 -0.40136818287387582 0 0.19262774622386039 -0.39991289132556063 0 0.18449600084559339 -0.40588254157612419 0 0.18221634088723479 -0.40136818287387582 0 0.18449600084559339 -0.40588254157612419 0 0.18221634088723479 -0.40136818287387582 0 0.17910183421640119 -0.39520059623836468 0 0.15805845094365739 -0.40474493864538458 0 0.1646215608890387 -0.38907553280053181 0 0.18221634088723479 -0.40136818287387582 0 0.15805845094365739 -0.40474493864538458 0 0.15805845094365739 -0.40474493864538458 0 0.1646215608890387 -0.38907553280053181 0 0.14706277844018539 -0.39464292458295508 0 0.1737051017910701 -0.38004230502140057 0 0.1646215608890387 -0.38907553280053181 0 0.16307541855137739 -0.37743582412871929 0 0.17035242753357599 -0.36877211446365682 0 0.1737051017910701 -0.38004230502140057 0 0.16307541855137739 -0.37743582412871929 0 0.1569593121701936 -0.36832063090657668 0 0.16307541855137739 -0.37743582412871929 0 0.14973869037300869 -0.38096853745143089 0 0.1646215608890387 -0.38907553280053181 0 0.16307541855137739 -0.37743582412871929 0 0.14973869037300869 -0.38096853745143089 0 0.1646215608890387 -0.38907553280053181 0 0.14973869037300869 -0.38096853745143089 0 0.14706277844018539 -0.39464292458295508 0 0.14973869037300869 -0.38096853745143089 0 0.1375772795987745 -0.38493757303029391 0 0.14706277844018539 -0.39464292458295508 0 0.13524945632583441 -0.37311377610700652 0 0.14973869037300869 -0.38096853745143089 0 0.1375772795987745 -0.38493757303029391 0 0.13524945632583441 -0.37311377610700652 0 0.1375772795987745 -0.38493757303029391 0 0.12609635470998201 -0.38402791619100712 0 0.1375772795987745 -0.38493757303029391 0 0.12609635470998201 -0.38402791619100712 0 0.13569313113510631 -0.39589912548093298 0 0.12645644117523869 -0.39722706905544619 0 0.13569313113510631 -0.39589912548093298 0 0.1339005610000801 -0.40812169441689322 0 0.12645644117523869 -0.39722706905544619 0 0.1339005610000801 -0.40812169441689322 0 0.1250254850364893 -0.40936224001308058 0 0.12609635470998201 -0.38402791619100712 0 0.12645644117523869 -0.39722706905544619 0 0.13569313113510631 -0.39589912548093298 0 0.1375772795987745 -0.38493757303029391 0 0.13569313113510631 -0.39589912548093298 0 0.14706277844018539 -0.39464292458295508 0 0.13569313113510631 -0.39589912548093298 0 0.14706277844018539 -0.39464292458295508 0 0.1339005610000801 -0.40812169441689322 0 0.13569313113510631 -0.39589912548093298 0 0.1339005610000801 -0.40812169441689322 0 0.15805845094365739 -0.40474493864538458 0 0.14706277844018539 -0.39464292458295508 0 0.1339005610000801 -0.40812169441689322 0 0.15805845094365739 -0.40474493864538458 0 0.1339005610000801 -0.40812169441689322 0 0.15805845094365739 -0.40474493864538458 0 0.15398562739609989 -0.414436145328195 0 0.14500783119440661 -0.41410657591589572 0 0.15805845094365739 -0.40474493864538458 0 0.14500783119440661 -0.41410657591589572 0 0.1339005610000801 -0.40812169441689322 0 0.15398562739609989 -0.414436145328195 0 0.15088002640467921 -0.42009116626417142 0 0.14500783119440661 -0.41410657591589572 0 0.15088002640467921 -0.42009116626417142 0 0.15979138776423191 -0.42406840149736191 0 0.15636365466176849 -0.41960526040447821 0 0.15398562739609989 -0.414436145328195 0 0.15088002640467921 -0.42009116626417142 0 0.15636365466176849 -0.41960526040447821 0 0.15088002640467921 -0.42009116626417142 0 0.14500783119440661 -0.41410657591589572 0 0.14354831806896931 -0.42663893719234869 0 0.14500783119440661 -0.41410657591589572 0 0.1339005610000801 -0.40812169441689322 0 0.13212255532719441 -0.42024495614079282 0 0.14500783119440661 -0.41410657591589572 0 0.13212255532719441 -0.42024495614079282 0 0.14354831806896931 -0.42663893719234869 0 0.1339005610000801 -0.40812169441689322 0 0.13212255532719441 -0.42024495614079282 0 0.13212255532719441 -0.42024495614079282 0 0.1250254850364893 -0.40936224001308058 0 0.117866085899093 -0.41583132647739651 0 0.13212255532719441 -0.42024495614079282 0 0.1250254850364893 -0.40936224001308058 0 0.1339005610000801 -0.40812169441689322 0 0.13212255532719441 -0.42024495614079282 0 0.1250254850364893 -0.40936224001308058 0 0.1339005610000801 -0.40812169441689322 0 0.1250254850364893 -0.40936224001308058 0 0.13212255532719441 -0.42024495614079282 0 0.14354831806896931 -0.42663893719234869 0 0.1460535583969573 -0.44160689079445481 0 0.13212255532719441 -0.42024495614079282 0 0.128223579302082 -0.44682997076052833 0 0.13212255532719441 -0.42024495614079282 0 0.128223579302082 -0.44682997076052833 0 0.1159996351348133 -0.43474120747525058 0 0.13212255532719441 -0.42024495614079282 0 0.1460535583969573 -0.44160689079445481 0 0.13212255532719441 -0.42024495614079282 0 0.1460535583969573 -0.44160689079445481 0 0.128223579302082 -0.44682997076052833 0 0.15088002640467921 -0.42009116626417142 0 0.14354831806896931 -0.42663893719234869 0 0.15979138776423191 -0.42406840149736191 0 0.14354831806896931 -0.42663893719234869 0 0.15979138776423191 -0.42406840149736191 0 0.14354831806896931 -0.42663893719234869 0 0.15423293294423909 -0.43386412417913311 0 0.1460535583969573 -0.44160689079445481 0 0.14354831806896931 -0.42663893719234869 0 0.15423293294423909 -0.43386412417913311 0 0.15979138776423191 -0.42406840149736191 0 0.15423293294423909 -0.43386412417913311 0 0.16088991666547389 -0.43196094602310392 0 0.16557730454712019 -0.44172028084172121 0 0.1713980071398 -0.42434598792645378 0 0.15979138776423191 -0.42406840149736191 0 0.1760344574594947 -0.42149786580237669 0 0.15423293294423909 -0.43386412417913311 0 0.16088991666547389 -0.43196094602310392 0 0.15979138776423191 -0.42406840149736191 0 0.15979138776423191 -0.42406840149736191 0 0.1760344574594947 -0.42149786580237669 0 0.16626302434537371 -0.43076979168845952 0 0.17509911994716071 -0.43336510097506958 0 0.16557730454712019 -0.44172028084172121 0 0.16088991666547389 -0.43196094602310392 0 0.16626302434537371 -0.43076979168845952 0 0.16557730454712019 -0.44172028084172121 0 0.16626302434537371 -0.43076979168845952 0 0.1713980071398 -0.42434598792645378 0 0.17509911994716071 -0.43336510097506958 0 0.16626302434537371 -0.43076979168845952 0 0.1713980071398 -0.42434598792645378 0 0.15979138776423191 -0.42406840149736191 0 0.16088991666547389 -0.43196094602310392 0 0.16626302434537371 -0.43076979168845952 0 0.15979138776423191 -0.42406840149736191 0 0.15636365466176849 -0.41960526040447821 0 0.16176651730702801 -0.41283252991975622 0 0.17042982775368151 -0.41274390099030239 0 0.18221634088723479 -0.40136818287387582 0 0.15805845094365739 -0.40474493864538458 0 0.17042982775368151 -0.41274390099030239 0 0.15979138776423191 -0.42406840149736191 0 0.15636365466176849 -0.41960526040447821 0 0.17042982775368151 -0.41274390099030239 0 0.15636365466176849 -0.41960526040447821 0 0.17042982775368151 -0.41274390099030239 0 0.15979138776423191 -0.42406840149736191 0 0.17042982775368151 -0.41274390099030239 0 0.1760344574594947 -0.42149786580237669 0 0.15398562739609989 -0.414436145328195 0 0.15636365466176849 -0.41960526040447821 0 0.16176651730702801 -0.41283252991975622 0 0.15805845094365739 -0.40474493864538458 0 0.15398562739609989 -0.414436145328195 0 0.16176651730702801 -0.41283252991975622 0 0.15805845094365739 -0.40474493864538458 0 0.16176651730702801 -0.41283252991975622 0 0.17042982775368151 -0.41274390099030239 0 0.17042982775368151 -0.41274390099030239 0 0.1760344574594947 -0.42149786580237669 0 0.17986785094481991 -0.4134894736146324 0 0.18449600084559339 -0.40588254157612419 0 0.17042982775368151 -0.41274390099030239 0 0.18449600084559339 -0.40588254157612419 0 0.18221634088723479 -0.40136818287387582 0 0.17042982775368151 -0.41274390099030239 0 0.18449600084559339 -0.40588254157612419 0 0.17042982775368151 -0.41274390099030239 0 0.17986785094481991 -0.4134894736146324 0 0.18851111772050869 -0.41383358608972459 0 0.18449600084559339 -0.40588254157612419 0 0.18851111772050869 -0.41383358608972459 0 0.18449600084559339 -0.40588254157612419 0 0.17986785094481991 -0.4134894736146324 0 0.18851111772050869 -0.41383358608972459 0 0.1760344574594947 -0.42149786580237669 0 0.1911717259170673 -0.41910232791299562 0 0.1760344574594947 -0.42149786580237669 0 0.18851111772050869 -0.41383358608972459 0 0.1760344574594947 -0.42149786580237669 0 0.17986785094481991 -0.4134894736146324 0 0.1911717259170673 -0.41910232791299562 0 0.18851111772050869 -0.41383358608972459 0 0.1760344574594947 -0.42149786580237669 0 0.1911717259170673 -0.41910232791299562 0 0.1760344574594947 -0.42149786580237669 0 0.18484232774876749 -0.43033534366960768 0 0.18484232774876749 -0.43033534366960768 0 0.17509911994716071 -0.43336510097506958 0 0.18590039067086719 -0.44115637567916172 0 0.18484232774876749 -0.43033534366960768 0 0.17509911994716071 -0.43336510097506958 0 0.17653319474121221 -0.42750765242104072 0 0.1713980071398 -0.42434598792645378 0 0.17509911994716071 -0.43336510097506958 0 0.17653319474121221 -0.42750765242104072 0 0.1760344574594947 -0.42149786580237669 0 0.18484232774876749 -0.43033534366960768 0 0.17653319474121221 -0.42750765242104072 0 0.1713980071398 -0.42434598792645378 0 0.1760344574594947 -0.42149786580237669 0 0.17653319474121221 -0.42750765242104072 0 0.1713980071398 -0.42434598792645378 0 0.1760344574594947 -0.42149786580237669 0 0.17791556380287959 -0.4455361086535346 0 0.17376504419967539 -0.46076368888843938 0 0.16557730454712019 -0.44172028084172121 0 0.17509911994716071 -0.43336510097506958 0 0.17791556380287959 -0.4455361086535346 0 0.18590039067086719 -0.44115637567916172 0 0.17509911994716071 -0.43336510097506958 0 0.17791556380287959 -0.4455361086535346 0 0.16557730454712019 -0.44172028084172121 0 0.18923595964957429 -0.45067509688328122 0 0.17791556380287959 -0.4455361086535346 0 0.18590039067086719 -0.44115637567916172 0 0.18923595964957429 -0.45067509688328122 0 0.17791556380287959 -0.4455361086535346 0 0.17376504419967539 -0.46076368888843938 0 0.1938641377332887 -0.4633108835168005 0 0.18923595964957429 -0.45067509688328122 0 0.17376504419967539 -0.46076368888843938 0 0.1938641377332887 -0.4633108835168005 0 0.17376504419967539 -0.46076368888843938 0 0.17718182015316611 -0.48165544175840053 0 0.17376504419967539 -0.46076368888843938 0 0.15550290350416551 -0.45157236434768988 0 0.1539044029471725 -0.46809795184702829 0 0.17376504419967539 -0.46076368888843938 0 0.16557730454712019 -0.44172028084172121 0 0.15550290350416551 -0.45157236434768988 0 0.15423293294423909 -0.43386412417913311 0 0.16557730454712019 -0.44172028084172121 0 0.15550290350416551 -0.45157236434768988 0 0.15423293294423909 -0.43386412417913311 0 0.15550290350416551 -0.45157236434768988 0 0.1460535583969573 -0.44160689079445481 0 0.15550290350416551 -0.45157236434768988 0 0.1460535583969573 -0.44160689079445481 0 0.14153074802588431 -0.45654190970348868 0 0.1460535583969573 -0.44160689079445481 0 0.128223579302082 -0.44682997076052833 0 0.14153074802588431 -0.45654190970348868 0 0.128223579302082 -0.44682997076052833 0 0.12432460327697011 -0.47341498538026422 0 0.128223579302082 -0.44682997076052833 0 0.14153074802588431 -0.45654190970348868 0 0.12432460327697011 -0.47341498538026422 0 0.1539044029471725 -0.46809795184702829 0 0.14153074802588431 -0.45654190970348868 0 0.12432460327697011 -0.47341498538026422 0 0.15550290350416551 -0.45157236434768988 0 0.1539044029471725 -0.46809795184702829 0 0.14153074802588431 -0.45654190970348868 0 0.1539044029471725 -0.46809795184702829 0 0.15048103374274721 -0.48484579871078243 0 0.12432460327697011 -0.47341498538026422 0 0.1404625649124509 -0.5 0 0.15048103374274721 -0.48484579871078243 0 0.12432460327697011 -0.47341498538026422 0 0.1404625649124509 -0.5 0 0.12042562725185831 -0.49999999999999989 0 0.12432460327697011 -0.47341498538026422 0 0.1404625649124509 -0.5 0 0.15048103374274721 -0.48484579871078243 0 0.16049950257304349 -0.50000000000000033 0 0.16049950257304349 -0.50000000000000033 0 0.17718182015316611 -0.48165544175840053 0 0.15048103374274721 -0.48484579871078243 0 0.16049950257304349 -0.50000000000000033 0 0.17718182015316611 -0.48165544175840053 0 0.17376504419967539 -0.46076368888843938 0 0.1539044029471725 -0.46809795184702829 0 0.17718182015316611 -0.48165544175840053 0 0.1539044029471725 -0.46809795184702829 0 0.15048103374274721 -0.48484579871078243 0 0.17718182015316611 -0.48165544175840053 0 0.1938641377332887 -0.4633108835168005 0 0.17718182015316611 -0.48165544175840053 0 0.19122796324104871 -0.48466606029959602 0 0.1938641377332887 -0.4633108835168005 0 0.17718182015316611 -0.48165544175840053 0 0.16049950257304349 -0.50000000000000033 0 0.17718182015316611 -0.48165544175840053 0 0.18744203257390391 -0.5 0 0.19122796324104871 -0.48466606029959602 0 0.17718182015316611 -0.48165544175840053 0 0.18744203257390391 -0.5 0 0.072018957471098571 -0.48629524479662273 0 0.069142552082564368 -0.5 0 0.082735946582200875 -0.4892045976485363 0 0.072018957471098571 -0.48629524479662273 0 0.079568506083734697 -0.4785915255016745 0 0.082735946582200875 -0.4892045976485363 0 0.072018957471098571 -0.48629524479662273 0 0.062670741706174135 -0.48944359682069549 0 0.064881374578912687 -0.4815757870058418 0 0.072018957471098571 -0.48629524479662273 0 0.069142552082564368 -0.5 0 0.062670741706174135 -0.48944359682069549 0 0.073180054077148754 -0.46968413697177741 0 0.079568506083734697 -0.4785915255016745 0 0.081395248040860374 -0.46160025678040811 0 0.067447632246636219 -0.45716428258124142 0 0.05849497948899289 -0.47642287528831911 0 0.061758178687080389 -0.47580514524370598 0 0.072018957471098571 -0.48629524479662273 0 0.064881374578912687 -0.4815757870058418 0 0.070673492561877091 -0.4782128222507579 0 0.064881374578912687 -0.4815757870058418 0 0.066280053791524171 -0.47680462027284459 0 0.061758178687080389 -0.47580514524370598 0 0.064881374578912687 -0.4815757870058418 0 0.066280053791524171 -0.47680462027284459 0 0.070673492561877091 -0.4782128222507579 0 0.066280053791524171 -0.47680462027284459 0 0.067807169338226503 -0.47162472659107291 0 0.061758178687080389 -0.47580514524370598 0 0.066280053791524171 -0.47680462027284459 0 0.067807169338226503 -0.47162472659107291 0 0.070673492561877091 -0.4782128222507579 0 0.067807169338226503 -0.47162472659107291 0 0.073180054077148754 -0.46968413697177741 0 0.070673492561877091 -0.4782128222507579 0 0.073180054077148754 -0.46968413697177741 0 0.070673492561877091 -0.4782128222507579 0 0.079568506083734697 -0.4785915255016745 0 0.072018957471098571 -0.48629524479662273 0 0.070673492561877091 -0.4782128222507579 0 0.079568506083734697 -0.4785915255016745 0 0.096876661376123455 -0.48080012839020431 0 0.081395248040860374 -0.46160025678040811 0 0.096876661376123455 -0.48080012839020431 0 0.095349939854524335 -0.46404107218864848 0 0.081395248040860374 -0.46160025678040811 0 0.079568506083734697 -0.4785915255016745 0 0.082735946582200875 -0.4892045976485363 0 0.096876661376123455 -0.48080012839020431 0 0.079568506083734697 -0.4785915255016745 0 0.096876661376123455 -0.48080012839020431 0 0.081395248040860374 -0.46160025678040811 0 0.090750313396975479 -0.5 0 0.082735946582200875 -0.4892045976485363 0 0.096876661376123455 -0.48080012839020431 0 0.069142552082564368 -0.5 0 0.090750313396975479 -0.5 0 0.082735946582200875 -0.4892045976485363 0 0.1123580747113867 -0.50000000000000033 0 0.1124728586670535 -0.48406595427175642 0 0.096876661376123455 -0.48080012839020431 0 0.090750313396975479 -0.5 0 0.1123580747113867 -0.50000000000000033 0 0.096876661376123455 -0.48080012839020431 0 0.1123580747113867 -0.50000000000000033 0 0.096876661376123455 -0.48080012839020431 0 0.1123580747113867 -0.50000000000000033 0 0.12042562725185831 -0.49999999999999989 0 0.1124728586670535 -0.48406595427175642 0 0.12042562725185831 -0.49999999999999989 0 0.1124728586670535 -0.48406595427175642 0 0.12432460327697011 -0.47341498538026422 0 0.12042562725185831 -0.49999999999999989 0 0.12432460327697011 -0.47341498538026422 0 0.1124728586670535 -0.48406595427175642 0 0.12432460327697011 -0.47341498538026422 0 0.1082250197838846 -0.46311527911574241 0 0.096876661376123455 -0.48080012839020431 0 0.095349939854524335 -0.46404107218864848 0 0.1082250197838846 -0.46311527911574241 0 0.1124728586670535 -0.48406595427175642 0 0.096876661376123455 -0.48080012839020431 0 0.1082250197838846 -0.46311527911574241 0 0.095349939854524335 -0.46404107218864848 0 0.1082250197838846 -0.46311527911574241 0 0.094902830217228867 -0.45064862446823939 0 0.128223579302082 -0.44682997076052833 0 0.12432460327697011 -0.47341498538026422 0 0.1082250197838846 -0.46311527911574241 0 0.128223579302082 -0.44682997076052833 0 0.1069391861142964 -0.44299064961396012 0 0.1159996351348133 -0.43474120747525058 0 0.128223579302082 -0.44682997076052833 0 0.1082250197838846 -0.46311527911574241 0 0.1069391861142964 -0.44299064961396012 0 0.1082250197838846 -0.46311527911574241 0 0.1069391861142964 -0.44299064961396012 0 0.094902830217228867 -0.45064862446823939 0 0.1069391861142964 -0.44299064961396012 0 0.091812697424993442 -0.4386357446441016 0 0.098414951810672224 -0.43233268446502993 0 0.1069391861142964 -0.44299064961396012 0 0.094902830217228867 -0.45064862446823939 0 0.091812697424993442 -0.4386357446441016 0 0.094902830217228867 -0.45064862446823939 0 0.091812697424993442 -0.4386357446441016 0 0.082434724511159588 -0.44537142502386151 0 0.094902830217228867 -0.45064862446823939 0 0.082434724511159588 -0.44537142502386151 0 0.081395248040860374 -0.46160025678040811 0 0.091812697424993442 -0.4386357446441016 0 0.082434724511159588 -0.44537142502386151 0 0.078149012167117934 -0.43357211405594609 0 0.095349939854524335 -0.46404107218864848 0 0.094902830217228867 -0.45064862446823939 0 0.081395248040860374 -0.46160025678040811 0 0.067447632246636219 -0.45716428258124142 0 0.065913834705597293 -0.44240038517061198 0 0.057068655694905858 -0.46015288389510001 0 0.067447632246636219 -0.45716428258124142 0 0.05849497948899289 -0.47642287528831911 0 0.067807169338226503 -0.47162472659107291 0 0.067447632246636219 -0.45716428258124142 0 0.061758178687080389 -0.47580514524370598 0 0.081395248040860374 -0.46160025678040811 0 0.067447632246636219 -0.45716428258124142 0 0.065913834705597293 -0.44240038517061198 0 0.073180054077148754 -0.46968413697177741 0 0.081395248040860374 -0.46160025678040811 0 0.067447632246636219 -0.45716428258124142 0 0.067807169338226503 -0.47162472659107291 0 0.073180054077148754 -0.46968413697177741 0 0.067447632246636219 -0.45716428258124142 0 0.081395248040860374 -0.46160025678040811 0 0.065913834705597293 -0.44240038517061198 0 0.082434724511159588 -0.44537142502386151 0 0.081395248040860374 -0.46160025678040811 0 0.065913834705597293 -0.44240038517061198 0 0.082434724511159588 -0.44537142502386151 0 0.065913834705597293 -0.44240038517061198 0 0.078149012167117934 -0.43357211405594609 0 0.065921365320016911 -0.4273577277455588 0 0.073982485551444349 -0.42005290588181732 0 0.078149012167117934 -0.43357211405594609 0 0.065913834705597293 -0.44240038517061198 0 0.065921365320016911 -0.4273577277455588 0 0.078149012167117934 -0.43357211405594609 0 0.073982485551444349 -0.42005290588181732 0 0.069775570718114244 -0.40426700169235308 0 0.060774245729122177 -0.41691050055794487 0 0.065921365320016911 -0.4273577277455588 0 0.073982485551444349 -0.42005290588181732 0 0.060774245729122177 -0.41691050055794487 0 0.073982485551444349 -0.42005290588181732 0 0.086447448161059384 -0.41120764722282821 0 0.069775570718114244 -0.40426700169235308 0 0.073982485551444349 -0.42005290588181732 0 0.086447448161059384 -0.41120764722282821 0 0.088692331433278357 -0.42535053834926723 0 0.086447448161059384 -0.41120764722282821 0 0.093827427438274241 -0.41775801958915132 0 0.099702730965631758 -0.41290181884877419 0 0.086447448161059384 -0.41120764722282821 0 0.088692331433278357 -0.42535053834926723 0 0.093827427438274241 -0.41775801958915132 0 0.088692331433278357 -0.42535053834926723 0 0.097645949564215143 -0.42435504664253748 0 0.093827427438274241 -0.41775801958915132 0 0.073982485551444349 -0.42005290588181732 0 0.088692331433278357 -0.42535053834926723 0 0.078149012167117934 -0.43357211405594609 0 0.091812697424993442 -0.4386357446441016 0 0.088692331433278357 -0.42535053834926723 0 0.078149012167117934 -0.43357211405594609 0 0.091812697424993442 -0.4386357446441016 0 0.088692331433278357 -0.42535053834926723 0 0.098414951810672224 -0.43233268446502993 0 0.098414951810672224 -0.43233268446502993 0 0.097645949564215143 -0.42435504664253748 0 0.1061961683754654 -0.43004895598907111 0 0.088692331433278357 -0.42535053834926723 0 0.098414951810672224 -0.43233268446502993 0 0.097645949564215143 -0.42435504664253748 0 0.1061961683754654 -0.43004895598907111 0 0.11152958735588871 -0.42539382439527612 0 0.1045809803654715 -0.42051706085107571 0 0.097645949564215143 -0.42435504664253748 0 0.1061961683754654 -0.43004895598907111 0 0.1045809803654715 -0.42051706085107571 0 0.1069391861142964 -0.44299064961396012 0 0.098414951810672224 -0.43233268446502993 0 0.1061961683754654 -0.43004895598907111 0 0.1061961683754654 -0.43004895598907111 0 0.1159996351348133 -0.43474120747525058 0 0.11152958735588871 -0.42539382439527612 0 0.13212255532719441 -0.42024495614079282 0 0.1159996351348133 -0.43474120747525058 0 0.11851153239627241 -0.42275952171654291 0 0.1069391861142964 -0.44299064961396012 0 0.1061961683754654 -0.43004895598907111 0 0.1159996351348133 -0.43474120747525058 0 0.1159996351348133 -0.43474120747525058 0 0.11152958735588871 -0.42539382439527612 0 0.11851153239627241 -0.42275952171654291 0 0.11152958735588871 -0.42539382439527612 0 0.11851153239627241 -0.42275952171654291 0 0.1123596205074209 -0.41890237594444008 0 0.1250254850364893 -0.40936224001308058 0 0.117866085899093 -0.41583132647739651 0 0.1096180349996463 -0.41151587164058129 0 0.1250254850364893 -0.40936224001308058 0 0.1096180349996463 -0.41151587164058129 0 0.13212255532719441 -0.42024495614079282 0 0.11851153239627241 -0.42275952171654291 0 0.117866085899093 -0.41583132647739651 0 0.117866085899093 -0.41583132647739651 0 0.1123596205074209 -0.41890237594444008 0 0.1096180349996463 -0.41151587164058129 0 0.11851153239627241 -0.42275952171654291 0 0.117866085899093 -0.41583132647739651 0 0.1123596205074209 -0.41890237594444008 0 0.11152958735588871 -0.42539382439527612 0 0.1123596205074209 -0.41890237594444008 0 0.1045809803654715 -0.42051706085107571 0 0.1123596205074209 -0.41890237594444008 0 0.1096180349996463 -0.41151587164058129 0 0.1065506547415149 -0.41613106226330793 0 0.1096180349996463 -0.41151587164058129 0 0.1065506547415149 -0.41613106226330793 0 0.099702730965631758 -0.41290181884877419 0 0.1096180349996463 -0.41151587164058129 0 0.099702730965631758 -0.41290181884877419 0 0.1096180349996463 -0.41151587164058129 0 0.099702730965631758 -0.41290181884877419 0 0.1041447551606165 -0.40305668800175581 0 0.1123596205074209 -0.41890237594444008 0 0.1065506547415149 -0.41613106226330793 0 0.1045809803654715 -0.42051706085107571 0 0.1065506547415149 -0.41613106226330793 0 0.1045809803654715 -0.42051706085107571 0 0.099702730965631758 -0.41290181884877419 0 0.1045809803654715 -0.42051706085107571 0 0.093827427438274241 -0.41775801958915132 0 0.099702730965631758 -0.41290181884877419 0 0.097645949564215143 -0.42435504664253748 0 0.1045809803654715 -0.42051706085107571 0 0.093827427438274241 -0.41775801958915132 0 0.086447448161059384 -0.41120764722282821 0 0.099702730965631758 -0.41290181884877419 0 0.095691580682652475 -0.39908469234235189 0 0.095691580682652475 -0.39908469234235189 0 0.1041447551606165 -0.40305668800175581 0 0.1115666739945345 -0.38872436917531578 0 0.099702730965631758 -0.41290181884877419 0 0.095691580682652475 -0.39908469234235189 0 0.1041447551606165 -0.40305668800175581 0 0.1096180349996463 -0.41151587164058129 0 0.1041447551606165 -0.40305668800175581 0 0.1115666739945345 -0.38872436917531578 0 0.1250254850364893 -0.40936224001308058 0 0.1115666739945345 -0.38872436917531578 0 0.1096180349996463 -0.41151587164058129 0 0.1115666739945345 -0.38872436917531578 0 0.1250254850364893 -0.40936224001308058 0 0.1096180349996463 -0.41151587164058129 0 0.1115666739945345 -0.38872436917531578 0 0.12645644117523869 -0.39722706905544619 0 0.1250254850364893 -0.40936224001308058 0 0.1115666739945345 -0.38872436917531578 0 0.12609635470998201 -0.38402791619100712 0 0.1115666739945345 -0.38872436917531578 0 0.113745377556003 -0.36324200547299851 0 0.1115666739945345 -0.38872436917531578 0 0.113745377556003 -0.36324200547299851 0 0.12609635470998201 -0.38402791619100712 0 0.12645644117523869 -0.39722706905544619 0 0.1115666739945345 -0.38872436917531578 0 0.1115666739945345 -0.38872436917531578 0 0.096372132326470572 -0.36542491223168638 0 0.1115666739945345 -0.38872436917531578 0 0.089853218628298884 -0.38394717958202601 0 0.096372132326470572 -0.36542491223168638 0 0.095691580682652475 -0.39908469234235189 0 0.1115666739945345 -0.38872436917531578 0 0.089853218628298884 -0.38394717958202601 0 0.089853218628298884 -0.38394717958202601 0 0.082924844884061683 -0.39714926844771359 0 0.072939106935086151 -0.38728773006234168 0 0.089853218628298884 -0.38394717958202601 0 0.072939106935086151 -0.38728773006234168 0 0.07582030708563034 -0.37256671738353597 0 0.095691580682652475 -0.39908469234235189 0 0.089853218628298884 -0.38394717958202601 0 0.082924844884061683 -0.39714926844771359 0 0.086447448161059384 -0.41120764722282821 0 0.082924844884061683 -0.39714926844771359 0 0.069775570718114244 -0.40426700169235308 0 0.086447448161059384 -0.41120764722282821 0 0.095691580682652475 -0.39908469234235189 0 0.082924844884061683 -0.39714926844771359 0 0.069775570718114244 -0.40426700169235308 0 0.072939106935086151 -0.38728773006234168 0 0.058313699768321348 -0.39007371912844929 0 0.082924844884061683 -0.39714926844771359 0 0.069775570718114244 -0.40426700169235308 0 0.072939106935086151 -0.38728773006234168 0 0.072939106935086151 -0.38728773006234168 0 0.05933500968155693 -0.37671477575793533 0 0.058313699768321348 -0.39007371912844929 0 0.072939106935086151 -0.38728773006234168 0 0.05933500968155693 -0.37671477575793533 0 0.07582030708563034 -0.37256671738353597 0 0.05933500968155693 -0.37671477575793533 0 0.043300396670470892 -0.38581293046691678 0 0.039079294002052851 -0.37065651216905859 0 0.05933500968155693 -0.37671477575793533 0 0.058313699768321348 -0.39007371912844929 0 0.043300396670470892 -0.38581293046691678 0 0.058313699768321348 -0.39007371912844929 0 0.0466875803122518 -0.39705513158652528 0 0.054373060569327003 -0.40663711634463268 0 0.069775570718114244 -0.40426700169235308 0 0.058313699768321348 -0.39007371912844929 0 0.054373060569327003 -0.40663711634463268 0 0.058313699768321348 -0.39007371912844929 0 0.054373060569327003 -0.40663711634463268 0 0.0466875803122518 -0.39705513158652528 0 0.042121557959679479 -0.40689397827368962 0 0.054373060569327003 -0.40663711634463268 0 0.058313699768321348 -0.39007371912844929 0 0.0466875803122518 -0.39705513158652528 0 0.043300396670470892 -0.38581293046691678 0 0.0466875803122518 -0.39705513158652528 0 0.032645317368698572 -0.39721328630736241 0 0.043300396670470892 -0.38581293046691678 0 0.0466875803122518 -0.39705513158652528 0 0.032645317368698572 -0.39721328630736241 0 0.042121557959679479 -0.40689397827368962 0 0.032645317368698572 -0.39721328630736241 0 0.043300396670470892 -0.38581293046691678 0 0.025542853711361019 -0.38384675294920401 0 0.043300396670470892 -0.38581293046691678 0 0.025542853711361019 -0.38384675294920401 0 0.039079294002052851 -0.37065651216905859 0 0.025542853711361019 -0.38384675294920401 0 0.009690974369139977 -0.39295199195252922 0 0.016784443680880379 -0.36713146693108112 0 -0.0064694903547723136 -0.38059021958606692 0 0.009690974369139977 -0.39295199195252922 0 0.016784443680880379 -0.36713146693108112 0 0.032645317368698572 -0.39721328630736241 0 0.009690974369139977 -0.39295199195252922 0 0.030062121183744069 -0.41560348860952728 0 0.032645317368698572 -0.39721328630736241 0 0.025542853711361019 -0.38384675294920401 0 0.009690974369139977 -0.39295199195252922 0 0.009690974369139977 -0.39295199195252922 0 0.030062121183744069 -0.41560348860952728 0 0.01224976062295041 -0.42183763890738629 0 -0.0080625817845775948 -0.40608726553411861 0 0.009690974369139977 -0.39295199195252922 0 0.01224976062295041 -0.42183763890738629 0 0.009690974369139977 -0.39295199195252922 0 0.01224976062295041 -0.42183763890738629 0 0.01224976062295041 -0.42183763890738629 0 0.01480854687676085 -0.45072328586224342 0 0.030062121183744069 -0.41560348860952728 0 0.01224976062295041 -0.42183763890738629 0 0.028535899264767479 -0.43733174884408438 0 0.01224976062295041 -0.42183763890738629 0 0.028535899264767479 -0.43733174884408438 0 0.01480854687676085 -0.45072328586224342 0 0.030062121183744069 -0.41560348860952728 0 0.028535899264767479 -0.43733174884408438 0 0.039909128579099777 -0.42893709763038412 0 0.039909128579099777 -0.42893709763038412 0 0.050432421370333713 -0.42320051356081623 0 0.04400553312424714 -0.45021417746364167 0 0.039909128579099777 -0.42893709763038412 0 0.046509667952406512 -0.41833555967385072 0 0.050432421370333713 -0.42320051356081623 0 0.032645317368698572 -0.39721328630736241 0 0.030062121183744069 -0.41560348860952728 0 0.042121557959679479 -0.40689397827368962 0 0.030062121183744069 -0.41560348860952728 0 0.039909128579099777 -0.42893709763038412 0 0.046509667952406512 -0.41833555967385072 0 0.030062121183744069 -0.41560348860952728 0 0.042121557959679479 -0.40689397827368962 0 0.046509667952406512 -0.41833555967385072 0 0.054373060569327003 -0.40663711634463268 0 0.050432421370333713 -0.42320051356081623 0 0.046509667952406512 -0.41833555967385072 0 0.054373060569327003 -0.40663711634463268 0 0.050432421370333713 -0.42320051356081623 0 0.054373060569327003 -0.40663711634463268 0 0.060774245729122177 -0.41691050055794487 0 0.050432421370333713 -0.42320051356081623 0 0.046509667952406512 -0.41833555967385072 0 0.050432421370333713 -0.42320051356081623 0 0.042121557959679479 -0.40689397827368962 0 0.046509667952406512 -0.41833555967385072 0 0.054373060569327003 -0.40663711634463268 0 0.069775570718114244 -0.40426700169235308 0 0.054373060569327003 -0.40663711634463268 0 0.060774245729122177 -0.41691050055794487 0 0.050432421370333713 -0.42320051356081623 0 0.04400553312424714 -0.45021417746364167 0 0.065913834705597293 -0.44240038517061198 0 0.050432421370333713 -0.42320051356081623 0 0.065913834705597293 -0.44240038517061198 0 0.065921365320016911 -0.4273577277455588 0 0.050432421370333713 -0.42320051356081623 0 0.065921365320016911 -0.4273577277455588 0 0.060774245729122177 -0.41691050055794487 0 0.050432421370333713 -0.42320051356081623 0 0.065913834705597293 -0.44240038517061198 0 0.050432421370333713 -0.42320051356081623 0 0.04400553312424714 -0.45021417746364167 0 0.065913834705597293 -0.44240038517061198 0 0.057068655694905858 -0.46015288389510001 0 0.04400553312424714 -0.45021417746364167 0 0.057068655694905858 -0.46015288389510001 0 0.048043393468649283 -0.46676160836513853 0 0.04400553312424714 -0.45021417746364167 0 0.067447632246636219 -0.45716428258124142 0 0.057068655694905858 -0.46015288389510001 0 0.05849497948899289 -0.47642287528831911 0 0.057068655694905858 -0.46015288389510001 0 0.048043393468649283 -0.46676160836513853 0 0.052635520687858477 -0.47072247146996382 0 0.04400553312424714 -0.45021417746364167 0 0.037578644878161642 -0.47722784136646751 0 0.048043393468649283 -0.46676160836513853 0 0.04400553312424714 -0.45021417746364167 0 0.037578644878161642 -0.47722784136646751 0 0.04400553312424714 -0.45021417746364167 0 0.030366658319331299 -0.45781827645911538 0 0.037578644878161642 -0.47722784136646751 0 0.028535899264767479 -0.43733174884408438 0 0.039909128579099777 -0.42893709763038412 0 0.04400553312424714 -0.45021417746364167 0 0.028535899264767479 -0.43733174884408438 0 0.04400553312424714 -0.45021417746364167 0 0.030366658319331299 -0.45781827645911538 0 0.028535899264767479 -0.43733174884408438 0 0.01480854687676085 -0.45072328586224342 0 0.030366658319331299 -0.45781827645911538 0 -0.008216644178786571 -0.4466179140804285 0 0.01224976062295041 -0.42183763890738629 0 0.01480854687676085 -0.45072328586224342 0 0.01480854687676085 -0.45072328586224342 0 0.017367333130571299 -0.47960893281710049 0 0.0084119176919832291 -0.471974008478943 0 -0.0021957942935651631 -0.46571035637089769 0 0.01480854687676085 -0.45072328586224342 0 0.0084119176919832291 -0.471974008478943 0 -0.008216644178786571 -0.4466179140804285 0 -0.0021957942935651631 -0.46571035637089769 0 0.01480854687676085 -0.45072328586224342 0 0.01480854687676085 -0.45072328586224342 0 0.017367333130571299 -0.47960893281710049 0 0.01480854687676085 -0.45072328586224342 0 0.030366658319331299 -0.45781827645911538 0 0.0269046674527194 -0.47359432875914009 0 0.01480854687676085 -0.45072328586224342 0 0.0269046674527194 -0.47359432875914009 0 0.017367333130571299 -0.47960893281710049 0 0.017367333130571299 -0.47960893281710049 0 0.012735562036971701 -0.48508522326900949 0 0.035615270762982369 -0.48075404927866472 0 0.012735562036971701 -0.48508522326900949 0 0.035615270762982369 -0.48075404927866472 0 0.0269046674527194 -0.47359432875914009 0 0.017367333130571299 -0.47960893281710049 0 0.035615270762982369 -0.48075404927866472 0 0.017367333130571299 -0.47960893281710049 0 0.0084119176919832291 -0.471974008478943 0 0.012735562036971701 -0.48508522326900949 0 -0.00065605929082254884 -0.47874224407546379 0 0.0084119176919832291 -0.471974008478943 0 0.012735562036971701 -0.48508522326900949 0 -0.0021957942935651631 -0.46571035637089769 0 -0.00065605929082254884 -0.47874224407546379 0 0.0084119176919832291 -0.471974008478943 0 -0.010144146689038991 -0.48941639725935437 0 -0.00065605929082254884 -0.47874224407546379 0 0.012735562036971701 -0.48508522326900949 0 -0.010144146689038991 -0.48941639725935437 0 0.012735562036971701 -0.48508522326900949 0 -0.011489863113854141 -0.5 0 0.012735562036971701 -0.48508522326900949 0 0.01802246382714956 -0.5 0 0.01802246382714956 -0.5 0 0.025329369399590369 -0.48901546815995378 0 0.047534790768153173 -0.50000000000000044 0 0.012735562036971701 -0.48508522326900949 0 0.025329369399590369 -0.48901546815995378 0 0.035615270762982369 -0.48075404927866472 0 0.012735562036971701 -0.48508522326900949 0 0.01802246382714956 -0.5 0 0.025329369399590369 -0.48901546815995378 0 0.025329369399590369 -0.48901546815995378 0 0.035615270762982369 -0.48075404927866472 0 0.047534790768153173 -0.50000000000000044 0 0.030366658319331299 -0.45781827645911538 0 0.0269046674527194 -0.47359432875914009 0 0.037578644878161642 -0.47722784136646751 0 0.0269046674527194 -0.47359432875914009 0 0.037578644878161642 -0.47722784136646751 0 0.035615270762982369 -0.48075404927866472 0 0.048043393468649283 -0.46676160836513853 0 0.037578644878161642 -0.47722784136646751 0 0.046296380844488463 -0.47463440362945558 0 0.035615270762982369 -0.48075404927866472 0 0.046296380844488463 -0.47463440362945558 0 0.049693011087844949 -0.4756354888466594 0 0.037578644878161642 -0.47722784136646751 0 0.035615270762982369 -0.48075404927866472 0 0.046296380844488463 -0.47463440362945558 0 0.057068655694905858 -0.46015288389510001 0 0.052635520687858477 -0.47072247146996382 0 0.05849497948899289 -0.47642287528831911 0 0.035615270762982369 -0.48075404927866472 0 0.049693011087844949 -0.4756354888466594 0 0.05849497948899289 -0.47642287528831911 0 0.035615270762982369 -0.48075404927866472 0 0.05849497948899289 -0.47642287528831911 0 0.048043393468649283 -0.46676160836513853 0 0.046296380844488463 -0.47463440362945558 0 0.052635520687858477 -0.47072247146996382 0 0.049693011087844949 -0.4756354888466594 0 0.052635520687858477 -0.47072247146996382 0 0.05849497948899289 -0.47642287528831911 0 0.046296380844488463 -0.47463440362945558 0 0.049693011087844949 -0.4756354888466594 0 0.052635520687858477 -0.47072247146996382 0 0.05849497948899289 -0.47642287528831911 0 0.061758178687080389 -0.47580514524370598 0 0.062670741706174135 -0.48944359682069549 0 0.064881374578912687 -0.4815757870058418 0 0.05849497948899289 -0.47642287528831911 0 0.064881374578912687 -0.4815757870058418 0 0.05849497948899289 -0.47642287528831911 0 0.061758178687080389 -0.47580514524370598 0 0.069142552082564368 -0.5 0 0.062670741706174135 -0.48944359682069549 0 0.047534790768153173 -0.50000000000000044 0 0.05849497948899289 -0.47642287528831911 0 0.047534790768153173 -0.50000000000000044 0 0.035615270762982369 -0.48075404927866472 0 0.05849497948899289 -0.47642287528831911 0 0.047534790768153173 -0.50000000000000044 0 0.062670741706174135 -0.48944359682069549 0 0.05849497948899289 -0.47642287528831911 0 0.047534790768153173 -0.50000000000000044 0 0.089727975817252392 -0.29646224842349211 0 0.069967983226982527 -0.30495776272600778 0 0.075483032258224086 -0.28815868119130272 0 0.089727975817252392 -0.29646224842349211 0 0.088503230311337153 -0.27716835087377989 0 0.101883582619993 -0.28460947857741209 0 0.089727975817252392 -0.29646224842349211 0 0.075483032258224086 -0.28815868119130272 0 0.088503230311337153 -0.27716835087377989 0 0.089727975817252392 -0.29646224842349211 0 0.086214248119208581 -0.31193359067875348 0 0.069967983226982527 -0.30495776272600778 0 0.089727975817252392 -0.29646224842349211 0 0.086214248119208581 -0.31193359067875348 0 0.10049372866807189 -0.31082656242210721 0 0.069967983226982527 -0.30495776272600778 0 0.075483032258224086 -0.28815868119130272 0 0.059449054433483903 -0.28956707473318272 0 0.075483032258224086 -0.28815868119130272 0 0.0646939085167762 -0.2722383315448984 0 0.059449054433483903 -0.28956707473318272 0 0.0646939085167762 -0.2722383315448984 0 0.077350866508299074 -0.27549126298099152 0 0.080723294946858856 -0.26439968831398508 0 0.075483032258224086 -0.28815868119130272 0 0.0646939085167762 -0.2722383315448984 0 0.077350866508299074 -0.27549126298099152 0 0.0646939085167762 -0.2722383315448984 0 0.070005134957367529 -0.25889031236374099 0 0.080723294946858856 -0.26439968831398508 0 0.070005134957367529 -0.25889031236374099 0 0.061490933840310687 -0.25382890142296882 0 0.070069103552599196 -0.24823964670048029 0 0.0646939085167762 -0.2722383315448984 0 0.070005134957367529 -0.25889031236374099 0 0.060614126731859473 -0.2624009925450973 0 0.070005134957367529 -0.25889031236374099 0 0.061490933840310687 -0.25382890142296882 0 0.060614126731859473 -0.2624009925450973 0 0.070005134957367529 -0.25889031236374099 0 0.080071368274292315 -0.25145738896057979 0 0.080723294946858856 -0.26439968831398508 0 0.070005134957367529 -0.25889031236374099 0 0.080071368274292315 -0.25145738896057979 0 0.070069103552599196 -0.24823964670048029 0 0.080071368274292315 -0.25145738896057979 0 0.080723294946858856 -0.26439968831398508 0 0.090706365013478091 -0.25245448435890872 0 0.080723294946858856 -0.26439968831398508 0 0.090706365013478091 -0.25245448435890872 0 0.095060577752172304 -0.26241188567384149 0 0.075483032258224086 -0.28815868119130272 0 0.077350866508299074 -0.27549126298099152 0 0.088503230311337153 -0.27716835087377989 0 0.077350866508299074 -0.27549126298099152 0 0.080723294946858856 -0.26439968831398508 0 0.088503230311337153 -0.27716835087377989 0 0.080723294946858856 -0.26439968831398508 0 0.088503230311337153 -0.27716835087377989 0 0.095060577752172304 -0.26241188567384149 0 0.088503230311337153 -0.27716835087377989 0 0.1016952336099234 -0.27235330725820578 0 0.101883582619993 -0.28460947857741209 0 0.088503230311337153 -0.27716835087377989 0 0.1016952336099234 -0.27235330725820578 0 0.095060577752172304 -0.26241188567384149 0 0.1016952336099234 -0.27235330725820578 0 0.1104739380917857 -0.2612093749811526 0 0.1125548392743288 -0.27636744618484282 0 0.1016952336099234 -0.27235330725820578 0 0.1125548392743288 -0.27636744618484282 0 0.101883582619993 -0.28460947857741209 0 0.090706365013478091 -0.25245448435890872 0 0.099550463170151926 -0.25262580003909579 0 0.095060577752172304 -0.26241188567384149 0 0.1016952336099234 -0.27235330725820578 0 0.095060577752172304 -0.26241188567384149 0 0.1104739380917857 -0.2612093749811526 0 0.099550463170151926 -0.25262580003909579 0 0.095060577752172304 -0.26241188567384149 0 0.1104739380917857 -0.2612093749811526 0 0.099550463170151926 -0.25262580003909579 0 0.1104739380917857 -0.2612093749811526 0 0.1078238037173969 -0.24832262031645649 0 0.1311170075682456 -0.27142576198599933 0 0.1104739380917857 -0.2612093749811526 0 0.1212054647883809 -0.25073068226796852 0 0.1104739380917857 -0.2612093749811526 0 0.1212054647883809 -0.25073068226796852 0 0.1078238037173969 -0.24832262031645649 0 0.1311170075682456 -0.27142576198599933 0 0.1104739380917857 -0.2612093749811526 0 0.1311170075682456 -0.27142576198599933 0 0.1104739380917857 -0.2612093749811526 0 0.1193620271946058 -0.27249351692823448 0 0.1104739380917857 -0.2612093749811526 0 0.1125548392743288 -0.27636744618484282 0 0.1193620271946058 -0.27249351692823448 0 0.1125548392743288 -0.27636744618484282 0 0.1193620271946058 -0.27249351692823448 0 0.1233023238440631 -0.28097148456094378 0 0.1311170075682456 -0.27142576198599933 0 0.1193620271946058 -0.27249351692823448 0 0.1233023238440631 -0.28097148456094378 0 0.1233023238440631 -0.28097148456094378 0 0.1242383748246253 -0.29131174999725179 0 0.1141297936923768 -0.28878453930630188 0 0.1242383748246253 -0.29131174999725179 0 0.1141297936923768 -0.28878453930630188 0 0.1198701537204314 -0.30089140532399938 0 0.1141297936923768 -0.28878453930630188 0 0.10622170970645189 -0.29895353846799488 0 0.1198701537204314 -0.30089140532399938 0 0.1125548392743288 -0.27636744618484282 0 0.1233023238440631 -0.28097148456094378 0 0.1141297936923768 -0.28878453930630188 0 0.1125548392743288 -0.27636744618484282 0 0.1141297936923768 -0.28878453930630188 0 0.101883582619993 -0.28460947857741209 0 0.089727975817252392 -0.29646224842349211 0 0.101883582619993 -0.28460947857741209 0 0.10622170970645189 -0.29895353846799488 0 0.1141297936923768 -0.28878453930630188 0 0.101883582619993 -0.28460947857741209 0 0.10622170970645189 -0.29895353846799488 0 0.089727975817252392 -0.29646224842349211 0 0.10049372866807189 -0.31082656242210721 0 0.10622170970645189 -0.29895353846799488 0 0.10049372866807189 -0.31082656242210721 0 0.10622170970645189 -0.29895353846799488 0 0.1134387524627216 -0.31086840579325631 0 0.10622170970645189 -0.29895353846799488 0 0.1134387524627216 -0.31086840579325631 0 0.1198701537204314 -0.30089140532399938 0 0.1265219532001009 -0.3124330460259736 0 0.1134387524627216 -0.31086840579325631 0 0.1198701537204314 -0.30089140532399938 0 0.1265219532001009 -0.3124330460259736 0 0.1134387524627216 -0.31086840579325631 0 0.1192961391526948 -0.32261879728377291 0 0.1134387524627216 -0.31086840579325631 0 0.1192961391526948 -0.32261879728377291 0 0.1082288303285789 -0.31948708523568958 0 0.1192961391526948 -0.32261879728377291 0 0.1093748658769356 -0.32997486192450581 0 0.1082288303285789 -0.31948708523568958 0 0.1192961391526948 -0.32261879728377291 0 0.1168506625355451 -0.3296807312869221 0 0.1093748658769356 -0.32997486192450581 0 0.1192961391526948 -0.32261879728377291 0 0.12260601330919629 -0.33072698382653798 0 0.1168506625355451 -0.3296807312869221 0 0.13219802669416811 -0.32498852212276208 0 0.1192961391526948 -0.32261879728377291 0 0.12260601330919629 -0.33072698382653798 0 0.13051916655351839 -0.33696304048325831 0 0.12260601330919629 -0.33072698382653798 0 0.1159240811174677 -0.33775964177068091 0 0.12260601330919629 -0.33072698382653798 0 0.1159240811174677 -0.33775964177068091 0 0.1161256318033537 -0.33540228211287182 0 0.12260601330919629 -0.33072698382653798 0 0.1168506625355451 -0.3296807312869221 0 0.1161256318033537 -0.33540228211287182 0 0.13051916655351839 -0.33696304048325831 0 0.1159240811174677 -0.33775964177068091 0 0.13051916655351839 -0.33696304048325831 0 0.1159240811174677 -0.33775964177068091 0 0.123981461538115 -0.35128285539313481 0 0.1159240811174677 -0.33775964177068091 0 0.1161256318033537 -0.33540228211287182 0 0.1168506625355451 -0.3296807312869221 0 0.1161256318033537 -0.33540228211287182 0 0.1093748658769356 -0.32997486192450581 0 0.1159240811174677 -0.33775964177068091 0 0.1161256318033537 -0.33540228211287182 0 0.1093748658769356 -0.32997486192450581 0 0.1159240811174677 -0.33775964177068091 0 0.092335912071574502 -0.33904708650077298 0 0.1159240811174677 -0.33775964177068091 0 0.1093748658769356 -0.32997486192450581 0 0.092335912071574502 -0.33904708650077298 0 0.1093748658769356 -0.32997486192450581 0 0.096347407600029022 -0.32440529872184809 0 0.092335912071574502 -0.33904708650077298 0 0.1159240811174677 -0.33775964177068091 0 0.10211321446004019 -0.35101158716873732 0 0.092335912071574502 -0.33904708650077298 0 0.086214248119208581 -0.31193359067875348 0 0.10049372866807189 -0.31082656242210721 0 0.096347407600029022 -0.32440529872184809 0 0.10049372866807189 -0.31082656242210721 0 0.1134387524627216 -0.31086840579325631 0 0.1082288303285789 -0.31948708523568958 0 0.10049372866807189 -0.31082656242210721 0 0.096347407600029022 -0.32440529872184809 0 0.1082288303285789 -0.31948708523568958 0 0.1093748658769356 -0.32997486192450581 0 0.096347407600029022 -0.32440529872184809 0 0.1082288303285789 -0.31948708523568958 0 0.12784456261830821 -0.36308533366748658 0 0.12609635470998201 -0.38402791619100712 0 0.113745377556003 -0.36324200547299851 0 0.1159240811174677 -0.33775964177068091 0 0.113745377556003 -0.36324200547299851 0 0.123981461538115 -0.35128285539313481 0 0.1159240811174677 -0.33775964177068091 0 0.113745377556003 -0.36324200547299851 0 0.1159240811174677 -0.33775964177068091 0 0.113745377556003 -0.36324200547299851 0 0.10211321446004019 -0.35101158716873732 0 0.12784456261830821 -0.36308533366748658 0 0.113745377556003 -0.36324200547299851 0 0.123981461538115 -0.35128285539313481 0 0.1115666739945345 -0.38872436917531578 0 0.113745377556003 -0.36324200547299851 0 0.096372132326470572 -0.36542491223168638 0 0.113745377556003 -0.36324200547299851 0 0.10211321446004019 -0.35101158716873732 0 0.096372132326470572 -0.36542491223168638 0 0.089853218628298884 -0.38394717958202601 0 0.096372132326470572 -0.36542491223168638 0 0.07582030708563034 -0.37256671738353597 0 0.096372132326470572 -0.36542491223168638 0 0.082110249222110576 -0.35466523699539548 0 0.07582030708563034 -0.37256671738353597 0 0.10211321446004019 -0.35101158716873732 0 0.096372132326470572 -0.36542491223168638 0 0.082110249222110576 -0.35466523699539548 0 0.082110249222110576 -0.35466523699539548 0 0.092335912071574502 -0.33904708650077298 0 0.068747743025681235 -0.34033453123086538 0 0.10211321446004019 -0.35101158716873732 0 0.082110249222110576 -0.35466523699539548 0 0.092335912071574502 -0.33904708650077298 0 0.082110249222110576 -0.35466523699539548 0 0.068747743025681235 -0.34033453123086538 0 0.057272186363266697 -0.35960658745677498 0 0.082110249222110576 -0.35466523699539548 0 0.07582030708563034 -0.37256671738353597 0 0.057272186363266697 -0.35960658745677498 0 0.05933500968155693 -0.37671477575793533 0 0.07582030708563034 -0.37256671738353597 0 0.057272186363266697 -0.35960658745677498 0 0.086214248119208581 -0.31193359067875348 0 0.096347407600029022 -0.32440529872184809 0 0.078030795921920637 -0.32434601069550512 0 0.092335912071574502 -0.33904708650077298 0 0.068747743025681235 -0.34033453123086538 0 0.078030795921920637 -0.32434601069550512 0 0.092335912071574502 -0.33904708650077298 0 0.068747743025681235 -0.34033453123086538 0 0.096347407600029022 -0.32440529872184809 0 0.092335912071574502 -0.33904708650077298 0 0.078030795921920637 -0.32434601069550512 0 0.068747743025681235 -0.34033453123086538 0 0.078030795921920637 -0.32434601069550512 0 0.053863538987460123 -0.3232816795844588 0 0.069967983226982527 -0.30495776272600778 0 0.078030795921920637 -0.32434601069550512 0 0.053863538987460123 -0.3232816795844588 0 0.086214248119208581 -0.31193359067875348 0 0.069967983226982527 -0.30495776272600778 0 0.078030795921920637 -0.32434601069550512 0 0.068747743025681235 -0.34033453123086538 0 0.045159573979787898 -0.34162197596095778 0 0.068747743025681235 -0.34033453123086538 0 0.053863538987460123 -0.3232816795844588 0 0.045159573979787898 -0.34162197596095778 0 0.053863538987460123 -0.3232816795844588 0 0.034832013842728909 -0.33032259781876938 0 0.045159573979787898 -0.34162197596095778 0 0.034832013842728909 -0.33032259781876938 0 0.045159573979787898 -0.34162197596095778 0 0.02157140493389462 -0.34290942069105018 0 0.045159573979787898 -0.34162197596095778 0 0.02157140493389462 -0.34290942069105018 0 0.053863538987460123 -0.3232816795844588 0 0.034832013842728909 -0.33032259781876938 0 0.03621734991660093 -0.31670946998547028 0 0.053863538987460123 -0.3232816795844588 0 0.03621734991660093 -0.31670946998547028 0 0.048768037075517537 -0.30442990221103089 0 0.05933500968155693 -0.37671477575793533 0 0.057272186363266697 -0.35960658745677498 0 0.039079294002052851 -0.37065651216905859 0 0.068747743025681235 -0.34033453123086538 0 0.045159573979787898 -0.34162197596095778 0 0.057272186363266697 -0.35960658745677498 0 0.045159573979787898 -0.34162197596095778 0 0.034512899630155462 -0.3545258348651717 0 0.02157140493389462 -0.34290942069105018 0 0.045159573979787898 -0.34162197596095778 0 0.057272186363266697 -0.35960658745677498 0 0.034512899630155462 -0.3545258348651717 0 0.057272186363266697 -0.35960658745677498 0 0.034512899630155462 -0.3545258348651717 0 0.039079294002052851 -0.37065651216905859 0 0.025542853711361019 -0.38384675294920401 0 0.039079294002052851 -0.37065651216905859 0 0.016784443680880379 -0.36713146693108112 0 0.034512899630155462 -0.3545258348651717 0 0.039079294002052851 -0.37065651216905859 0 0.016784443680880379 -0.36713146693108112 0 0.034512899630155462 -0.3545258348651717 0 0.016784443680880379 -0.36713146693108112 0 0.02157140493389462 -0.34290942069105018 0 -0.0043130761299947744 -0.35643483176966217 0 0.016784443680880379 -0.36713146693108112 0 0.02157140493389462 -0.34290942069105018 0 -0.0038616663111063101 -0.33241552487502413 0 -0.0043130761299947744 -0.35643483176966217 0 0.02157140493389462 -0.34290942069105018 0 -0.0043130761299947744 -0.35643483176966217 0 -0.0064694903547723136 -0.38059021958606692 0 0.016784443680880379 -0.36713146693108112 0 0.03621734991660093 -0.31670946998547028 0 0.020048637459846991 -0.32439583124448262 0 0.029165048793799431 -0.30349547286963757 0 0.034832013842728909 -0.33032259781876938 0 0.03621734991660093 -0.31670946998547028 0 0.020048637459846991 -0.32439583124448262 0 0.020048637459846991 -0.32439583124448262 0 0.0094652366165251054 -0.31053241408104548 0 0.029165048793799431 -0.30349547286963757 0 0.034832013842728909 -0.33032259781876938 0 0.020048637459846991 -0.32439583124448262 0 0.02157140493389462 -0.34290942069105018 0 -0.0038616663111063101 -0.33241552487502413 0 0.020048637459846991 -0.32439583124448262 0 0.02157140493389462 -0.34290942069105018 0 -0.0038616663111063101 -0.33241552487502413 0 0.020048637459846991 -0.32439583124448262 0 0.0094652366165251054 -0.31053241408104548 0 -0.01007927323019326 -0.3103345258507364 0 0.0094652366165251054 -0.31053241408104548 0 0.0017563221397047381 -0.2997067901486577 0 0.0094652366165251054 -0.31053241408104548 0 0.0017563221397047381 -0.2997067901486577 0 0.017453688627786131 -0.29322190620108468 0 0.0017563221397047381 -0.2997067901486577 0 0.0066437179820165657 -0.2861171845936395 0 0.017453688627786131 -0.29322190620108468 0 -0.0080748459131490501 -0.2914060437848453 0 0.0017563221397047381 -0.2997067901486577 0 0.0066437179820165657 -0.2861171845936395 0 0.0066437179820165657 -0.2861171845936395 0 0.017453688627786131 -0.29322190620108468 0 0.01908241754038794 -0.28073467218482329 0 0.017453688627786131 -0.29322190620108468 0 0.029398966714908509 -0.28692964748338379 0 0.029165048793799431 -0.30349547286963757 0 0.017453688627786131 -0.29322190620108468 0 0.029398966714908509 -0.28692964748338379 0 0.01908241754038794 -0.28073467218482329 0 0.0094652366165251054 -0.31053241408104548 0 0.017453688627786131 -0.29322190620108468 0 0.029165048793799431 -0.30349547286963757 0 0.03621734991660093 -0.31670946998547028 0 0.029165048793799431 -0.30349547286963757 0 0.048768037075517537 -0.30442990221103089 0 0.029165048793799431 -0.30349547286963757 0 0.043029943860180789 -0.28970337243015992 0 0.048768037075517537 -0.30442990221103089 0 0.029398966714908509 -0.28692964748338379 0 0.029165048793799431 -0.30349547286963757 0 0.043029943860180789 -0.28970337243015992 0 0.029398966714908509 -0.28692964748338379 0 0.043029943860180789 -0.28970337243015992 0 0.038396769586432553 -0.27977596087564799 0 0.043029943860180789 -0.28970337243015992 0 0.051749435803858171 -0.27840569125857739 0 0.038396769586432553 -0.27977596087564799 0 0.043029943860180789 -0.28970337243015992 0 0.059449054433483903 -0.28956707473318272 0 0.051749435803858171 -0.27840569125857739 0 0.043029943860180789 -0.28970337243015992 0 0.059449054433483903 -0.28956707473318272 0 0.048768037075517537 -0.30442990221103089 0 0.069967983226982527 -0.30495776272600778 0 0.059449054433483903 -0.28956707473318272 0 0.048768037075517537 -0.30442990221103089 0 0.069967983226982527 -0.30495776272600778 0 0.053863538987460123 -0.3232816795844588 0 0.048768037075517537 -0.30442990221103089 0 0.053380735395516472 -0.25867595766617779 0 0.04428054005230446 -0.26275141268032309 0 0.045372505498807933 -0.25408090721008542 0 0.053380735395516472 -0.25867595766617779 0 0.053158010572478251 -0.26777612517812432 0 0.04428054005230446 -0.26275141268032309 0 0.053380735395516472 -0.25867595766617779 0 0.045372505498807933 -0.25408090721008542 0 0.05268811686830014 -0.24901610311096159 0 0.053380735395516472 -0.25867595766617779 0 0.061490933840310687 -0.25382890142296882 0 0.05268811686830014 -0.24901610311096159 0 0.053380735395516472 -0.25867595766617779 0 0.060614126731859473 -0.2624009925450973 0 0.053158010572478251 -0.26777612517812432 0 0.053380735395516472 -0.25867595766617779 0 0.061490933840310687 -0.25382890142296882 0 0.060614126731859473 -0.2624009925450973 0 0.0646939085167762 -0.2722383315448984 0 0.060614126731859473 -0.2624009925450973 0 0.053158010572478251 -0.26777612517812432 0 0.0646939085167762 -0.2722383315448984 0 0.059449054433483903 -0.28956707473318272 0 0.051749435803858171 -0.27840569125857739 0 0.0646939085167762 -0.2722383315448984 0 0.051749435803858171 -0.27840569125857739 0 0.053158010572478251 -0.26777612517812432 0 0.053158010572478251 -0.26777612517812432 0 0.044229316934554799 -0.27218436537367241 0 0.04428054005230446 -0.26275141268032309 0 0.051749435803858171 -0.27840569125857739 0 0.053158010572478251 -0.26777612517812432 0 0.044229316934554799 -0.27218436537367241 0 0.044229316934554799 -0.27218436537367241 0 0.031885251388666561 -0.26470215361104171 0 0.04428054005230446 -0.26275141268032309 0 0.051749435803858171 -0.27840569125857739 0 0.044229316934554799 -0.27218436537367241 0 0.038396769586432553 -0.27977596087564799 0 0.044229316934554799 -0.27218436537367241 0 0.038396769586432553 -0.27977596087564799 0 0.029696712261103771 -0.27487286106778819 0 0.029398966714908509 -0.28692964748338379 0 0.038396769586432553 -0.27977596087564799 0 0.029696712261103771 -0.27487286106778819 0 0.044229316934554799 -0.27218436537367241 0 0.031885251388666561 -0.26470215361104171 0 0.029696712261103771 -0.27487286106778819 0 0.037315510146954597 -0.25849363249326118 0 0.031885251388666561 -0.26470215361104171 0 0.04428054005230446 -0.26275141268032309 0 0.037315510146954597 -0.25849363249326118 0 0.031885251388666561 -0.26470215361104171 0 0.03069464768829987 -0.25176037071845259 0 0.037315510146954597 -0.25849363249326118 0 0.04428054005230446 -0.26275141268032309 0 0.045372505498807933 -0.25408090721008542 0 0.045372505498807933 -0.25408090721008542 0 0.03069464768829987 -0.25176037071845259 0 0.042588116356466379 -0.2448823624008481 0 0.037315510146954597 -0.25849363249326118 0 0.045372505498807933 -0.25408090721008542 0 0.03069464768829987 -0.25176037071845259 0 0.031885251388666561 -0.26470215361104171 0 0.021199614426200629 -0.26114166245967918 0 0.019908913466960752 -0.27058631964059482 0 0.031885251388666561 -0.26470215361104171 0 0.03069464768829987 -0.25176037071845259 0 0.021199614426200629 -0.26114166245967918 0 0.03069464768829987 -0.25176037071845259 0 0.021199614426200629 -0.26114166245967918 0 0.016145176335298529 -0.25210595968411048 0 0.029398966714908509 -0.28692964748338379 0 0.029696712261103771 -0.27487286106778819 0 0.01908241754038794 -0.28073467218482329 0 0.031885251388666561 -0.26470215361104171 0 0.029696712261103771 -0.27487286106778819 0 0.019908913466960752 -0.27058631964059482 0 0.019908913466960752 -0.27058631964059482 0 0.01908241754038794 -0.28073467218482329 0 0.01128192931255503 -0.27464126756021451 0 0.029696712261103771 -0.27487286106778819 0 0.019908913466960752 -0.27058631964059482 0 0.01908241754038794 -0.28073467218482329 0 -0.01145854626600548 -0.26602311564559261 0 0.01128192931255503 -0.27464126756021451 0 0.0057158633005241696 -0.26337829885565528 0 0.0066437179820165657 -0.2861171845936395 0 0.01908241754038794 -0.28073467218482329 0 0.01128192931255503 -0.27464126756021451 0 0.019908913466960752 -0.27058631964059482 0 0.01128192931255503 -0.27464126756021451 0 0.0057158633005241696 -0.26337829885565528 0 -0.002848760243290064 -0.27761611820401882 0 0.0066437179820165657 -0.2861171845936395 0 0.01128192931255503 -0.27464126756021451 0 0.016145176335298529 -0.25210595968411048 0 0.0057158633005241696 -0.26337829885565528 0 0.0054759062840018038 -0.25064707341720888 0 0.021199614426200629 -0.26114166245967918 0 0.019908913466960752 -0.27058631964059482 0 0.0057158633005241696 -0.26337829885565528 0 0.021199614426200629 -0.26114166245967918 0 0.016145176335298529 -0.25210595968411048 0 0.0057158633005241696 -0.26337829885565528 0 -0.0009620894167222515 -0.25496392916579452 0 0.0057158633005241696 -0.26337829885565528 0 0.0054759062840018038 -0.25064707341720888 0 -0.0009620894167222515 -0.25496392916579452 0 -0.0029313858115674811 -0.24854412401401971 0 0.0054759062840018038 -0.25064707341720888 0 0.0054759062840018038 -0.25064707341720888 0 0.0026199421412959989 -0.2430643023623929 0 0.011589873569895199 -0.24127835128668559 0 -0.0029313858115674811 -0.24854412401401971 0 0.0054759062840018038 -0.25064707341720888 0 0.0026199421412959989 -0.2430643023623929 0 0.016145176335298529 -0.25210595968411048 0 0.0054759062840018038 -0.25064707341720888 0 0.011589873569895199 -0.24127835128668559 0 0.011589873569895199 -0.24127835128668559 0 0.010668172172219499 -0.2272828987723072 0 0.020574075722817331 -0.2351284197632682 0 0.0026199421412959989 -0.2430643023623929 0 0.011589873569895199 -0.24127835128668559 0 0.0017465435191736189 -0.23378549097037141 0 -0.00080535468136348092 -0.21995366459000901 0 0.010668172172219499 -0.2272828987723072 0 0.01016515501406726 -0.20926501301563591 0 -0.00080535468136348092 -0.21995366459000901 0 0.0017465435191736189 -0.23378549097037141 0 0.010668172172219499 -0.2272828987723072 0 0.010668172172219499 -0.2272828987723072 0 0.02170661161633574 -0.22145314359659171 0 0.01016515501406726 -0.20926501301563591 0 0.011589873569895199 -0.24127835128668559 0 0.0017465435191736189 -0.23378549097037141 0 0.010668172172219499 -0.2272828987723072 0 0.010668172172219499 -0.2272828987723072 0 0.02170661161633574 -0.22145314359659171 0 0.020574075722817331 -0.2351284197632682 0 0.02170661161633574 -0.22145314359659171 0 0.02866695829179056 -0.22960637228307629 0 0.036392787169896093 -0.22322562645731159 0 0.02170661161633574 -0.22145314359659171 0 0.02866695829179056 -0.22960637228307629 0 0.020574075722817331 -0.2351284197632682 0 0.02866695829179056 -0.22960637228307629 0 0.020574075722817331 -0.2351284197632682 0 0.032071787069821417 -0.24054619649286721 0 0.022195152742869501 -0.2444300013669817 0 0.020574075722817331 -0.2351284197632682 0 0.032071787069821417 -0.24054619649286721 0 0.03069464768829987 -0.25176037071845259 0 0.022195152742869501 -0.2444300013669817 0 0.032071787069821417 -0.24054619649286721 0 0.03069464768829987 -0.25176037071845259 0 0.016145176335298529 -0.25210595968411048 0 0.022195152742869501 -0.2444300013669817 0 0.016145176335298529 -0.25210595968411048 0 0.011589873569895199 -0.24127835128668559 0 0.022195152742869501 -0.2444300013669817 0 0.011589873569895199 -0.24127835128668559 0 0.022195152742869501 -0.2444300013669817 0 0.020574075722817331 -0.2351284197632682 0 -0.003739977245034012 -0.19168309442994089 0 0.010514116253606281 -0.1925853606064957 0 0.01016515501406726 -0.20926501301563591 0 0.010514116253606281 -0.1925853606064957 0 0.01016515501406726 -0.20926501301563591 0 0.018596641755985681 -0.20049862993462389 0 0.02170661161633574 -0.22145314359659171 0 0.01016515501406726 -0.20926501301563591 0 0.028304225500431591 -0.20785134554231141 0 0.01016515501406726 -0.20926501301563591 0 0.028304225500431591 -0.20785134554231141 0 0.018596641755985681 -0.20049862993462389 0 0.02170661161633574 -0.22145314359659171 0 0.028304225500431591 -0.20785134554231141 0 0.036392787169896093 -0.22322562645731159 0 0.028304225500431591 -0.20785134554231141 0 0.018596641755985681 -0.20049862993462389 0 0.02540307025583758 -0.19229280057405279 0 0.010514116253606281 -0.1925853606064957 0 0.018596641755985681 -0.20049862993462389 0 0.02540307025583758 -0.19229280057405279 0 0.010514116253606281 -0.1925853606064957 0 0.02540307025583758 -0.19229280057405279 0 0.015764016274472759 -0.1812646672695073 0 0.02540307025583758 -0.19229280057405279 0 0.041440672425083092 -0.19607701236864419 0 0.030421272951226121 -0.1778391783376792 0 0.028304225500431591 -0.20785134554231141 0 0.02540307025583758 -0.19229280057405279 0 0.041440672425083092 -0.19607701236864419 0 0.041440672425083092 -0.19607701236864419 0 0.042310424588804782 -0.2140630995529598 0 0.055497750511994078 -0.2086068857692274 0 0.028304225500431591 -0.20785134554231141 0 0.041440672425083092 -0.19607701236864419 0 0.042310424588804782 -0.2140630995529598 0 0.028304225500431591 -0.20785134554231141 0 0.042310424588804782 -0.2140630995529598 0 0.036392787169896093 -0.22322562645731159 0 0.042310424588804782 -0.2140630995529598 0 0.055497750511994078 -0.2086068857692274 0 0.052955454276687589 -0.2198291654371925 0 0.062338921595789062 -0.21792006704763969 0 0.055497750511994078 -0.2086068857692274 0 0.052955454276687589 -0.2198291654371925 0 0.062338921595789062 -0.21792006704763969 0 0.055497750511994078 -0.2086068857692274 0 0.067863046951983474 -0.20503048868511209 0 0.055497750511994078 -0.2086068857692274 0 0.056257937900538298 -0.19577788601322099 0 0.067863046951983474 -0.20503048868511209 0 0.041440672425083092 -0.19607701236864419 0 0.056257937900538298 -0.19577788601322099 0 0.051449240160577621 -0.1762857105508405 0 0.041440672425083092 -0.19607701236864419 0 0.055497750511994078 -0.2086068857692274 0 0.056257937900538298 -0.19577788601322099 0 0.040491861427302538 -0.2355872617630255 0 0.042588116356466379 -0.2448823624008481 0 0.052307832003780613 -0.23884346229351339 0 0.040491861427302538 -0.2355872617630255 0 0.045866106706223042 -0.22907627795895011 0 0.052307832003780613 -0.23884346229351339 0 0.03069464768829987 -0.25176037071845259 0 0.042588116356466379 -0.2448823624008481 0 0.032071787069821417 -0.24054619649286721 0 0.040491861427302538 -0.2355872617630255 0 0.042588116356466379 -0.2448823624008481 0 0.032071787069821417 -0.24054619649286721 0 0.02866695829179056 -0.22960637228307629 0 0.040491861427302538 -0.2355872617630255 0 0.032071787069821417 -0.24054619649286721 0 0.02866695829179056 -0.22960637228307629 0 0.040491861427302538 -0.2355872617630255 0 0.036392787169896093 -0.22322562645731159 0 0.042310424588804782 -0.2140630995529598 0 0.036392787169896093 -0.22322562645731159 0 0.045866106706223042 -0.22907627795895011 0 0.040491861427302538 -0.2355872617630255 0 0.036392787169896093 -0.22322562645731159 0 0.045866106706223042 -0.22907627795895011 0 0.045866106706223042 -0.22907627795895011 0 0.058764067980626958 -0.22947949685718549 0 0.052307832003780613 -0.23884346229351339 0 0.045866106706223042 -0.22907627795895011 0 0.052955454276687589 -0.2198291654371925 0 0.058764067980626958 -0.22947949685718549 0 0.042310424588804782 -0.2140630995529598 0 0.045866106706223042 -0.22907627795895011 0 0.052955454276687589 -0.2198291654371925 0 0.062338921595789062 -0.21792006704763969 0 0.058764067980626958 -0.22947949685718549 0 0.065719467571416057 -0.22489822263154319 0 0.062338921595789062 -0.21792006704763969 0 0.052955454276687589 -0.2198291654371925 0 0.058764067980626958 -0.22947949685718549 0 0.058764067980626958 -0.22947949685718549 0 0.062159259289524899 -0.2368834247622158 0 0.052307832003780613 -0.23884346229351339 0 0.062159259289524899 -0.2368834247622158 0 0.052307832003780613 -0.23884346229351339 0 0.061229972926465738 -0.2445427902389527 0 0.045372505498807933 -0.25408090721008542 0 0.042588116356466379 -0.2448823624008481 0 0.05268811686830014 -0.24901610311096159 0 0.042588116356466379 -0.2448823624008481 0 0.052307832003780613 -0.23884346229351339 0 0.05268811686830014 -0.24901610311096159 0 0.061490933840310687 -0.25382890142296882 0 0.05268811686830014 -0.24901610311096159 0 0.061229972926465738 -0.2445427902389527 0 0.052307832003780613 -0.23884346229351339 0 0.05268811686830014 -0.24901610311096159 0 0.061229972926465738 -0.2445427902389527 0 0.061490933840310687 -0.25382890142296882 0 0.061229972926465738 -0.2445427902389527 0 0.070069103552599196 -0.24823964670048029 0 0.061229972926465738 -0.2445427902389527 0 0.070069103552599196 -0.24823964670048029 0 0.069856411684105391 -0.23913895996007839 0 0.062159259289524899 -0.2368834247622158 0 0.061229972926465738 -0.2445427902389527 0 0.069856411684105391 -0.23913895996007839 0 0.062159259289524899 -0.2368834247622158 0 0.069856411684105391 -0.23913895996007839 0 0.067142239376285745 -0.23139328163069281 0 0.069856411684105391 -0.23913895996007839 0 0.077788170153509889 -0.24196191377257101 0 0.076767606518392539 -0.23187249677345001 0 0.080071368274292315 -0.25145738896057979 0 0.070069103552599196 -0.24823964670048029 0 0.077788170153509889 -0.24196191377257101 0 0.070069103552599196 -0.24823964670048029 0 0.069856411684105391 -0.23913895996007839 0 0.077788170153509889 -0.24196191377257101 0 0.080071368274292315 -0.25145738896057979 0 0.090706365013478091 -0.25245448435890872 0 0.085906732882507178 -0.24385162082211831 0 0.080071368274292315 -0.25145738896057979 0 0.077788170153509889 -0.24196191377257101 0 0.085906732882507178 -0.24385162082211831 0 0.077788170153509889 -0.24196191377257101 0 0.085906732882507178 -0.24385162082211831 0 0.083256636250354649 -0.23616880796388259 0 0.077788170153509889 -0.24196191377257101 0 0.083256636250354649 -0.23616880796388259 0 0.076767606518392539 -0.23187249677345001 0 0.085906732882507178 -0.24385162082211831 0 0.089657973372422345 -0.23730775202069579 0 0.094006026236525903 -0.2441335510050745 0 0.085906732882507178 -0.24385162082211831 0 0.083256636250354649 -0.23616880796388259 0 0.089657973372422345 -0.23730775202069579 0 0.083256636250354649 -0.23616880796388259 0 0.089657973372422345 -0.23730775202069579 0 0.089763789457938253 -0.2306791647953326 0 0.089657973372422345 -0.23730775202069579 0 0.089763789457938253 -0.2306791647953326 0 0.096012267649498176 -0.23702186761809721 0 0.089657973372422345 -0.23730775202069579 0 0.094006026236525903 -0.2441335510050745 0 0.096012267649498176 -0.23702186761809721 0 0.090706365013478091 -0.25245448435890872 0 0.085906732882507178 -0.24385162082211831 0 0.094006026236525903 -0.2441335510050745 0 0.086446736705125371 -0.22420087797706609 0 0.091303359373345411 -0.22339335178318359 0 0.089763789457938253 -0.2306791647953326 0 0.086446736705125371 -0.22420087797706609 0 0.091303359373345411 -0.22339335178318359 0 0.086853981468707001 -0.2185547472363609 0 0.091303359373345411 -0.22339335178318359 0 0.086853981468707001 -0.2185547472363609 0 0.09077468002378962 -0.21857675351640271 0 0.091303359373345411 -0.22339335178318359 0 0.09077468002378962 -0.21857675351640271 0 0.094530837428433365 -0.22086489816084981 0 0.091303359373345411 -0.22339335178318359 0 0.089763789457938253 -0.2306791647953326 0 0.098670227838192195 -0.22970514568366851 0 0.086446736705125371 -0.22420087797706609 0 0.089763789457938253 -0.2306791647953326 0 0.083020570332336119 -0.22791650227557511 0 0.083256636250354649 -0.23616880796388259 0 0.083020570332336119 -0.22791650227557511 0 0.076767606518392539 -0.23187249677345001 0 0.083256636250354649 -0.23616880796388259 0 0.089763789457938253 -0.2306791647953326 0 0.083020570332336119 -0.22791650227557511 0 0.083020570332336119 -0.22791650227557511 0 0.077930889523722374 -0.22519622511208121 0 0.076767606518392539 -0.23187249677345001 0 0.083020570332336119 -0.22791650227557511 0 0.081291982893300085 -0.22046062379487821 0 0.077930889523722374 -0.22519622511208121 0 0.086446736705125371 -0.22420087797706609 0 0.083020570332336119 -0.22791650227557511 0 0.081291982893300085 -0.22046062379487821 0 0.086446736705125371 -0.22420087797706609 0 0.081291982893300085 -0.22046062379487821 0 0.086853981468707001 -0.2185547472363609 0 0.081291982893300085 -0.22046062379487821 0 0.077930889523722374 -0.22519622511208121 0 0.073706539318973169 -0.21796036257100029 0 0.072234091795087663 -0.22574485878751241 0 0.065719467571416057 -0.22489822263154319 0 0.073706539318973169 -0.21796036257100029 0 0.077930889523722374 -0.22519622511208121 0 0.072234091795087663 -0.22574485878751241 0 0.073706539318973169 -0.21796036257100029 0 0.069856411684105391 -0.23913895996007839 0 0.076767606518392539 -0.23187249677345001 0 0.067142239376285745 -0.23139328163069281 0 0.072234091795087663 -0.22574485878751241 0 0.076767606518392539 -0.23187249677345001 0 0.067142239376285745 -0.23139328163069281 0 0.077930889523722374 -0.22519622511208121 0 0.072234091795087663 -0.22574485878751241 0 0.076767606518392539 -0.23187249677345001 0 0.058764067980626958 -0.22947949685718549 0 0.062159259289524899 -0.2368834247622158 0 0.067142239376285745 -0.23139328163069281 0 0.058764067980626958 -0.22947949685718549 0 0.067142239376285745 -0.23139328163069281 0 0.065719467571416057 -0.22489822263154319 0 0.072234091795087663 -0.22574485878751241 0 0.067142239376285745 -0.23139328163069281 0 0.065719467571416057 -0.22489822263154319 0 0.062338921595789062 -0.21792006704763969 0 0.065719467571416057 -0.22489822263154319 0 0.073706539318973169 -0.21796036257100029 0 0.062338921595789062 -0.21792006704763969 0 0.067863046951983474 -0.20503048868511209 0 0.073706539318973169 -0.21796036257100029 0 0.067863046951983474 -0.20503048868511209 0 0.073706539318973169 -0.21796036257100029 0 0.079094442607528917 -0.20913243433380641 0 0.067863046951983474 -0.20503048868511209 0 0.081482512553192915 -0.1953056794767786 0 0.079094442607528917 -0.20913243433380641 0 0.056257937900538298 -0.19577788601322099 0 0.067863046951983474 -0.20503048868511209 0 0.066040058368007956 -0.18964665730407451 0 0.067863046951983474 -0.20503048868511209 0 0.066040058368007956 -0.18964665730407451 0 0.081482512553192915 -0.1953056794767786 0 0.081482512553192915 -0.1953056794767786 0 0.095454742848087734 -0.19451486061966669 0 0.093505174579280592 -0.1731787749771625 0 0.081482512553192915 -0.1953056794767786 0 0.08833530696517819 -0.21036332105093219 0 0.095454742848087734 -0.19451486061966669 0 0.08833530696517819 -0.21036332105093219 0 0.097404311116896569 -0.21585094626217091 0 0.095454742848087734 -0.19451486061966669 0 0.081291982893300085 -0.22046062379487821 0 0.073706539318973169 -0.21796036257100029 0 0.082946926161669862 -0.2149195339015407 0 0.082946926161669862 -0.2149195339015407 0 0.079094442607528917 -0.20913243433380641 0 0.08833530696517819 -0.21036332105093219 0 0.073706539318973169 -0.21796036257100029 0 0.082946926161669862 -0.2149195339015407 0 0.079094442607528917 -0.20913243433380641 0 0.081291982893300085 -0.22046062379487821 0 0.082946926161669862 -0.2149195339015407 0 0.086853981468707001 -0.2185547472363609 0 0.081482512553192915 -0.1953056794767786 0 0.079094442607528917 -0.20913243433380641 0 0.08833530696517819 -0.21036332105093219 0 0.082946926161669862 -0.2149195339015407 0 0.08833530696517819 -0.21036332105093219 0 0.086853981468707001 -0.2185547472363609 0 0.08833530696517819 -0.21036332105093219 0 0.086853981468707001 -0.2185547472363609 0 0.09077468002378962 -0.21857675351640271 0 0.08833530696517819 -0.21036332105093219 0 0.09077468002378962 -0.21857675351640271 0 0.092213447725184278 -0.21529843562297729 0 0.08833530696517819 -0.21036332105093219 0 0.092213447725184278 -0.21529843562297729 0 0.097404311116896569 -0.21585094626217091 0 0.09077468002378962 -0.21857675351640271 0 0.094501608789943028 -0.21679829355882299 0 0.094530837428433365 -0.22086489816084981 0 0.09077468002378962 -0.21857675351640271 0 0.092213447725184278 -0.21529843562297729 0 0.094501608789943028 -0.21679829355882299 0 0.094501608789943028 -0.21679829355882299 0 0.097404311116896569 -0.21585094626217091 0 0.094530837428433365 -0.22086489816084981 0 0.092213447725184278 -0.21529843562297729 0 0.094501608789943028 -0.21679829355882299 0 0.097404311116896569 -0.21585094626217091 0 0.097404311116896569 -0.21585094626217091 0 0.095454742848087734 -0.19451486061966669 0 0.097404311116896569 -0.21585094626217091 0 0.1059898830346106 -0.20430933332548051 0 0.095454742848087734 -0.19451486061966669 0 0.097404311116896569 -0.21585094626217091 0 0.1089347031997706 -0.21297733173581901 0 0.1146171121197104 -0.21980430615730401 0 0.097404311116896569 -0.21585094626217091 0 0.1059898830346106 -0.20430933332548051 0 0.1089347031997706 -0.21297733173581901 0 0.095454742848087734 -0.19451486061966669 0 0.1128143282819509 -0.19216489626002589 0 0.10772522460311169 -0.17968171223372481 0 0.1059898830346106 -0.20430933332548051 0 0.095454742848087734 -0.19451486061966669 0 0.1128143282819509 -0.19216489626002589 0 0.1128143282819509 -0.19216489626002589 0 0.1237689835273371 -0.19605207676116951 0 0.1178461100078927 -0.20838697738218431 0 0.1059898830346106 -0.20430933332548051 0 0.1128143282819509 -0.19216489626002589 0 0.1178461100078927 -0.20838697738218431 0 0.1128143282819509 -0.19216489626002589 0 0.1237689835273371 -0.19605207676116951 0 0.1232013989280239 -0.1819146573535104 0 0.1089347031997706 -0.21297733173581901 0 0.1178461100078927 -0.20838697738218431 0 0.1146171121197104 -0.21980430615730401 0 0.1059898830346106 -0.20430933332548051 0 0.1089347031997706 -0.21297733173581901 0 0.1178461100078927 -0.20838697738218431 0 0.1178461100078927 -0.20838697738218431 0 0.1146171121197104 -0.21980430615730401 0 0.12895394136930069 -0.22163642029703709 0 0.1146171121197104 -0.21980430615730401 0 0.12018370186474731 -0.23305432747703519 0 0.12895394136930069 -0.22163642029703709 0 0.097404311116896569 -0.21585094626217091 0 0.1146171121197104 -0.21980430615730401 0 0.12018370186474731 -0.23305432747703519 0 0.1212054647883809 -0.25073068226796852 0 0.12018370186474731 -0.23305432747703519 0 0.1059281586602189 -0.23527494890652931 0 0.13217397618885759 -0.25462043987800831 0 0.1212054647883809 -0.25073068226796852 0 0.12018370186474731 -0.23305432747703519 0 0.1212054647883809 -0.25073068226796852 0 0.1059281586602189 -0.23527494890652931 0 0.1078238037173969 -0.24832262031645649 0 0.1212054647883809 -0.25073068226796852 0 0.1059281586602189 -0.23527494890652931 0 0.099550463170151926 -0.25262580003909579 0 0.1078238037173969 -0.24832262031645649 0 0.10103467245524091 -0.24298905409433241 0 0.1059281586602189 -0.23527494890652931 0 0.1078238037173969 -0.24832262031645649 0 0.10103467245524091 -0.24298905409433241 0 0.099550463170151926 -0.25262580003909579 0 0.10103467245524091 -0.24298905409433241 0 0.094006026236525903 -0.2441335510050745 0 0.090706365013478091 -0.25245448435890872 0 0.099550463170151926 -0.25262580003909579 0 0.094006026236525903 -0.2441335510050745 0 0.1059281586602189 -0.23527494890652931 0 0.10103467245524091 -0.24298905409433241 0 0.096012267649498176 -0.23702186761809721 0 0.10103467245524091 -0.24298905409433241 0 0.094006026236525903 -0.2441335510050745 0 0.096012267649498176 -0.23702186761809721 0 0.1059281586602189 -0.23527494890652931 0 0.096012267649498176 -0.23702186761809721 0 0.098670227838192195 -0.22970514568366851 0 0.089763789457938253 -0.2306791647953326 0 0.096012267649498176 -0.23702186761809721 0 0.098670227838192195 -0.22970514568366851 0 0.097404311116896569 -0.21585094626217091 0 0.12018370186474731 -0.23305432747703519 0 0.097404311116896569 -0.21585094626217091 0 0.12018370186474731 -0.23305432747703519 0 0.1059281586602189 -0.23527494890652931 0 0.097404311116896569 -0.21585094626217091 0 0.1059281586602189 -0.23527494890652931 0 0.098670227838192195 -0.22970514568366851 0 0.091303359373345411 -0.22339335178318359 0 0.098670227838192195 -0.22970514568366851 0 0.094530837428433365 -0.22086489816084981 0 0.097404311116896569 -0.21585094626217091 0 0.098670227838192195 -0.22970514568366851 0 0.094530837428433365 -0.22086489816084981 0 0.097404311116896569 -0.21585094626217091 0 0.098670227838192195 -0.22970514568366851 0 0.1071373084330472 -0.14482826815459701 0 0.1035248479174861 -0.15311019857333261 0 0.098760878024456711 -0.14050656481393209 0 0.1071373084330472 -0.14482826815459701 0 0.1035248479174861 -0.15311019857333261 0 0.1121477659277255 -0.1503271840913511 0 0.1035248479174861 -0.15311019857333261 0 0.098760878024456711 -0.14050656481393209 0 0.091560400862706559 -0.15189516094014111 0 0.098760878024456711 -0.14050656481393209 0 0.099399694252258627 -0.1328638184600745 0 0.089615627146132512 -0.13061154690311971 0 0.099399694252258627 -0.1328638184600745 0 0.099525338641528904 -0.12611341339503321 0 0.089615627146132512 -0.13061154690311971 0 0.099525338641528904 -0.12611341339503321 0 0.1096969331969164 -0.13422374872821319 0 0.1121708616464093 -0.1216807098986791 0 0.099399694252258627 -0.1328638184600745 0 0.099525338641528904 -0.12611341339503321 0 0.1096969331969164 -0.13422374872821319 0 0.098760878024456711 -0.14050656481393209 0 0.099399694252258627 -0.1328638184600745 0 0.1096969331969164 -0.13422374872821319 0 0.1071373084330472 -0.14482826815459701 0 0.098760878024456711 -0.14050656481393209 0 0.1096969331969164 -0.13422374872821319 0 0.1096969331969164 -0.13422374872821319 0 0.1155243526086871 -0.14484298486410191 0 0.12532898621889721 -0.13663811256420449 0 0.1096969331969164 -0.13422374872821319 0 0.11997683785091839 -0.1276371159963853 0 0.12532898621889721 -0.13663811256420449 0 0.1096969331969164 -0.13422374872821319 0 0.11997683785091839 -0.1276371159963853 0 0.1121708616464093 -0.1216807098986791 0 0.1217036921304827 -0.1482443959076799 0 0.1155243526086871 -0.14484298486410191 0 0.12532898621889721 -0.13663811256420449 0 0.1217036921304827 -0.1482443959076799 0 0.1155243526086871 -0.14484298486410191 0 0.1179114041550178 -0.15136128022523329 0 0.1071373084330472 -0.14482826815459701 0 0.1155243526086871 -0.14484298486410191 0 0.1121477659277255 -0.1503271840913511 0 0.1071373084330472 -0.14482826815459701 0 0.1096969331969164 -0.13422374872821319 0 0.1155243526086871 -0.14484298486410191 0 0.1035248479174861 -0.15311019857333261 0 0.1121477659277255 -0.1503271840913511 0 0.1169082366172023 -0.15609331882735419 0 0.1155243526086871 -0.14484298486410191 0 0.1121477659277255 -0.1503271840913511 0 0.1179114041550178 -0.15136128022523329 0 0.1121477659277255 -0.1503271840913511 0 0.1169082366172023 -0.15609331882735419 0 0.1179114041550178 -0.15136128022523329 0 0.1169082366172023 -0.15609331882735419 0 0.1179114041550178 -0.15136128022523329 0 0.12324902196630889 -0.15465793599018671 0 0.1217036921304827 -0.1482443959076799 0 0.1179114041550178 -0.15136128022523329 0 0.12324902196630889 -0.15465793599018671 0 0.1217036921304827 -0.1482443959076799 0 0.12324902196630889 -0.15465793599018671 0 0.12831016946945831 -0.1492440347933528 0 0.1035248479174861 -0.15311019857333261 0 0.12443417021765769 -0.1709717485187108 0 0.1227471198665283 -0.15880086614903269 0 0.12098675462827781 -0.16200852072179159 0 0.1290045142054978 -0.1612372837293575 0 0.1035248479174861 -0.15311019857333261 0 0.12443417021765769 -0.1709717485187108 0 0.12083528946942131 -0.1711597280255607 0 0.1035248479174861 -0.15311019857333261 0 0.12098675462827781 -0.16200852072179159 0 0.12443417021765769 -0.1709717485187108 0 0.1035248479174861 -0.15311019857333261 0 0.1169082366172023 -0.15609331882735419 0 0.12098675462827781 -0.16200852072179159 0 0.1169082366172023 -0.15609331882735419 0 0.1227471198665283 -0.15880086614903269 0 0.12098675462827781 -0.16200852072179159 0 0.1169082366172023 -0.15609331882735419 0 0.12324902196630889 -0.15465793599018671 0 0.1227471198665283 -0.15880086614903269 0 0.12098675462827781 -0.16200852072179159 0 0.12443417021765769 -0.1709717485187108 0 0.12715697753007521 -0.16591248018761531 0 0.1128143282819509 -0.19216489626002589 0 0.1232013989280239 -0.1819146573535104 0 0.1157139550245927 -0.18029465614444529 0 0.12083528946942131 -0.1711597280255607 0 0.1232013989280239 -0.1819146573535104 0 0.1157139550245927 -0.18029465614444529 0 0.12443417021765769 -0.1709717485187108 0 0.12083528946942131 -0.1711597280255607 0 0.1232013989280239 -0.1819146573535104 0 0.12083528946942131 -0.1711597280255607 0 0.1157139550245927 -0.18029465614444529 0 0.10772522460311169 -0.17968171223372481 0 0.1128143282819509 -0.19216489626002589 0 0.1157139550245927 -0.18029465614444529 0 0.10772522460311169 -0.17968171223372481 0 0.095454742848087734 -0.19451486061966669 0 0.10772522460311169 -0.17968171223372481 0 0.093505174579280592 -0.1731787749771625 0 0.12083528946942131 -0.1711597280255607 0 0.093505174579280592 -0.1731787749771625 0 0.095454742848087734 -0.19451486061966669 0 0.093505174579280592 -0.1731787749771625 0 0.12083528946942131 -0.1711597280255607 0 0.10772522460311169 -0.17968171223372481 0 0.093505174579280592 -0.1731787749771625 0 0.1035248479174861 -0.15311019857333261 0 0.093505174579280592 -0.1731787749771625 0 0.091560400862706559 -0.15189516094014111 0 0.1035248479174861 -0.15311019857333261 0 0.12083528946942131 -0.1711597280255607 0 0.093505174579280592 -0.1731787749771625 0 0.078133883947979807 -0.15717501910519549 0 0.093505174579280592 -0.1731787749771625 0 0.091560400862706559 -0.15189516094014111 0 0.078133883947979807 -0.15717501910519549 0 0.093505174579280592 -0.1731787749771625 0 0.072477207369929117 -0.17473224276400179 0 0.093505174579280592 -0.1731787749771625 0 0.091560400862706559 -0.15189516094014111 0 0.081482512553192915 -0.1953056794767786 0 0.093505174579280592 -0.1731787749771625 0 0.072477207369929117 -0.17473224276400179 0 0.093505174579280592 -0.1731787749771625 0 0.072477207369929117 -0.17473224276400179 0 0.066040058368007956 -0.18964665730407451 0 0.072477207369929117 -0.17473224276400179 0 0.051449240160577621 -0.1762857105508405 0 0.066040058368007956 -0.18964665730407451 0 0.081482512553192915 -0.1953056794767786 0 0.072477207369929117 -0.17473224276400179 0 0.078133883947979807 -0.15717501910519549 0 0.072477207369929117 -0.17473224276400179 0 0.063878974636528515 -0.16401540189567099 0 0.072477207369929117 -0.17473224276400179 0 0.063878974636528515 -0.16401540189567099 0 0.051449240160577621 -0.1762857105508405 0 0.078133883947979807 -0.15717501910519549 0 0.063878974636528515 -0.16401540189567099 0 0.06522271263887458 -0.15305574504012881 0 0.06522271263887458 -0.15305574504012881 0 0.069316279952888193 -0.14186668388360371 0 0.075278834721760557 -0.14616760919767161 0 0.06522271263887458 -0.15305574504012881 0 0.069316279952888193 -0.14186668388360371 0 0.05757515479497001 -0.1486962131740798 0 0.069316279952888193 -0.14186668388360371 0 0.075278834721760557 -0.14616760919767161 0 0.079765110473415279 -0.13788087003968491 0 0.078133883947979807 -0.15717501910519549 0 0.06522271263887458 -0.15305574504012881 0 0.075278834721760557 -0.14616760919767161 0 0.098760878024456711 -0.14050656481393209 0 0.091560400862706559 -0.15189516094014111 0 0.089615627146132512 -0.13061154690311971 0 0.078133883947979807 -0.15717501910519549 0 0.083611330147541921 -0.14459745320402559 0 0.091560400862706559 -0.15189516094014111 0 0.091560400862706559 -0.15189516094014111 0 0.089615627146132512 -0.13061154690311971 0 0.078133883947979807 -0.15717501910519549 0 0.075278834721760557 -0.14616760919767161 0 0.083611330147541921 -0.14459745320402559 0 0.083611330147541921 -0.14459745320402559 0 0.091560400862706559 -0.15189516094014111 0 0.089615627146132512 -0.13061154690311971 0 0.075278834721760557 -0.14616760919767161 0 0.083611330147541921 -0.14459745320402559 0 0.079765110473415279 -0.13788087003968491 0 0.099525338641528904 -0.12611341339503321 0 0.089615627146132512 -0.13061154690311971 0 0.081894058627025895 -0.12584863130967919 0 0.083611330147541921 -0.14459745320402559 0 0.089615627146132512 -0.13061154690311971 0 0.079765110473415279 -0.13788087003968491 0 0.089615627146132512 -0.13061154690311971 0 0.079765110473415279 -0.13788087003968491 0 0.081894058627025895 -0.12584863130967919 0 0.081894058627025895 -0.12584863130967919 0 0.065576399090336079 -0.13067912082877309 0 0.057907204523981459 -0.13951585418161591 0 0.081894058627025895 -0.12584863130967919 0 0.057907204523981459 -0.13951585418161591 0 0.069316279952888193 -0.14186668388360371 0 0.081894058627025895 -0.12584863130967919 0 0.057907204523981459 -0.13951585418161591 0 0.081894058627025895 -0.12584863130967919 0 0.068207364780656948 -0.12563827965844471 0 0.065576399090336079 -0.13067912082877309 0 0.069316279952888193 -0.14186668388360371 0 0.079765110473415279 -0.13788087003968491 0 0.081894058627025895 -0.12584863130967919 0 0.068207364780656948 -0.12563827965844471 0 0.065576399090336079 -0.13067912082877309 0 0.054296968429680029 -0.13171371816535249 0 0.054296968429680029 -0.13171371816535249 0 0.057907204523981459 -0.13951585418161591 0 0.034849001543539322 -0.1503583031021323 0 0.054296968429680029 -0.13171371816535249 0 0.045553716665441668 -0.12681104972785159 0 0.052448498866582129 -0.1166826243517366 0 0.065576399090336079 -0.13067912082877309 0 0.054296968429680029 -0.13171371816535249 0 0.057907204523981459 -0.13951585418161591 0 0.069316279952888193 -0.14186668388360371 0 0.057907204523981459 -0.13951585418161591 0 0.05757515479497001 -0.1486962131740798 0 0.06522271263887458 -0.15305574504012881 0 0.05757515479497001 -0.1486962131740798 0 0.052111829065281459 -0.15882829201818821 0 0.046808539919221563 -0.15014413002933799 0 0.052111829065281459 -0.15882829201818821 0 0.043031393960321331 -0.1571354857308308 0 0.05757515479497001 -0.1486962131740798 0 0.046808539919221563 -0.15014413002933799 0 0.052111829065281459 -0.15882829201818821 0 0.057907204523981459 -0.13951585418161591 0 0.05757515479497001 -0.1486962131740798 0 0.046808539919221563 -0.15014413002933799 0 0.057907204523981459 -0.13951585418161591 0 0.046808539919221563 -0.15014413002933799 0 0.033920350420936912 -0.1531830770535528 0 0.057907204523981459 -0.13951585418161591 0 0.034849001543539322 -0.1503583031021323 0 0.033920350420936912 -0.1531830770535528 0 0.054296968429680029 -0.13171371816535249 0 0.034849001543539322 -0.1503583031021323 0 0.038558521200612962 -0.14006542407622449 0 0.054296968429680029 -0.13171371816535249 0 0.034849001543539322 -0.1503583031021323 0 0.057907204523981459 -0.13951585418161591 0 0.033920350420936912 -0.1531830770535528 0 0.046808539919221563 -0.15014413002933799 0 0.040219483271594643 -0.15466785876887121 0 0.033920350420936912 -0.1531830770535528 0 0.046808539919221563 -0.15014413002933799 0 0.040219483271594643 -0.15466785876887121 0 0.043031393960321331 -0.1571354857308308 0 0.040219483271594643 -0.15466785876887121 0 0.033920350420936912 -0.1531830770535528 0 0.037117648785898759 -0.15820874226176301 0 0.034849001543539322 -0.1503583031021323 0 0.031672068294339203 -0.14528428076340441 0 0.030051573782975471 -0.15027594372919439 0 0.034849001543539322 -0.1503583031021323 0 0.033920350420936912 -0.1531830770535528 0 0.030051573782975471 -0.15027594372919439 0 0.034849001543539322 -0.1503583031021323 0 0.031672068294339203 -0.14528428076340441 0 0.038558521200612962 -0.14006542407622449 0 0.031672068294339203 -0.14528428076340441 0 0.038558521200612962 -0.14006542407622449 0 0.030566093298411881 -0.13865773310914861 0 0.054296968429680029 -0.13171371816535249 0 0.038558521200612962 -0.14006542407622449 0 0.040644455285911409 -0.1338393175667463 0 0.038558521200612962 -0.14006542407622449 0 0.040644455285911409 -0.1338393175667463 0 0.030566093298411881 -0.13865773310914861 0 0.034824944079593127 -0.12500853882757099 0 0.040644455285911409 -0.1338393175667463 0 0.030566093298411881 -0.13865773310914861 0 0.034824944079593127 -0.12500853882757099 0 0.045553716665441668 -0.12681104972785159 0 0.040644455285911409 -0.1338393175667463 0 0.054296968429680029 -0.13171371816535249 0 0.045553716665441668 -0.12681104972785159 0 0.040644455285911409 -0.1338393175667463 0 0.072477207369929117 -0.17473224276400179 0 0.051449240160577621 -0.1762857105508405 0 0.056257937900538298 -0.19577788601322099 0 0.066040058368007956 -0.18964665730407451 0 0.051449240160577621 -0.1762857105508405 0 0.063878974636528515 -0.16401540189567099 0 0.051449240160577621 -0.1762857105508405 0 0.052111829065281459 -0.15882829201818821 0 0.051449240160577621 -0.1762857105508405 0 0.052111829065281459 -0.15882829201818821 0 0.040502396519655252 -0.1663673850483231 0 0.063878974636528515 -0.16401540189567099 0 0.06522271263887458 -0.15305574504012881 0 0.052111829065281459 -0.15882829201818821 0 0.043031393960321331 -0.1571354857308308 0 0.037117648785898759 -0.15820874226176301 0 0.040502396519655252 -0.1663673850483231 0 0.052111829065281459 -0.15882829201818821 0 0.043031393960321331 -0.1571354857308308 0 0.040502396519655252 -0.1663673850483231 0 0.040219483271594643 -0.15466785876887121 0 0.043031393960321331 -0.1571354857308308 0 0.037117648785898759 -0.15820874226176301 0 0.033920350420936912 -0.1531830770535528 0 0.033509818979212957 -0.15868168045615499 0 0.027465449436243041 -0.1628752445715565 0 0.037117648785898759 -0.15820874226176301 0 0.034071859908748191 -0.1623715567021686 0 0.040502396519655252 -0.1663673850483231 0 0.033920350420936912 -0.1531830770535528 0 0.037117648785898759 -0.15820874226176301 0 0.033509818979212957 -0.15868168045615499 0 0.037117648785898759 -0.15820874226176301 0 0.033509818979212957 -0.15868168045615499 0 0.034071859908748191 -0.1623715567021686 0 0.033509818979212957 -0.15868168045615499 0 0.034071859908748191 -0.1623715567021686 0 0.027465449436243041 -0.1628752445715565 0 0.031586668938662611 -0.1691709391612749 0 0.040502396519655252 -0.1663673850483231 0 0.030421272951226121 -0.1778391783376792 0 0.034071859908748191 -0.1623715567021686 0 0.031586668938662611 -0.1691709391612749 0 0.040502396519655252 -0.1663673850483231 0 0.051449240160577621 -0.1762857105508405 0 0.040502396519655252 -0.1663673850483231 0 0.030421272951226121 -0.1778391783376792 0 0.041440672425083092 -0.19607701236864419 0 0.051449240160577621 -0.1762857105508405 0 0.030421272951226121 -0.1778391783376792 0 0.051449240160577621 -0.1762857105508405 0 0.030421272951226121 -0.1778391783376792 0 0.02540307025583758 -0.19229280057405279 0 0.015764016274472759 -0.1812646672695073 0 0.030421272951226121 -0.1778391783376792 0 0.031586668938662611 -0.1691709391612749 0 0.030421272951226121 -0.1778391783376792 0 0.021575687727073561 -0.1734893605992324 0 0.015764016274472759 -0.1812646672695073 0 0.021575687727073561 -0.1734893605992324 0 0.012676990919703311 -0.16924925594887871 0 0.015764016274472759 -0.1812646672695073 0 0.030421272951226121 -0.1778391783376792 0 0.021575687727073561 -0.1734893605992324 0 0.033920350420936912 -0.1531830770535528 0 0.009933496317892726 -0.16685029992549011 0 0.02294500892830088 -0.1542832107784407 0 0.033920350420936912 -0.1531830770535528 0 0.027465449436243041 -0.1628752445715565 0 0.009933496317892726 -0.16685029992549011 0 0.019596439448784399 -0.16744493330375371 0 0.027465449436243041 -0.1628752445715565 0 0.009933496317892726 -0.16685029992549011 0 0.033920350420936912 -0.1531830770535528 0 0.009933496317892726 -0.16685029992549011 0 0.021575687727073561 -0.1734893605992324 0 0.019596439448784399 -0.16744493330375371 0 0.012676990919703311 -0.16924925594887871 0 0.021575687727073561 -0.1734893605992324 0 0.019596439448784399 -0.16744493330375371 0 0.025540403417393751 -0.1677775419388785 0 0.031586668938662611 -0.1691709391612749 0 0.021575687727073561 -0.1734893605992324 0 0.025540403417393751 -0.1677775419388785 0 0.019596439448784399 -0.16744493330375371 0 0.025540403417393751 -0.1677775419388785 0 0.027465449436243041 -0.1628752445715565 0 0.034071859908748191 -0.1623715567021686 0 0.031586668938662611 -0.1691709391612749 0 0.027465449436243041 -0.1628752445715565 0 0.031586668938662611 -0.1691709391612749 0 0.025540403417393751 -0.1677775419388785 0 0.027465449436243041 -0.1628752445715565 0 0.009933496317892726 -0.16685029992549011 0 0.01648447247354291 -0.15404273338364399 0 0.02294500892830088 -0.1542832107784407 0 0.009933496317892726 -0.16685029992549011 0 0.01648447247354291 -0.15404273338364399 0 0.0068311679390763679 -0.1533437069849535 0 0.019596439448784399 -0.16744493330375371 0 0.009933496317892726 -0.16685029992549011 0 0.012676990919703311 -0.16924925594887871 0 0.009933496317892726 -0.16685029992549011 0 0.012676990919703311 -0.16924925594887871 0 0.0034571977838801569 -0.17702496179755631 0 0.009933496317892726 -0.16685029992549011 0 0.012676990919703311 -0.16924925594887871 0 -0.0085976242789068957 -0.177408956520272 0 0.009933496317892726 -0.16685029992549011 0 -0.0085976242789068957 -0.177408956520272 0 0.009933496317892726 -0.16685029992549011 0 0.0034571977838801569 -0.17702496179755631 0 0.015764016274472759 -0.1812646672695073 0 0.012676990919703311 -0.16924925594887871 0 0.0034571977838801569 -0.17702496179755631 0 -0.003739977245034012 -0.19168309442994089 0 0.010514116253606281 -0.1925853606064957 0 0.0034571977838801569 -0.17702496179755631 0 0.010514116253606281 -0.1925853606064957 0 0.015764016274472759 -0.1812646672695073 0 0.0034571977838801569 -0.17702496179755631 0 0.02166725362828328 -0.1398342401410575 0 0.019282665512654749 -0.1297026577714144 0 0.01241268948209219 -0.14437852502616319 0 0.034824944079593127 -0.12500853882757099 0 0.019282665512654749 -0.1297026577714144 0 0.030566093298411881 -0.13865773310914861 0 0.02166725362828328 -0.1398342401410575 0 0.019282665512654749 -0.1297026577714144 0 0.030566093298411881 -0.13865773310914861 0 0.031672068294339203 -0.14528428076340441 0 0.030566093298411881 -0.13865773310914861 0 0.024335151646156381 -0.14706399980032239 0 0.02166725362828328 -0.1398342401410575 0 0.030566093298411881 -0.13865773310914861 0 0.024335151646156381 -0.14706399980032239 0 0.031672068294339203 -0.14528428076340441 0 0.024335151646156381 -0.14706399980032239 0 0.030051573782975471 -0.15027594372919439 0 0.033920350420936912 -0.1531830770535528 0 0.030051573782975471 -0.15027594372919439 0 0.02294500892830088 -0.1542832107784407 0 0.024335151646156381 -0.14706399980032239 0 0.030051573782975471 -0.15027594372919439 0 0.02294500892830088 -0.1542832107784407 0 0.024335151646156381 -0.14706399980032239 0 0.01648447247354291 -0.15404273338364399 0 0.01241268948209219 -0.14437852502616319 0 0.024335151646156381 -0.14706399980032239 0 0.01648447247354291 -0.15404273338364399 0 0.02294500892830088 -0.1542832107784407 0 0.02166725362828328 -0.1398342401410575 0 0.024335151646156381 -0.14706399980032239 0 0.01241268948209219 -0.14437852502616319 0 -0.011505986517222349 -0.14810326960451681 0 0.01241268948209219 -0.14437852502616319 0 0.0068311679390763679 -0.1533437069849535 0 -0.011505986517222349 -0.14810326960451681 0 0.009933496317892726 -0.16685029992549011 0 0.0068311679390763679 -0.1533437069849535 0 -0.011505986517222349 -0.14810326960451681 0 0.01241268948209219 -0.14437852502616319 0 0.0027021066240326768 -0.1317064378292063 0 0.01648447247354291 -0.15404273338364399 0 0.01241268948209219 -0.14437852502616319 0 0.0068311679390763679 -0.1533437069849535 0 0.019282665512654749 -0.1297026577714144 0 0.01241268948209219 -0.14437852502616319 0 0.0027021066240326768 -0.1317064378292063 0 0.019282665512654749 -0.1297026577714144 0 0.0027021066240326768 -0.1317064378292063 0 0.005085065621477718 -0.1151057880332567 0 0.019282665512654749 -0.1297026577714144 0 0.005085065621477718 -0.1151057880332567 0 0.024129304522527751 -0.1089818526354679 0 0.034824944079593127 -0.12500853882757099 0 0.019282665512654749 -0.1297026577714144 0 0.024129304522527751 -0.1089818526354679 0 0.024129304522527751 -0.1089818526354679 0 0.01380815825635252 -0.094132232187142617 0 0.031293966725895003 -0.08518965294817829 0 -0.00044729776891663488 -0.1011528385718463 0 0.005085065621477718 -0.1151057880332567 0 0.01380815825635252 -0.094132232187142617 0 0.005085065621477718 -0.1151057880332567 0 0.024129304522527751 -0.1089818526354679 0 0.01380815825635252 -0.094132232187142617 0 0.01380815825635252 -0.094132232187142617 0 0.0042106568376920582 -0.081118225430045127 0 0.020039989671696231 -0.071989185162356889 0 -0.00044729776891663488 -0.1011528385718463 0 0.01380815825635252 -0.094132232187142617 0 0.0042106568376920582 -0.081118225430045127 0 0.0042106568376920582 -0.081118225430045127 0 0.0052181775422467033 -0.064346337314722044 0 0.020039989671696231 -0.071989185162356889 0 -0.0043762627118289626 -0.071729097412358583 0 0.0042106568376920582 -0.081118225430045127 0 0.0052181775422467033 -0.064346337314722044 0 0.0052181775422467033 -0.064346337314722044 0 0.020039989671696231 -0.071989185162356889 0 0.0052181775422467033 -0.064346337314722044 0 0.020039989671696231 -0.071989185162356889 0 0.017880224012190679 -0.058506375123621113 0 0.020039989671696231 -0.071989185162356889 0 0.017880224012190679 -0.058506375123621113 0 0.035073137211611732 -0.060365082031122411 0 0.020039989671696231 -0.071989185162356889 0 0.031293966725895003 -0.08518965294817829 0 0.035073137211611732 -0.060365082031122411 0 0.01380815825635252 -0.094132232187142617 0 0.020039989671696231 -0.071989185162356889 0 0.031293966725895003 -0.08518965294817829 0 0.031293966725895003 -0.08518965294817829 0 0.050629459546369923 -0.074776417317023003 0 0.042727201812981508 -0.099892478072297022 0 0.050629459546369923 -0.074776417317023003 0 0.042727201812981508 -0.099892478072297022 0 0.031293966725895003 -0.08518965294817829 0 0.050629459546369923 -0.074776417317023003 0 0.035073137211611732 -0.060365082031122411 0 0.050629459546369923 -0.074776417317023003 0 0.058531717279758283 -0.049660356561749108 0 0.072219385832792832 -0.066659644627356851 0 0.050629459546369923 -0.074776417317023003 0 0.042727201812981508 -0.099892478072297022 0 0.069701838591585213 -0.089386546866783212 0 0.059655618646742382 -0.10475769562984739 0 0.052448498866582129 -0.1166826243517366 0 0.042727201812981508 -0.099892478072297022 0 0.059655618646742382 -0.10475769562984739 0 0.042727201812981508 -0.099892478072297022 0 0.069701838591585213 -0.089386546866783212 0 0.054296968429680029 -0.13171371816535249 0 0.052448498866582129 -0.1166826243517366 0 0.073744935315820714 -0.1130691332285727 0 0.059655618646742382 -0.10475769562984739 0 0.052448498866582129 -0.1166826243517366 0 0.073744935315820714 -0.1130691332285727 0 0.034824944079593127 -0.12500853882757099 0 0.045553716665441668 -0.12681104972785159 0 0.052448498866582129 -0.1166826243517366 0 0.034824944079593127 -0.12500853882757099 0 0.052448498866582129 -0.1166826243517366 0 0.042727201812981508 -0.099892478072297022 0 0.034824944079593127 -0.12500853882757099 0 0.024129304522527751 -0.1089818526354679 0 0.042727201812981508 -0.099892478072297022 0 0.034824944079593127 -0.12500853882757099 0 0.042727201812981508 -0.099892478072297022 0 0.024129304522527751 -0.1089818526354679 0 0.031293966725895003 -0.08518965294817829 0 0.042727201812981508 -0.099892478072297022 0 0.034885408484197772 0.0062912350017927032 0 0.01265631079038235 -0.01012693536007268 0 0.042517259973231587 -0.011683923625132649 0 -0.00118246574067416 -0.01324232368796026 0 0.0012074066645448821 -0.00065723147797176382 0 0.01265631079038235 -0.01012693536007268 0 0.01265631079038235 -0.01012693536007268 0 0.02406773205363014 -0.026959444655171291 0 0.0015263381015913891 -0.033415212413580753 0 0.01265631079038235 -0.01012693536007268 0 0.0015263381015913891 -0.033415212413580753 0 -0.00118246574067416 -0.01324232368796026 0 0.01265631079038235 -0.01012693536007268 0 0.0015263381015913891 -0.033415212413580753 0 0.01265631079038235 -0.01012693536007268 0 0.02406773205363014 -0.026959444655171291 0 0.042517259973231587 -0.011683923625132649 0 0.02406773205363014 -0.026959444655171291 0 0.021771409900077709 -0.044354063799483319 0 0.04186734150286768 -0.035217088077587062 0 0.02406773205363014 -0.026959444655171291 0 0.021771409900077709 -0.044354063799483319 0 0.0015263381015913891 -0.033415212413580753 0 0.021771409900077709 -0.044354063799483319 0 0.0015263381015913891 -0.033415212413580753 0 0.007298405735321048 -0.051477207310420908 0 -0.0096036345872028556 -0.056703489467087059 0 0.0052181775422467033 -0.064346337314722044 0 0.007298405735321048 -0.051477207310420908 0 0.0052181775422467033 -0.064346337314722044 0 0.007298405735321048 -0.051477207310420908 0 0.017880224012190679 -0.058506375123621113 0 0.021771409900077709 -0.044354063799483319 0 0.017880224012190679 -0.058506375123621113 0 0.035073137211611732 -0.060365082031122411 0 0.021771409900077709 -0.044354063799483319 0 0.007298405735321048 -0.051477207310420908 0 0.017880224012190679 -0.058506375123621113 0 0.035073137211611732 -0.060365082031122411 0 0.058531717279758283 -0.049660356561749108 0 0.04186734150286768 -0.035217088077587062 0 0.050629459546369923 -0.074776417317023003 0 0.058531717279758283 -0.049660356561749108 0 0.050629459546369923 -0.074776417317023003 0 0.035073137211611732 -0.060365082031122411 0 0.058531717279758283 -0.049660356561749108 0 0.058531717279758283 -0.049660356561749108 0 0.066433975013146629 -0.02454429580647528 0 0.058531717279758283 -0.049660356561749108 0 0.04186734150286768 -0.035217088077587062 0 0.066433975013146629 -0.02454429580647528 0 0.021771409900077709 -0.044354063799483319 0 0.035073137211611732 -0.060365082031122411 0 0.04186734150286768 -0.035217088077587062 0 0.02406773205363014 -0.026959444655171291 0 0.04186734150286768 -0.035217088077587062 0 0.042517259973231587 -0.011683923625132649 0 0.04186734150286768 -0.035217088077587062 0 0.042517259973231587 -0.011683923625132649 0 0.066433975013146629 -0.02454429580647528 0 0.052968053050369737 0.0090809173488315582 0 0.042517259973231587 -0.011683923625132649 0 0.067492943165135169 -0.0019794682467893379 0 0.042517259973231587 -0.011683923625132649 0 0.067492943165135169 -0.0019794682467893379 0 0.066433975013146629 -0.02454429580647528 0 0.087040675587819916 -0.0096101539263870796 0 0.066433975013146629 -0.02454429580647528 0 0.098032226742104309 -0.02831505409649597 0 0.083930998993742512 0.0059737405228527038 0 0.087040675587819916 -0.0096101539263870796 0 0.067492943165135169 -0.0019794682467893379 0 0.083930998993742512 0.0059737405228527038 0 0.098495163759696414 0.0029673617968291321 0 0.087040675587819916 -0.0096101539263870796 0 0.087040675587819916 -0.0096101539263870796 0 0.067492943165135169 -0.0019794682467893379 0 0.066433975013146629 -0.02454429580647528 0 0.066433975013146629 -0.02454429580647528 0 0.080663194565618018 -0.042742664855397232 0 0.098032226742104309 -0.02831505409649597 0 0.080663194565618018 -0.042742664855397232 0 0.099119978598511321 -0.045144617550746849 0 0.098032226742104309 -0.02831505409649597 0 0.058531717279758283 -0.049660356561749108 0 0.066433975013146629 -0.02454429580647528 0 0.080663194565618018 -0.042742664855397232 0 0.058531717279758283 -0.049660356561749108 0 0.080663194565618018 -0.042742664855397232 0 0.072219385832792832 -0.066659644627356851 0 0.080663194565618018 -0.042742664855397232 0 0.091985945990252393 -0.059557823171565508 0 0.072219385832792832 -0.066659644627356851 0 0.080663194565618018 -0.042742664855397232 0 0.091985945990252393 -0.059557823171565508 0 0.099119978598511321 -0.045144617550746849 0 0.091985945990252393 -0.059557823171565508 0 0.109385226414503 -0.056941989317685793 0 0.099119978598511321 -0.045144617550746849 0 0.109385226414503 -0.056941989317685793 0 0.1174221699598199 -0.069046986946925279 0 0.12664898879935529 -0.055605769639440771 0 0.109385226414503 -0.056941989317685793 0 0.1155332992800789 -0.038165556312589707 0 0.12664898879935529 -0.055605769639440771 0 0.1155332992800789 -0.038165556312589707 0 0.12954193793015309 -0.041748568408345607 0 0.12664898879935529 -0.055605769639440771 0 0.1155332992800789 -0.038165556312589707 0 0.1294320674019063 -0.023146095115484211 0 0.12954193793015309 -0.041748568408345607 0 0.109385226414503 -0.056941989317685793 0 0.1155332992800789 -0.038165556312589707 0 0.099119978598511321 -0.045144617550746849 0 0.1155332992800789 -0.038165556312589707 0 0.099119978598511321 -0.045144617550746849 0 0.098032226742104309 -0.02831505409649597 0 0.1155332992800789 -0.038165556312589707 0 0.098032226742104309 -0.02831505409649597 0 0.1112777463759113 -0.012222875866518469 0 0.087040675587819916 -0.0096101539263870796 0 0.098032226742104309 -0.02831505409649597 0 0.1112777463759113 -0.012222875866518469 0 0.1155332992800789 -0.038165556312589707 0 0.1112777463759113 -0.012222875866518469 0 0.1294320674019063 -0.023146095115484211 0 0.1158546052028349 0.0064685721448778594 0 0.13464870039648349 0.00080453217212592717 0 0.1112777463759113 -0.012222875866518469 0 0.098495163759696414 0.0029673617968291321 0 0.087040675587819916 -0.0096101539263870796 0 0.1112777463759113 -0.012222875866518469 0 0.1158546052028349 0.0064685721448778594 0 0.098495163759696414 0.0029673617968291321 0 0.1112777463759113 -0.012222875866518469 0 0.093192902201961414 -0.094424548291792879 0 0.088899626305776192 -0.1113374325741409 0 0.073744935315820714 -0.1130691332285727 0 0.093192902201961414 -0.094424548291792879 0 0.073744935315820714 -0.1130691332285727 0 0.069701838591585213 -0.089386546866783212 0 0.093192902201961414 -0.094424548291792879 0 0.073744935315820714 -0.1130691332285727 0 0.081894058627025895 -0.12584863130967919 0 0.088899626305776192 -0.1113374325741409 0 0.09397493983509804 -0.11322330148444169 0 0.081894058627025895 -0.12584863130967919 0 0.079920122843727764 -0.11786127252462281 0 0.075141871126288284 -0.1211898929860986 0 0.081894058627025895 -0.12584863130967919 0 0.088899626305776192 -0.1113374325741409 0 0.079920122843727764 -0.11786127252462281 0 0.088899626305776192 -0.1113374325741409 0 0.079920122843727764 -0.11786127252462281 0 0.073744935315820714 -0.1130691332285727 0 0.068207364780656948 -0.12563827965844471 0 0.054296968429680029 -0.13171371816535249 0 0.073744935315820714 -0.1130691332285727 0 0.054296968429680029 -0.13171371816535249 0 0.073744935315820714 -0.1130691332285727 0 0.068207364780656948 -0.12563827965844471 0 0.073744935315820714 -0.1130691332285727 0 0.075141871126288284 -0.1211898929860986 0 0.079920122843727764 -0.11786127252462281 0 0.073744935315820714 -0.1130691332285727 0 0.075141871126288284 -0.1211898929860986 0 0.081894058627025895 -0.12584863130967919 0 0.068207364780656948 -0.12563827965844471 0 0.075141871126288284 -0.1211898929860986 0 0.059655618646742382 -0.10475769562984739 0 0.073744935315820714 -0.1130691332285727 0 0.069701838591585213 -0.089386546866783212 0 0.050629459546369923 -0.074776417317023003 0 0.069701838591585213 -0.089386546866783212 0 0.072219385832792832 -0.066659644627356851 0 0.069701838591585213 -0.089386546866783212 0 0.072219385832792832 -0.066659644627356851 0 0.089711563165187497 -0.078251462936863553 0 0.091985945990252393 -0.059557823171565508 0 0.072219385832792832 -0.066659644627356851 0 0.089711563165187497 -0.078251462936863553 0 0.093192902201961414 -0.094424548291792879 0 0.069701838591585213 -0.089386546866783212 0 0.089711563165187497 -0.078251462936863553 0 0.093192902201961414 -0.094424548291792879 0 0.089711563165187497 -0.078251462936863553 0 0.1048667032735431 -0.089595599910983495 0 0.089711563165187497 -0.078251462936863553 0 0.1048667032735431 -0.089595599910983495 0 0.1056935618466131 -0.072691272791708894 0 0.1048667032735431 -0.089595599910983495 0 0.1056935618466131 -0.072691272791708894 0 0.11564058922802831 -0.08068930143821873 0 0.091985945990252393 -0.059557823171565508 0 0.089711563165187497 -0.078251462936863553 0 0.1056935618466131 -0.072691272791708894 0 0.091985945990252393 -0.059557823171565508 0 0.109385226414503 -0.056941989317685793 0 0.1056935618466131 -0.072691272791708894 0 0.1174221699598199 -0.069046986946925279 0 0.12840026197867099 -0.078951386265116219 0 0.12664898879935529 -0.055605769639440771 0 0.109385226414503 -0.056941989317685793 0 0.1056935618466131 -0.072691272791708894 0 0.1174221699598199 -0.069046986946925279 0 0.1056935618466131 -0.072691272791708894 0 0.1174221699598199 -0.069046986946925279 0 0.11564058922802831 -0.08068930143821873 0 0.1174221699598199 -0.069046986946925279 0 0.11564058922802831 -0.08068930143821873 0 0.12840026197867099 -0.078951386265116219 0 0.1048667032735431 -0.089595599910983495 0 0.11564058922802831 -0.08068930143821873 0 0.1191358060176364 -0.092450830711447801 0 0.1191358060176364 -0.092450830711447801 0 0.12840026197867099 -0.078951386265116219 0 0.11564058922802831 -0.08068930143821873 0 0.1191358060176364 -0.092450830711447801 0 0.12840026197867099 -0.078951386265116219 0 0.1058809127300703 -0.11218140843774239 0 0.12023297736745781 -0.1110263554770618 0 0.12986776683311119 -0.098514185565799078 0 0.1058809127300703 -0.11218140843774239 0 0.12986776683311119 -0.098514185565799078 0 0.1048667032735431 -0.089595599910983495 0 0.1191358060176364 -0.092450830711447801 0 0.10987135005660249 -0.1059502751577799 0 0.10987135005660249 -0.1059502751577799 0 0.1058809127300703 -0.11218140843774239 0 0.12986776683311119 -0.098514185565799078 0 0.1191358060176364 -0.092450830711447801 0 0.10987135005660249 -0.1059502751577799 0 0.12986776683311119 -0.098514185565799078 0 0.1191358060176364 -0.092450830711447801 0 0.10987135005660249 -0.1059502751577799 0 0.093192902201961414 -0.094424548291792879 0 0.088899626305776192 -0.1113374325741409 0 0.099225161677519755 -0.1035257336162041 0 0.1048667032735431 -0.089595599910983495 0 0.10987135005660249 -0.1059502751577799 0 0.099225161677519755 -0.1035257336162041 0 0.10987135005660249 -0.1059502751577799 0 0.099225161677519755 -0.1035257336162041 0 0.1058809127300703 -0.11218140843774239 0 0.088899626305776192 -0.1113374325741409 0 0.099225161677519755 -0.1035257336162041 0 0.09397493983509804 -0.11322330148444169 0 0.093192902201961414 -0.094424548291792879 0 0.1048667032735431 -0.089595599910983495 0 0.099225161677519755 -0.1035257336162041 0 0.081894058627025895 -0.12584863130967919 0 0.1058809127300703 -0.11218140843774239 0 0.099525338641528904 -0.12611341339503321 0 0.081894058627025895 -0.12584863130967919 0 0.1058809127300703 -0.11218140843774239 0 0.081894058627025895 -0.12584863130967919 0 0.09397493983509804 -0.11322330148444169 0 0.1058809127300703 -0.11218140843774239 0 0.099225161677519755 -0.1035257336162041 0 0.09397493983509804 -0.11322330148444169 0 0.1058809127300703 -0.11218140843774239 0 0.099525338641528904 -0.12611341339503321 0 0.1058809127300703 -0.11218140843774239 0 0.1121708616464093 -0.1216807098986791 0 0.1058809127300703 -0.11218140843774239 0 0.1121708616464093 -0.1216807098986791 0 0.12023297736745781 -0.1110263554770618 0 0.11997683785091839 -0.1276371159963853 0 0.121067612134044 -0.1214532534018402 0 0.13188977167139071 -0.12546883223523481 0 0.12023297736745781 -0.1110263554770618 0 0.121067612134044 -0.1214532534018402 0 0.13188977167139071 -0.12546883223523481 0 0.11997683785091839 -0.1276371159963853 0 0.1121708616464093 -0.1216807098986791 0 0.121067612134044 -0.1214532534018402 0 0.1121708616464093 -0.1216807098986791 0 0.12023297736745781 -0.1110263554770618 0 0.121067612134044 -0.1214532534018402 0 0.12023297736745781 -0.1110263554770618 0 0.12986776683311119 -0.098514185565799078 0 0.13188977167139071 -0.12546883223523481 0 0.12986776683311119 -0.098514185565799078 0 0.13188977167139071 -0.12546883223523481 0 0.14925441928633251 -0.10969288085116551 0 0.13995942417209239 -0.1034127274713456 0 0.13188977167139071 -0.12546883223523481 0 0.14724036225017881 -0.1245170930860646 0 0.14925441928633251 -0.10969288085116551 0 0.13188977167139071 -0.12546883223523481 0 0.14925441928633251 -0.10969288085116551 0 0.15485465026004211 -0.11932571079310079 0 0.15999890680388329 -0.1096406796162286 0 0.14724036225017881 -0.1245170930860646 0 0.15485465026004211 -0.11932571079310079 0 0.15557261582888751 -0.13003178131142151 0 0.14724036225017881 -0.1245170930860646 0 0.14925441928633251 -0.10969288085116551 0 0.15485465026004211 -0.11932571079310079 0 0.14925441928633251 -0.10969288085116551 0 0.14348993397904131 -0.092765062884646393 0 0.1620153957752187 -0.097165399419701551 0 0.14348993397904131 -0.092765062884646393 0 0.1620153957752187 -0.097165399419701551 0 0.14925441928633251 -0.10969288085116551 0 0.13995942417209239 -0.1034127274713456 0 0.14348993397904131 -0.092765062884646393 0 0.13995942417209239 -0.1034127274713456 0 0.12986776683311119 -0.098514185565799078 0 0.13188977167139071 -0.12546883223523481 0 0.13995942417209239 -0.1034127274713456 0 0.12986776683311119 -0.098514185565799078 0 0.14348993397904131 -0.092765062884646393 0 0.12986776683311119 -0.098514185565799078 0 0.12840026197867099 -0.078951386265116219 0 0.1428482005174804 -0.076716741777837147 0 0.1191358060176364 -0.092450830711447801 0 0.12986776683311119 -0.098514185565799078 0 0.12840026197867099 -0.078951386265116219 0 0.12986776683311119 -0.098514185565799078 0 0.12840026197867099 -0.078951386265116219 0 0.12840026197867099 -0.078951386265116219 0 0.12664898879935529 -0.055605769639440771 0 0.12840026197867099 -0.078951386265116219 0 0.12664898879935529 -0.055605769639440771 0 0.14464694777039611 -0.055277979731059648 0 0.12840026197867099 -0.078951386265116219 0 0.1428482005174804 -0.076716741777837147 0 0.14464694777039611 -0.055277979731059648 0 0.12840026197867099 -0.078951386265116219 0 0.14464694777039611 -0.055277979731059648 0 0.1428482005174804 -0.076716741777837147 0 0.15680899227989839 -0.06637062400294011 0 0.14464694777039611 -0.055277979731059648 0 0.1428482005174804 -0.076716741777837147 0 0.15451703372532541 -0.084469533324270707 0 0.15680899227989839 -0.06637062400294011 0 0.12986776683311119 -0.098514185565799078 0 0.15451703372532541 -0.084469533324270707 0 0.12986776683311119 -0.098514185565799078 0 0.14348993397904131 -0.092765062884646393 0 0.15451703372532541 -0.084469533324270707 0 0.14348993397904131 -0.092765062884646393 0 0.15451703372532541 -0.084469533324270707 0 0.1620153957752187 -0.097165399419701551 0 0.12986776683311119 -0.098514185565799078 0 0.1428482005174804 -0.076716741777837147 0 0.15451703372532541 -0.084469533324270707 0 0.15451703372532541 -0.084469533324270707 0 0.1674193516126988 -0.088794767656503876 0 0.1620153957752187 -0.097165399419701551 0 0.15451703372532541 -0.084469533324270707 0 0.1674193516126988 -0.088794767656503876 0 0.16389165652408541 -0.076485311925560115 0 0.1674193516126988 -0.088794767656503876 0 0.16389165652408541 -0.076485311925560115 0 0.17613181446746839 -0.084287857658230353 0 0.15451703372532541 -0.084469533324270707 0 0.15680899227989839 -0.06637062400294011 0 0.16389165652408541 -0.076485311925560115 0 0.16389165652408541 -0.076485311925560115 0 0.1717227713635387 -0.067009979361705274 0 0.17613181446746839 -0.084287857658230353 0 0.15680899227989839 -0.06637062400294011 0 0.16389165652408541 -0.076485311925560115 0 0.1717227713635387 -0.067009979361705274 0 0.15680899227989839 -0.06637062400294011 0 0.1717227713635387 -0.067009979361705274 0 0.1652446184022294 -0.054500080927008407 0 0.1717227713635387 -0.067009979361705274 0 0.17613181446746839 -0.084287857658230353 0 0.1717227713635387 -0.067009979361705274 0 0.18346211879182289 -0.064955309332027283 0 0.18137547142311691 -0.085525622921553163 0 0.18346211879182289 -0.064955309332027283 0 0.18137547142311691 -0.085525622921553163 0 0.1952329782378138 -0.068464889048657496 0 0.1717227713635387 -0.067009979361705274 0 0.18137547142311691 -0.085525622921553163 0 0.1717227713635387 -0.067009979361705274 0 0.18346211879182289 -0.064955309332027283 0 0.1746283364613696 -0.057560297553190053 0 0.18137547142311691 -0.085525622921553163 0 0.17613181446746839 -0.084287857658230353 0 0.18054085757139629 -0.1015657359547559 0 0.17613181446746839 -0.084287857658230353 0 0.18054085757139629 -0.1015657359547559 0 0.1674193516126988 -0.088794767656503876 0 0.17613181446746839 -0.084287857658230353 0 0.18054085757139629 -0.1015657359547559 0 0.1717227713635387 -0.067009979361705274 0 0.18137547142311691 -0.085525622921553163 0 0.17613181446746839 -0.084287857658230353 0 0.18137547142311691 -0.085525622921553163 0 0.19100769245097829 -0.1040519139747048 0 0.18137547142311691 -0.085525622921553163 0 0.18054085757139629 -0.1015657359547559 0 0.19100769245097829 -0.1040519139747048 0 0.18054085757139629 -0.1015657359547559 0 0.1749190978293893 -0.1165979942053425 0 0.16884250162088479 -0.1080310140379921 0 0.18054085757139629 -0.1015657359547559 0 0.19100769245097829 -0.1040519139747048 0 0.18054085757139629 -0.1015657359547559 0 0.1862357176231304 -0.1238823921021804 0 0.1749190978293893 -0.1165979942053425 0 0.18054085757139629 -0.1015657359547559 0 0.1862357176231304 -0.1238823921021804 0 0.19100769245097829 -0.1040519139747048 0 0.18054085757139629 -0.1015657359547559 0 0.1862357176231304 -0.1238823921021804 0 0.1862357176231304 -0.1238823921021804 0 0.1749190978293893 -0.1165979942053425 0 0.17324983187337631 -0.13165498831909611 0 0.1749190978293893 -0.1165979942053425 0 0.16471491079178111 -0.1205264202314431 0 0.16884250162088479 -0.1080310140379921 0 0.16471491079178111 -0.1205264202314431 0 0.15999890680388329 -0.1096406796162286 0 0.16884250162088479 -0.1080310140379921 0 0.1749190978293893 -0.1165979942053425 0 0.16471491079178111 -0.1205264202314431 0 0.17324983187337631 -0.13165498831909611 0 0.15485465026004211 -0.11932571079310079 0 0.16471491079178111 -0.1205264202314431 0 0.15557261582888751 -0.13003178131142151 0 0.15485465026004211 -0.11932571079310079 0 0.16471491079178111 -0.1205264202314431 0 0.15999890680388329 -0.1096406796162286 0 0.18054085757139629 -0.1015657359547559 0 0.1620153957752187 -0.097165399419701551 0 0.1674193516126988 -0.088794767656503876 0 0.18054085757139629 -0.1015657359547559 0 0.1620153957752187 -0.097165399419701551 0 0.14925441928633251 -0.10969288085116551 0 0.15999890680388329 -0.1096406796162286 0 0.1620153957752187 -0.097165399419701551 0 0.15999890680388329 -0.1096406796162286 0 0.1620153957752187 -0.097165399419701551 0 0.16884250162088479 -0.1080310140379921 0 0.18054085757139629 -0.1015657359547559 0 0.1620153957752187 -0.097165399419701551 0 0.16884250162088479 -0.1080310140379921 0 0.13464870039648349 0.00080453217212592717 0 0.15480995508657039 -0.001084596553268768 0 0.14892696920713289 -0.018041582065753459 0 0.13464870039648349 0.00080453217212592717 0 0.1294320674019063 -0.023146095115484211 0 0.14892696920713289 -0.018041582065753459 0 0.13464870039648349 0.00080453217212592717 0 0.1112777463759113 -0.012222875866518469 0 0.1294320674019063 -0.023146095115484211 0 0.1294320674019063 -0.023146095115484211 0 0.14892696920713289 -0.018041582065753459 0 0.14270131340979469 -0.036531096068384838 0 0.14892696920713289 -0.018041582065753459 0 0.14270131340979469 -0.036531096068384838 0 0.16089363356212191 -0.031604573197003549 0 0.14270131340979469 -0.036531096068384838 0 0.14464694777039611 -0.055277979731059648 0 0.16089363356212191 -0.031604573197003549 0 0.14464694777039611 -0.055277979731059648 0 0.15561449558007559 -0.051164132387281437 0 0.16089363356212191 -0.031604573197003549 0 0.14464694777039611 -0.055277979731059648 0 0.16089363356212191 -0.031604573197003549 0 0.14270131340979469 -0.036531096068384838 0 0.12954193793015309 -0.041748568408345607 0 0.14464694777039611 -0.055277979731059648 0 0.1294320674019063 -0.023146095115484211 0 0.14270131340979469 -0.036531096068384838 0 0.12954193793015309 -0.041748568408345607 0 0.12954193793015309 -0.041748568408345607 0 0.12664898879935529 -0.055605769639440771 0 0.14464694777039611 -0.055277979731059648 0 0.15680899227989839 -0.06637062400294011 0 0.14464694777039611 -0.055277979731059648 0 0.15561449558007559 -0.051164132387281437 0 0.15680899227989839 -0.06637062400294011 0 0.15561449558007559 -0.051164132387281437 0 0.1652446184022294 -0.054500080927008407 0 0.15561449558007559 -0.051164132387281437 0 0.1652446184022294 -0.054500080927008407 0 0.1617942405007988 -0.043199732881276223 0 0.1652446184022294 -0.054500080927008407 0 0.1746283364613696 -0.057560297553190053 0 0.1617942405007988 -0.043199732881276223 0 0.1717227713635387 -0.067009979361705274 0 0.1652446184022294 -0.054500080927008407 0 0.1717227713635387 -0.067009979361705274 0 0.1652446184022294 -0.054500080927008407 0 0.1746283364613696 -0.057560297553190053 0 0.1746283364613696 -0.057560297553190053 0 0.1828119860636557 -0.050363577362968731 0 0.1617942405007988 -0.043199732881276223 0 0.18346211879182289 -0.064955309332027283 0 0.1746283364613696 -0.057560297553190053 0 0.1828119860636557 -0.050363577362968731 0 0.18346211879182289 -0.064955309332027283 0 0.1828119860636557 -0.050363577362968731 0 0.19188844298534441 -0.056659859735039647 0 0.1617942405007988 -0.043199732881276223 0 0.18853740735089011 -0.033706188378118708 0 0.1828119860636557 -0.050363577362968731 0 0.1617942405007988 -0.043199732881276223 0 0.18853740735089011 -0.033706188378118708 0 0.15561449558007559 -0.051164132387281437 0 0.16089363356212191 -0.031604573197003549 0 0.1617942405007988 -0.043199732881276223 0 0.16089363356212191 -0.031604573197003549 0 0.1617942405007988 -0.043199732881276223 0 0.18853740735089011 -0.033706188378118708 0 0.16089363356212191 -0.031604573197003549 0 0.17714031935384769 -0.0079311666629475405 0 0.14892696920713289 -0.018041582065753459 0 0.16089363356212191 -0.031604573197003549 0 0.17714031935384769 -0.0079311666629475405 0 0.16089363356212191 -0.031604573197003549 0 0.17714031935384769 -0.0079311666629475405 0 0.18853740735089011 -0.033706188378118708 0 0.1657030786406338 0.0084270166623369204 0 0.15480995508657039 -0.001084596553268768 0 0.17714031935384769 -0.0079311666629475405 0 0.15480995508657039 -0.001084596553268768 0 0.14892696920713289 -0.018041582065753459 0 0.17714031935384769 -0.0079311666629475405 0 0.21351355446813719 -0.0021103410187178909 0 0.2110126965438916 -0.012672932103663791 0 0.2228246624943325 -0.0092295053444410857 0 0.2110126965438916 -0.012672932103663791 0 0.21911622703360889 -0.015650702578479541 0 0.2228246624943325 -0.0092295053444410857 0 0.21351355446813719 -0.0021103410187178909 0 0.2110126965438916 -0.012672932103663791 0 0.19836939172364151 -0.01016904411482358 0 0.1998105265397013 0.00335350757378736 0 0.21351355446813719 -0.0021103410187178909 0 0.19836939172364151 -0.01016904411482358 0 0.1998105265397013 0.00335350757378736 0 0.17714031935384769 -0.0079311666629475405 0 0.19836939172364151 -0.01016904411482358 0 0.17714031935384769 -0.0079311666629475405 0 0.19836939172364151 -0.01016904411482358 0 0.18853740735089011 -0.033706188378118708 0 0.2110126965438916 -0.012672932103663791 0 0.19836939172364151 -0.01016904411482358 0 0.18853740735089011 -0.033706188378118708 0 0.21528057420098159 -0.024212643874961401 0 0.18853740735089011 -0.033706188378118708 0 0.2110126965438916 -0.012672932103663791 0 0.21528057420098159 -0.024212643874961401 0 0.18853740735089011 -0.033706188378118708 0 0.21528057420098159 -0.024212643874961401 0 0.20886364623554921 -0.031523512657201581 0 0.18853740735089011 -0.033706188378118708 0 0.2110126965438916 -0.012672932103663791 0 0.21528057420098159 -0.024212643874961401 0 0.21911622703360889 -0.015650702578479541 0 0.21528057420098159 -0.024212643874961401 0 0.2158000993154765 -0.027276596113623111 0 0.21360323626451261 -0.02858374534336202 0 0.21528057420098159 -0.024212643874961401 0 0.2158000993154765 -0.027276596113623111 0 0.21995729679401421 -0.029331280632926501 0 0.2158000993154765 -0.027276596113623111 0 0.21503400689837671 -0.030930810510401429 0 0.21995729679401421 -0.029331280632926501 0 0.2158000993154765 -0.027276596113623111 0 0.21503400689837671 -0.030930810510401429 0 0.21360323626451261 -0.02858374534336202 0 0.21528057420098159 -0.024212643874961401 0 0.21360323626451261 -0.02858374534336202 0 0.20886364623554921 -0.031523512657201581 0 0.21503400689837671 -0.030930810510401429 0 0.21360323626451261 -0.02858374534336202 0 0.20886364623554921 -0.031523512657201581 0 0.2128060919330283 -0.035124071741943173 0 0.2180191377477218 -0.035203133534298187 0 0.2167024847658664 -0.043974661413588162 0 0.21503400689837671 -0.030930810510401429 0 0.2128060919330283 -0.035124071741943173 0 0.20886364623554921 -0.031523512657201581 0 0.21503400689837671 -0.030930810510401429 0 0.2128060919330283 -0.035124071741943173 0 0.2180191377477218 -0.035203133534298187 0 0.21503400689837671 -0.030930810510401429 0 0.2180191377477218 -0.035203133534298187 0 0.21995729679401421 -0.029331280632926501 0 0.2167024847658664 -0.043974661413588162 0 0.20890374551960481 -0.040729144831228678 0 0.20897987019450001 -0.050060865146210963 0 0.2128060919330283 -0.035124071741943173 0 0.2167024847658664 -0.043974661413588162 0 0.20890374551960481 -0.040729144831228678 0 0.20890374551960481 -0.040729144831228678 0 0.19655169947710091 -0.043788383486002072 0 0.20897987019450001 -0.050060865146210963 0 0.2128060919330283 -0.035124071741943173 0 0.20890374551960481 -0.040729144831228678 0 0.20886364623554921 -0.031523512657201581 0 0.20890374551960481 -0.040729144831228678 0 0.20886364623554921 -0.031523512657201581 0 0.19655169947710091 -0.043788383486002072 0 0.1828119860636557 -0.050363577362968731 0 0.18853740735089011 -0.033706188378118708 0 0.19655169947710091 -0.043788383486002072 0 0.20886364623554921 -0.031523512657201581 0 0.18853740735089011 -0.033706188378118708 0 0.19655169947710091 -0.043788383486002072 0 0.19655169947710091 -0.043788383486002072 0 0.20138343235632811 -0.055727139445542639 0 0.20897987019450001 -0.050060865146210963 0 0.19655169947710091 -0.043788383486002072 0 0.19188844298534441 -0.056659859735039647 0 0.20138343235632811 -0.055727139445542639 0 0.1828119860636557 -0.050363577362968731 0 0.19655169947710091 -0.043788383486002072 0 0.19188844298534441 -0.056659859735039647 0 0.19188844298534441 -0.056659859735039647 0 0.20138343235632811 -0.055727139445542639 0 0.1952329782378138 -0.068464889048657496 0 0.20138343235632811 -0.055727139445542639 0 0.22670270369963491 -0.067064047377793826 0 0.20138343235632811 -0.055727139445542639 0 0.21577564808412511 -0.056666161138016313 0 0.22670270369963491 -0.067064047377793826 0 0.20138343235632811 -0.055727139445542639 0 0.20897987019450001 -0.050060865146210963 0 0.21577564808412511 -0.056666161138016313 0 0.2167024847658664 -0.043974661413588162 0 0.20897987019450001 -0.050060865146210963 0 0.21577564808412511 -0.056666161138016313 0 0.21577564808412511 -0.056666161138016313 0 0.23694359709532001 -0.061394592404840097 0 0.22670270369963491 -0.067064047377793826 0 0.21577564808412511 -0.056666161138016313 0 0.22648325856373289 -0.049317463857355977 0 0.23694359709532001 -0.061394592404840097 0 0.21577564808412511 -0.056666161138016313 0 0.23694359709532001 -0.061394592404840097 0 0.2167024847658664 -0.043974661413588162 0 0.21577564808412511 -0.056666161138016313 0 0.22648325856373289 -0.049317463857355977 0 0.22648325856373289 -0.049317463857355977 0 0.23694359709532001 -0.061394592404840097 0 0.23716366819637241 -0.046229271507985323 0 0.25811154610651499 -0.066123023671663908 0 0.23694359709532001 -0.061394592404840097 0 0.24870160087168189 -0.052882304334001928 0 0.23694359709532001 -0.061394592404840097 0 0.24870160087168189 -0.052882304334001928 0 0.23716366819637241 -0.046229271507985323 0 0.24870160087168189 -0.052882304334001928 0 0.23716366819637241 -0.046229271507985323 0 0.24731406762381819 -0.035960341631652723 0 0.23716366819637241 -0.046229271507985323 0 0.24731406762381819 -0.035960341631652723 0 0.23342582712955959 -0.033308149953783547 0 0.23342582712955959 -0.033308149953783547 0 0.2258308946769807 -0.038322632822349968 0 0.22548915127375299 -0.027513718828695861 0 0.22648325856373289 -0.049317463857355977 0 0.23716366819637241 -0.046229271507985323 0 0.2258308946769807 -0.038322632822349968 0 0.23716366819637241 -0.046229271507985323 0 0.23342582712955959 -0.033308149953783547 0 0.2258308946769807 -0.038322632822349968 0 0.2180191377477218 -0.035203133534298187 0 0.2167024847658664 -0.043974661413588162 0 0.2258308946769807 -0.038322632822349968 0 0.2167024847658664 -0.043974661413588162 0 0.22648325856373289 -0.049317463857355977 0 0.2258308946769807 -0.038322632822349968 0 0.2180191377477218 -0.035203133534298187 0 0.2258308946769807 -0.038322632822349968 0 0.21995729679401421 -0.029331280632926501 0 0.2258308946769807 -0.038322632822349968 0 0.22548915127375299 -0.027513718828695861 0 0.21995729679401421 -0.029331280632926501 0 0.21528057420098159 -0.024212643874961401 0 0.2313313538768734 -0.018514784978234038 0 0.22829619310998309 -0.01520182636873813 0 0.21528057420098159 -0.024212643874961401 0 0.2313313538768734 -0.018514784978234038 0 0.21528057420098159 -0.024212643874961401 0 0.22548915127375299 -0.027513718828695861 0 0.2313313538768734 -0.018514784978234038 0 0.21528057420098159 -0.024212643874961401 0 0.22548915127375299 -0.027513718828695861 0 0.21995729679401421 -0.029331280632926501 0 0.21528057420098159 -0.024212643874961401 0 0.22829619310998309 -0.01520182636873813 0 0.21528057420098159 -0.024212643874961401 0 0.21911622703360889 -0.015650702578479541 0 0.22829619310998309 -0.01520182636873813 0 0.2313313538768734 -0.018514784978234038 0 0.22829619310998309 -0.01520182636873813 0 0.23342582712955959 -0.033308149953783547 0 0.22548915127375299 -0.027513718828695861 0 0.2313313538768734 -0.018514784978234038 0 0.25508119948702751 -0.010083838205662381 0 0.2313313538768734 -0.018514784978234038 0 0.2482857443068576 -0.021714794414400052 0 0.24731406762381819 -0.035960341631652723 0 0.2313313538768734 -0.018514784978234038 0 0.2482857443068576 -0.021714794414400052 0 0.24731406762381819 -0.035960341631652723 0 0.23342582712955959 -0.033308149953783547 0 0.2313313538768734 -0.018514784978234038 0 0.24731406762381819 -0.035960341631652723 0 0.2313313538768734 -0.018514784978234038 0 0.25508119948702751 -0.010083838205662381 0 0.2313313538768734 -0.018514784978234038 0 0.24138147174972829 -0.0061427828714447699 0 0.25508119948702751 -0.010083838205662381 0 0.2313313538768734 -0.018514784978234038 0 0.24138147174972829 -0.0061427828714447699 0 0.22829619310998309 -0.01520182636873813 0 0.25446675038947358 0.0029162606258486688 0 0.2541426920980116 -0.0036136263454906951 0 0.24138147174972829 -0.0061427828714447699 0 0.25446675038947358 0.0029162606258486688 0 0.24138147174972829 -0.0061427828714447699 0 0.22999165343287109 0.0038227322559807589 0 0.24138147174972829 -0.0061427828714447699 0 0.23189167676904729 -0.0064153040848911828 0 0.22999165343287109 0.0038227322559807589 0 0.23189167676904729 -0.0064153040848911828 0 0.2228246624943325 -0.0092295053444410857 0 0.22999165343287109 0.0038227322559807589 0 0.21351355446813719 -0.0021103410187178909 0 0.2228246624943325 -0.0092295053444410857 0 0.23189167676904729 -0.0064153040848911828 0 0.22829619310998309 -0.01520182636873813 0 0.2228246624943325 -0.0092295053444410857 0 0.2313313538768734 -0.018514784978234038 0 0.24138147174972829 -0.0061427828714447699 0 0.22829619310998309 -0.01520182636873813 0 0.24138147174972829 -0.0061427828714447699 0 0.23189167676904729 -0.0064153040848911828 0 0.22829619310998309 -0.01520182636873813 0 0.21911622703360889 -0.015650702578479541 0 0.22829619310998309 -0.01520182636873813 0 0.2228246624943325 -0.0092295053444410857 0 0.22829619310998309 -0.01520182636873813 0 0.2228246624943325 -0.0092295053444410857 0 0.2084634723971549 -0.097930235578601213 0 0.21737999015654699 -0.1103161024944793 0 0.2275791846540145 -0.10054182369239011 0 0.21737999015654699 -0.1103161024944793 0 0.19100769245097829 -0.1040519139747048 0 0.2084634723971549 -0.097930235578601213 0 0.21140608144591419 -0.084503356370523836 0 0.2275791846540145 -0.10054182369239011 0 0.2084634723971549 -0.097930235578601213 0 0.21737999015654699 -0.1103161024944793 0 0.19100769245097829 -0.1040519139747048 0 0.21737999015654699 -0.1103161024944793 0 0.21277072480774051 -0.1248863227998855 0 0.20025029595199689 -0.1218288277367077 0 0.21737999015654699 -0.1103161024944793 0 0.21277072480774051 -0.1248863227998855 0 0.2239597136694004 -0.1277946194696456 0 0.1862357176231304 -0.1238823921021804 0 0.20025029595199689 -0.1218288277367077 0 0.19100769245097829 -0.1040519139747048 0 0.21737999015654699 -0.1103161024944793 0 0.20025029595199689 -0.1218288277367077 0 0.19100769245097829 -0.1040519139747048 0 0.20025029595199689 -0.1218288277367077 0 0.19100769245097829 -0.1040519139747048 0 0.2084634723971549 -0.097930235578601213 0 0.19100769245097829 -0.1040519139747048 0 0.19624682445825681 -0.08914472739044943 0 0.18137547142311691 -0.085525622921553163 0 0.19100769245097829 -0.1040519139747048 0 0.19624682445825681 -0.08914472739044943 0 0.19624682445825681 -0.08914472739044943 0 0.1952329782378138 -0.068464889048657496 0 0.21140608144591419 -0.084503356370523836 0 0.18137547142311691 -0.085525622921553163 0 0.19624682445825681 -0.08914472739044943 0 0.1952329782378138 -0.068464889048657496 0 0.20138343235632811 -0.055727139445542639 0 0.1952329782378138 -0.068464889048657496 0 0.21149591893834541 -0.070957707586151192 0 0.18346211879182289 -0.064955309332027283 0 0.19188844298534441 -0.056659859735039647 0 0.1952329782378138 -0.068464889048657496 0 0.1952329782378138 -0.068464889048657496 0 0.21140608144591419 -0.084503356370523836 0 0.20138343235632811 -0.055727139445542639 0 0.21149591893834541 -0.070957707586151192 0 0.22670270369963491 -0.067064047377793826 0 0.1952329782378138 -0.068464889048657496 0 0.21149591893834541 -0.070957707586151192 0 0.21140608144591419 -0.084503356370523836 0 0.2084634723971549 -0.097930235578601213 0 0.19624682445825681 -0.08914472739044943 0 0.21140608144591419 -0.084503356370523836 0 0.21149591893834541 -0.070957707586151192 0 0.21140608144591419 -0.084503356370523836 0 0.2227543989520358 -0.079029105688238177 0 0.21140608144591419 -0.084503356370523836 0 0.2275791846540145 -0.10054182369239011 0 0.2227543989520358 -0.079029105688238177 0 0.23449163343577681 -0.083610487294907485 0 0.2275791846540145 -0.10054182369239011 0 0.21140608144591419 -0.084503356370523836 0 0.2227543989520358 -0.079029105688238177 0 0.2275791846540145 -0.10054182369239011 0 0.2227543989520358 -0.079029105688238177 0 0.22670270369963491 -0.067064047377793826 0 0.23449163343577681 -0.083610487294907485 0 0.21149591893834541 -0.070957707586151192 0 0.2227543989520358 -0.079029105688238177 0 0.22670270369963491 -0.067064047377793826 0 0.25202197504294188 -0.078400955310045109 0 0.25811154610651499 -0.066123023671663908 0 0.23694359709532001 -0.061394592404840097 0 0.25202197504294188 -0.078400955310045109 0 0.22670270369963491 -0.067064047377793826 0 0.25202197504294188 -0.078400955310045109 0 0.22670270369963491 -0.067064047377793826 0 0.23449163343577681 -0.083610487294907485 0 0.25202197504294188 -0.078400955310045109 0 0.23694359709532001 -0.061394592404840097 0 0.22670270369963491 -0.067064047377793826 0 0.25811154610651499 -0.066123023671663908 0 0.23694359709532001 -0.061394592404840097 0 0.25202197504294188 -0.078400955310045109 0 0.23449163343577681 -0.083610487294907485 0 0.24624903761231479 -0.086847438891893419 0 0.23449163343577681 -0.083610487294907485 0 0.24292322406264641 -0.096552741650977186 0 0.2275791846540145 -0.10054182369239011 0 0.23449163343577681 -0.083610487294907485 0 0.24624903761231479 -0.086847438891893419 0 0.24292322406264641 -0.096552741650977186 0 0.25304747237378489 -0.090741332181114118 0 0.24624903761231479 -0.086847438891893419 0 0.24292322406264641 -0.096552741650977186 0 0.2275791846540145 -0.10054182369239011 0 0.24375228786211539 -0.116580291014256 0 0.24292322406264641 -0.096552741650977186 0 0.2275791846540145 -0.10054182369239011 0 0.24375228786211539 -0.116580291014256 0 0.25771864553297669 -0.099620140202181948 0 0.24292322406264641 -0.096552741650977186 0 0.24375228786211539 -0.116580291014256 0 0.21737999015654699 -0.1103161024944793 0 0.2275791846540145 -0.10054182369239011 0 0.24375228786211539 -0.116580291014256 0 0.21737999015654699 -0.1103161024944793 0 0.24375228786211539 -0.116580291014256 0 0.2239597136694004 -0.1277946194696456 0 0.21737999015654699 -0.1103161024944793 0 0.24375228786211539 -0.116580291014256 0 0.24375228786211539 -0.116580291014256 0 0.235054631712311 -0.13955626642273861 0 0.24955680073527009 -0.143898101237383 0 0.235054631712311 -0.13955626642273861 0 0.24955680073527009 -0.143898101237383 0 0.23627457688356679 -0.15840319400941011 0 0.25449645062408999 -0.16331052089379791 0 0.24955680073527009 -0.143898101237383 0 0.23627457688356679 -0.15840319400941011 0 0.235054631712311 -0.13955626642273861 0 0.22199130801810529 -0.1478171468904442 0 0.23627457688356679 -0.15840319400941011 0 0.24375228786211539 -0.116580291014256 0 0.235054631712311 -0.13955626642273861 0 0.2239597136694004 -0.1277946194696456 0 0.235054631712311 -0.13955626642273861 0 0.22199130801810529 -0.1478171468904442 0 0.2239597136694004 -0.1277946194696456 0 0.20025029595199689 -0.1218288277367077 0 0.20949289945301761 -0.1396057414987095 0 0.22199130801810529 -0.1478171468904442 0 0.2239597136694004 -0.1277946194696456 0 0.20949289945301761 -0.1396057414987095 0 0.21277072480774051 -0.1248863227998855 0 0.20025029595199689 -0.1218288277367077 0 0.20949289945301761 -0.1396057414987095 0 0.21277072480774051 -0.1248863227998855 0 0.2239597136694004 -0.1277946194696456 0 0.20949289945301761 -0.1396057414987095 0 0.22199130801810529 -0.1478171468904442 0 0.20949289945301761 -0.1396057414987095 0 0.2069794531536403 -0.1537888919124783 0 0.20949289945301761 -0.1396057414987095 0 0.2069794531536403 -0.1537888919124783 0 0.1919305776748628 -0.1461990482496055 0 0.2069794531536403 -0.1537888919124783 0 0.1919305776748628 -0.1461990482496055 0 0.19225769977326759 -0.16432491474026781 0 0.1862357176231304 -0.1238823921021804 0 0.1919305776748628 -0.1461990482496055 0 0.19714487019074359 -0.1333469628700395 0 0.20025029595199689 -0.1218288277367077 0 0.20949289945301761 -0.1396057414987095 0 0.19714487019074359 -0.1333469628700395 0 0.20949289945301761 -0.1396057414987095 0 0.1919305776748628 -0.1461990482496055 0 0.19714487019074359 -0.1333469628700395 0 0.1862357176231304 -0.1238823921021804 0 0.1919305776748628 -0.1461990482496055 0 0.1862357176231304 -0.1238823921021804 0 0.20025029595199689 -0.1218288277367077 0 0.19714487019074359 -0.1333469628700395 0 0.19629081049063871 -0.1815365299480412 0 0.19225769977326759 -0.16432491474026781 0 0.17982600751226671 -0.1762593337595659 0 0.19629081049063871 -0.1815365299480412 0 0.19225769977326759 -0.16432491474026781 0 0.22018657323669569 -0.16775416802968299 0 0.2069794531536403 -0.1537888919124783 0 0.19225769977326759 -0.16432491474026781 0 0.22018657323669569 -0.16775416802968299 0 0.22199130801810529 -0.1478171468904442 0 0.2069794531536403 -0.1537888919124783 0 0.22018657323669569 -0.16775416802968299 0 0.19629081049063871 -0.1815365299480412 0 0.22018657323669569 -0.16775416802968299 0 0.21237941264848451 -0.18810475376770611 0 0.22018657323669569 -0.16775416802968299 0 0.23934418379307471 -0.18436482883247621 0 0.22018657323669569 -0.16775416802968299 0 0.23934418379307471 -0.18436482883247621 0 0.21237941264848451 -0.18810475376770611 0 0.22018657323669569 -0.16775416802968299 0 0.23627457688356679 -0.15840319400941011 0 0.23934418379307471 -0.18436482883247621 0 0.22199130801810529 -0.1478171468904442 0 0.22018657323669569 -0.16775416802968299 0 0.23627457688356679 -0.15840319400941011 0 0.25449645062408999 -0.16331052089379791 0 0.23627457688356679 -0.15840319400941011 0 0.23934418379307471 -0.18436482883247621 0 0.25850179434945381 -0.20097548963526929 0 0.23934418379307471 -0.18436482883247621 0 0.25850179434945381 -0.20097548963526929 0 0.23934418379307471 -0.18436482883247621 0 0.23907695871134879 -0.21289681242661959 0 0.23907695871134879 -0.21289681242661959 0 0.22308479462261119 -0.20217133576560289 0 0.21722062693650279 -0.2226466586169516 0 0.23934418379307471 -0.18436482883247621 0 0.22308479462261119 -0.20217133576560289 0 0.21237941264848451 -0.18810475376770611 0 0.23934418379307471 -0.18436482883247621 0 0.23907695871134879 -0.21289681242661959 0 0.22308479462261119 -0.20217133576560289 0 0.25037283077400019 -0.2416092145933311 0 0.23239962387573149 -0.2337287944253621 0 0.2339549802858914 -0.24933471903745599 0 0.25658827463044448 -0.2222138965281123 0 0.23907695871134879 -0.21289681242661959 0 0.2446094219978813 -0.2276121794933563 0 0.25037283077400019 -0.2416092145933311 0 0.2446094219978813 -0.2276121794933563 0 0.23239962387573149 -0.2337287944253621 0 0.23907695871134879 -0.21289681242661959 0 0.2446094219978813 -0.2276121794933563 0 0.23239962387573149 -0.2337287944253621 0 0.23907695871134879 -0.21289681242661959 0 0.23239962387573149 -0.2337287944253621 0 0.21722062693650279 -0.2226466586169516 0 0.23239962387573149 -0.2337287944253621 0 0.2194561222393229 -0.23682627783696539 0 0.21722062693650279 -0.2226466586169516 0 0.23239962387573149 -0.2337287944253621 0 0.22502312889380549 -0.2426362774769398 0 0.2339549802858914 -0.24933471903745599 0 0.2194561222393229 -0.23682627783696539 0 0.22502312889380549 -0.2426362774769398 0 0.21456577207223029 -0.24270171036535029 0 0.23239962387573149 -0.2337287944253621 0 0.2194561222393229 -0.23682627783696539 0 0.22502312889380549 -0.2426362774769398 0 0.22331750647786899 -0.25281133177650322 0 0.22502312889380549 -0.2426362774769398 0 0.21456577207223029 -0.24270171036535029 0 0.22331750647786899 -0.25281133177650322 0 0.22502312889380549 -0.2426362774769398 0 0.2339549802858914 -0.24933471903745599 0 0.2084475354763706 -0.25511513831035743 0 0.2080714594183444 -0.2424179483002232 0 0.21336353465090491 -0.24693864317134839 0 0.2080714594183444 -0.2424179483002232 0 0.21336353465090491 -0.24693864317134839 0 0.2080714594183444 -0.2424179483002232 0 0.21336353465090491 -0.24693864317134839 0 0.21456577207223029 -0.24270171036535029 0 0.2194561222393229 -0.23682627783696539 0 0.2080714594183444 -0.2424179483002232 0 0.21456577207223029 -0.24270171036535029 0 0.21722062693650279 -0.2226466586169516 0 0.20244123733496699 -0.2260211367091485 0 0.19848523837712481 -0.2136299623964425 0 0.2080714594183444 -0.2424179483002232 0 0.21722062693650279 -0.2226466586169516 0 0.2194561222393229 -0.23682627783696539 0 0.2080714594183444 -0.2424179483002232 0 0.21722062693650279 -0.2226466586169516 0 0.2080714594183444 -0.2424179483002232 0 0.21722062693650279 -0.2226466586169516 0 0.20244123733496699 -0.2260211367091485 0 0.2080714594183444 -0.2424179483002232 0 0.18716213711817259 -0.22455639835484539 0 0.2080714594183444 -0.2424179483002232 0 0.20244123733496699 -0.2260211367091485 0 0.18716213711817259 -0.22455639835484539 0 0.20244123733496699 -0.2260211367091485 0 0.19848523837712481 -0.2136299623964425 0 0.18716213711817259 -0.22455639835484539 0 0.2080714594183444 -0.2424179483002232 0 0.19254414318066221 -0.24961624770678509 0 0.1866817818972302 -0.23981118877977231 0 0.2080714594183444 -0.2424179483002232 0 0.1866817818972302 -0.23981118877977231 0 0.18716213711817259 -0.22455639835484539 0 0.19254414318066221 -0.24961624770678509 0 0.18399505531774341 -0.24981832115951039 0 0.1866817818972302 -0.23981118877977231 0 0.21237941264848451 -0.18810475376770611 0 0.20793523744788639 -0.20366419955677639 0 0.19447652973028121 -0.19759128756789451 0 0.22308479462261119 -0.20217133576560289 0 0.21237941264848451 -0.18810475376770611 0 0.20793523744788639 -0.20366419955677639 0 0.22308479462261119 -0.20217133576560289 0 0.21722062693650279 -0.2226466586169516 0 0.20793523744788639 -0.20366419955677639 0 0.21722062693650279 -0.2226466586169516 0 0.20793523744788639 -0.20366419955677639 0 0.19848523837712481 -0.2136299623964425 0 0.19848523837712481 -0.2136299623964425 0 0.19447652973028121 -0.19759128756789451 0 0.1831457957419608 -0.2071674304332729 0 0.20793523744788639 -0.20366419955677639 0 0.19848523837712481 -0.2136299623964425 0 0.19447652973028121 -0.19759128756789451 0 0.19848523837712481 -0.2136299623964425 0 0.1831457957419608 -0.2071674304332729 0 0.18716213711817259 -0.22455639835484539 0 0.19629081049063871 -0.1815365299480412 0 0.19447652973028121 -0.19759128756789451 0 0.1840061663436266 -0.1900566622106199 0 0.19629081049063871 -0.1815365299480412 0 0.21237941264848451 -0.18810475376770611 0 0.19447652973028121 -0.19759128756789451 0 0.19447652973028121 -0.19759128756789451 0 0.1840061663436266 -0.1900566622106199 0 0.1831457957419608 -0.2071674304332729 0 0.1840061663436266 -0.1900566622106199 0 0.1831457957419608 -0.2071674304332729 0 0.16486725365112659 -0.18785963188663279 0 0.1831457957419608 -0.2071674304332729 0 0.16486725365112659 -0.18785963188663279 0 0.1831457957419608 -0.2071674304332729 0 0.16625281481800089 -0.2066948484094672 0 0.18716213711817259 -0.22455639835484539 0 0.16625281481800089 -0.2066948484094672 0 0.18716213711817259 -0.22455639835484539 0 0.16625281481800089 -0.2066948484094672 0 0.18716213711817259 -0.22455639835484539 0 0.16937657335138201 -0.22198425569814831 0 0.16625281481800089 -0.2066948484094672 0 0.15661990237239229 -0.21733625041789439 0 0.14909823278687431 -0.20687378182447139 0 0.16625281481800089 -0.2066948484094672 0 0.15661990237239229 -0.21733625041789439 0 0.16937657335138201 -0.22198425569814831 0 0.1831457957419608 -0.2071674304332729 0 0.16625281481800089 -0.2066948484094672 0 0.16486725365112659 -0.18785963188663279 0 0.16625281481800089 -0.2066948484094672 0 0.16486725365112659 -0.18785963188663279 0 0.14534349251782941 -0.188833298464089 0 0.17619278994504239 -0.24587918172992959 0 0.18399505531774341 -0.24981832115951039 0 0.1866817818972302 -0.23981118877977231 0 0.17619278994504239 -0.24587918172992959 0 0.17450151464944069 -0.23276490516368609 0 0.16609645978724119 -0.24143951784646769 0 0.17619278994504239 -0.24587918172992959 0 0.1866817818972302 -0.23981118877977231 0 0.17450151464944069 -0.23276490516368609 0 0.17450151464944069 -0.23276490516368609 0 0.18716213711817259 -0.22455639835484539 0 0.16937657335138201 -0.22198425569814831 0 0.1866817818972302 -0.23981118877977231 0 0.17450151464944069 -0.23276490516368609 0 0.18716213711817259 -0.22455639835484539 0 0.15661990237239229 -0.21733625041789439 0 0.1623464977989032 -0.22856887614484861 0 0.15090654410468329 -0.22688320449844629 0 0.15661990237239229 -0.21733625041789439 0 0.16937657335138201 -0.22198425569814831 0 0.1623464977989032 -0.22856887614484861 0 0.17450151464944069 -0.23276490516368609 0 0.1623464977989032 -0.22856887614484861 0 0.16609645978724119 -0.24143951784646769 0 0.17450151464944069 -0.23276490516368609 0 0.16937657335138201 -0.22198425569814831 0 0.1623464977989032 -0.22856887614484861 0 0.1623464977989032 -0.22856887614484861 0 0.16609645978724119 -0.24143951784646769 0 0.1528270009437688 -0.23836283418195289 0 0.16001236861667459 -0.2513654190734112 0 0.16609645978724119 -0.24143951784646769 0 0.1528270009437688 -0.23836283418195289 0 0.16978669848249819 -0.25098739912941831 0 0.17619278994504239 -0.24587918172992959 0 0.16609645978724119 -0.24143951784646769 0 0.16001236861667459 -0.2513654190734112 0 0.16978669848249819 -0.25098739912941831 0 0.16609645978724119 -0.24143951784646769 0 0.1429630926125974 -0.2502577086919005 0 0.16001236861667459 -0.2513654190734112 0 0.1528270009437688 -0.23836283418195289 0 0.1429630926125974 -0.2502577086919005 0 0.1528270009437688 -0.23836283418195289 0 0.13988621804673579 -0.23152362256679451 0 0.1528270009437688 -0.23836283418195289 0 0.15090654410468329 -0.22688320449844629 0 0.13988621804673579 -0.23152362256679451 0 0.1623464977989032 -0.22856887614484861 0 0.1528270009437688 -0.23836283418195289 0 0.15090654410468329 -0.22688320449844629 0 0.15661990237239229 -0.21733625041789439 0 0.15090654410468329 -0.22688320449844629 0 0.1428531013616163 -0.21862443918074129 0 0.15090654410468329 -0.22688320449844629 0 0.13988621804673579 -0.23152362256679451 0 0.1428531013616163 -0.21862443918074129 0 0.12018370186474731 -0.23305432747703519 0 0.12895394136930069 -0.22163642029703709 0 0.13988621804673579 -0.23152362256679451 0 0.12895394136930069 -0.22163642029703709 0 0.13988621804673579 -0.23152362256679451 0 0.1428531013616163 -0.21862443918074129 0 0.1429630926125974 -0.2502577086919005 0 0.12018370186474731 -0.23305432747703519 0 0.1429630926125974 -0.2502577086919005 0 0.12018370186474731 -0.23305432747703519 0 0.13988621804673579 -0.23152362256679451 0 0.13217397618885759 -0.25462043987800831 0 0.1429630926125974 -0.2502577086919005 0 0.12018370186474731 -0.23305432747703519 0 0.16625281481800089 -0.2066948484094672 0 0.14534349251782941 -0.188833298464089 0 0.16625281481800089 -0.2066948484094672 0 0.14534349251782941 -0.188833298464089 0 0.14909823278687431 -0.20687378182447139 0 0.14534349251782941 -0.188833298464089 0 0.14909823278687431 -0.20687378182447139 0 0.1346280568372662 -0.20359450925845249 0 0.15661990237239229 -0.21733625041789439 0 0.14909823278687431 -0.20687378182447139 0 0.1428531013616163 -0.21862443918074129 0 0.14909823278687431 -0.20687378182447139 0 0.1428531013616163 -0.21862443918074129 0 0.1346280568372662 -0.20359450925845249 0 0.1178461100078927 -0.20838697738218431 0 0.12895394136930069 -0.22163642029703709 0 0.1346280568372662 -0.20359450925845249 0 0.12895394136930069 -0.22163642029703709 0 0.1428531013616163 -0.21862443918074129 0 0.1346280568372662 -0.20359450925845249 0 0.14534349251782941 -0.188833298464089 0 0.1346280568372662 -0.20359450925845249 0 0.13128332926409281 -0.18787359724935929 0 0.1237689835273371 -0.19605207676116951 0 0.1178461100078927 -0.20838697738218431 0 0.1346280568372662 -0.20359450925845249 0 0.1237689835273371 -0.19605207676116951 0 0.1346280568372662 -0.20359450925845249 0 0.13128332926409281 -0.18787359724935929 0 0.1237689835273371 -0.19605207676116951 0 0.1232013989280239 -0.1819146573535104 0 0.13128332926409281 -0.18787359724935929 0 0.12443417021765769 -0.1709717485187108 0 0.14534349251782941 -0.188833298464089 0 0.12443417021765769 -0.1709717485187108 0 0.1232013989280239 -0.1819146573535104 0 0.13128332926409281 -0.18787359724935929 0 0.12443417021765769 -0.1709717485187108 0 0.14534349251782941 -0.188833298464089 0 0.13128332926409281 -0.18787359724935929 0 0.12443417021765769 -0.1709717485187108 0 0.14534349251782941 -0.188833298464089 0 0.13540865390058859 -0.1688207667960602 0 0.14534349251782941 -0.188833298464089 0 0.14658871156029241 -0.16855183333999291 0 0.13540865390058859 -0.1688207667960602 0 0.16486725365112659 -0.18785963188663279 0 0.14658871156029241 -0.16855183333999291 0 0.16486725365112659 -0.18785963188663279 0 0.14534349251782941 -0.188833298464089 0 0.14658871156029241 -0.16855183333999291 0 0.14658871156029241 -0.16855183333999291 0 0.13391177650968769 -0.15242347890466901 0 0.14971917460686079 -0.1530450482394467 0 0.14658871156029241 -0.16855183333999291 0 0.14971917460686079 -0.1530450482394467 0 0.16192904395431579 -0.15800089119817939 0 0.14658871156029241 -0.16855183333999291 0 0.13391177650968769 -0.15242347890466901 0 0.12831016946945831 -0.1492440347933528 0 0.14658871156029241 -0.16855183333999291 0 0.12831016946945831 -0.1492440347933528 0 0.14658871156029241 -0.16855183333999291 0 0.13540865390058859 -0.1688207667960602 0 0.1290045142054978 -0.1612372837293575 0 0.14658871156029241 -0.16855183333999291 0 0.1290045142054978 -0.1612372837293575 0 0.12831016946945831 -0.1492440347933528 0 0.13540865390058859 -0.1688207667960602 0 0.12715697753007521 -0.16591248018761531 0 0.1290045142054978 -0.1612372837293575 0 0.12443417021765769 -0.1709717485187108 0 0.13540865390058859 -0.1688207667960602 0 0.12715697753007521 -0.16591248018761531 0 0.12098675462827781 -0.16200852072179159 0 0.12715697753007521 -0.16591248018761531 0 0.1290045142054978 -0.1612372837293575 0 0.12324902196630889 -0.15465793599018671 0 0.1227471198665283 -0.15880086614903269 0 0.1290045142054978 -0.1612372837293575 0 0.13391177650968769 -0.15242347890466901 0 0.12831016946945831 -0.1492440347933528 0 0.12532898621889721 -0.13663811256420449 0 0.12324902196630889 -0.15465793599018671 0 0.1290045142054978 -0.1612372837293575 0 0.12831016946945831 -0.1492440347933528 0 0.1217036921304827 -0.1482443959076799 0 0.12831016946945831 -0.1492440347933528 0 0.12532898621889721 -0.13663811256420449 0 0.13391177650968769 -0.15242347890466901 0 0.13188977167139071 -0.12546883223523481 0 0.13391177650968769 -0.15242347890466901 0 0.13188977167139071 -0.12546883223523481 0 0.1446303542042412 -0.1380662602394005 0 0.13391177650968769 -0.15242347890466901 0 0.13188977167139071 -0.12546883223523481 0 0.12532898621889721 -0.13663811256420449 0 0.11997683785091839 -0.1276371159963853 0 0.13188977167139071 -0.12546883223523481 0 0.12532898621889721 -0.13663811256420449 0 0.1446303542042412 -0.1380662602394005 0 0.15557261582888751 -0.13003178131142151 0 0.1621281360659286 -0.14191921566573409 0 0.14724036225017881 -0.1245170930860646 0 0.13188977167139071 -0.12546883223523481 0 0.1446303542042412 -0.1380662602394005 0 0.14724036225017881 -0.1245170930860646 0 0.1446303542042412 -0.1380662602394005 0 0.15557261582888751 -0.13003178131142151 0 0.13391177650968769 -0.15242347890466901 0 0.1446303542042412 -0.1380662602394005 0 0.14971917460686079 -0.1530450482394467 0 0.1446303542042412 -0.1380662602394005 0 0.14971917460686079 -0.1530450482394467 0 0.1621281360659286 -0.14191921566573409 0 0.1621281360659286 -0.14191921566573409 0 0.17324983187337631 -0.13165498831909611 0 0.17651024624945799 -0.1485415537171802 0 0.14971917460686079 -0.1530450482394467 0 0.1621281360659286 -0.14191921566573409 0 0.16192904395431579 -0.15800089119817939 0 0.1621281360659286 -0.14191921566573409 0 0.17651024624945799 -0.1485415537171802 0 0.16192904395431579 -0.15800089119817939 0 0.16471491079178111 -0.1205264202314431 0 0.15557261582888751 -0.13003178131142151 0 0.1639163736399934 -0.1310331013819237 0 0.15557261582888751 -0.13003178131142151 0 0.1621281360659286 -0.14191921566573409 0 0.1639163736399934 -0.1310331013819237 0 0.1621281360659286 -0.14191921566573409 0 0.1639163736399934 -0.1310331013819237 0 0.17324983187337631 -0.13165498831909611 0 0.16471491079178111 -0.1205264202314431 0 0.1639163736399934 -0.1310331013819237 0 0.17324983187337631 -0.13165498831909611 0 0.1862357176231304 -0.1238823921021804 0 0.1919305776748628 -0.1461990482496055 0 0.17324983187337631 -0.13165498831909611 0 0.1919305776748628 -0.1461990482496055 0 0.17324983187337631 -0.13165498831909611 0 0.17651024624945799 -0.1485415537171802 0 0.1919305776748628 -0.1461990482496055 0 0.19225769977326759 -0.16432491474026781 0 0.17651024624945799 -0.1485415537171802 0 0.19225769977326759 -0.16432491474026781 0 0.17526083145963689 -0.16308053239281189 0 0.17982600751226671 -0.1762593337595659 0 0.19225769977326759 -0.16432491474026781 0 0.17651024624945799 -0.1485415537171802 0 0.17526083145963689 -0.16308053239281189 0 0.17526083145963689 -0.16308053239281189 0 0.17982600751226671 -0.1762593337595659 0 0.16627328335530381 -0.17069773137902189 0 0.1840061663436266 -0.1900566622106199 0 0.16486725365112659 -0.18785963188663279 0 0.17982600751226671 -0.1762593337595659 0 0.19629081049063871 -0.1815365299480412 0 0.1840061663436266 -0.1900566622106199 0 0.17982600751226671 -0.1762593337595659 0 0.16486725365112659 -0.18785963188663279 0 0.14658871156029241 -0.16855183333999291 0 0.16627328335530381 -0.17069773137902189 0 0.16486725365112659 -0.18785963188663279 0 0.17982600751226671 -0.1762593337595659 0 0.16627328335530381 -0.17069773137902189 0 0.14658871156029241 -0.16855183333999291 0 0.16192904395431579 -0.15800089119817939 0 0.16627328335530381 -0.17069773137902189 0 0.17526083145963689 -0.16308053239281189 0 0.16192904395431579 -0.15800089119817939 0 0.16627328335530381 -0.17069773137902189 0 0.17651024624945799 -0.1485415537171802 0 0.17526083145963689 -0.16308053239281189 0 0.16192904395431579 -0.15800089119817939 0 
</DataArray>
</Points>
<Cells>
<DataArray type="UInt32" Name="connectivity" format="ascii">
0 1 2 3 4 5 6 7 8 9 10 11 12 13 14 15 16 17 18 19 20 21 22 23 24 25 26 27 28 29 30 31 32 33 34 35 36 37 38 39 40 41 42 43 44 45 46 47 48 49 50 51 52 53 54 55 56 57 58 59 60 61 62 63 64 65 66 67 68 69 70 71 72 73 74 75 76 77 78 79 80 81 82 83 84 85 86 87 88 89 90 91 92 93 94 95 96 97 98 99 100 101 102 103 104 105 106 107 108 109 110 111 112 113 114 115 116 117 118 119 120 121 122 123 124 125 126 127 128 129 130 131 132 133 134 135 136 137 138 139 140 141 142 143 144 145 146 147 148 149 150 151 152 153 154 155 156 157 158 159 160 161 162 163 164 165 166 167 168 169 170 171 172 173 174 175 176 177 178 179 180 181 182 183 184 185 186 187 188 189 190 191 192 193 194 195 196 197 198 199 200 201 202 203 204 205 206 207 208 209 210 211 212 213 214 215 216 217 218 219 220 221 222 223 224 225 226 227 228 229 230 231 232 233 234 235 236 237 238 239 240 241 242 243 244 245 246 247 248 249 250 251 252 253 254 255 256 257 258 259 260 261 262 263 264 265 266 267 268 269 270 271 272 273 274 275 276 277 278 279 280 281 282 283 284 285 286 287 288 289 290 291 292 293 294 295 296 297 298 299 300 301 302 303 304 305 306 307 308 309 310 311 312 313 314 315 316 317 318 319 320 321 322 323 324 325 326 327 328 329 330 331 332 333 334 335 336 337 338 339 340 341 342 343 344 345 346 347 348 349 350 351 352 353 354 355 356 357 358 359 360 361 362 363 364 365 366 367 368 369 370 371 372 373 374 375 376 377 378 379 380 381 382 383 384 385 386 387 388 389 390 391 392 393 394 395 396 397 398 399 400 401 402 403 404 405 406 407 408 409 410 411 412 413 414 415 416 417 418 419 420 421 422 423 424 425 426 427 428 429 430 431 432 433 434 435 436 437 438 439 440 441 442 443 444 445 446 447 448 449 450 451 452 453 454 455 456 457 458 459 460 461 462 463 464 465 466 467 468 469 470 471 472 473 474 475 476 477 478 479 480 481 482 483 484 485 486 487 488 489 490 491 492 493 494 495 496 497 498 499 500 501 502 503 504 505 506 507 508 509 510 511 512 513 514 515 516 517 518 519 520 521 522 523 524 525 526 527 528 529 530 531 532 533 534 535 536 537 538 539 540 541 542 543 544 545 546 547 548 549 550 551 552 553 554 555 556 557 558 559 560 561 562 563 564 565 566 567 568 569 570 571 572 573 574 575 576 577 578 579 580 581 582 583 584 585 586 587 588 589 590 591 592 593 594 595 596 597 598 599 600 601 602 603 604 605 606 607 608 609 610 611 612 613 614 615 616 617 618 619 620 621 622 623 624 625 626 627 628 629 630 631 632 633 634 635 636 637 638 639 640 641 642 643 644 645 646 647 648 649 650 651 652 653 654 655 656 657 658 659 660 661 662 663 664 665 666 667 668 669 670 671 672 673 674 675 676 677 678 679 680 681 682 683 684 685 686 687 688 689 690 691 692 693 694 695 696 697 698 699 700 701 702 703 704 705 706 707 708 709 710 711 712 713 714 715 716 717 718 719 720 721 722 723 724 725 726 727 728 729 730 731 732 733 734 735 736 737 738 739 740 741 742 743 744 745 746 747 748 749 750 751 752 753 754 755 756 757 758 759 760 761 762 763 764 765 766 767 768 769 770 771 772 773 774 775 776 777 778 779 780 781 782 783 784 785 786 787 788 789 790 791 792 793 794 795 796 797 798 799 800 801 802 803 804 805 806 807 808 809 810 811 812 813 814 815 816 817 818 819 820 821 822 823 824 825 826 827 828 829 830 831 832 833 834 835 836 837 838 839 840 841 842 843 844 845 846 847 848 849 850 851 852 853 854 855 856 857 858 859 860 861 862 863 864 865 866 867 868 869 870 871 872 873 874 875 876 877 878 879 880 881 882 883 884 885 886 887 888 889 890 891 892 893 894 895 896 897 898 899 900 901 902 903 904 905 906 907 908 909 910 911 912 913 914 915 916 917 918 919 920 921 922 923 924 925 926 927 928 929 930 931 932 933 934 935 936 937 938 939 940 941 942 943 944 945 946 947 948 949 950 951 952 953 954 955 956 957 958 959 960 961 962 963 964 965 966 967 968 969 970 971 972 973 974 975 976 977 978 979 980 981 982 983 984 985 986 987 988 989 990 991 992 993 994 995 996 997 998 999 1000 1001 1002 1003 1004 1005 1006 1007 1008 1009 1010 1011 1012 1013 1014 1015 1016 1017 1018 1019 1020 1021 1022 1023 1024 1025 1026 1027 1028 1029 1030 1031 1032 1033 1034 1035 1036 1037 1038 1039 1040 1041 1042 1043 1044 1045 1046 1047 1048 1049 1050 1051 1052 1053 1054 1055 1056 1057 1058 1059 1060 1061 1062 1063 1064 1065 1066 1067 1068 1069 1070 1071 1072 1073 1074 1075 1076 1077 1078 1079 1080 1081 1082 1083 1084 1085 1086 1087 1088 1089 1090 1091 1092 1093 1094 1095 1096 1097 1098 1099 1100 1101 1102 1103 1104 1105 1106 1107 1108 1109 1110 1111 1112 1113 1114 1115 1116 1117 1118 1119 1120 1121 1122 1123 1124 1125 1126 1127 1128 1129 1130 1131 1132 1133 1134 1135 1136 1137 1138 1139 1140 1141 1142 1143 1144 1145 1146 1147 1148 1149 1150 1151 1152 1153 1154 1155 1156 1157 1158 1159 1160 1161 1162 1163 1164 1165 1166 1167 1168 1169 1170 1171 1172 1173 1174 1175 1176 1177 1178 1179 1180 1181 1182 1183 1184 1185 1186 1187 1188 1189 1190 1191 1192 1193 1194 1195 1196 1197 1198 1199 1200 1201 1202 1203 1204 1205 1206 1207 1208 1209 1210 1211 1212 1213 1214 1215 1216 1217 1218 1219 1220 1221 1222 1223 1224 1225 1226 1227 1228 1229 1230 1231 1232 1233 1234 1235 1236 1237 1238 1239 1240 1241 1242 1243 1244 1245 1246 1247 1248 1249 1250 1251 1252 1253 1254 1255 1256 1257 1258 1259 1260 1261 1262 1263 1264 1265 1266 1267 1268 1269 1270 1271 1272 1273 1274 1275 1276 1277 1278 1279 1280 1281 1282 1283 1284 1285 1286 1287 1288 1289 1290 1291 1292 1293 1294 1295 1296 1297 1298 1299 1300 1301 1302 1303 1304 1305 1306 1307 1308 1309 1310 1311 1312 1313 1314 1315 1316 1317 1318 1319 1320 1321 1322 1323 1324 1325 1326 1327 1328 1329 1330 1331 1332 1333 1334 1335 1336 1337 1338 1339 1340 1341 1342 1343 1344 1345 1346 1347 1348 1349 1350 1351 1352 1353 1354 1355 1356 1357 1358 1359 1360 1361 1362 1363 1364 1365 1366 1367 1368 1369 1370 1371 1372 1373 1374 1375 1376 1377 1378 1379 1380 1381 1382 1383 1384 1385 1386 1387 1388 1389 1390 1391 1392 1393 1394 1395 1396 1397 1398 1399 1400 1401 1402 1403 1404 1405 1406 1407 1408 1409 1410 1411 1412 1413 1414 1415 1416 1417 1418 1419 1420 1421 1422 1423 1424 1425 1426 1427 1428 1429 1430 1431 1432 1433 1434 1435 1436 1437 1438 1439 1440 1441 1442 1443 1444 1445 1446 1447 1448 1449 1450 1451 1452 1453 1454 1455 1456 1457 1458 1459 1460 1461 1462 1463 1464 1465 1466 1467 1468 1469 1470 1471 1472 1473 1474 1475 1476 1477 1478 1479 1480 1481 1482 1483 1484 1485 1486 1487 1488 1489 1490 1491 1492 1493 1494 1495 1496 1497 1498 1499 1500 1501 1502 1503 1504 1505 1506 1507 1508 1509 1510 1511 1512 1513 1514 1515 1516 1517 1518 1519 1520 1521 1522 1523 1524 1525 1526 1527 1528 1529 1530 1531 1532 1533 1534 1535 1536 1537 1538 1539 1540 1541 1542 1543 1544 1545 1546 1547 1548 1549 1550 1551 1552 1553 1554 1555 1556 1557 1558 1559 1560 1561 1562 1563 1564 1565 1566 1567 1568 1569 1570 1571 1572 1573 1574 1575 1576 1577 1578 1579 1580 1581 1582 1583 1584 1585 1586 1587 1588 1589 1590 1591 1592 1593 1594 1595 1596 1597 1598 1599 1600 1601 1602 1603 1604 1605 1606 1607 1608 1609 1610 1611 1612 1613 1614 1615 1616 1617 1618 1619 1620 1621 1622 1623 1624 1625 1626 1627 1628 1629 1630 1631 1632 1633 1634 1635 1636 1637 1638 1639 1640 1641 1642 1643 1644 1645 1646 1647 1648 1649 1650 1651 1652 1653 1654 1655 1656 1657 1658 1659 1660 1661 1662 1663 1664 1665 1666 1667 1668 1669 1670 1671 1672 1673 1674 1675 1676 1677 1678 1679 1680 1681 1682 1683 1684 1685 1686 1687 1688 1689 1690 1691 1692 1693 1694 1695 1696 1697 1698 1699 1700 1701 1702 1703 1704 1705 1706 1707 1708 1709 1710 1711 1712 1713 1714 1715 1716 1717 1718 1719 1720 1721 1722 1723 1724 1725 1726 1727 1728 1729 1730 1731 1732 1733 1734 1735 1736 1737 1738 1739 1740 1741 1742 1743 1744 1745 1746 1747 1748 1749 1750 1751 1752 1753 1754 1755 1756 1757 1758 1759 1760 1761 1762 1763 1764 1765 1766 1767 1768 1769 1770 1771 1772 1773 1774 1775 1776 1777 1778 1779 1780 1781 1782 1783 1784 1785 1786 1787 1788 1789 1790 1791 1792 1793 1794 1795 1796 1797 1798 1799 1800 1801 1802 1803 1804 1805 1806 1807 1808 1809 1810 1811 1812 1813 1814 1815 1816 1817 1818 1819 1820 1821 1822 1823 1824 1825 1826 1827 1828 1829 1830 1831 1832 1833 1834 1835 1836 1837 1838 1839 1840 1841 1842 1843 1844 1845 1846 1847 1848 1849 1850 1851 1852 1853 1854 1855 1856 1857 1858 1859 1860 1861 1862 1863 1864 1865 1866 1867 1868 1869 1870 1871 1872 1873 1874 1875 1876 1877 1878 1879 1880 1881 1882 1883 1884 1885 1886 1887 1888 1889 1890 1891 1892 1893 1894 1895 1896 1897 1898 1899 1900 1901 1902 1903 1904 1905 1906 1907 1908 1909 1910 1911 1912 1913 1914 1915 1916 1917 1918 1919 1920 1921 1922 1923 1924 1925 1926 1927 1928 1929 1930 1931 1932 1933 1934 1935 1936 1937 1938 1939 1940 1941 1942 1943 1944 1945 1946 1947 1948 1949 1950 1951 1952 1953 1954 1955 1956 1957 1958 1959 1960 1961 1962 1963 1964 1965 1966 1967 1968 1969 1970 1971 1972 1973 1974 1975 1976 1977 1978 1979 1980 1981 1982 1983 1984 1985 1986 1987 1988 1989 1990 1991 1992 1993 1994 1995 1996 1997 1998 1999 2000 2001 2002 2003 2004 2005 2006 2007 2008 2009 2010 2011 2012 2013 2014 2015 2016 2017 2018 2019 2020 2021 2022 2023 2024 2025 2026 2027 2028 2029 2030 2031 2032 2033 2034 2035 2036 2037 2038 2039 2040 2041 2042 2043 2044 2045 2046 2047 2048 2049 2050 2051 2052 2053 2054 2055 2056 2057 2058 2059 2060 2061 2062 2063 2064 2065 2066 2067 2068 2069 2070 2071 2072 2073 2074 2075 2076 2077 2078 2079 2080 2081 2082 2083 2084 2085 2086 2087 2088 2089 2090 2091 2092 2093 2094 2095 2096 2097 2098 2099 2100 2101 2102 2103 2104 2105 2106 2107 2108 2109 2110 2111 2112 2113 2114 2115 2116 2117 2118 2119 2120 2121 2122 2123 2124 2125 2126 2127 2128 2129 2130 2131 2132 2133 2134 2135 2136 2137 2138 2139 2140 2141 2142 2143 2144 2145 2146 2147 2148 2149 2150 2151 2152 2153 2154 2155 2156 2157 2158 2159 2160 2161 2162 2163 2164 2165 2166 2167 2168 2169 2170 2171 2172 2173 2174 2175 2176 2177 2178 2179 2180 2181 2182 2183 2184 2185 2186 2187 2188 2189 2190 2191 2192 2193 2194 2195 2196 2197 2198 2199 2200 2201 2202 2203 2204 2205 2206 2207 2208 2209 2210 2211 2212 2213 2214 2215 2216 2217 2218 2219 2220 2221 2222 2223 2224 2225 2226 2227 2228 2229 2230 2231 2232 2233 2234 2235 2236 2237 2238 2239 2240 2241 2242 2243 2244 2245 2246 2247 2248 2249 2250 2251 2252 2253 2254 2255 2256 2257 2258 2259 2260 2261 2262 2263 2264 2265 2266 2267 2268 2269 2270 2271 2272 2273 2274 2275 2276 2277 2278 2279 2280 2281 2282 2283 2284 2285 2286 2287 2288 2289 2290 2291 2292 2293 2294 2295 2296 2297 2298 2299 2300 2301 2302 2303 2304 2305 2306 2307 2308 2309 2310 2311 2312 2313 2314 2315 2316 2317 2318 2319 2320 2321 2322 2323 2324 2325 2326 2327 2328 2329 2330 2331 2332 2333 2334 2335 2336 2337 2338 2339 2340 2341 2342 2343 2344 2345 2346 2347 2348 2349 2350 2351 2352 2353 2354 2355 2356 2357 2358 2359 2360 2361 2362 2363 2364 2365 2366 2367 2368 2369 2370 2371 2372 2373 2374 2375 2376 2377 2378 2379 2380 2381 2382 2383 2384 2385 2386 2387 2388 2389 2390 2391 2392 2393 2394 2395 2396 2397 2398 2399 2400 2401 2402 2403 2404 2405 2406 2407 2408 2409 2410 2411 2412 2413 2414 2415 2416 2417 2418 2419 2420 2421 2422 2423 2424 2425 2426 2427 2428 2429 2430 2431 2432 2433 2434 2435 2436 2437 2438 2439 2440 2441 2442 2443 2444 2445 2446 2447 2448 2449 2450 2451 2452 2453 2454 2455 2456 2457 2458 2459 2460 2461 2462 2463 2464 2465 2466 2467 2468 2469 2470 2471 2472 2473 2474 2475 2476 2477 2478 2479 2480 2481 2482 2483 2484 2485 2486 2487 2488 2489 2490 2491 2492 2493 2494 2495 2496 2497 2498 2499 2500 2501 2502 2503 2504 2505 2506 2507 2508 2509 2510 2511 2512 2513 2514 2515 2516 2517 2518 2519 2520 2521 2522 2523 2524 2525 2526 2527 2528 2529 2530 2531 2532 2533 2534 2535 2536 2537 2538 2539 2540 2541 2542 2543 2544 2545 2546 2547 2548 2549 2550 2551 2552 2553 2554 2555 2556 2557 2558 2559 2560 2561 2562 2563 2564 2565 2566 2567 2568 2569 2570 2571 2572 2573 2574 2575 2576 2577 2578 2579 2580 2581 2582 2583 2584 2585 2586 2587 2588 2589 2590 2591 2592 2593 2594 2595 2596 2597 2598 2599 2600 2601 2602 2603 2604 2605 2606 2607 2608 2609 2610 2611 2612 2613 2614 2615 2616 2617 2618 2619 2620 2621 2622 2623 2624 2625 2626 2627 2628 2629 2630 2631 2632 2633 2634 2635 2636 2637 2638 2639 2640 2641 2642 2643 2644 2645 2646 2647 2648 2649 2650 2651 2652 2653 2654 2655 2656 2657 2658 2659 2660 2661 2662 2663 2664 2665 2666 2667 2668 2669 2670 2671 2672 2673 2674 2675 2676 2677 2678 2679 2680 2681 2682 2683 2684 2685 2686 2687 2688 2689 2690 2691 2692 2693 2694 2695 2696 2697 2698 2699 2700 2701 2702 2703 2704 2705 2706 2707 2708 2709 2710 2711 2712 2713 2714 2715 2716 2717 2718 2719 2720 2721 2722 2723 2724 2725 2726 2727 2728 2729 2730 2731 2732 2733 2734 2735 2736 2737 2738 2739 2740 2741 2742 2743 2744 2745 2746 2747 2748 2749 2750 2751 2752 2753 2754 2755 2756 2757 2758 2759 2760 2761 2762 2763 2764 2765 2766 2767 2768 2769 2770 2771 2772 2773 2774 2775 2776 2777 2778 2779 2780 2781 2782 2783 2784 2785 2786 2787 2788 2789 2790 2791 2792 2793 2794 2795 2796 2797 2798 2799 2800 2801 2802 2803 2804 2805 2806 2807 2808 2809 2810 2811 2812 2813 2814 2815 2816 2817 2818 2819 2820 2821 2822 2823 2824 2825 2826 2827 2828 2829 2830 2831 2832 2833 2834 2835 2836 2837 2838 2839 2840 2841 2842 2843 2844 2845 2846 2847 2848 2849 2850 2851 2852 2853 2854 2855 2856 2857 2858 2859 2860 2861 2862 2863 2864 2865 2866 2867 2868 2869 2870 2871 2872 2873 2874 2875 2876 2877 2878 2879 2880 2881 2882 2883 2884 2885 2886 2887 2888 2889 2890 2891 2892 2893 2894 2895 2896 2897 2898 2899 2900 2901 2902 2903 2904 2905 2906 2907 2908 2909 2910 2911 2912 2913 2914 2915 2916 2917 2918 2919 2920 2921 2922 2923 2924 2925 2926 2927 2928 2929 2930 2931 2932 2933 2934 2935 2936 2937 2938 2939 2940 2941 2942 2943 2944 2945 2946 2947 2948 2949 2950 2951 2952 2953 2954 2955 2956 2957 2958 2959 2960 2961 2962 2963 2964 2965 2966 2967 2968 2969 2970 2971 2972 2973 2974 2975 2976 2977 2978 2979 2980 2981 2982 2983 2984 2985 2986 2987 2988 2989 2990 2991 2992 2993 2994 2995 2996 2997 2998 2999 3000 3001 3002 3003 3004 3005 3006 3007 3008 3009 3010 3011 3012 3013 3014 3015 3016 3017 3018 3019 3020 3021 3022 3023 3024 3025 3026 3027 3028 3029 3030 3031 3032 3033 3034 3035 3036 3037 3038 3039 3040 3041 3042 3043 3044 3045 3046 3047 3048 3049 3050 3051 3052 3053 3054 3055 3056 3057 3058 3059 3060 3061 3062 3063 3064 3065 3066 3067 3068 3069 3070 3071 3072 3073 3074 3075 3076 3077 3078 3079 3080 3081 3082 3083 3084 3085 3086 3087 3088 3089 3090 3091 3092 3093 3094 3095 3096 3097 3098 3099 3100 3101 3102 3103 3104 3105 3106 3107 3108 3109 3110 3111 3112 3113 3114 3115 3116 3117 3118 3119 3120 3121 3122 3123 3124 3125 3126 3127 3128 3129 3130 3131 3132 3133 3134 3135 3136 3137 3138 3139 3140 3141 3142 3143 3144 3145 3146 3147 3148 3149 3150 3151 3152 3153 3154 3155 3156 3157 3158 3159 3160 3161 3162 3163 3164 3165 3166 3167 3168 3169 3170 3171 3172 3173 3174 3175 3176 3177 3178 3179 3180 3181 3182 3183 3184 3185 3186 3187 3188 3189 3190 3191 3192 3193 3194 3195 3196 3197 3198 3199 3200 3201 3202 3203 3204 3205 3206 3207 3208 3209 3210 3211 3212 3213 3214 3215 3216 3217 3218 3219 3220 3221 3222 3223 3224 3225 3226 3227 3228 3229 3230 3231 3232 3233 3234 3235 3236 3237 3238 3239 3240 3241 3242 3243 3244 3245 3246 3247 3248 3249 3250 3251 3252 3253 3254 3255 3256 3257 3258 3259 3260 3261 3262 3263 3264 3265 3266 3267 3268 3269 3270 3271 3272 3273 3274 3275 3276 3277 3278 3279 3280 3281 3282 3283 3284 3285 3286 3287 3288 3289 3290 3291 3292 3293 3294 3295 3296 3297 3298 3299 3300 3301 3302 3303 3304 3305 3306 3307 3308 3309 3310 3311 3312 3313 3314 3315 3316 3317 3318 3319 3320 3321 3322 3323 3324 3325 3326 3327 3328 3329 3330 3331 3332 3333 3334 3335 3336 3337 3338 3339 3340 3341 3342 3343 3344 3345 3346 3347 3348 3349 3350 3351 3352 3353 3354 3355 3356 3357 3358 3359 3360 3361 3362 3363 3364 3365 3366 3367 3368 3369 3370 3371 3372 3373 3374 3375 3376 3377 3378 3379 3380 3381 3382 3383 3384 3385 3386 3387 3388 3389 3390 3391 3392 3393 3394 3395 3396 3397 3398 3399 3400 3401 3402 3403 3404 3405 3406 3407 3408 3409 3410 3411 3412 3413 3414 3415 3416 3417 3418 3419 3420 3421 3422 3423 3424 3425 3426 3427 3428 3429 3430 3431 3432 3433 3434 3435 3436 3437 3438 3439 3440 3441 3442 3443 3444 3445 3446 3447 3448 3449 3450 3451 3452 3453 3454 3455 3456 3457 3458 3459 3460 3461 3462 3463 3464 3465 3466 3467 3468 3469 3470 3471 3472 3473 3474 3475 3476 3477 3478 3479 3480 3481 3482 3483 3484 3485 3486 3487 3488 3489 3490 3491 3492 3493 3494 3495 3496 3497 3498 3499 3500 3501 3502 3503 3504 3505 3506 3507 3508 3509 3510 3511 3512 3513 3514 3515 3516 3517 3518 3519 3520 3521 3522 3523 3524 3525 3526 3527 3528 3529 3530 3531 3532 3533 3534 3535 3536 3537 3538 3539 3540 3541 3542 3543 3544 3545 3546 3547 3548 3549 3550 3551 3552 3553 3554 3555 3556 3557 3558 3559 3560 3561 3562 3563 3564 3565 3566 3567 3568 3569 3570 3571 3572 3573 3574 3575 3576 3577 3578 3579 3580 3581 3582 3583 3584 3585 3586 3587 3588 3589 3590 3591 3592 3593 3594 3595 3596 3597 3598 3599 3600 3601 3602 3603 3604 3605 3606 3607 3608 3609 3610 3611 3612 3613 3614 3615 3616 3617 3618 3619 3620 3621 3622 3623 3624 3625 3626 3627 3628 3629 3630 3631 3632 3633 3634 3635 3636 3637 3638 3639 3640 3641 3642 3643 3644 3645 3646 3647 3648 3649 3650 3651 3652 3653 3654 3655 3656 3657 3658 3659 3660 3661 3662 3663 3664 3665 3666 3667 3668 3669 3670 3671 3672 3673 3674 3675 3676 3677 3678 3679 3680 3681 3682 3683 3684 3685 3686 3687 3688 3689 3690 3691 3692 3693 3694 3695 3696 3697 3698 3699 3700 3701 3702 3703 3704 3705 3706 3707 3708 3709 3710 3711 3712 3713 3714 3715 3716 3717 3718 3719 3720 3721 3722 3723 3724 3725 3726 3727 3728 3729 3730 3731 3732 3733 3734 3735 3736 3737 3738 3739 3740 3741 3742 3743 3744 3745 3746 3747 3748 3749 3750 3751 3752 3753 3754 3755 3756 3757 3758 3759 3760 3761 3762 3763 3764 3765 3766 3767 3768 3769 3770 3771 3772 3773 3774 3775 3776 3777 3778 3779 3780 3781 3782 3783 3784 3785 3786 3787 3788 3789 3790 3791 3792 3793 3794 3795 3796 3797 3798 3799 3800 3801 3802 3803 3804 3805 3806 3807 3808 3809 3810 3811 3812 3813 3814 3815 3816 3817 3818 3819 3820 3821 3822 3823 3824 3825 3826 3827 3828 3829 3830 3831 3832 3833 3834 3835 3836 3837 3838 3839 3840 3841 3842 3843 3844 3845 3846 3847 3848 3849 3850 3851 3852 3853 3854 3855 3856 3857 3858 3859 3860 3861 3862 3863 3864 3865 3866 3867 3868 3869 3870 3871 3872 3873 3874 3875 3876 3877 3878 3879 3880 3881 3882 3883 3884 3885 3886 3887 3888 3889 3890 3891 3892 3893 3894 3895 3896 3897 3898 3899 3900 3901 3902 3903 3904 3905 3906 3907 3908 3909 3910 3911 3912 3913 3914 3915 3916 3917 3918 3919 3920 3921 3922 3923 3924 3925 3926 3927 3928 3929 3930 3931 3932 3933 3934 3935 3936 3937 3938 3939 3940 3941 3942 3943 3944 3945 3946 3947 3948 3949 3950 3951 3952 3953 3954 3955 3956 3957 3958 3959 3960 3961 3962 3963 3964 3965 3966 3967 3968 3969 3970 3971 3972 3973 3974 3975 3976 3977 3978 3979 3980 3981 3982 3983 3984 3985 3986 3987 3988 3989 3990 3991 3992 3993 3994 3995 3996 3997 3998 3999 4000 4001 4002 4003 4004 4005 4006 4007 4008 4009 4010 4011 4012 4013 4014 4015 4016 4017 4018 4019 4020 4021 4022 4023 4024 4025 4026 4027 4028 4029 4030 4031 4032 4033 4034 4035 4036 4037 4038 4039 4040 4041 4042 4043 4044 4045 4046 4047 4048 4049 4050 4051 4052 4053 4054 4055 4056 4057 4058 4059 4060 4061 4062 4063 4064 4065 4066 4067 4068 4069 4070 4071 4072 4073 4074 4075 4076 4077 4078 4079 4080 4081 4082 4083 4084 4085 4086 4087 4088 4089 4090 4091 4092 4093 4094 4095 4096 4097 4098 4099 4100 4101 4102 4103 4104 4105 4106 4107 4108 4109 4110 4111 4112 4113 4114 4115 4116 4117 4118 4119 4120 4121 4122 4123 4124 4125 4126 4127 4128 4129 4130 4131 4132 4133 4134 4135 4136 4137 4138 4139 4140 4141 4142 4143 4144 4145 4146 4147 4148 4149 4150 4151 4152 4153 4154 4155 4156 4157 4158 4159 4160 4161 4162 4163 4164 4165 4166 4167 4168 4169 4170 4171 4172 4173 4174 4175 4176 4177 4178 4179 4180 4181 4182 4183 4184 4185 4186 4187 4188 4189 4190 4191 4192 4193 4194 4195 4196 4197 4198 4199 4200 4201 4202 4203 4204 4205 4206 4207 4208 4209 4210 4211 4212 4213 4214 4215 4216 4217 4218 4219 4220 4221 4222 4223 4224 4225 4226 4227 4228 4229 4230 4231 4232 4233 4234 4235 4236 4237 4238 4239 4240 4241 4242 4243 4244 4245 4246 4247 4248 4249 4250 4251 4252 4253 4254 4255 4256 4257 4258 4259 4260 4261 4262 4263 4264 4265 4266 4267 4268 4269 4270 4271 4272 4273 4274 4275 4276 4277 4278 4279 4280 4281 4282 4283 4284 4285 4286 4287 4288 4289 4290 4291 4292 4293 4294 4295 4296 4297 4298 4299 4300 4301 4302 4303 4304 4305 4306 4307 4308 4309 4310 4311 4312 4313 4314 4315 4316 4317 4318 4319 4320 4321 4322 4323 4324 4325 4326 4327 4328 4329 4330 4331 4332 4333 4334 4335 4336 4337 4338 4339 4340 4341 4342 4343 4344 4345 4346 4347 4348 4349 4350 4351 4352 4353 4354 4355 4356 4357 4358 4359 4360 4361 4362 4363 4364 4365 4366 4367 4368 4369 4370 4371 4372 4373 4374 4375 4376 4377 4378 4379 4380 4381 4382 4383 4384 4385 4386 4387 4388 4389 4390 4391 4392 4393 4394 4395 4396 4397 4398 4399 4400 4401 4402 4403 4404 4405 4406 4407 4408 4409 4410 4411 4412 4413 4414 4415 4416 4417 4418 4419 4420 4421 4422 4423 4424 4425 4426 4427 4428 4429 4430 4431 4432 4433 4434 4435 4436 4437 4438 4439 4440 4441 4442 4443 4444 4445 4446 4447 4448 4449 4450 4451 4452 4453 4454 4455 4456 4457 4458 4459 4460 4461 4462 4463 4464 4465 4466 4467 4468 4469 4470 4471 4472 4473 4474 4475 4476 4477 4478 4479 4480 4481 4482 4483 4484 4485 4486 4487 4488 4489 4490 4491 4492 4493 4494 4495 4496 4497 4498 4499 4500 4501 4502 4503 4504 4505 4506 4507 4508 4509 4510 4511 4512 4513 4514 4515 4516 4517 4518 4519 4520 4521 4522 4523 4524 4525 4526 4527 4528 4529 4530 4531 4532 4533 4534 4535 4536 4537 4538 4539 4540 4541 4542 4543 4544 4545 4546 4547 4548 4549 4550 4551 4552 4553 4554 4555 4556 4557 4558 4559 4560 4561 4562 4563 4564 4565 4566 4567 4568 4569 4570 4571 4572 4573 4574 4575 4576 4577 4578 4579 4580 4581 4582 4583 4584 4585 4586 4587 4588 4589 4590 4591 4592 4593 4594 4595 4596 4597 4598 4599 4600 4601 4602 4603 4604 4605 4606 4607 4608 4609 4610 4611 4612 4613 4614 4615 4616 4617 4618 4619 4620 4621 4622 4623 4624 4625 4626 4627 4628 4629 4630 4631 4632 4633 4634 4635 4636 4637 4638 4639 4640 4641 4642 4643 4644 4645 4646 4647 4648 4649 4650 4651 4652 4653 4654 4655 4656 4657 4658 4659 4660 4661 4662 4663 4664 4665 4666 4667 4668 4669 4670 4671 4672 4673 4674 4675 4676 4677 4678 4679 4680 4681 4682 4683 4684 4685 4686 4687 4688 4689 4690 4691 4692 4693 4694 4695 4696 4697 4698 4699 4700 4701 4702 4703 4704 4705 4706 4707 4708 4709 4710 4711 4712 4713 4714 4715 4716 4717 4718 4719 4720 4721 4722 4723 4724 4725 4726 4727 4728 4729 4730 4731 4732 4733 4734 4735 4736 4737 4738 4739 4740 4741 4742 4743 4744 4745 4746 4747 4748 4749 4750 4751 4752 4753 4754 4755 4756 4757 4758 4759 4760 4761 4762 4763 4764 4765 4766 4767 4768 4769 4770 4771 4772 4773 4774 4775 4776 4777 4778 4779 4780 4781 4782 4783 4784 4785 4786 4787 4788 4789 4790 4791 4792 4793 4794 4795 4796 4797 4798 4799 4800 4801 4802 4803 4804 4805 4806 4807 4808 4809 4810 4811 4812 4813 4814 4815 4816 4817 4818 4819 4820 4821 4822 4823 4824 4825 4826 4827 4828 4829 4830 4831 4832 4833 4834 4835 4836 4837 4838 4839 4840 4841 4842 4843 4844 4845 4846 4847 4848 4849 4850 4851 4852 4853 4854 4855 4856 4857 4858 4859 4860 4861 4862 4863 4864 4865 4866 4867 4868 4869 4870 4871 4872 4873 4874 4875 4876 4877 4878 4879 4880 4881 4882 4883 4884 4885 4886 4887 4888 4889 4890 4891 4892 4893 4894 4895 4896 4897 4898 4899 4900 4901 4902 4903 4904 4905 4906 4907 4908 4909 4910 4911 4912 4913 4914 4915 4916 4917 4918 4919 4920 4921 4922 4923 4924 4925 4926 4927 4928 4929 4930 4931 4932 4933 4934 4935 4936 4937 4938 4939 4940 4941 4942 4943 4944 4945 4946 4947 4948 4949 4950 4951 4952 4953 4954 4955 4956 4957 4958 4959 4960 4961 4962 4963 4964 4965 4966 4967 4968 4969 4970 4971 4972 4973 4974 4975 4976 4977 4978 4979 4980 4981 4982 4983 4984 4985 4986 4987 4988 4989 4990 4991 4992 4993 4994 4995 4996 4997 4998 4999 5000 5001 5002 5003 5004 5005 5006 5007 5008 5009 5010 5011 5012 5013 5014 5015 5016 5017 5018 5019 5020 5021 5022 5023 5024 5025 5026 5027 5028 5029 5030 5031 5032 5033 5034 5035 5036 5037 5038 5039 5040 5041 5042 5043 5044 5045 5046 5047 5048 5049 5050 5051 5052 5053 5054 5055 5056 5057 5058 5059 5060 5061 5062 5063 5064 5065 5066 5067 5068 5069 5070 5071 5072 5073 5074 5075 5076 5077 5078 5079 5080 5081 5082 5083 5084 5085 5086 5087 5088 5089 5090 5091 5092 5093 5094 5095 5096 5097 5098 5099 5100 5101 5102 5103 5104 5105 5106 5107 5108 5109 5110 5111 5112 5113 5114 5115 5116 5117 5118 5119 5120 5121 5122 5123 5124 5125 5126 5127 5128 5129 5130 5131 5132 5133 5134 5135 5136 5137 5138 5139 5140 5141 5142 5143 5144 5145 5146 5147 5148 5149 5150 5151 5152 5153 5154 5155 5156 5157 5158 5159 5160 5161 5162 5163 5164 5165 5166 5167 5168 5169 5170 5171 5172 5173 5174 5175 5176 5177 5178 5179 5180 5181 5182 5183 5184 5185 5186 5187 5188 5189 5190 5191 5192 5193 5194 5195 5196 5197 5198 5199 5200 5201 5202 5203 5204 5205 5206 5207 5208 5209 5210 5211 5212 5213 5214 5215 5216 5217 5218 5219 5220 5221 5222 5223 5224 5225 5226 5227 5228 5229 5230 5231 5232 5233 5234 5235 5236 5237 5238 5239 5240 5241 5242 5243 5244 5245 5246 5247 5248 5249 5250 5251 5252 5253 5254 5255 5256 5257 5258 5259 5260 5261 5262 5263 5264 5265 5266 5267 5268 5269 5270 5271 5272 5273 5274 5275 5276 5277 5278 5279 5280 5281 5282 5283 5284 5285 5286 5287 5288 5289 5290 5291 5292 5293 5294 5295 5296 5297 5298 5299 5300 5301 5302 5303 5304 5305 5306 5307 5308 5309 5310 5311 5312 5313 5314 5315 5316 5317 5318 5319 5320 5321 5322 5323 5324 5325 5326 5327 5328 5329 5330 5331 5332 5333 5334 5335 5336 5337 5338 5339 5340 5341 5342 5343 5344 5345 5346 5347 5348 5349 5350 5351 5352 5353 5354 5355 5356 5357 5358 5359 5360 5361 5362 5363 5364 5365 5366 5367 5368 5369 5370 5371 5372 5373 5374 5375 5376 5377 5378 5379 5380 5381 5382 5383 5384 5385 5386 5387 5388 5389 5390 5391 5392 5393 5394 5395 5396 5397 5398 5399 5400 5401 5402 5403 5404 5405 5406 5407 5408 5409 5410 5411 5412 5413 5414 5415 5416 5417 5418 5419 5420 5421 5422 5423 5424 5425 5426 5427 5428 5429 5430 5431 5432 5433 5434 5435 5436 5437 5438 5439 5440 5441 5442 5443 5444 5445 5446 5447 5448 5449 5450 5451 5452 5453 5454 5455 5456 5457 5458 5459 5460 5461 5462 5463 5464 5465 5466 5467 5468 5469 5470 5471 5472 5473 5474 5475 5476 5477 5478 5479 5480 5481 5482 5483 5484 5485 5486 5487 5488 5489 5490 5491 5492 5493 5494 5495 5496 5497 5498 5499 5500 5501 5502 5503 5504 5505 5506 5507 5508 5509 5510 5511 5512 5513 5514 5515 5516 5517 5518 5519 5520 5521 5522 5523 5524 5525 5526 5527 5528 5529 5530 5531 5532 5533 5534 5535 5536 5537 5538 5539 5540 5541 5542 5543 5544 5545 5546 5547 5548 5549 5550 5551 5552 5553 5554 5555 5556 5557 5558 5559 5560 5561 5562 5563 5564 5565 5566 5567 5568 5569 5570 5571 5572 5573 5574 5575 5576 5577 5578 5579 5580 5581 5582 5583 5584 5585 5586 5587 5588 5589 5590 5591 5592 5593 5594 5595 5596 5597 5598 5599 5600 5601 5602 5603 5604 5605 5606 5607 5608 5609 5610 5611 5612 5613 5614 5615 5616 5617 5618 5619 5620 5621 5622 5623 5624 5625 5626 5627 5628 5629 5630 5631 5632 5633 5634 5635 5636 5637 5638 5639 5640 5641 5642 5643 5644 5645 5646 5647 5648 5649 5650 5651 5652 5653 5654 5655 5656 5657 5658 5659 5660 5661 5662 5663 5664 5665 5666 5667 5668 5669 5670 5671 5672 5673 5674 5675 5676 5677 5678 5679 5680 5681 5682 5683 5684 5685 5686 5687 5688 5689 5690 5691 5692 5693 5694 5695 5696 5697 5698 5699 5700 5701 5702 5703 5704 5705 5706 5707 5708 5709 5710 5711 5712 5713 5714 5715 5716 5717 5718 5719 5720 5721 5722 5723 5724 5725 5726 5727 5728 5729 5730 5731 5732 5733 5734 5735 5736 5737 5738 5739 5740 5741 5742 5743 5744 5745 5746 5747 5748 5749 5750 5751 5752 5753 5754 5755 5756 5757 5758 5759 5760 5761 5762 5763 5764 5765 5766 5767 5768 5769 5770 5771 5772 5773 5774 5775 5776 5777 5778 5779 5780 5781 5782 5783 5784 5785 5786 5787 5788 5789 5790 5791 5792 5793 5794 5795 5796 5797 5798 5799 5800 5801 5802 5803 5804 5805 5806 5807 5808 5809 5810 5811 5812 5813 5814 5815 5816 5817 5818 5819 5820 5821 5822 5823 5824 5825 5826 5827 5828 5829 5830 5831 5832 5833 5834 5835 5836 5837 5838 5839 5840 5841 5842 5843 5844 5845 5846 5847 5848 5849 5850 5851 5852 5853 5854 5855 5856 5857 5858 5859 5860 5861 5862 5863 5864 5865 5866 5867 5868 5869 5870 5871 5872 5873 5874 5875 5876 5877 5878 5879 5880 5881 5882 5883 5884 5885 5886 5887 5888 5889 5890 5891 5892 5893 5894 5895 5896 5897 5898 5899 5900 5901 5902 5903 5904 5905 5906 5907 5908 5909 5910 5911 5912 5913 5914 5915 5916 5917 5918 5919 5920 5921 5922 5923 5924 5925 5926 5927 5928 5929 5930 5931 5932 5933 5934 5935 5936 5937 5938 5939 5940 5941 5942 5943 5944 5945 5946 5947 5948 5949 5950 5951 5952 5953 5954 5955 5956 5957 5958 5959 5960 5961 5962 5963 5964 5965 5966 5967 5968 5969 5970 5971 5972 5973 5974 5975 5976 5977 5978 5979 5980 5981 5982 5983 5984 5985 5986 5987 5988 5989 5990 5991 5992 5993 5994 5995 5996 5997 5998 5999 6000 6001 6002 6003 6004 6005 6006 6007 6008 6009 6010 6011 6012 6013 6014 6015 6016 6017 6018 6019 6020 6021 6022 6023 6024 6025 6026 6027 6028 6029 6030 6031 6032 6033 6034 6035 6036 6037 6038 6039 6040 6041 6042 6043 6044 6045 6046 6047 6048 6049 6050 6051 6052 6053 6054 6055 6056 6057 6058 6059 6060 6061 6062 6063 6064 6065 6066 6067 6068 6069 6070 6071 6072 6073 6074 6075 6076 6077 6078 6079 6080 6081 6082 6083 6084 6085 6086 6087 6088 6089 6090 6091 6092 6093 6094 6095 6096 6097 6098 6099 6100 6101 6102 6103 6104 6105 6106 6107 6108 6109 6110 6111 6112 6113 6114 6115 6116 6117 6118 6119 6120 6121 6122 6123 6124 6125 6126 6127 6128 6129 6130 6131 6132 6133 6134 6135 6136 6137 6138 6139 6140 6141 6142 6143 6144 6145 6146 6147 6148 6149 6150 6151 6152 6153 6154 6155 6156 6157 6158 6159 6160 6161 6162 6163 6164 6165 6166 6167 6168 6169 6170 6171 6172 6173 6174 6175 6176 6177 6178 6179 6180 6181 6182 6183 6184 6185 6186 6187 6188 6189 6190 6191 6192 6193 6194 6195 6196 6197 6198 6199 6200 6201 6202 6203 6204 6205 6206 6207 6208 6209 6210 6211 6212 6213 6214 6215 6216 6217 6218 6219 6220 6221 6222 6223 6224 6225 6226 6227 6228 6229 6230 6231 6232 6233 6234 6235 6236 6237 6238 6239 6240 6241 6242 6243 6244 6245 6246 6247 6248 6249 6250 6251 6252 6253 6254 6255 6256 6257 6258 6259 6260 6261 6262 6263 6264 6265 6266 6267 6268 6269 6270 6271 6272 6273 6274 6275 6276 6277 6278 6279 6280 6281 6282 6283 6284 6285 6286 6287 6288 6289 6290 6291 6292 6293 6294 6295 6296 6297 6298 6299 6300 6301 6302 6303 6304 6305 6306 6307 6308 6309 6310 6311 6312 6313 6314 6315 6316 6317 6318 6319 6320 6321 6322 6323 6324 6325 6326 6327 6328 6329 6330 6331 6332 6333 6334 6335 6336 6337 6338 6339 6340 6341 6342 6343 6344 6345 6346 6347 6348 6349 6350 6351 6352 6353 6354 6355 6356 6357 6358 6359 6360 6361 6362 6363 6364 6365 6366 6367 6368 6369 6370 6371 6372 6373 6374 6375 6376 6377 6378 6379 6380 6381 6382 6383 6384 6385 6386 6387 6388 6389 6390 6391 6392 6393 6394 6395 6396 6397 6398 6399 6400 6401 6402 6403 6404 6405 6406 6407 6408 6409 6410 6411 6412 6413 6414 6415 6416 6417 6418 6419 6420 6421 6422 6423 6424 6425 6426 6427 6428 6429 6430 6431 6432 6433 6434 6435 6436 6437 6438 6439 6440 6441 6442 6443 6444 6445 6446 6447 6448 6449 6450 6451 6452 6453 6454 6455 6456 6457 6458 6459 6460 6461 6462 6463 6464 6465 6466 6467 6468 6469 6470 6471 6472 6473 6474 6475 6476 6477 6478 6479 6480 6481 6482 6483 6484 6485 6486 6487 6488 6489 6490 6491 6492 6493 6494 6495 6496 6497 6498 6499 6500 6501 6502 6503 6504 6505 6506 6507 6508 6509 6510 6511 6512 6513 6514 6515 6516 6517 6518 6519 6520 6521 6522 6523 6524 6525 6526 6527 6528 6529 6530 6531 6532 6533 6534 6535 6536 6537 6538 6539 6540 6541 6542 6543 6544 6545 6546 6547 6548 6549 6550 6551 6552 6553 6554 6555 6556 6557 6558 6559 6560 6561 6562 6563 6564 6565 6566 6567 6568 6569 6570 6571 6572 6573 6574 6575 6576 6577 6578 6579 6580 6581 6582 6583 6584 6585 6586 6587 6588 6589 6590 6591 6592 6593 6594 6595 6596 6597 6598 6599 6600 6601 6602 6603 6604 6605 6606 6607 6608 6609 6610 6611 6612 6613 6614 6615 6616 6617 6618 6619 6620 6621 6622 6623 6624 6625 6626 6627 6628 6629 6630 6631 6632 6633 6634 6635 6636 6637 6638 6639 6640 6641 6642 6643 6644 6645 6646 6647 6648 6649 6650 6651 6652 6653 6654 6655 6656 6657 6658 6659 6660 6661 6662 6663 6664 6665 6666 6667 6668 6669 6670 6671 6672 6673 6674 6675 6676 6677 6678 6679 6680 6681 6682 6683 6684 6685 6686 6687 6688 6689 6690 6691 6692 6693 6694 6695 6696 6697 6698 6699 6700 6701 6702 6703 6704 6705 6706 6707 6708 6709 6710 6711 6712 6713 6714 6715 6716 6717 6718 6719 6720 6721 6722 6723 6724 6725 6726 6727 6728 6729 6730 6731 6732 6733 6734 6735 6736 6737 6738 6739 6740 6741 6742 6743 6744 6745 6746 6747 6748 6749 6750 6751 6752 6753 6754 6755 6756 6757 6758 6759 6760 6761 6762 6763 6764 6765 6766 6767 6768 6769 6770 6771 6772 6773 6774 6775 6776 6777 6778 6779 6780 6781 6782 6783 6784 6785 6786 6787 6788 6789 6790 6791 6792 6793 6794 6795 6796 6797 6798 6799 6800 6801 6802 6803 6804 6805 6806 6807 6808 6809 6810 6811 6812 6813 6814 6815 6816 6817 6818 6819 6820 6821 6822 6823 6824 6825 6826 6827 6828 6829 6830 6831 6832 6833 6834 6835 6836 6837 6838 6839 6840 6841 6842 6843 6844 6845 6846 6847 6848 6849 6850 6851 6852 6853 6854 6855 6856 6857 6858 6859 6860 6861 6862 6863 6864 6865 6866 6867 6868 6869 6870 6871 6872 6873 6874 6875 6876 6877 6878 6879 6880 6881 6882 6883 6884 6885 6886 6887 6888 6889 6890 6891 6892 6893 6894 6895 6896 6897 6898 6899 6900 6901 6902 6903 6904 6905 6906 6907 6908 6909 6910 6911 6912 6913 6914 6915 6916 6917 6918 6919 6920 6921 6922 6923 6924 6925 6926 6927 6928 6929 6930 6931 6932 6933 6934 6935 6936 6937 6938 6939 6940 6941 6942 6943 6944 6945 6946 6947 6948 6949 6950 6951 6952 6953 6954 6955 6956 6957 6958 6959 6960 6961 6962 6963 6964 6965 6966 6967 6968 6969 6970 6971 6972 6973 6974 6975 6976 6977 6978 6979 6980 6981 6982 6983 6984 6985 6986 6987 6988 6989 6990 6991 6992 6993 6994 6995 6996 6997 6998 6999 7000 7001 7002 7003 7004 7005 7006 7007 7008 7009 7010 7011 7012 7013 7014 7015 7016 7017 7018 7019 7020 7021 7022 7023 7024 7025 7026 7027 7028 7029 7030 7031 7032 7033 7034 7035 7036 7037 7038 7039 7040 7041 7042 7043 7044 7045 7046 7047 7048 7049 7050 7051 7052 7053 7054 7055 7056 7057 7058 7059 7060 7061 7062 7063 7064 7065 7066 7067 7068 7069 7070 7071 7072 7073 7074 7075 7076 7077 7078 7079 7080 7081 7082 7083 7084 7085 7086 7087 7088 7089 7090 7091 7092 7093 7094 7095 7096 7097 7098 7099 7100 7101 7102 7103 7104 7105 7106 7107 7108 7109 7110 7111 7112 7113 7114 7115 7116 7117 7118 7119 7120 7121 7122 7123 7124 7125 7126 7127 7128 7129 7130 7131 7132 7133 7134 7135 7136 7137 7138 7139 7140 7141 7142 7143 7144 7145 7146 7147 7148 7149 7150 7151 7152 7153 7154 7155 7156 7157 7158 7159 7160 7161 7162 7163 7164 7165 7166 7167 7168 7169 7170 7171 7172 7173 7174 7175 7176 7177 7178 7179 7180 7181 7182 7183 7184 7185 7186 7187 7188 7189 7190 7191 7192 7193 7194 7195 7196 7197 7198 7199 7200 7201 7202 7203 7204 7205 7206 7207 7208 7209 7210 7211 7212 7213 7214 7215 7216 7217 7218 7219 7220 7221 7222 7223 7224 7225 7226 7227 7228 7229 7230 7231 7232 7233 7234 7235 7236 7237 7238 7239 7240 7241 7242 7243 7244 7245 7246 7247 7248 7249 7250 7251 7252 7253 7254 7255 7256 7257 7258 7259 7260 7261 7262 7263 7264 7265 7266 7267 7268 7269 7270 7271 7272 7273 7274 7275 7276 7277 7278 7279 7280 7281 7282 7283 7284 7285 7286 7287 7288 7289 7290 7291 7292 7293 7294 7295 7296 7297 7298 7299 7300 7301 7302 7303 7304 7305 7306 7307 7308 7309 7310 7311 7312 7313 7314 7315 7316 7317 7318 7319 7320 7321 7322 7323 7324 7325 7326 7327 7328 7329 7330 7331 7332 7333 7334 7335 7336 7337 7338 7339 7340 7341 7342 7343 7344 7345 7346 7347 7348 7349 7350 7351 7352 7353 7354 7355 7356 7357 7358 7359 7360 7361 7362 7363 7364 7365 7366 7367 7368 7369 7370 7371 7372 7373 7374 7375 7376 7377 7378 7379 7380 7381 7382 7383 7384 7385 7386 7387 7388 7389 7390 7391 7392 7393 7394 7395 7396 7397 7398 7399 7400 7401 7402 7403 7404 7405 7406 7407 7408 7409 7410 7411 7412 7413 7414 7415 7416 7417 7418 7419 7420 7421 7422 7423 7424 7425 7426 7427 7428 7429 7430 7431 7432 7433 7434 7435 7436 7437 7438 7439 7440 7441 7442 7443 7444 7445 7446 7447 7448 7449 7450 7451 7452 7453 7454 7455 7456 7457 7458 7459 7460 7461 7462 7463 7464 7465 7466 7467 7468 7469 7470 7471 7472 7473 7474 7475 7476 7477 7478 7479 7480 7481 7482 7483 7484 7485 7486 7487 7488 7489 7490 7491 7492 7493 7494 7495 7496 7497 7498 7499 7500 7501 7502 7503 7504 7505 7506 7507 7508 7509 7510 7511 7512 7513 7514 7515 7516 7517 7518 7519 7520 7521 7522 7523 7524 7525 7526 7527 7528 7529 7530 7531 7532 7533 7534 7535 7536 7537 7538 7539 7540 7541 7542 7543 7544 7545 7546 7547 7548 7549 7550 7551 7552 7553 7554 7555 7556 7557 7558 7559 7560 7561 7562 7563 7564 7565 7566 7567 7568 7569 7570 7571 7572 7573 7574 7575 7576 7577 7578 7579 7580 7581 7582 7583 7584 7585 7586 7587 7588 7589 7590 7591 7592 7593 7594 7595 7596 7597 7598 7599 7600 7601 7602 7603 7604 7605 7606 7607 7608 7609 7610 7611 7612 7613 7614 7615 7616 7617 7618 7619 7620 7621 7622 7623 7624 7625 7626 7627 7628 7629 7630 7631 7632 7633 7634 7635 7636 7637 7638 7639 7640 7641 7642 7643 7644 7645 7646 7647 7648 7649 7650 7651 7652 7653 7654 7655 7656 7657 7658 7659 7660 7661 7662 7663 7664 7665 7666 7667 7668 7669 7670 7671 7672 7673 7674 7675 7676 7677 7678 7679 7680 7681 7682 7683 7684 7685 7686 7687 7688 7689 7690 7691 7692 7693 7694 7695 7696 7697 7698 7699 7700 7701 7702 7703 7704 7705 7706 7707 7708 7709 7710 7711 7712 7713 7714 7715 7716 7717 7718 7719 7720 7721 7722 7723 7724 7725 7726 7727 7728 7729 7730 7731 7732 7733 7734 7735 7736 7737 7738 7739 7740 7741 7742 7743 7744 7745 7746 7747 7748 7749 7750 7751 7752 7753 7754 7755 7756 7757 7758 7759 7760 7761 7762 7763 7764 7765 7766 7767 7768 7769 7770 7771 7772 7773 7774 7775 7776 7777 7778 7779 7780 7781 7782 7783 7784 7785 7786 7787 7788 7789 7790 7791 7792 7793 7794 7795 7796 7797 7798 7799 7800 7801 7802 7803 7804 7805 7806 7807 7808 7809 7810 7811 7812 7813 7814 7815 7816 7817 7818 7819 7820 7821 7822 7823 7824 7825 7826 7827 7828 7829 7830 7831 7832 7833 7834 7835 7836 7837 7838 7839 7840 7841 7842 7843 7844 7845 7846 7847 7848 7849 7850 7851 7852 7853 7854 7855 7856 7857 7858 7859 7860 7861 7862 7863 7864 7865 7866 7867 7868 7869 7870 7871 7872 7873 7874 7875 7876 7877 7878 7879 7880 7881 7882 7883 7884 7885 7886 7887 7888 7889 7890 7891 7892 7893 7894 7895 7896 7897 7898 7899 7900 7901 7902 7903 7904 7905 7906 7907 7908 7909 7910 7911 7912 7913 7914 7915 7916 7917 7918 7919 7920 7921 7922 7923 7924 7925 7926 7927 7928 7929 7930 7931 7932 7933 7934 7935 7936 7937 7938 7939 7940 7941 7942 7943 7944 7945 7946 7947 7948 7949 7950 7951 7952 7953 7954 7955 7956 7957 7958 7959 7960 7961 7962 7963 7964 7965 7966 7967 7968 7969 7970 7971 7972 7973 7974 7975 7976 7977 7978 7979 7980 7981 7982 7983 7984 7985 7986 7987 7988 7989 7990 7991 7992 7993 7994 7995 7996 7997 7998 7999 8000 8001 8002 8003 8004 8005 8006 8007 8008 8009 8010 8011 8012 8013 8014 8015 8016 8017 8018 8019 8020 8021 8022 8023 8024 8025 8026 8027 8028 8029 8030 8031 8032 8033 8034 8035 8036 8037 8038 8039 8040 8041 8042 8043 8044 8045 8046 8047 8048 8049 8050 8051 8052 8053 8054 8055 8056 8057 8058 8059 8060 8061 8062 8063 8064 8065 8066 8067 8068 8069 8070 8071 8072 8073 8074 8075 8076 8077 8078 8079 8080 8081 8082 8083 8084 8085 8086 8087 8088 8089 8090 8091 8092 8093 8094 8095 8096 8097 8098 8099 8100 8101 8102 8103 8104 8105 8106 8107 8108 8109 8110 8111 8112 8113 8114 8115 8116 8117 8118 8119 8120 8121 8122 8123 8124 8125 8126 8127 8128 8129 8130 8131 8132 8133 8134 8135 8136 8137 8138 8139 8140 8141 8142 8143 8144 8145 8146 8147 8148 8149 8150 8151 8152 8153 8154 8155 8156 8157 8158 8159 8160 8161 8162 8163 8164 8165 8166 8167 8168 8169 8170 8171 8172 8173 8174 8175 8176 8177 8178 8179 8180 8181 8182 8183 8184 8185 8186 8187 8188 8189 8190 8191 8192 8193 8194 8195 8196 8197 8198 8199 8200 8201 8202 8203 8204 8205 8206 8207 8208 8209 8210 8211 8212 8213 8214 8215 8216 8217 8218 8219 8220 8221 8222 8223 8224 8225 8226 8227 8228 8229 8230 8231 8232 8233 8234 8235 8236 8237 8238 8239 8240 8241 8242 8243 8244 8245 8246 8247 8248 8249 8250 8251 8252 8253 8254 8255 8256 8257 8258 8259 8260 8261 8262 8263 8264 8265 8266 8267 8268 8269 8270 8271 8272 8273 8274 8275 8276 8277 8278 8279 8280 8281 8282 8283 8284 8285 8286 8287 8288 8289 8290 8291 8292 8293 8294 8295 8296 8297 8298 8299 8300 8301 8302 8303 8304 8305 8306 8307 8308 8309 8310 8311 8312 8313 8314 8315 8316 8317 8318 8319 8320 8321 8322 8323 8324 8325 8326 8327 8328 8329 8330 8331 8332 8333 8334 8335 8336 8337 8338 8339 8340 8341 8342 8343 8344 8345 8346 8347 8348 8349 8350 8351 8352 8353 8354 8355 8356 8357 8358 8359 8360 8361 8362 8363 8364 8365 8366 8367 8368 8369 8370 8371 8372 8373 8374 8375 8376 8377 8378 8379 8380 8381 8382 8383 8384 8385 8386 8387 8388 8389 8390 8391 8392 8393 8394 8395 8396 8397 8398 8399 8400 8401 8402 8403 8404 8405 8406 8407 8408 8409 8410 8411 8412 8413 8414 8415 8416 8417 8418 8419 8420 8421 8422 8423 8424 8425 8426 8427 8428 8429 8430 8431 8432 8433 8434 8435 8436 8437 8438 8439 8440 8441 8442 8443 8444 8445 8446 8447 8448 8449 8450 8451 8452 8453 8454 8455 8456 8457 8458 8459 8460 8461 8462 8463 8464 8465 8466 8467 8468 8469 8470 8471 8472 8473 8474 8475 8476 8477 8478 8479 8480 8481 8482 8483 8484 8485 8486 8487 8488 8489 8490 8491 8492 8493 8494 8495 8496 8497 8498 8499 8500 8501 8502 8503 8504 8505 8506 8507 8508 8509 8510 8511 8512 8513 8514 8515 8516 8517 8518 8519 8520 8521 8522 8523 8524 8525 8526 8527 8528 8529 8530 8531 8532 8533 8534 8535 8536 8537 8538 8539 8540 8541 8542 8543 8544 8545 8546 8547 8548 8549 8550 8551 8552 8553 8554 8555 8556 8557 8558 8559 8560 8561 8562 8563 8564 8565 8566 8567 8568 8569 8570 8571 8572 8573 8574 8575 8576 8577 8578 8579 8580 8581 8582 8583 8584 8585 8586 8587 8588 8589 8590 8591 8592 8593 8594 8595 8596 8597 8598 8599 8600 8601 8602 8603 8604 8605 8606 8607 8608 8609 8610 8611 8612 8613 8614 8615 8616 8617 8618 8619 8620 8621 8622 8623 8624 8625 8626 8627 8628 8629 8630 8631 8632 8633 8634 8635 8636 8637 8638 8639 8640 8641 8642 8643 8644 8645 8646 8647 8648 8649 8650 8651 8652 8653 8654 8655 8656 8657 8658 8659 8660 8661 8662 8663 8664 8665 8666 8667 8668 8669 8670 8671 8672 8673 8674 8675 8676 8677 8678 8679 8680 8681 8682 8683 8684 8685 8686 8687 8688 8689 8690 8691 8692 8693 8694 8695 8696 8697 8698 8699 8700 8701 8702 8703 8704 8705 8706 8707 8708 8709 8710 8711 8712 8713 8714 8715 8716 8717 8718 8719 8720 8721 8722 8723 8724 8725 8726 8727 8728 8729 8730 8731 8732 8733 8734 8735 8736 8737 8738 8739 8740 8741 8742 8743 8744 8745 8746 8747 8748 8749 8750 8751 8752 8753 8754 8755 8756 8757 8758 8759 8760 8761 8762 8763 8764 8765 8766 8767 8768 8769 8770 8771 8772 8773 8774 8775 8776 8777 8778 8779 8780 8781 8782 8783 8784 8785 8786 8787 8788 8789 8790 8791 8792 8793 8794 8795 8796 8797 8798 8799 8800 8801 8802 8803 8804 8805 8806 8807 8808 8809 8810 8811 8812 8813 8814 8815 8816 8817 8818 8819 8820 8821 8822 8823 8824 8825 8826 8827 8828 8829 8830 8831 8832 8833 8834 8835 8836 8837 8838 8839 8840 8841 8842 8843 8844 8845 8846 8847 8848 8849 8850 8851 8852 8853 8854 8855 8856 8857 8858 8859 8860 8861 8862 8863 8864 8865 8866 8867 8868 8869 8870 8871 8872 8873 8874 8875 8876 8877 8878 8879 8880 8881 8882 8883 8884 8885 8886 8887 8888 8889 8890 8891 8892 8893 8894 8895 8896 8897 8898 8899 8900 8901 8902 8903 8904 8905 8906 8907 8908 8909 8910 8911 8912 8913 8914 8915 8916 8917 8918 8919 8920 8921 8922 8923 8924 8925 8926 8927 8928 8929 8930 8931 8932 8933 8934 8935 8936 8937 8938 8939 8940 8941 8942 8943 8944 8945 8946 8947 8948 8949 8950 8951 8952 8953 8954 8955 8956 8957 8958 8959 8960 8961 8962 8963 8964 8965 8966 8967 8968 8969 8970 8971 8972 8973 8974 8975 8976 8977 8978 8979 8980 8981 8982 8983 8984 8985 8986 8987 8988 8989 8990 8991 8992 8993 8994 8995 8996 8997 8998 8999 9000 9001 9002 9003 9004 9005 9006 9007 9008 9009 9010 9011 9012 9013 9014 9015 9016 9017 9018 9019 9020 9021 9022 9023 9024 9025 9026 9027 9028 9029 9030 9031 9032 9033 9034 9035 9036 9037 9038 9039 9040 9041 9042 9043 9044 9045 9046 9047 9048 9049 9050 9051 9052 9053 9054 9055 9056 9057 9058 9059 9060 9061 9062 9063 9064 9065 9066 9067 9068 9069 9070 9071 9072 9073 9074 9075 9076 9077 9078 9079 9080 9081 9082 9083 9084 9085 9086 9087 9088 9089 9090 9091 9092 9093 9094 9095 9096 9097 9098 9099 9100 9101 9102 9103 9104 9105 9106 9107 9108 9109 9110 9111 9112 9113 9114 9115 9116 9117 9118 9119 9120 9121 9122 9123 9124 9125 9126 9127 9128 9129 9130 9131 9132 9133 9134 9135 9136 9137 9138 9139 9140 9141 9142 9143 9144 9145 9146 9147 9148 9149 9150 9151 9152 9153 9154 9155 9156 9157 9158 9159 9160 9161 9162 9163 9164 9165 9166 9167 9168 9169 9170 9171 9172 9173 9174 9175 9176 9177 9178 9179 9180 9181 9182 9183 9184 9185 9186 9187 9188 9189 9190 9191 9192 9193 9194 9195 9196 9197 9198 9199 9200 9201 9202 9203 9204 9205 9206 9207 9208 9209 9210 9211 9212 9213 9214 9215 9216 9217 9218 9219 9220 9221 9222 9223 9224 9225 9226 9227 9228 9229 9230 9231 9232 9233 9234 9235 9236 9237 9238 9239 9240 9241 9242 9243 9244 9245 9246 9247 9248 9249 9250 9251 9252 9253 9254 9255 9256 9257 9258 9259 9260 9261 9262 9263 9264 9265 9266 9267 9268 9269 9270 9271 9272 9273 9274 9275 9276 9277 9278 9279 9280 9281 9282 9283 9284 9285 9286 9287 9288 9289 9290 9291 9292 9293 9294 9295 9296 9297 9298 9299 9300 9301 9302 9303 9304 9305 9306 9307 9308 9309 9310 9311 9312 9313 9314 9315 9316 9317 9318 9319 9320 9321 9322 9323 9324 9325 9326 9327 9328 9329 9330 9331 9332 9333 9334 9335 9336 9337 9338 9339 9340 9341 9342 9343 9344 9345 9346 9347 9348 9349 9350 9351 9352 9353 9354 9355 9356 9357 9358 9359 9360 9361 9362 9363 9364 9365 9366 9367 9368 9369 9370 9371 9372 9373 9374 9375 9376 9377 9378 9379 9380 9381 9382 9383 9384 9385 9386 9387 9388 9389 9390 9391 9392 9393 9394 9395 9396 9397 9398 9399 9400 9401 9402 9403 9404 9405 9406 9407 9408 9409 9410 9411 9412 9413 9414 9415 9416 9417 9418 9419 9420 9421 9422 9423 9424 9425 9426 9427 9428 9429 9430 9431 9432 9433 9434 9435 9436 9437 9438 9439 9440 9441 9442 9443 9444 9445 9446 9447 9448 9449 9450 9451 9452 9453 9454 9455 9456 9457 9458 9459 9460 9461 9462 9463 9464 9465 9466 9467 9468 9469 9470 9471 9472 9473 9474 9475 9476 9477 9478 9479 9480 9481 9482 9483 9484 9485 9486 9487 9488 9489 9490 9491 9492 9493 9494 9495 9496 9497 9498 9499 9500 9501 9502 9503 9504 9505 9506 9507 9508 9509 9510 9511 9512 9513 9514 9515 9516 9517 9518 9519 9520 9521 9522 9523 9524 9525 9526 9527 9528 9529 9530 9531 9532 9533 9534 9535 9536 9537 9538 9539 9540 9541 9542 9543 9544 9545 9546 9547 9548 9549 9550 9551 9552 9553 9554 9555 9556 9557 9558 9559 9560 9561 9562 9563 9564 9565 9566 9567 9568 9569 9570 9571 9572 9573 9574 9575 9576 9577 9578 9579 9580 9581 9582 9583 9584 9585 9586 9587 9588 9589 9590 9591 9592 9593 9594 9595 9596 9597 9598 9599 9600 9601 9602 9603 9604 9605 9606 9607 9608 9609 9610 9611 9612 9613 9614 9615 9616 9617 9618 9619 9620 9621 9622 9623 9624 9625 9626 9627 9628 9629 9630 9631 9632 9633 9634 9635 9636 9637 9638 9639 9640 9641 9642 9643 9644 9645 9646 9647 9648 9649 9650 9651 9652 9653 9654 9655 9656 9657 9658 9659 9660 9661 9662 9663 9664 9665 9666 9667 9668 9669 9670 9671 9672 9673 9674 9675 9676 9677 9678 9679 9680 9681 9682 9683 9684 9685 9686 9687 9688 9689 9690 9691 9692 9693 9694 9695 9696 9697 9698 9699 9700 9701 9702 9703 9704 9705 9706 9707 9708 9709 9710 9711 9712 9713 9714 9715 9716 9717 9718 9719 9720 9721 9722 9723 9724 9725 9726 9727 9728 9729 9730 9731 9732 9733 9734 9735 9736 9737 9738 9739 9740 9741 9742 9743 9744 9745 9746 9747 9748 9749 9750 9751 9752 9753 9754 9755 9756 9757 9758 9759 9760 9761 9762 9763 9764 9765 9766 9767 9768 9769 9770 9771 9772 9773 9774 9775 9776 9777 9778 9779 9780 9781 9782 9783 9784 9785 9786 9787 9788 9789 9790 9791 9792 9793 9794 9795 9796 9797 9798 9799 9800 9801 9802 9803 9804 9805 9806 9807 9808 9809 9810 9811 9812 9813 9814 9815 9816 9817 9818 9819 9820 9821 9822 9823 9824 9825 9826 9827 9828 9829 9830 9831 9832 9833 9834 9835 9836 9837 9838 9839 9840 9841 9842 9843 9844 9845 9846 9847 9848 9849 9850 9851 9852 9853 9854 9855 9856 9857 9858 9859 9860 9861 9862 9863 9864 9865 9866 9867 9868 9869 9870 9871 9872 9873 9874 9875 9876 9877 9878 9879 9880 9881 9882 9883 9884 9885 9886 9887 9888 9889 9890 9891 9892 9893 9894 9895 9896 9897 9898 9899 9900 9901 9902 9903 9904 9905 9906 9907 9908 9909 9910 9911 9912 9913 9914 9915 9916 9917 9918 9919 9920 9921 9922 9923 9924 9925 9926 9927 9928 9929 9930 9931 9932 9933 9934 9935 9936 9937 9938 9939 9940 9941 9942 9943 9944 9945 9946 9947 9948 9949 9950 9951 9952 9953 9954 9955 9956 9957 9958 9959 9960 9961 9962 9963 9964 9965 9966 9967 9968 9969 9970 9971 9972 9973 9974 9975 9976 9977 9978 9979 9980 9981 9982 9983 9984 9985 9986 9987 9988 9989 9990 9991 9992 9993 9994 9995 9996 9997 9998 9999 10000 10001 10002 10003 10004 10005 10006 10007 10008 10009 10010 10011 10012 10013 10014 10015 10016 10017 10018 10019 10020 10021 10022 10023 10024 10025 10026 10027 10028 10029 10030 10031 10032 10033 10034 10035 10036 10037 10038 10039 10040 10041 10042 10043 10044 10045 10046 10047 10048 10049 10050 10051 10052 10053 10054 10055 10056 10057 10058 10059 10060 10061 10062 10063 10064 10065 10066 10067 10068 10069 10070 10071 10072 10073 10074 10075 10076 10077 10078 10079 10080 10081 10082 10083 10084 10085 10086 10087 10088 10089 10090 10091 10092 10093 10094 10095 10096 10097 10098 10099 10100 10101 10102 10103 10104 10105 10106 10107 10108 10109 10110 10111 10112 10113 10114 10115 10116 10117 10118 10119 10120 10121 10122 10123 10124 10125 10126 10127 10128 10129 10130 10131 10132 10133 10134 10135 10136 10137 10138 10139 10140 10141 10142 10143 10144 10145 10146 10147 10148 10149 10150 10151 10152 10153 10154 10155 10156 10157 10158 10159 10160 10161 10162 10163 10164 10165 10166 10167 10168 10169 10170 10171 10172 10173 10174 10175 10176 10177 10178 10179 10180 10181 10182 10183 10184 10185 10186 10187 10188 10189 10190 10191 10192 10193 10194 10195 10196 10197 10198 10199 10200 10201 10202 10203 10204 10205 10206 10207 10208 10209 10210 10211 10212 10213 10214 10215 10216 10217 10218 10219 10220 10221 10222 10223 10224 10225 10226 10227 10228 10229 10230 10231 10232 10233 10234 10235 10236 10237 10238 10239 10240 10241 10242 10243 10244 10245 10246 10247 10248 10249 10250 10251 10252 10253 10254 10255 10256 10257 10258 10259 10260 10261 10262 10263 10264 10265 10266 10267 10268 10269 10270 10271 10272 10273 10274 10275 10276 10277 10278 10279 10280 10281 10282 10283 10284 10285 10286 10287 10288 10289 10290 10291 10292 10293 10294 10295 10296 10297 10298 10299 10300 10301 10302 10303 10304 10305 10306 10307 10308 10309 10310 10311 10312 10313 10314 10315 10316 10317 10318 10319 10320 10321 10322 10323 10324 10325 10326 10327 10328 10329 10330 10331 10332 10333 10334 10335 10336 10337 10338 10339 10340 10341 10342 10343 10344 10345 10346 10347 10348 10349 10350 10351 10352 10353 10354 10355 10356 10357 10358 10359 10360 10361 10362 10363 10364 10365 10366 10367 10368 10369 10370 10371 10372 10373 10374 10375 10376 10377 10378 10379 10380 10381 10382 10383 10384 10385 10386 10387 10388 10389 10390 10391 10392 10393 10394 10395 10396 10397 10398 10399 10400 10401 10402 10403 10404 10405 10406 10407 10408 10409 10410 10411 10412 10413 10414 10415 10416 10417 10418 10419 10420 10421 10422 10423 10424 10425 10426 10427 10428 10429 10430 10431 10432 10433 10434 10435 10436 10437 10438 10439 10440 10441 10442 10443 10444 10445 10446 10447 10448 10449 10450 10451 10452 10453 10454 10455 10456 10457 10458 10459 10460 10461 10462 10463 10464 10465 10466 10467 10468 10469 10470 10471 10472 10473 10474 10475 10476 10477 10478 10479 10480 10481 10482 10483 10484 10485 10486 10487 10488 10489 10490 10491 10492 10493 10494 10495 10496 10497 10498 10499 10500 10501 10502 10503 10504 10505 10506 10507 10508 10509 10510 10511 10512 10513 10514 10515 10516 10517 10518 10519 10520 10521 10522 10523 10524 10525 10526 10527 10528 10529 10530 10531 10532 10533 10534 10535 10536 10537 10538 10539 10540 10541 10542 10543 10544 10545 10546 10547 10548 10549 10550 10551 10552 10553 10554 10555 10556 10557 10558 10559 10560 10561 10562 10563 10564 10565 10566 10567 10568 10569 10570 10571 10572 10573 10574 10575 10576 10577 10578 10579 10580 10581 10582 10583 10584 10585 10586 10587 10588 10589 10590 10591 10592 10593 10594 10595 10596 10597 10598 10599 10600 10601 10602 10603 10604 10605 10606 10607 10608 10609 10610 10611 10612 10613 10614 10615 10616 10617 10618 10619 10620 10621 10622 10623 10624 10625 10626 10627 10628 10629 10630 10631 10632 10633 10634 10635 10636 10637 10638 10639 10640 10641 10642 10643 10644 10645 10646 10647 10648 10649 10650 10651 10652 10653 10654 10655 10656 10657 10658 10659 10660 10661 10662 10663 10664 10665 10666 10667 10668 10669 10670 10671 10672 10673 10674 10675 10676 10677 10678 10679 10680 10681 10682 10683 10684 10685 10686 10687 10688 10689 10690 10691 10692 10693 10694 10695 10696 10697 10698 10699 10700 10701 10702 10703 10704 10705 10706 10707 10708 10709 10710 10711 10712 10713 10714 10715 10716 10717 10718 10719 10720 10721 10722 10723 10724 10725 10726 10727 10728 10729 10730 10731 10732 10733 10734 10735 10736 10737 10738 10739 10740 10741 10742 10743 10744 10745 10746 10747 10748 10749 10750 10751 10752 10753 10754 10755 10756 10757 10758 10759 10760 10761 10762 10763 10764 10765 10766 10767 10768 10769 10770 10771 10772 10773 10774 10775 10776 10777 10778 10779 10780 10781 10782 10783 10784 10785 10786 10787 10788 10789 10790 10791 10792 10793 10794 10795 10796 10797 10798 10799 10800 10801 10802 10803 10804 10805 10806 10807 10808 10809 10810 10811 10812 10813 10814 10815 10816 10817 10818 10819 10820 10821 10822 10823 10824 10825 10826 10827 10828 10829 10830 10831 10832 10833 10834 10835 10836 10837 10838 10839 10840 10841 10842 10843 10844 10845 10846 10847 10848 10849 10850 10851 10852 10853 10854 10855 10856 10857 10858 10859 10860 10861 10862 10863 10864 10865 10866 10867 10868 10869 10870 10871 10872 10873 10874 10875 10876 10877 10878 10879 10880 10881 10882 10883 10884 10885 10886 10887 10888 10889 10890 10891 10892 10893 10894 10895 10896 10897 10898 10899 10900 10901 10902 10903 10904 10905 10906 10907 10908 10909 10910 10911 10912 10913 10914 10915 10916 10917 10918 10919 10920 10921 10922 10923 10924 10925 10926 10927 10928 10929 10930 10931 10932 10933 10934 10935 10936 10937 10938 10939 10940 10941 10942 10943 10944 10945 10946 10947 10948 10949 10950 10951 10952 10953 10954 10955 10956 10957 10958 10959 10960 10961 10962 10963 10964 10965 10966 10967 10968 10969 10970 10971 10972 10973 10974 10975 10976 10977 10978 10979 10980 10981 10982 10983 10984 10985 10986 10987 10988 10989 10990 10991 10992 10993 10994 10995 10996 10997 10998 10999 11000 11001 11002 11003 11004 11005 11006 11007 11008 11009 11010 11011 11012 11013 11014 11015 11016 11017 11018 11019 11020 11021 11022 11023 11024 11025 11026 11027 11028 11029 11030 11031 11032 11033 11034 11035 11036 11037 11038 11039 11040 11041 11042 11043 11044 11045 11046 11047 11048 11049 11050 11051 11052 11053 11054 11055 11056 11057 11058 11059 11060 11061 11062 11063 11064 11065 11066 11067 11068 11069 11070 11071 11072 11073 11074 11075 11076 11077 11078 11079 11080 11081 11082 11083 11084 11085 11086 11087 11088 11089 11090 11091 11092 11093 11094 11095 11096 11097 11098 11099 11100 11101 11102 11103 11104 11105 11106 11107 11108 11109 11110 11111 11112 11113 11114 11115 11116 11117 11118 11119 11120 11121 11122 11123 11124 11125 11126 11127 11128 11129 11130 11131 11132 11133 11134 11135 11136 11137 11138 11139 11140 11141 11142 11143 11144 11145 11146 11147 11148 11149 11150 11151 11152 11153 11154 11155 11156 11157 11158 11159 11160 11161 11162 11163 11164 11165 11166 11167 11168 11169 11170 11171 11172 11173 11174 11175 11176 11177 11178 11179 11180 11181 11182 11183 11184 11185 11186 11187 11188 11189 11190 11191 11192 11193 11194 11195 11196 11197 11198 11199 11200 11201 11202 11203 11204 11205 11206 11207 11208 11209 11210 11211 11212 11213 11214 11215 11216 11217 11218 11219 11220 11221 11222 11223 11224 11225 11226 11227 11228 11229 11230 11231 11232 11233 11234 11235 11236 11237 11238 11239 11240 11241 11242 11243 11244 11245 11246 11247 11248 11249 11250 11251 11252 11253 11254 11255 11256 11257 11258 11259 11260 11261 11262 11263 11264 11265 11266 11267 11268 11269 11270 11271 11272 11273 11274 11275 11276 11277 11278 11279 11280 11281 11282 11283 11284 11285 11286 11287 11288 11289 11290 11291 11292 11293 11294 11295 11296 11297 11298 11299 11300 11301 11302 11303 11304 11305 11306 11307 11308 11309 11310 11311 11312 11313 11314 11315 11316 11317 11318 11319 11320 11321 11322 11323 11324 11325 11326 11327 11328 11329 11330 11331 11332 11333 11334 11335 11336 11337 11338 11339 11340 11341 11342 11343 11344 11345 11346 11347 11348 11349 11350 11351 11352 11353 11354 11355 11356 11357 11358 11359 11360 11361 11362 11363 11364 11365 11366 11367 11368 11369 11370 11371 11372 11373 11374 11375 11376 11377 11378 11379 11380 11381 11382 11383 11384 11385 11386 11387 11388 11389 11390 11391 11392 11393 11394 11395 11396 11397 11398 11399 11400 11401 11402 11403 11404 11405 11406 11407 11408 11409 11410 11411 11412 11413 11414 11415 11416 11417 11418 11419 11420 11421 11422 11423 11424 11425 11426 11427 11428 11429 11430 11431 11432 11433 11434 11435 11436 11437 11438 11439 11440 11441 11442 11443 11444 11445 11446 11447 11448 11449 11450 11451 11452 11453 11454 11455 11456 11457 11458 11459 11460 11461 11462 11463 11464 11465 11466 11467 11468 11469 11470 11471 11472 11473 11474 11475 11476 11477 11478 11479 11480 11481 11482 11483 11484 11485 11486 11487 11488 11489 11490 11491 11492 11493 11494 11495 11496 11497 11498 11499 11500 11501 11502 11503 11504 11505 11506 11507 11508 11509 11510 11511 11512 11513 11514 11515 11516 11517 11518 11519 11520 11521 11522 11523 11524 11525 11526 11527 11528 11529 11530 11531 11532 11533 11534 11535 11536 11537 11538 11539 11540 11541 11542 11543 11544 11545 11546 11547 11548 11549 11550 11551 11552 11553 11554 11555 11556 11557 11558 11559 11560 11561 11562 11563 11564 11565 11566 11567 11568 11569 11570 11571 11572 11573 11574 11575 11576 11577 11578 11579 11580 11581 11582 11583 11584 11585 11586 11587 11588 11589 11590 11591 11592 11593 11594 11595 11596 11597 11598 11599 11600 11601 11602 11603 11604 11605 11606 11607 11608 11609 11610 11611 11612 11613 11614 11615 11616 11617 11618 11619 11620 11621 11622 11623 11624 11625 11626 11627 11628 11629 11630 11631 11632 11633 11634 11635 11636 11637 11638 11639 11640 11641 11642 11643 11644 11645 11646 11647 11648 11649 11650 11651 11652 11653 11654 11655 11656 11657 11658 11659 11660 11661 11662 11663 11664 11665 11666 11667 11668 11669 11670 11671 11672 11673 11674 11675 11676 11677 11678 11679 11680 11681 11682 11683 11684 11685 11686 11687 11688 11689 11690 11691 11692 11693 11694 11695 11696 11697 11698 11699 11700 11701 11702 11703 11704 11705 11706 11707 11708 11709 11710 11711 11712 11713 11714 11715 11716 11717 11718 11719 11720 11721 11722 11723 11724 11725 11726 11727 11728 11729 11730 11731 11732 11733 11734 11735 11736 11737 11738 11739 11740 11741 11742 11743 11744 11745 11746 11747 11748 11749 11750 11751 11752 11753 11754 11755 11756 11757 11758 11759 11760 11761 11762 11763 11764 11765 11766 11767 11768 11769 11770 11771 11772 11773 11774 11775 11776 11777 11778 11779 11780 11781 11782 11783 11784 11785 11786 11787 11788 11789 11790 11791 11792 11793 11794 11795 11796 11797 11798 11799 11800 11801 11802 11803 11804 11805 11806 11807 11808 11809 11810 11811 11812 11813 11814 11815 11816 11817 11818 11819 11820 11821 11822 11823 11824 11825 11826 11827 11828 11829 11830 11831 11832 11833 11834 11835 11836 11837 11838 11839 11840 11841 11842 11843 11844 11845 11846 11847 11848 11849 11850 11851 11852 11853 11854 11855 11856 11857 11858 11859 11860 11861 11862 11863 11864 11865 11866 11867 11868 11869 11870 11871 11872 11873 11874 11875 11876 11877 11878 11879 11880 11881 11882 11883 11884 11885 11886 11887 11888 11889 11890 11891 11892 11893 11894 11895 11896 11897 11898 11899 11900 11901 11902 11903 11904 11905 11906 11907 11908 11909 11910 11911 11912 11913 11914 11915 11916 11917 11918 11919 11920 11921 11922 11923 11924 11925 11926 11927 11928 11929 11930 11931 11932 11933 11934 11935 11936 11937 11938 11939 11940 11941 11942 11943 11944 11945 11946 11947 11948 11949 11950 11951 11952 11953 11954 11955 11956 11957 11958 11959 11960 11961 11962 11963 11964 11965 11966 11967 11968 11969 11970 11971 11972 11973 11974 11975 11976 11977 11978 11979 11980 11981 11982 11983 11984 11985 11986 11987 11988 11989 11990 11991 11992 11993 11994 11995 11996 11997 11998 11999 12000 12001 12002 12003 12004 12005 12006 12007 12008 12009 12010 12011 12012 12013 12014 12015 12016 12017 12018 12019 12020 12021 12022 12023 12024 12025 12026 12027 12028 12029 12030 12031 12032 12033 12034 12035 12036 12037 12038 12039 12040 12041 12042 12043 12044 12045 12046 12047 12048 12049 12050 12051 12052 12053 12054 12055 12056 12057 12058 12059 12060 12061 12062 12063 12064 12065 12066 12067 12068 12069 12070 12071 12072 12073 12074 12075 12076 12077 12078 12079 12080 12081 12082 12083 12084 12085 12086 12087 12088 12089 12090 12091 12092 12093 12094 12095 12096 12097 12098 12099 12100 12101 12102 12103 12104 12105 12106 12107 12108 12109 12110 12111 12112 12113 12114 12115 12116 12117 12118 12119 12120 12121 12122 12123 12124 12125 12126 12127 12128 12129 12130 12131 12132 12133 12134 12135 12136 12137 12138 12139 12140 12141 12142 12143 12144 12145 12146 12147 12148 12149 12150 12151 12152 12153 12154 12155 12156 12157 12158 12159 12160 12161 12162 12163 12164 12165 12166 12167 12168 12169 12170 12171 12172 12173 12174 12175 12176 12177 12178 12179 12180 12181 12182 12183 12184 12185 12186 12187 12188 12189 12190 12191 12192 12193 12194 12195 12196 12197 12198 12199 12200 12201 12202 12203 12204 12205 12206 12207 12208 12209 12210 12211 12212 12213 12214 12215 12216 12217 12218 12219 12220 12221 12222 12223 12224 12225 12226 12227 12228 12229 12230 12231 12232 12233 12234 12235 12236 12237 12238 12239 12240 12241 12242 12243 12244 12245 12246 12247 12248 12249 12250 12251 12252 12253 12254 12255 12256 12257 12258 12259 12260 12261 12262 12263 12264 12265 12266 12267 12268 12269 12270 12271 12272 12273 12274 12275 12276 12277 12278 12279 12280 12281 12282 12283 12284 12285 12286 12287 12288 12289 12290 12291 12292 12293 12294 12295 12296 12297 12298 12299 12300 12301 12302 12303 12304 12305 12306 12307 12308 12309 12310 12311 12312 12313 12314 12315 12316 12317 12318 12319 12320 12321 12322 12323 12324 12325 12326 12327 12328 12329 12330 12331 12332 12333 12334 12335 12336 12337 12338 12339 12340 12341 12342 12343 12344 12345 12346 12347 12348 12349 12350 12351 12352 12353 12354 12355 12356 12357 12358 12359 12360 12361 12362 12363 12364 12365 12366 12367 12368 12369 12370 12371 12372 12373 12374 12375 12376 12377 12378 12379 12380 12381 12382 12383 12384 12385 12386 12387 12388 12389 12390 12391 12392 12393 12394 12395 12396 12397 12398 12399 12400 12401 12402 12403 12404 12405 12406 12407 12408 12409 12410 12411 12412 12413 12414 12415 12416 12417 12418 12419 12420 12421 12422 12423 12424 12425 12426 12427 12428 12429 12430 12431 12432 12433 12434 12435 12436 12437 12438 12439 12440 12441 12442 12443 12444 12445 12446 12447 12448 12449 12450 12451 12452 12453 12454 12455 12456 12457 12458 12459 12460 12461 12462 12463 12464 12465 12466 12467 12468 12469 12470 12471 12472 12473 12474 12475 12476 12477 12478 12479 12480 12481 12482 12483 12484 12485 12486 12487 12488 12489 12490 12491 12492 12493 12494 12495 12496 12497 12498 12499 12500 12501 12502 12503 12504 12505 12506 12507 12508 12509 12510 12511 12512 12513 12514 12515 12516 12517 12518 12519 12520 12521 12522 12523 12524 12525 12526 12527 12528 12529 12530 12531 12532 12533 12534 12535 12536 12537 12538 12539 12540 12541 12542 12543 12544 12545 12546 12547 12548 12549 12550 12551 12552 12553 12554 12555 12556 12557 12558 12559 12560 12561 12562 12563 12564 12565 12566 12567 12568 12569 12570 12571 12572 12573 12574 12575 12576 12577 12578 12579 12580 12581 12582 12583 12584 12585 12586 12587 12588 12589 12590 12591 12592 12593 12594 12595 12596 12597 12598 12599 12600 12601 12602 12603 12604 12605 12606 12607 12608 12609 12610 12611 12612 12613 12614 12615 12616 12617 12618 12619 12620 12621 12622 12623 12624 12625 12626 12627 12628 12629 12630 12631 12632 12633 12634 12635 12636 12637 12638 12639 12640 12641 12642 12643 12644 12645 12646 12647 12648 12649 12650 12651 12652 12653 12654 12655 12656 12657 12658 12659 12660 12661 12662 12663 12664 12665 12666 12667 12668 12669 12670 12671 12672 12673 12674 12675 12676 12677 12678 12679 12680 12681 12682 12683 12684 12685 12686 12687 12688 12689 12690 12691 12692 12693 12694 12695 12696 12697 12698 12699 12700 12701 12702 12703 12704 12705 12706 12707 12708 12709 12710 12711 12712 12713 12714 12715 12716 12717 12718 12719 12720 12721 12722 12723 12724 12725 12726 12727 12728 12729 12730 12731 12732 12733 12734 12735 12736 12737 12738 12739 12740 12741 12742 12743 12744 12745 12746 12747 12748 12749 12750 12751 12752 12753 12754 12755 12756 12757 12758 12759 12760 12761 12762 12763 12764 12765 12766 12767 12768 12769 12770 12771 12772 12773 12774 12775 12776 12777 12778 12779 12780 12781 12782 12783 12784 12785 12786 12787 12788 12789 12790 12791 12792 12793 12794 12795 12796 12797 12798 12799 12800 12801 12802 12803 12804 12805 12806 12807 12808 12809 12810 12811 12812 12813 12814 12815 12816 12817 12818 12819 12820 12821 12822 12823 12824 12825 12826 12827 12828 12829 12830 12831 12832 12833 12834 12835 12836 12837 12838 12839 12840 12841 12842 12843 12844 12845 12846 12847 12848 12849 12850 12851 12852 12853 12854 12855 12856 12857 12858 12859 12860 12861 12862 12863 12864 12865 12866 12867 12868 12869 12870 12871 12872 12873 12874 12875 12876 12877 12878 12879 12880 12881 12882 12883 12884 12885 12886 12887 12888 12889 12890 12891 12892 12893 12894 12895 12896 12897 12898 12899 12900 12901 12902 12903 12904 12905 12906 12907 12908 12909 12910 12911 12912 12913 12914 12915 12916 12917 12918 12919 12920 12921 12922 12923 12924 12925 12926 12927 12928 12929 12930 12931 12932 12933 12934 12935 12936 12937 12938 12939 12940 12941 12942 12943 12944 12945 12946 12947 12948 12949 12950 12951 12952 12953 12954 12955 12956 12957 12958 12959 12960 12961 12962 12963 12964 12965 12966 12967 12968 12969 12970 12971 12972 12973 12974 12975 12976 12977 12978 12979 12980 12981 12982 12983 12984 12985 12986 12987 12988 12989 12990 12991 12992 12993 12994 12995 12996 12997 12998 12999 13000 13001 13002 13003 13004 13005 13006 13007 13008 13009 13010 13011 13012 13013 13014 13015 13016 13017 13018 13019 13020 13021 13022 13023 13024 13025 13026 13027 13028 13029 13030 13031 13032 13033 13034 13035 13036 13037 13038 13039 13040 13041 13042 13043 13044 13045 13046 13047 13048 13049 13050 13051 13052 13053 13054 13055 13056 13057 13058 13059 13060 13061 13062 13063 13064 13065 13066 13067 13068 13069 13070 13071 13072 13073 13074 13075 13076 13077 13078 13079 13080 13081 13082 13083 13084 13085 13086 13087 13088 13089 13090 13091 13092 13093 13094 13095 13096 13097 13098 13099 13100 13101 13102 13103 13104 13105 13106 13107 13108 13109 13110 13111 13112 13113 13114 13115 13116 13117 13118 13119 13120 13121 13122 13123 13124 13125 13126 13127 13128 13129 13130 13131 13132 13133 13134 13135 13136 13137 13138 13139 13140 13141 13142 13143 13144 13145 13146 13147 13148 13149 13150 13151 13152 13153 13154 13155 13156 13157 13158 13159 13160 13161 13162 13163 13164 13165 13166 13167 13168 13169 13170 13171 13172 13173 13174 13175 13176 13177 13178 13179 13180 13181 13182 13183 13184 13185 13186 13187 13188 13189 13190 13191 13192 13193 13194 13195 13196 13197 13198 13199 13200 13201 13202 13203 13204 13205 13206 13207 13208 13209 13210 13211 13212 13213 13214 13215 13216 13217 13218 13219 13220 13221 13222 13223 13224 13225 13226 13227 13228 13229 13230 13231 13232 13233 13234 13235 13236 13237 13238 13239 13240 13241 13242 13243 13244 13245 13246 13247 13248 13249 13250 13251 13252 13253 13254 13255 13256 13257 13258 13259 13260 13261 13262 13263 13264 13265 13266 13267 13268 13269 13270 13271 13272 13273 13274 13275 13276 13277 13278 13279 13280 13281 13282 13283 13284 13285 13286 13287 13288 13289 13290 13291 13292 13293 13294 13295 13296 13297 13298 13299 13300 13301 13302 13303 13304 13305 13306 13307 13308 13309 13310 13311 13312 13313 13314 13315 13316 13317 13318 13319 13320 13321 13322 13323 13324 13325 13326 13327 13328 13329 13330 13331 13332 13333 13334 13335 13336 13337 13338 13339 13340 13341 13342 13343 13344 13345 13346 13347 13348 13349 13350 13351 13352 13353 13354 13355 13356 13357 13358 13359 13360 13361 13362 13363 13364 13365 13366 13367 13368 13369 13370 13371 13372 13373 13374 13375 13376 13377 13378 13379 13380 13381 13382 13383 13384 13385 13386 13387 13388 13389 13390 13391 13392 13393 13394 13395 13396 13397 13398 13399 13400 13401 13402 13403 13404 13405 13406 13407 13408 13409 13410 13411 13412 13413 13414 13415 13416 13417 13418 13419 13420 13421 13422 13423 13424 13425 13426 13427 13428 13429 13430 13431 13432 13433 13434 13435 13436 13437 13438 13439 13440 13441 13442 13443 13444 13445 13446 13447 13448 13449 13450 13451 13452 13453 13454 13455 13456 13457 13458 13459 13460 13461 13462 13463 13464 13465 13466 13467 13468 13469 13470 13471 13472 13473 13474 13475 13476 13477 13478 13479 13480 13481 13482 13483 13484 13485 13486 13487 13488 13489 13490 13491 13492 13493 13494 13495 13496 13497 13498 13499 13500 13501 13502 13503 13504 13505 13506 13507 13508 13509 13510 13511 13512 13513 13514 13515 13516 13517 13518 13519 13520 13521 13522 13523 13524 13525 13526 13527 13528 13529 13530 13531 13532 13533 13534 13535 13536 13537 13538 13539 13540 13541 13542 13543 13544 13545 13546 13547 13548 13549 13550 13551 13552 13553 13554 13555 13556 13557 13558 13559 13560 13561 13562 13563 13564 13565 13566 13567 13568 13569 13570 13571 13572 13573 13574 13575 13576 13577 13578 13579 13580 13581 13582 13583 13584 13585 13586 13587 13588 13589 13590 13591 13592 13593 13594 13595 13596 13597 13598 13599 13600 13601 13602 13603 13604 13605 13606 13607 13608 13609 13610 13611 13612 13613 13614 13615 13616 13617 13618 13619 13620 13621 13622 13623 13624 13625 13626 13627 13628 13629 13630 13631 13632 13633 13634 13635 13636 13637 13638 13639 13640 13641 13642 13643 13644 13645 13646 13647 13648 13649 13650 13651 13652 13653 13654 13655 13656 13657 13658 13659 13660 13661 13662 13663 13664 13665 13666 13667 13668 13669 13670 13671 13672 13673 13674 13675 13676 13677 13678 13679 13680 13681 13682 13683 13684 13685 13686 13687 13688 13689 13690 13691 13692 13693 13694 13695 13696 13697 13698 13699 13700 13701 13702 13703 13704 13705 13706 13707 13708 13709 13710 13711 13712 13713 13714 13715 13716 13717 13718 13719 13720 13721 13722 13723 13724 13725 13726 13727 13728 13729 13730 13731 13732 13733 13734 13735 13736 13737 13738 13739 13740 13741 13742 13743 13744 13745 13746 13747 13748 13749 13750 13751 13752 13753 13754 13755 13756 13757 13758 13759 13760 13761 13762 13763 13764 13765 13766 13767 13768 13769 13770 13771 13772 13773 13774 13775 13776 13777 13778 13779 13780 13781 13782 13783 13784 13785 13786 13787 13788 13789 13790 13791 13792 13793 13794 13795 13796 13797 13798 13799 13800 13801 13802 13803 13804 13805 13806 13807 13808 13809 13810 13811 13812 13813 13814 13815 13816 13817 13818 13819 13820 13821 13822 13823 13824 13825 13826 13827 13828 13829 13830 13831 13832 13833 13834 13835 13836 13837 13838 13839 13840 13841 13842 13843 13844 13845 13846 13847 13848 13849 13850 13851 13852 13853 13854 13855 13856 13857 13858 13859 13860 13861 13862 13863 13864 13865 13866 13867 13868 13869 13870 13871 13872 13873 13874 13875 13876 13877 13878 13879 13880 13881 13882 13883 13884 13885 13886 13887 13888 13889 13890 13891 13892 13893 13894 13895 13896 13897 13898 13899 13900 13901 13902 13903 13904 13905 13906 13907 13908 13909 13910 13911 13912 13913 13914 13915 13916 13917 13918 13919 13920 13921 13922 13923 13924 13925 13926 13927 13928 13929 13930 13931 13932 13933 13934 13935 13936 13937 13938 13939 13940 13941 13942 13943 13944 13945 13946 13947 13948 13949 13950 13951 13952 13953 13954 13955 13956 13957 13958 13959 13960 13961 13962 13963 13964 13965 13966 13967 13968 13969 13970 13971 13972 13973 13974 13975 13976 13977 13978 13979 13980 13981 13982 13983 13984 13985 13986 13987 13988 13989 13990 13991 13992 13993 13994 13995 13996 13997 13998 13999 14000 14001 14002 14003 14004 14005 14006 14007 14008 14009 14010 14011 14012 14013 14014 14015 14016 14017 14018 14019 14020 14021 14022 14023 14024 14025 14026 14027 14028 14029 14030 14031 14032 14033 14034 14035 14036 14037 14038 14039 14040 14041 14042 14043 14044 14045 14046 14047 14048 14049 14050 14051 14052 14053 14054 14055 14056 14057 14058 14059 14060 14061 14062 14063 14064 14065 14066 14067 14068 14069 14070 14071 14072 14073 14074 14075 14076 14077 14078 14079 14080 14081 14082 14083 14084 14085 14086 14087 14088 14089 14090 14091 14092 14093 14094 14095 14096 14097 14098 14099 14100 14101 14102 14103 14104 14105 14106 14107 14108 14109 14110 14111 14112 14113 14114 14115 14116 14117 14118 14119 14120 14121 14122 14123 14124 14125 14126 14127 14128 14129 14130 14131 14132 14133 14134 14135 14136 14137 14138 14139 14140 14141 14142 14143 14144 14145 14146 14147 14148 14149 14150 14151 14152 14153 14154 14155 14156 14157 14158 14159 14160 14161 14162 14163 14164 14165 14166 14167 14168 14169 14170 14171 14172 14173 14174 14175 14176 14177 14178 14179 14180 14181 14182 14183 14184 14185 14186 14187 14188 14189 14190 14191 14192 14193 14194 14195 14196 14197 14198 14199 14200 14201 14202 14203 14204 14205 14206 14207 14208 14209 14210 14211 14212 14213 14214 14215 14216 14217 14218 14219 14220 14221 14222 14223 14224 14225 14226 14227 14228 14229 14230 14231 14232 14233 14234 14235 14236 14237 14238 14239 14240 14241 14242 14243 14244 14245 14246 14247 14248 14249 14250 14251 14252 14253 14254 14255 14256 14257 14258 14259 14260 14261 14262 14263 14264 14265 14266 14267 14268 14269 14270 14271 14272 14273 14274 14275 14276 14277 14278 14279 14280 14281 14282 14283 14284 14285 14286 14287 14288 14289 14290 14291 14292 14293 14294 14295 14296 14297 14298 14299 14300 14301 14302 14303 14304 14305 14306 14307 14308 14309 14310 14311 14312 14313 14314 14315 14316 14317 14318 14319 14320 14321 14322 14323 14324 14325 14326 14327 14328 14329 14330 14331 14332 14333 14334 14335 14336 14337 14338 14339 14340 14341 14342 14343 14344 14345 14346 14347 14348 14349 14350 14351 14352 14353 14354 14355 14356 14357 14358 14359 14360 14361 14362 14363 14364 14365 14366 14367 14368 14369 14370 14371 14372 14373 14374 14375 14376 14377 14378 14379 14380 14381 14382 14383 14384 14385 14386 14387 14388 14389 14390 14391 14392 14393 14394 14395 14396 14397 14398 14399 14400 14401 14402 14403 14404 14405 14406 14407 14408 14409 14410 14411 14412 14413 14414 14415 14416 14417 14418 14419 14420 14421 14422 14423 14424 14425 14426 14427 14428 14429 14430 14431 14432 14433 14434 14435 14436 14437 14438 14439 14440 14441 14442 14443 14444 14445 14446 14447 14448 14449 14450 14451 14452 14453 14454 14455 14456 14457 14458 14459 14460 14461 14462 14463 14464 14465 14466 14467 14468 14469 14470 14471 14472 14473 14474 14475 14476 14477 14478 14479 14480 14481 14482 14483 14484 14485 14486 14487 14488 14489 14490 14491 14492 14493 14494 14495 14496 14497 14498 14499 14500 14501 14502 14503 14504 14505 14506 14507 14508 14509 14510 14511 14512 14513 14514 14515 14516 14517 14518 14519 14520 14521 14522 14523 14524 14525 14526 14527 14528 14529 14530 14531 14532 14533 14534 14535 14536 14537 14538 14539 14540 14541 14542 14543 14544 14545 14546 14547 14548 14549 14550 14551 14552 14553 14554 14555 14556 14557 14558 14559 14560 14561 14562 14563 14564 14565 14566 14567 14568 14569 14570 14571 14572 14573 14574 14575 14576 14577 14578 14579 14580 14581 14582 14583 14584 14585 14586 14587 14588 14589 14590 14591 14592 14593 14594 14595 14596 14597 14598 14599 14600 14601 14602 14603 14604 14605 14606 14607 14608 14609 14610 14611 14612 14613 14614 14615 14616 14617 14618 14619 14620 14621 14622 14623 14624 14625 14626 14627 14628 14629 14630 14631 14632 14633 14634 14635 14636 14637 14638 14639 14640 14641 14642 14643 14644 14645 14646 14647 14648 14649 14650 14651 14652 14653 14654 14655 14656 14657 14658 14659 14660 14661 14662 14663 14664 14665 14666 14667 14668 14669 14670 14671 14672 14673 14674 14675 14676 14677 14678 14679 14680 14681 14682 14683 14684 14685 14686 14687 14688 14689 14690 14691 14692 14693 14694 14695 14696 14697 14698 14699 14700 14701 14702 14703 14704 14705 14706 14707 14708 14709 14710 14711 14712 14713 14714 14715 14716 14717 14718 14719 14720 14721 14722 14723 14724 14725 14726 14727 14728 14729 14730 14731 14732 14733 14734 14735 14736 14737 14738 14739 14740 14741 14742 14743 14744 14745 14746 14747 14748 14749 14750 14751 14752 14753 14754 14755 14756 14757 14758 14759 14760 14761 14762 14763 14764 14765 14766 14767 14768 14769 14770 14771 14772 14773 14774 14775 14776 14777 14778 14779 14780 14781 14782 14783 14784 14785 14786 14787 14788 14789 14790 14791 14792 14793 14794 14795 14796 14797 14798 14799 14800 14801 14802 14803 14804 14805 14806 14807 14808 14809 14810 14811 14812 14813 14814 14815 14816 14817 14818 14819 14820 14821 14822 14823 14824 14825 14826 14827 14828 14829 14830 14831 14832 14833 14834 14835 14836 14837 14838 14839 14840 14841 14842 14843 14844 14845 14846 14847 14848 14849 14850 14851 14852 14853 14854 14855 14856 14857 14858 14859 14860 14861 14862 14863 14864 14865 14866 14867 14868 14869 14870 14871 14872 14873 14874 14875 14876 14877 14878 14879 14880 14881 14882 14883 14884 14885 14886 14887 14888 14889 14890 14891 14892 14893 14894 14895 14896 14897 14898 14899 14900 14901 14902 14903 14904 14905 14906 14907 14908 14909 14910 14911 14912 14913 14914 14915 14916 14917 14918 14919 14920 14921 14922 14923 14924 14925 14926 14927 14928 14929 14930 14931 14932 14933 14934 14935 14936 14937 14938 14939 14940 14941 14942 14943 14944 14945 14946 14947 14948 14949 14950 14951 14952 14953 14954 14955 14956 14957 14958 14959 14960 14961 14962 14963 14964 14965 14966 14967 14968 14969 14970 14971 14972 14973 14974 14975 14976 14977 14978 14979 14980 14981 14982 14983 14984 14985 14986 14987 14988 14989 14990 14991 14992 14993 14994 14995 14996 14997 14998 14999 15000 15001 15002 15003 15004 15005 15006 15007 15008 15009 15010 15011 15012 15013 15014 15015 15016 15017 15018 15019 15020 15021 15022 15023 15024 15025 15026 15027 15028 15029 15030 15031 15032 15033 15034 15035 15036 15037 15038 15039 15040 15041 15042 15043 15044 15045 15046 15047 15048 15049 15050 15051 15052 15053 15054 15055 15056 15057 15058 15059 15060 15061 15062 15063 15064 15065 15066 15067 15068 15069 15070 15071 15072 15073 15074 15075 15076 15077 15078 15079 15080 15081 15082 15083 15084 15085 15086 15087 15088 15089 15090 15091 15092 15093 15094 15095 15096 15097 15098 15099 15100 15101 15102 15103 15104 15105 15106 15107 15108 15109 15110 15111 15112 15113 15114 15115 15116 15117 15118 15119 15120 15121 15122 15123 15124 15125 15126 15127 15128 15129 15130 15131 15132 15133 15134 15135 15136 15137 15138 15139 15140 15141 15142 15143 15144 15145 15146 15147 15148 15149 15150 15151 15152 15153 15154 15155 15156 15157 15158 15159 15160 15161 15162 15163 15164 15165 15166 15167 15168 15169 15170 15171 15172 15173 15174 15175 15176 15177 15178 15179 15180 15181 15182 15183 15184 15185 15186 15187 15188 15189 15190 15191 15192 15193 15194 15195 15196 15197 15198 15199 15200 15201 15202 15203 15204 15205 15206 15207 15208 15209 15210 15211 15212 15213 15214 15215 15216 15217 15218 15219 15220 15221 15222 15223 15224 15225 15226 15227 15228 15229 15230 15231 15232 15233 15234 15235 15236 15237 15238 15239 15240 15241 15242 15243 15244 15245 15246 15247 15248 15249 15250 15251 15252 15253 15254 15255 15256 15257 15258 15259 15260 15261 15262 15263 15264 15265 15266 15267 15268 15269 15270 15271 15272 15273 15274 15275 15276 15277 15278 15279 15280 15281 15282 15283 15284 15285 15286 15287 15288 15289 15290 15291 15292 15293 15294 15295 15296 15297 15298 15299 15300 15301 15302 15303 15304 15305 15306 15307 15308 15309 15310 15311 15312 15313 15314 15315 15316 15317 15318 15319 15320 15321 15322 15323 15324 15325 15326 15327 15328 15329 15330 15331 15332 15333 15334 15335 15336 15337 15338 15339 15340 15341 15342 15343 15344 15345 15346 15347 15348 15349 15350 15351 15352 15353 15354 15355 15356 15357 15358 15359 15360 15361 15362 15363 15364 15365 15366 15367 15368 15369 15370 15371 15372 15373 15374 15375 15376 15377 15378 15379 15380 15381 15382 15383 15384 15385 15386 15387 15388 15389 15390 15391 15392 15393 15394 15395 15396 15397 15398 15399 15400 15401 15402 15403 15404 15405 15406 15407 15408 15409 15410 15411 15412 15413 15414 15415 15416 15417 15418 15419 15420 15421 15422 15423 15424 15425 15426 15427 15428 15429 15430 15431 15432 15433 15434 15435 15436 15437 15438 15439 15440 15441 15442 15443 15444 15445 15446 15447 15448 15449 15450 15451 15452 15453 15454 15455 15456 15457 15458 15459 15460 15461 15462 15463 15464 15465 15466 15467 15468 15469 15470 15471 15472 15473 15474 15475 15476 15477 15478 15479 15480 15481 15482 15483 15484 15485 15486 15487 15488 15489 15490 15491 15492 15493 15494 15495 15496 15497 15498 15499 15500 15501 15502 15503 15504 15505 15506 15507 15508 15509 15510 15511 15512 15513 15514 15515 15516 15517 15518 15519 15520 15521 15522 15523 15524 15525 15526 15527 15528 15529 15530 15531 15532 15533 15534 15535 15536 15537 15538 15539 15540 15541 15542 15543 15544 15545 15546 15547 15548 15549 15550 15551 15552 15553 15554 15555 15556 15557 15558 15559 15560 15561 15562 15563 15564 15565 15566 15567 15568 15569 15570 15571 15572 15573 15574 15575 15576 15577 15578 15579 15580 15581 15582 15583 15584 15585 15586 15587 15588 15589 15590 15591 15592 15593 15594 15595 15596 15597 15598 15599 15600 15601 15602 15603 15604 15605 15606 15607 15608 15609 15610 15611 15612 15613 15614 15615 15616 15617 15618 15619 15620 15621 15622 15623 15624 15625 15626 15627 15628 15629 15630 15631 15632 15633 15634 15635 15636 15637 15638 15639 15640 15641 15642 15643 15644 15645 15646 15647 15648 15649 15650 15651 15652 15653 15654 15655 15656 15657 15658 15659 15660 15661 15662 15663 15664 15665 15666 15667 15668 15669 15670 15671 15672 15673 15674 15675 15676 15677 15678 15679 15680 15681 15682 15683 15684 15685 15686 15687 15688 15689 15690 15691 15692 15693 15694 15695 15696 15697 15698 15699 15700 15701 15702 15703 15704 15705 15706 15707 15708 15709 15710 15711 15712 15713 15714 15715 15716 15717 15718 15719 15720 15721 15722 15723 15724 15725 15726 15727 15728 15729 15730 15731 15732 15733 15734 15735 15736 15737 15738 15739 15740 15741 15742 15743 15744 15745 15746 15747 15748 15749 15750 15751 15752 15753 15754 15755 15756 15757 15758 15759 15760 15761 15762 15763 15764 15765 15766 15767 15768 15769 15770 15771 15772 15773 15774 15775 15776 15777 15778 15779 15780 15781 15782 15783 15784 15785 15786 15787 15788 15789 15790 15791 15792 15793 15794 15795 15796 15797 15798 15799 15800 15801 15802 15803 15804 15805 15806 15807 15808 15809 15810 15811 15812 15813 15814 15815 15816 15817 15818 15819 15820 15821 15822 15823 15824 15825 15826 15827 15828 15829 15830 15831 15832 15833 15834 15835 15836 15837 15838 15839 15840 15841 15842 15843 15844 15845 15846 15847 15848 15849 15850 15851 15852 15853 15854 15855 15856 15857 15858 15859 15860 15861 15862 15863 15864 15865 15866 15867 15868 15869 15870 15871 15872 15873 15874 15875 15876 15877 15878 15879 15880 15881 15882 15883 15884 15885 15886 15887 15888 15889 15890 15891 15892 15893 15894 15895 15896 15897 15898 15899 15900 15901 15902 15903 15904 15905 15906 15907 15908 15909 15910 15911 15912 15913 15914 15915 15916 15917 15918 15919 15920 15921 15922 15923 15924 15925 15926 15927 15928 15929 15930 15931 15932 15933 15934 15935 15936 15937 15938 15939 15940 15941 15942 15943 15944 15945 15946 15947 15948 15949 15950 15951 15952 15953 15954 15955 15956 15957 15958 15959 15960 15961 15962 15963 15964 15965 15966 15967 15968 15969 15970 15971 15972 15973 15974 15975 15976 15977 15978 15979 15980 15981 15982 15983 15984 15985 15986 15987 15988 15989 15990 15991 15992 15993 15994 15995 15996 15997 15998 15999 16000 16001 16002 16003 16004 16005 16006 16007 16008 16009 16010 16011 16012 16013 16014 16015 16016 16017 16018 16019 16020 16021 16022 16023 16024 16025 16026 16027 16028 16029 16030 16031 16032 16033 16034 16035 16036 16037 16038 16039 16040 16041 16042 16043 16044 16045 16046 16047 16048 16049 16050 16051 16052 16053 16054 16055 16056 16057 16058 16059 16060 16061 16062 16063 16064 16065 16066 16067 16068 16069 16070 16071 16072 16073 16074 16075 16076 16077 16078 16079 16080 16081 16082 16083 16084 16085 16086 16087 16088 16089 16090 16091 16092 16093 16094 16095 16096 16097 16098 16099 16100 16101 16102 16103 16104 16105 16106 16107 16108 16109 16110 16111 16112 16113 16114 16115 16116 16117 16118 16119 16120 16121 16122 16123 16124 16125 16126 16127 16128 16129 16130 16131 16132 16133 16134 16135 16136 16137 16138 16139 16140 16141 16142 16143 16144 16145 16146 16147 16148 16149 16150 16151 16152 16153 16154 16155 16156 16157 16158 16159 16160 16161 16162 16163 16164 16165 16166 16167 16168 16169 16170 16171 16172 16173 16174 16175 16176 16177 16178 16179 16180 16181 16182 16183 16184 16185 16186 16187 16188 16189 16190 16191 16192 16193 16194 16195 16196 16197 16198 16199 16200 16201 16202 16203 16204 16205 16206 16207 16208 16209 16210 16211 16212 16213 16214 16215 16216 16217 16218 16219 16220 16221 16222 16223 16224 16225 16226 16227 16228 16229 16230 16231 16232 16233 16234 16235 16236 16237 16238 16239 16240 16241 16242 16243 16244 16245 16246 16247 16248 16249 16250 16251 16252 16253 16254 16255 16256 16257 16258 16259 16260 16261 16262 16263 16264 16265 16266 16267 16268 16269 16270 16271 16272 16273 16274 16275 16276 16277 16278 16279 16280 16281 16282 16283 16284 16285 16286 16287 16288 16289 16290 16291 16292 16293 16294 16295 16296 16297 16298 16299 16300 16301 16302 16303 16304 16305 16306 16307 16308 16309 16310 16311 16312 16313 16314 16315 16316 16317 16318 16319 16320 16321 16322 16323 16324 16325 16326 16327 16328 16329 16330 16331 16332 16333 16334 16335 16336 16337 16338 16339 16340 16341 16342 16343 16344 16345 16346 16347 16348 16349 16350 16351 16352 16353 16354 16355 16356 16357 16358 16359 16360 16361 16362 16363 16364 16365 16366 16367 16368 16369 16370 16371 16372 16373 16374 16375 16376 16377 16378 16379 16380 16381 16382 16383 16384 16385 16386 16387 16388 16389 16390 16391 16392 16393 16394 16395 16396 16397 16398 16399 16400 16401 16402 16403 16404 16405 16406 16407 16408 16409 16410 16411 16412 16413 16414 16415 16416 16417 16418 16419 16420 16421 16422 16423 16424 16425 16426 16427 16428 16429 16430 16431 16432 16433 16434 16435 16436 16437 16438 16439 16440 16441 16442 16443 16444 16445 16446 16447 16448 16449 16450 16451 16452 16453 16454 16455 16456 16457 16458 16459 16460 16461 16462 16463 16464 16465 16466 16467 16468 16469 16470 16471 16472 16473 16474 16475 16476 16477 16478 16479 16480 16481 16482 16483 16484 16485 16486 16487 16488 16489 16490 16491 16492 16493 16494 16495 16496 16497 16498 16499 16500 16501 16502 16503 16504 16505 16506 16507 16508 16509 16510 16511 16512 16513 16514 16515 16516 16517 16518 16519 16520 16521 16522 16523 16524 16525 16526 16527 16528 16529 16530 16531 16532 16533 16534 16535 16536 16537 16538 16539 16540 16541 16542 16543 16544 16545 16546 16547 16548 16549 16550 16551 16552 16553 16554 16555 16556 16557 16558 16559 16560 16561 16562 16563 16564 16565 16566 16567 16568 16569 16570 16571 16572 16573 16574 16575 16576 16577 16578 16579 16580 16581 16582 16583 16584 16585 16586 16587 16588 16589 16590 16591 16592 16593 16594 16595 16596 16597 16598 16599 16600 16601 16602 16603 16604 16605 16606 16607 16608 16609 16610 16611 16612 16613 16614 16615 16616 16617 16618 16619 16620 16621 16622 16623 16624 16625 16626 16627 16628 16629 16630 16631 16632 16633 16634 16635 16636 16637 16638 16639 16640 16641 16642 16643 16644 16645 16646 16647 16648 16649 16650 16651 16652 16653 16654 16655 16656 16657 16658 16659 16660 16661 16662 16663 16664 16665 16666 16667 16668 16669 16670 16671 16672 16673 16674 16675 16676 16677 16678 16679 16680 16681 16682 16683 16684 16685 16686 16687 16688 16689 16690 16691 16692 16693 16694 16695 16696 16697 16698 16699 16700 16701 16702 16703 16704 16705 16706 16707 16708 16709 16710 16711 16712 16713 16714 16715 16716 16717 16718 16719 16720 16721 16722 16723 16724 16725 16726 16727 16728 16729 16730 16731 16732 16733 16734 16735 16736 16737 16738 16739 16740 16741 16742 16743 16744 16745 16746 16747 16748 16749 16750 16751 16752 16753 16754 16755 16756 16757 16758 16759 16760 16761 16762 16763 16764 16765 16766 16767 16768 16769 16770 16771 16772 16773 16774 16775 16776 16777 16778 16779 16780 16781 16782 16783 16784 16785 16786 16787 16788 16789 16790 16791 16792 16793 16794 16795 16796 16797 16798 16799 16800 16801 16802 16803 16804 16805 16806 16807 16808 16809 16810 16811 16812 16813 16814 16815 16816 16817 16818 16819 16820 16821 16822 16823 16824 16825 16826 16827 16828 16829 16830 16831 16832 16833 16834 16835 16836 16837 16838 16839 16840 16841 16842 16843 16844 16845 16846 16847 16848 16849 16850 16851 16852 16853 16854 16855 16856 16857 16858 16859 16860 16861 16862 16863 16864 16865 16866 16867 16868 16869 16870 16871 16872 16873 16874 16875 16876 16877 16878 16879 16880 16881 16882 16883 16884 16885 16886 16887 16888 16889 16890 16891 16892 16893 16894 16895 16896 16897 16898 16899 16900 16901 16902 16903 16904 16905 16906 16907 16908 16909 16910 16911 16912 16913 16914 16915 16916 16917 16918 16919 16920 16921 16922 16923 16924 16925 16926 16927 16928 16929 16930 16931 16932 16933 16934 16935 16936 16937 16938 16939 16940 16941 16942 16943 16944 16945 16946 16947 16948 16949 16950 16951 16952 16953 16954 16955 16956 16957 16958 16959 16960 16961 16962 16963 16964 16965 16966 16967 16968 16969 16970 16971 16972 16973 16974 16975 16976 16977 16978 16979 16980 16981 16982 16983 16984 16985 16986 16987 16988 16989 16990 16991 16992 16993 16994 16995 16996 16997 16998 16999 17000 17001 17002 17003 17004 17005 17006 17007 17008 17009 17010 17011 17012 17013 17014 17015 17016 17017 17018 17019 17020 17021 17022 17023 17024 17025 17026 17027 17028 17029 17030 17031 17032 17033 17034 17035 17036 17037 17038 17039 17040 17041 17042 17043 17044 17045 17046 17047 17048 17049 17050 17051 17052 17053 17054 17055 17056 17057 17058 17059 17060 17061 17062 17063 17064 17065 17066 17067 17068 17069 17070 17071 17072 17073 17074 17075 17076 17077 17078 17079 17080 17081 17082 17083 17084 17085 17086 17087 17088 17089 17090 17091 17092 17093 17094 17095 17096 17097 17098 17099 17100 17101 17102 17103 17104 17105 17106 17107 17108 17109 17110 17111 17112 17113 17114 17115 17116 17117 17118 17119 17120 17121 17122 17123 17124 17125 17126 17127 17128 17129 17130 17131 17132 17133 17134 17135 17136 17137 17138 17139 17140 17141 17142 17143 17144 17145 17146 17147 17148 17149 17150 17151 17152 17153 17154 17155 17156 17157 17158 17159 17160 17161 17162 17163 17164 17165 17166 17167 17168 17169 17170 17171 17172 17173 17174 17175 17176 17177 17178 17179 17180 17181 17182 17183 17184 17185 17186 17187 17188 17189 17190 17191 17192 17193 17194 17195 17196 17197 17198 17199 17200 17201 17202 17203 17204 17205 17206 17207 17208 17209 17210 17211 17212 17213 17214 17215 17216 17217 17218 17219 17220 17221 17222 17223 17224 17225 17226 17227 17228 17229 17230 17231 17232 17233 17234 17235 17236 17237 17238 17239 17240 17241 17242 17243 17244 17245 17246 17247 17248 17249 17250 17251 17252 17253 17254 17255 17256 17257 17258 17259 17260 17261 17262 17263 17264 17265 17266 17267 17268 17269 17270 17271 17272 17273 17274 17275 17276 17277 17278 17279 17280 17281 17282 17283 17284 17285 17286 17287 17288 17289 17290 17291 17292 17293 17294 17295 17296 17297 17298 17299 17300 17301 17302 17303 17304 17305 17306 17307 17308 17309 17310 17311 17312 17313 17314 17315 17316 17317 17318 17319 17320 17321 17322 17323 17324 17325 17326 17327 17328 17329 17330 17331 17332 17333 17334 17335 17336 17337 17338 17339 17340 17341 17342 17343 17344 17345 17346 17347 17348 17349 17350 17351 17352 17353 17354 17355 17356 17357 17358 17359 17360 17361 17362 17363 17364 17365 17366 17367 17368 17369 17370 17371 17372 17373 17374 17375 17376 17377 17378 17379 17380 17381 17382 17383 17384 17385 17386 17387 17388 17389 17390 17391 17392 17393 17394 17395 17396 17397 17398 17399 17400 17401 17402 17403 17404 17405 17406 17407 17408 17409 17410 17411 17412 17413 17414 17415 17416 17417 17418 17419 17420 17421 17422 17423 17424 17425 17426 17427 17428 17429 17430 17431 17432 17433 17434 17435 17436 17437 17438 17439 17440 17441 17442 17443 17444 17445 17446 17447 17448 17449 17450 17451 17452 17453 17454 17455 17456 17457 17458 17459 17460 17461 17462 17463 17464 17465 17466 17467 17468 17469 17470 17471 17472 17473 17474 17475 17476 17477 17478 17479 17480 17481 17482 17483 17484 17485 17486 17487 17488 17489 17490 17491 17492 17493 17494 17495 17496 17497 17498 17499 17500 17501 17502 17503 17504 17505 17506 17507 17508 17509 17510 17511 17512 17513 17514 17515 17516 17517 17518 17519 17520 17521 17522 17523 17524 17525 17526 17527 17528 17529 17530 17531 17532 17533 17534 17535 17536 17537 17538 17539 17540 17541 17542 17543 17544 17545 17546 17547 17548 17549 17550 17551 17552 17553 17554 17555 17556 17557 17558 17559 17560 17561 17562 17563 17564 17565 17566 17567 17568 17569 17570 17571 17572 17573 17574 17575 17576 17577 17578 17579 17580 17581 17582 17583 17584 17585 17586 17587 17588 17589 17590 17591 17592 17593 17594 17595 17596 17597 17598 17599 17600 17601 17602 17603 17604 17605 17606 17607 17608 17609 17610 17611 17612 17613 17614 17615 17616 17617 17618 17619 17620 17621 17622 17623 17624 17625 17626 17627 17628 17629 17630 17631 17632 17633 17634 17635 17636 17637 17638 17639 17640 17641 17642 17643 17644 17645 17646 17647 17648 17649 17650 17651 17652 17653 17654 17655 17656 17657 17658 17659 17660 17661 17662 17663 17664 17665 17666 17667 17668 17669 17670 17671 17672 17673 17674 17675 17676 17677 17678 17679 17680 17681 17682 17683 17684 17685 17686 17687 17688 17689 17690 17691 17692 17693 17694 17695 17696 17697 17698 17699 17700 17701 17702 17703 17704 17705 17706 17707 17708 17709 17710 17711 17712 17713 17714 17715 17716 17717 17718 17719 17720 17721 17722 17723 17724 17725 17726 17727 17728 17729 17730 17731 17732 17733 17734 17735 17736 17737 17738 17739 17740 17741 17742 17743 17744 17745 17746 17747 17748 17749 17750 17751 17752 17753 17754 17755 17756 17757 17758 17759 17760 17761 17762 17763 17764 17765 17766 17767 17768 17769 17770 17771 17772 17773 17774 17775 17776 17777 17778 17779 17780 17781 17782 17783 17784 17785 17786 17787 17788 17789 17790 17791 17792 17793 17794 17795 17796 17797 17798 17799 17800 17801 17802 17803 17804 17805 17806 17807 17808 17809 17810 17811 17812 17813 17814 17815 17816 17817 17818 17819 17820 17821 17822 17823 17824 17825 17826 17827 17828 17829 17830 17831 17832 17833 17834 17835 17836 17837 17838 17839 17840 17841 17842 17843 17844 17845 17846 17847 17848 17849 17850 17851 17852 17853 17854 17855 17856 17857 17858 17859 17860 17861 17862 17863 17864 17865 17866 17867 17868 17869 17870 17871 17872 17873 17874 17875 17876 17877 17878 17879 17880 17881 17882 17883 17884 17885 17886 17887 17888 17889 17890 17891 17892 17893 17894 17895 17896 17897 17898 17899 17900 17901 17902 17903 17904 17905 17906 17907 17908 17909 17910 17911 17912 17913 17914 17915 17916 17917 17918 17919 17920 17921 17922 17923 17924 17925 17926 17927 17928 17929 17930 17931 17932 17933 17934 17935 17936 17937 17938 17939 17940 17941 17942 17943 17944 17945 17946 17947 17948 17949 17950 17951 17952 17953 17954 17955 17956 17957 17958 17959 17960 17961 17962 17963 17964 17965 17966 17967 17968 17969 17970 17971 17972 17973 17974 17975 17976 17977 17978 17979 17980 17981 17982 17983 17984 17985 17986 17987 17988 17989 17990 17991 17992 17993 17994 17995 17996 17997 17998 17999 18000 18001 18002 18003 18004 18005 18006 18007 18008 18009 18010 18011 18012 18013 18014 18015 18016 18017 18018 18019 18020 18021 18022 18023 18024 18025 18026 18027 18028 18029 18030 18031 18032 18033 18034 18035 18036 18037 18038 18039 18040 18041 18042 18043 18044 18045 18046 18047 18048 18049 18050 18051 18052 18053 18054 18055 18056 18057 18058 18059 18060 18061 18062 18063 18064 18065 18066 18067 18068 18069 18070 18071 18072 18073 18074 18075 18076 18077 18078 18079 18080 18081 18082 18083 18084 18085 18086 18087 18088 18089 18090 18091 18092 18093 18094 18095 18096 18097 18098 18099 18100 18101 18102 18103 18104 18105 18106 18107 18108 18109 18110 18111 18112 18113 18114 18115 18116 18117 18118 18119 18120 18121 18122 18123 18124 18125 18126 18127 18128 18129 18130 18131 18132 18133 18134 18135 18136 18137 18138 18139 18140 18141 18142 18143 18144 18145 18146 18147 18148 18149 18150 18151 18152 18153 18154 18155 18156 18157 18158 18159 18160 18161 18162 18163 18164 18165 18166 18167 18168 18169 18170 18171 18172 18173 18174 18175 18176 18177 18178 18179 18180 18181 18182 18183 18184 18185 18186 18187 18188 18189 18190 18191 18192 18193 18194 18195 18196 18197 18198 18199 18200 18201 18202 18203 18204 18205 18206 18207 18208 18209 18210 18211 18212 18213 18214 18215 18216 18217 18218 18219 18220 18221 18222 18223 18224 18225 18226 18227 18228 18229 18230 18231 18232 18233 18234 18235 18236 18237 18238 18239 18240 18241 18242 18243 18244 18245 18246 18247 18248 18249 18250 18251 18252 18253 18254 18255 18256 18257 18258 18259 18260 18261 18262 18263 18264 18265 18266 18267 18268 18269 18270 18271 18272 18273 18274 18275 18276 18277 18278 18279 18280 18281 18282 18283 18284 18285 18286 18287 18288 18289 18290 18291 18292 18293 18294 18295 18296 18297 18298 18299 18300 18301 18302 18303 18304 18305 18306 18307 18308 18309 18310 18311 18312 18313 18314 18315 18316 18317 18318 18319 18320 18321 18322 18323 18324 18325 18326 18327 18328 18329 18330 18331 18332 18333 18334 18335 18336 18337 18338 18339 18340 18341 18342 18343 18344 18345 18346 18347 18348 18349 18350 18351 18352 18353 18354 18355 18356 18357 18358 18359 18360 18361 18362 18363 18364 18365 18366 18367 18368 18369 18370 18371 18372 18373 18374 18375 18376 18377 18378 18379 18380 18381 18382 18383 18384 18385 18386 18387 18388 18389 18390 18391 18392 18393 18394 18395 18396 18397 18398 18399 18400 18401 18402 18403 18404 18405 18406 18407 18408 18409 18410 18411 18412 18413 18414 18415 18416 18417 18418 18419 18420 18421 18422 18423 18424 18425 18426 18427 18428 18429 18430 18431 18432 18433 18434 18435 18436 18437 18438 18439 18440 18441 18442 18443 18444 18445 18446 18447 18448 18449 18450 18451 18452 18453 18454 18455 18456 18457 18458 18459 18460 18461 18462 18463 18464 18465 18466 18467 18468 18469 18470 18471 18472 18473 18474 18475 18476 18477 18478 18479 18480 18481 18482 18483 18484 18485 18486 18487 18488 18489 18490 18491 18492 18493 18494 18495 18496 18497 18498 18499 18500 18501 18502 18503 18504 18505 18506 18507 18508 18509 18510 18511 18512 18513 18514 18515 18516 18517 18518 18519 18520 18521 18522 18523 18524 18525 18526 18527 18528 18529 18530 18531 18532 18533 18534 18535 18536 18537 18538 18539 18540 18541 18542 18543 18544 18545 18546 18547 18548 18549 18550 18551 18552 18553 18554 18555 18556 18557 18558 18559 18560 18561 18562 18563 18564 18565 18566 18567 18568 18569 18570 18571 18572 18573 18574 18575 18576 18577 18578 18579 18580 18581 18582 18583 18584 18585 18586 18587 18588 18589 18590 18591 18592 18593 18594 18595 18596 18597 18598 18599 18600 18601 18602 18603 18604 18605 18606 18607 18608 18609 18610 18611 18612 18613 18614 18615 18616 18617 18618 18619 18620 18621 18622 18623 18624 18625 18626 18627 18628 18629 18630 18631 18632 18633 18634 18635 18636 18637 18638 18639 18640 18641 18642 18643 18644 18645 18646 18647 18648 18649 18650 18651 18652 18653 18654 18655 18656 18657 18658 18659 18660 18661 18662 18663 18664 18665 18666 18667 18668 18669 18670 18671 18672 18673 18674 18675 18676 18677 18678 18679 18680 18681 18682 18683 18684 18685 18686 18687 18688 18689 18690 18691 18692 18693 18694 18695 18696 18697 18698 18699 18700 18701 18702 18703 18704 18705 18706 18707 18708 18709 18710 18711 18712 18713 18714 18715 18716 18717 18718 18719 18720 18721 18722 18723 18724 18725 18726 18727 18728 18729 18730 18731 18732 18733 18734 18735 18736 18737 18738 18739 18740 18741 18742 18743 18744 18745 18746 18747 18748 18749 18750 18751 18752 18753 18754 18755 18756 18757 18758 18759 18760 18761 18762 18763 18764 18765 18766 18767 18768 18769 18770 18771 18772 18773 18774 18775 18776 18777 18778 18779 18780 18781 18782 18783 18784 18785 18786 18787 18788 18789 18790 18791 18792 18793 18794 18795 18796 18797 18798 18799 18800 18801 18802 18803 18804 18805 18806 18807 18808 18809 18810 18811 18812 18813 18814 18815 18816 18817 18818 18819 18820 18821 18822 18823 18824 18825 18826 18827 18828 18829 18830 18831 18832 18833 18834 18835 18836 18837 18838 18839 18840 18841 18842 18843 18844 18845 18846 18847 18848 18849 18850 18851 18852 18853 18854 18855 18856 18857 18858 18859 18860 18861 18862 18863 18864 18865 18866 18867 18868 18869 18870 18871 18872 18873 18874 18875 18876 18877 18878 18879 18880 18881 18882 18883 18884 18885 18886 18887 18888 18889 18890 18891 18892 18893 18894 18895 18896 18897 18898 18899 18900 18901 18902 18903 18904 18905 18906 18907 18908 18909 18910 18911 18912 18913 18914 18915 18916 18917 18918 18919 18920 18921 18922 18923 18924 18925 18926 18927 18928 18929 18930 18931 18932 18933 18934 18935 18936 18937 18938 18939 18940 18941 18942 18943 18944 18945 18946 18947 18948 18949 18950 18951 18952 18953 18954 18955 18956 18957 18958 18959 18960 18961 18962 18963 18964 18965 18966 18967 18968 18969 18970 18971 18972 18973 18974 18975 18976 18977 18978 18979 18980 18981 18982 18983 18984 18985 18986 18987 18988 18989 18990 18991 18992 18993 18994 18995 18996 18997 18998 18999 19000 19001 19002 19003 19004 19005 19006 19007 19008 19009 19010 19011 19012 19013 19014 19015 19016 19017 19018 19019 19020 19021 19022 19023 19024 19025 19026 19027 19028 19029 19030 19031 19032 19033 19034 19035 19036 19037 19038 19039 19040 19041 19042 19043 19044 19045 19046 19047 19048 19049 19050 19051 19052 19053 19054 19055 19056 19057 19058 19059 19060 19061 19062 19063 19064 19065 19066 19067 19068 19069 19070 19071 19072 19073 19074 19075 19076 19077 19078 19079 19080 19081 19082 19083 19084 19085 19086 19087 19088 19089 19090 19091 19092 19093 19094 19095 19096 19097 19098 19099 19100 19101 19102 19103 19104 19105 19106 19107 19108 19109 19110 19111 19112 19113 19114 19115 19116 19117 19118 19119 19120 19121 19122 19123 19124 19125 19126 19127 19128 19129 19130 19131 19132 19133 19134 19135 19136 19137 19138 19139 19140 19141 19142 19143 19144 19145 19146 19147 19148 19149 19150 19151 19152 19153 19154 19155 19156 19157 19158 19159 19160 19161 19162 19163 19164 19165 19166 19167 19168 19169 19170 19171 19172 19173 19174 19175 19176 19177 19178 19179 19180 19181 19182 19183 19184 19185 19186 19187 19188 19189 19190 19191 19192 19193 19194 19195 19196 19197 19198 19199 19200 19201 19202 19203 19204 19205 19206 19207 19208 19209 19210 19211 19212 19213 19214 19215 19216 19217 19218 19219 19220 19221 19222 19223 19224 19225 19226 19227 19228 19229 19230 19231 19232 19233 19234 19235 19236 19237 19238 19239 19240 19241 19242 19243 19244 19245 19246 19247 19248 19249 19250 19251 19252 19253 19254 19255 19256 19257 19258 19259 19260 19261 19262 19263 19264 19265 19266 19267 19268 19269 19270 19271 19272 19273 19274 19275 19276 19277 19278 19279 19280 19281 19282 19283 19284 19285 19286 19287 19288 19289 19290 19291 19292 19293 19294 19295 19296 19297 19298 19299 19300 19301 19302 19303 19304 19305 19306 19307 19308 19309 19310 19311 19312 19313 19314 19315 19316 19317 19318 19319 19320 19321 19322 19323 19324 19325 19326 19327 19328 19329 19330 19331 19332 19333 19334 19335 19336 19337 19338 19339 19340 19341 19342 19343 19344 19345 19346 19347 19348 19349 19350 19351 19352 19353 19354 19355 19356 19357 19358 19359 19360 19361 19362 19363 19364 19365 19366 19367 19368 19369 19370 19371 19372 19373 19374 19375 19376 19377 19378 19379 19380 19381 19382 19383 19384 19385 19386 19387 19388 19389 19390 19391 19392 19393 19394 19395 19396 19397 19398 19399 19400 19401 19402 19403 19404 19405 19406 19407 19408 19409 19410 19411 19412 19413 19414 19415 19416 19417 19418 19419 19420 19421 19422 19423 19424 19425 19426 19427 19428 19429 19430 19431 19432 19433 19434 19435 19436 19437 19438 19439 19440 19441 19442 19443 19444 19445 19446 19447 19448 19449 19450 19451 19452 19453 19454 19455 19456 19457 19458 19459 19460 19461 19462 19463 19464 19465 19466 19467 19468 19469 19470 19471 19472 19473 19474 19475 19476 19477 19478 19479 19480 19481 19482 19483 19484 19485 19486 19487 19488 19489 19490 19491 19492 19493 19494 19495 19496 19497 19498 19499 19500 19501 19502 19503 19504 19505 19506 19507 19508 19509 19510 19511 19512 19513 19514 19515 19516 19517 19518 19519 19520 19521 19522 19523 19524 19525 19526 19527 19528 19529 19530 19531 19532 19533 19534 19535 19536 19537 19538 19539 19540 19541 19542 19543 19544 19545 19546 19547 19548 19549 19550 19551 19552 19553 19554 19555 19556 19557 19558 19559 19560 19561 19562 19563 19564 19565 19566 19567 19568 19569 19570 19571 19572 19573 19574 19575 19576 19577 19578 19579 19580 19581 19582 19583 19584 19585 19586 19587 19588 19589 19590 19591 19592 19593 19594 19595 19596 19597 19598 19599 19600 19601 19602 19603 19604 19605 19606 19607 19608 19609 19610 19611 19612 19613 19614 19615 19616 19617 19618 19619 19620 19621 19622 19623 19624 19625 19626 19627 19628 19629 19630 19631 19632 19633 19634 19635 19636 19637 19638 19639 19640 19641 19642 19643 19644 19645 19646 19647 19648 19649 19650 19651 19652 19653 19654 19655 19656 19657 19658 19659 19660 19661 19662 19663 19664 19665 19666 19667 19668 19669 19670 19671 19672 19673 19674 19675 19676 19677 19678 19679 19680 19681 19682 19683 19684 19685 19686 19687 19688 19689 19690 19691 19692 19693 19694 19695 19696 19697 19698 19699 19700 19701 19702 19703 19704 19705 19706 19707 19708 19709 19710 19711 19712 19713 19714 19715 19716 19717 19718 19719 19720 19721 19722 19723 19724 19725 19726 19727 19728 19729 19730 19731 19732 19733 19734 19735 19736 19737 19738 19739 19740 19741 19742 19743 19744 19745 19746 19747 19748 19749 19750 19751 19752 19753 19754 19755 19756 19757 19758 19759 19760 19761 19762 19763 19764 19765 19766 19767 19768 19769 19770 19771 19772 19773 19774 19775 19776 19777 19778 19779 19780 19781 19782 19783 19784 19785 19786 19787 19788 19789 19790 19791 19792 19793 19794 19795 19796 19797 19798 19799 19800 19801 19802 19803 19804 19805 19806 19807 19808 19809 19810 19811 19812 19813 19814 19815 19816 19817 19818 19819 19820 19821 19822 19823 19824 19825 19826 19827 19828 19829 19830 19831 19832 19833 19834 19835 19836 19837 19838 19839 19840 19841 19842 19843 19844 19845 19846 19847 19848 19849 19850 19851 19852 19853 19854 19855 19856 19857 19858 19859 19860 19861 19862 19863 19864 19865 19866 19867 19868 19869 19870 19871 19872 19873 19874 19875 19876 19877 19878 19879 19880 19881 19882 19883 19884 19885 19886 19887 19888 19889 19890 19891 19892 19893 19894 19895 19896 19897 19898 19899 19900 19901 19902 19903 19904 19905 19906 19907 19908 19909 19910 19911 19912 19913 19914 19915 19916 19917 19918 19919 19920 19921 19922 19923 19924 19925 19926 19927 19928 19929 19930 19931 19932 19933 19934 19935 19936 19937 19938 19939 19940 19941 19942 19943 19944 19945 19946 19947 19948 19949 19950 19951 19952 19953 19954 19955 19956 19957 19958 19959 19960 19961 19962 19963 19964 19965 19966 19967 19968 19969 19970 19971 19972 19973 19974 19975 19976 19977 19978 19979 19980 19981 19982 19983 19984 19985 19986 19987 19988 19989 19990 19991 19992 19993 19994 19995 19996 19997 19998 19999 20000 20001 20002 20003 20004 20005 20006 20007 20008 20009 20010 20011 20012 20013 20014 20015 20016 20017 20018 20019 20020 20021 20022 20023 20024 20025 20026 20027 20028 20029 20030 20031 20032 20033 20034 20035 20036 20037 20038 20039 20040 20041 20042 20043 20044 20045 20046 20047 20048 20049 20050 20051 20052 20053 20054 20055 20056 20057 20058 20059 20060 20061 20062 20063 20064 20065 20066 20067 20068 20069 20070 20071 20072 20073 20074 20075 20076 20077 20078 20079 20080 20081 20082 20083 20084 20085 20086 20087 20088 20089 20090 20091 20092 20093 20094 20095 20096 20097 20098 20099 20100 20101 20102 20103 20104 20105 20106 20107 20108 20109 20110 20111 20112 20113 20114 20115 20116 20117 20118 20119 20120 20121 20122 20123 20124 20125 20126 20127 20128 20129 20130 20131 20132 20133 20134 20135 20136 20137 20138 20139 20140 20141 20142 20143 20144 20145 20146 20147 20148 20149 20150 20151 20152 20153 20154 20155 20156 20157 20158 20159 20160 20161 20162 20163 20164 20165 20166 20167 20168 20169 20170 20171 20172 20173 20174 20175 20176 20177 20178 20179 20180 20181 20182 20183 20184 20185 20186 20187 20188 20189 20190 20191 20192 20193 20194 20195 20196 20197 20198 20199 20200 20201 20202 20203 20204 20205 20206 20207 20208 20209 20210 20211 20212 20213 20214 20215 20216 20217 20218 20219 20220 20221 20222 20223 20224 20225 20226 20227 20228 20229 20230 20231 20232 20233 20234 20235 20236 20237 20238 20239 20240 20241 20242 20243 20244 20245 20246 20247 20248 20249 20250 20251 20252 20253 20254 20255 20256 20257 20258 20259 20260 20261 20262 20263 20264 20265 20266 20267 20268 20269 20270 20271 20272 20273 20274 20275 20276 20277 20278 20279 20280 20281 20282 20283 20284 20285 20286 20287 20288 20289 20290 20291 20292 20293 20294 20295 20296 20297 20298 20299 20300 20301 20302 20303 20304 20305 20306 20307 20308 20309 20310 20311 20312 20313 20314 20315 20316 20317 20318 20319 20320 20321 20322 20323 20324 20325 20326 20327 20328 20329 20330 20331 20332 20333 20334 20335 20336 20337 20338 20339 20340 20341 20342 20343 20344 20345 20346 20347 20348 20349 20350 20351 20352 20353 20354 20355 20356 20357 20358 20359 20360 20361 20362 20363 20364 20365 20366 20367 20368 20369 20370 20371 20372 20373 20374 20375 20376 20377 20378 20379 20380 20381 20382 20383 20384 20385 20386 20387 20388 20389 20390 20391 20392 20393 20394 20395 20396 20397 20398 20399 20400 20401 20402 20403 20404 20405 20406 20407 20408 20409 20410 20411 20412 20413 20414 20415 20416 20417 20418 20419 20420 20421 20422 20423 20424 20425 20426 20427 20428 20429 20430 20431 20432 20433 20434 20435 20436 20437 20438 20439 20440 20441 20442 20443 20444 20445 20446 20447 20448 20449 20450 20451 20452 20453 20454 20455 20456 20457 20458 20459 20460 20461 20462 20463 20464 20465 20466 20467 20468 20469 20470 20471 20472 20473 20474 20475 20476 20477 20478 20479 20480 20481 20482 20483 20484 20485 20486 20487 20488 20489 20490 20491 20492 20493 20494 20495 20496 20497 20498 20499 20500 20501 20502 20503 20504 20505 20506 20507 20508 20509 20510 20511 20512 20513 20514 20515 20516 20517 20518 20519 20520 20521 20522 20523 20524 20525 20526 20527 20528 20529 20530 20531 20532 20533 20534 20535 20536 20537 20538 20539 20540 20541 20542 20543 20544 20545 20546 20547 20548 20549 20550 20551 20552 20553 20554 20555 20556 20557 20558 20559 20560 20561 20562 20563 20564 20565 20566 20567 20568 20569 20570 20571 20572 20573 20574 20575 20576 20577 20578 20579 20580 20581 20582 20583 20584 20585 20586 20587 20588 20589 20590 20591 20592 20593 20594 20595 20596 20597 20598 20599 20600 20601 20602 20603 20604 20605 20606 20607 20608 20609 20610 20611 20612 20613 20614 20615 20616 20617 20618 20619 20620 20621 20622 20623 20624 20625 20626 20627 20628 20629 20630 20631 20632 20633 20634 20635 20636 20637 20638 20639 20640 20641 20642 20643 20644 20645 20646 20647 20648 20649 20650 20651 20652 20653 20654 20655 20656 20657 20658 20659 20660 20661 20662 20663 20664 20665 20666 20667 20668 20669 20670 20671 20672 20673 20674 20675 20676 20677 20678 20679 20680 20681 20682 20683 20684 20685 20686 20687 20688 20689 20690 20691 20692 20693 20694 20695 20696 20697 20698 20699 20700 20701 20702 20703 20704 20705 20706 20707 20708 20709 20710 20711 20712 20713 20714 20715 20716 20717 20718 20719 20720 20721 20722 20723 20724 20725 20726 20727 20728 20729 20730 20731 20732 20733 20734 20735 20736 20737 20738 20739 20740 20741 20742 20743 20744 20745 20746 20747 20748 20749 20750 20751 20752 20753 20754 20755 20756 20757 20758 20759 20760 20761 20762 20763 20764 20765 20766 20767 20768 20769 20770 20771 20772 20773 20774 20775 20776 20777 20778 20779 20780 20781 20782 20783 20784 20785 20786 20787 20788 20789 20790 20791 20792 20793 20794 20795 20796 20797 20798 20799 20800 20801 20802 20803 20804 20805 20806 20807 20808 20809 20810 20811 20812 20813 20814 20815 20816 20817 20818 20819 20820 20821 20822 20823 20824 20825 20826 20827 20828 20829 20830 20831 20832 20833 20834 20835 20836 20837 20838 20839 20840 20841 20842 20843 20844 20845 20846 20847 20848 20849 20850 20851 20852 20853 20854 20855 20856 20857 20858 20859 20860 20861 20862 20863 20864 20865 20866 20867 20868 20869 20870 20871 20872 20873 20874 20875 20876 20877 20878 20879 20880 20881 20882 20883 20884 20885 20886 20887 20888 20889 20890 20891 20892 20893 20894 20895 20896 20897 20898 20899 20900 20901 20902 20903 20904 20905 20906 20907 20908 20909 20910 20911 20912 20913 20914 20915 20916 20917 20918 20919 20920 20921 20922 20923 20924 20925 20926 20927 20928 20929 20930 20931 20932 20933 20934 20935 20936 20937 20938 20939 20940 20941 20942 20943 20944 20945 20946 20947 20948 20949 20950 20951 20952 20953 20954 20955 20956 20957 20958 20959 20960 20961 20962 20963 20964 20965 20966 20967 20968 20969 20970 20971 20972 20973 20974 20975 20976 20977 20978 20979 20980 20981 20982 20983 20984 20985 20986 20987 20988 20989 20990 20991 20992 20993 20994 20995 20996 20997 20998 20999 21000 21001 21002 21003 21004 21005 21006 21007 21008 21009 21010 21011 21012 21013 21014 21015 21016 21017 21018 21019 21020 21021 21022 21023 21024 21025 21026 21027 21028 21029 21030 21031 21032 21033 21034 21035 21036 21037 21038 21039 21040 21041 21042 21043 21044 21045 21046 21047 21048 21049 21050 21051 21052 21053 21054 21055 21056 21057 21058 21059 21060 21061 21062 21063 21064 21065 21066 21067 21068 21069 21070 21071 21072 21073 21074 21075 21076 21077 21078 21079 21080 21081 21082 21083 21084 21085 21086 21087 21088 21089 21090 21091 21092 21093 21094 21095 21096 21097 21098 21099 21100 21101 21102 21103 21104 21105 21106 21107 21108 21109 21110 21111 21112 21113 21114 21115 21116 21117 21118 21119 21120 21121 21122 21123 21124 21125 21126 21127 21128 21129 21130 21131 21132 21133 21134 21135 21136 21137 21138 21139 21140 21141 21142 21143 21144 21145 21146 21147 21148 21149 21150 21151 21152 21153 21154 21155 21156 21157 21158 21159 21160 21161 21162 21163 21164 21165 21166 21167 21168 21169 21170 21171 21172 21173 21174 21175 21176 21177 21178 21179 21180 21181 21182 21183 21184 21185 21186 21187 21188 21189 21190 21191 21192 21193 21194 21195 21196 21197 21198 21199 21200 21201 21202 21203 21204 21205 21206 21207 21208 21209 21210 21211 21212 21213 21214 21215 21216 21217 21218 21219 21220 21221 21222 21223 21224 21225 21226 21227 21228 21229 21230 21231 21232 21233 21234 21235 21236 21237 21238 21239 21240 21241 21242 21243 21244 21245 21246 21247 21248 21249 21250 21251 21252 21253 21254 21255 21256 21257 21258 21259 21260 21261 21262 21263 21264 21265 21266 21267 21268 21269 21270 21271 21272 21273 21274 21275 21276 21277 21278 21279 21280 21281 21282 21283 21284 21285 21286 21287 21288 21289 21290 21291 21292 21293 21294 21295 21296 21297 21298 21299 21300 21301 21302 21303 21304 21305 21306 21307 21308 21309 21310 21311 21312 21313 21314 21315 21316 21317 21318 21319 21320 21321 21322 21323 21324 21325 21326 21327 21328 21329 21330 21331 21332 21333 21334 21335 21336 21337 21338 21339 21340 21341 21342 21343 21344 21345 21346 21347 21348 21349 21350 21351 21352 21353 21354 21355 21356 21357 21358 21359 21360 21361 21362 21363 21364 21365 21366 21367 21368 21369 21370 21371 21372 21373 21374 21375 21376 21377 21378 21379 21380 21381 21382 21383 21384 21385 21386 21387 21388 21389 21390 21391 21392 21393 21394 21395 21396 21397 21398 21399 21400 21401 21402 21403 21404 21405 21406 21407 21408 21409 21410 21411 21412 21413 21414 21415 21416 21417 21418 21419 21420 21421 21422 21423 21424 21425 21426 21427 21428 21429 21430 21431 21432 21433 21434 21435 21436 21437 21438 21439 21440 21441 21442 21443 21444 21445 21446 21447 21448 21449 21450 21451 21452 21453 21454 21455 21456 21457 21458 21459 21460 21461 21462 21463 21464 21465 21466 21467 21468 21469 21470 21471 21472 21473 21474 21475 21476 21477 21478 21479 21480 21481 21482 21483 21484 21485 21486 21487 21488 21489 21490 21491 21492 21493 21494 21495 21496 21497 21498 21499 21500 21501 21502 21503 21504 21505 21506 21507 21508 21509 21510 21511 21512 21513 21514 21515 21516 21517 21518 21519 21520 21521 21522 21523 21524 21525 21526 21527 21528 21529 21530 21531 21532 21533 21534 21535 21536 21537 21538 21539 21540 21541 21542 21543 21544 21545 21546 21547 21548 21549 21550 21551 21552 21553 21554 21555 21556 21557 21558 21559 21560 21561 21562 21563 21564 21565 21566 21567 21568 21569 21570 21571 21572 21573 21574 21575 21576 21577 21578 21579 21580 21581 21582 21583 21584 21585 21586 21587 21588 21589 21590 21591 21592 21593 21594 21595 21596 21597 21598 21599 21600 21601 21602 21603 21604 21605 21606 21607 21608 21609 21610 21611 21612 21613 21614 21615 21616 21617 21618 21619 21620 21621 21622 21623 21624 21625 21626 21627 21628 21629 21630 21631 21632 21633 21634 21635 21636 21637 21638 21639 21640 21641 21642 21643 21644 21645 21646 21647 21648 21649 21650 21651 21652 21653 21654 21655 21656 21657 21658 21659 21660 21661 21662 21663 21664 21665 21666 21667 21668 21669 21670 21671 21672 21673 21674 21675 21676 21677 21678 21679 21680 21681 21682 21683 21684 21685 21686 21687 21688 21689 21690 21691 21692 21693 21694 21695 21696 21697 21698 21699 21700 21701 21702 21703 21704 21705 21706 21707 21708 21709 21710 21711 21712 21713 21714 21715 21716 21717 21718 21719 21720 21721 21722 21723 21724 21725 21726 21727 21728 21729 21730 21731 21732 21733 21734 21735 21736 21737 21738 21739 21740 21741 21742 21743 21744 21745 21746 21747 21748 21749 21750 21751 21752 21753 21754 21755 21756 21757 21758 21759 21760 21761 21762 21763 21764 21765 21766 21767 21768 21769 21770 21771 21772 21773 21774 21775 21776 21777 21778 21779 21780 21781 21782 21783 21784 21785 21786 21787 21788 21789 21790 21791 21792 21793 21794 21795 21796 21797 21798 21799 21800 21801 21802 21803 21804 21805 21806 21807 21808 21809 21810 21811 21812 21813 21814 21815 21816 21817 21818 21819 21820 21821 21822 21823 21824 21825 21826 21827 21828 21829 21830 21831 21832 21833 21834 21835 21836 21837 21838 21839 21840 21841 21842 21843 21844 21845 21846 21847 21848 21849 21850 21851 21852 21853 21854 21855 21856 21857 21858 21859 21860 21861 21862 21863 21864 21865 21866 21867 21868 21869 21870 21871 21872 21873 21874 21875 21876 21877 21878 21879 21880 21881 21882 21883 21884 21885 21886 21887 21888 21889 21890 21891 21892 21893 21894 21895 21896 21897 21898 21899 21900 21901 21902 21903 21904 21905 21906 21907 21908 21909 21910 21911 21912 21913 21914 21915 21916 21917 21918 21919 21920 21921 21922 21923 21924 21925 21926 21927 21928 21929 21930 21931 21932 21933 21934 21935 21936 21937 21938 21939 21940 21941 21942 21943 21944 21945 21946 21947 21948 21949 21950 21951 21952 21953 21954 21955 21956 21957 21958 21959 21960 21961 21962 21963 21964 21965 21966 21967 21968 21969 21970 21971 21972 21973 21974 21975 21976 21977 21978 21979 21980 21981 21982 21983 21984 21985 21986 21987 21988 21989 21990 21991 21992 21993 21994 21995 21996 21997 21998 21999 22000 22001 22002 22003 22004 22005 22006 22007 22008 22009 22010 22011 22012 22013 22014 22015 22016 22017 22018 22019 22020 22021 22022 22023 22024 22025 22026 22027 22028 22029 22030 22031 22032 22033 22034 22035 22036 22037 22038 22039 22040 22041 22042 22043 22044 22045 22046 22047 22048 22049 22050 22051 22052 22053 22054 22055 22056 22057 22058 22059 22060 22061 22062 22063 22064 22065 22066 22067 22068 22069 22070 22071 22072 22073 22074 22075 22076 22077 22078 22079 22080 22081 22082 22083 22084 22085 22086 22087 22088 22089 22090 22091 22092 22093 22094 22095 22096 22097 22098 22099 22100 22101 22102 22103 22104 22105 22106 22107 22108 22109 22110 22111 22112 22113 22114 22115 22116 22117 22118 22119 22120 22121 22122 22123 22124 22125 22126 22127 22128 22129 22130 22131 22132 22133 22134 22135 22136 22137 22138 22139 22140 22141 22142 22143 22144 22145 22146 22147 22148 22149 22150 22151 22152 22153 22154 22155 22156 22157 22158 22159 22160 22161 22162 22163 22164 22165 22166 22167 22168 22169 22170 22171 22172 22173 22174 22175 22176 22177 22178 22179 22180 22181 22182 22183 22184 22185 22186 22187 22188 22189 22190 22191 22192 22193 22194 22195 22196 22197 22198 22199 22200 22201 22202 22203 22204 22205 22206 22207 22208 22209 22210 22211 22212 22213 22214 22215 22216 22217 22218 22219 22220 22221 22222 22223 22224 22225 22226 22227 22228 22229 22230 22231 22232 22233 22234 22235 22236 22237 22238 22239 22240 22241 22242 22243 22244 22245 22246 22247 22248 22249 22250 22251 22252 22253 22254 22255 22256 22257 22258 22259 22260 22261 22262 22263 22264 22265 22266 22267 22268 22269 22270 22271 22272 22273 22274 22275 22276 22277 22278 22279 22280 22281 22282 22283 22284 22285 22286 22287 22288 22289 22290 22291 22292 22293 22294 22295 22296 22297 22298 22299 22300 22301 22302 22303 22304 22305 22306 22307 22308 22309 22310 22311 22312 22313 22314 22315 22316 22317 22318 22319 22320 22321 22322 22323 22324 22325 22326 22327 22328 22329 22330 22331 22332 22333 22334 22335 22336 22337 22338 22339 22340 22341 22342 22343 22344 22345 22346 22347 22348 22349 22350 22351 22352 22353 22354 22355 22356 22357 22358 22359 22360 22361 22362 22363 22364 22365 22366 22367 22368 22369 22370 22371 22372 22373 22374 22375 22376 22377 22378 22379 22380 22381 22382 22383 22384 22385 22386 22387 22388 22389 22390 22391 22392 22393 22394 22395 22396 22397 22398 22399 22400 22401 22402 22403 22404 22405 22406 22407 22408 22409 22410 22411 22412 22413 22414 22415 22416 22417 22418 22419 22420 22421 22422 22423 22424 22425 22426 22427 22428 22429 22430 22431 22432 22433 22434 22435 22436 22437 22438 22439 22440 22441 22442 22443 22444 22445 22446 22447 22448 22449 22450 22451 22452 22453 22454 22455 22456 22457 22458 22459 22460 22461 22462 22463 22464 22465 22466 22467 22468 22469 22470 22471 22472 22473 22474 22475 22476 22477 22478 22479 22480 22481 22482 22483 22484 22485 22486 22487 22488 22489 22490 22491 22492 22493 22494 22495 22496 22497 22498 22499 22500 22501 22502 22503 22504 22505 22506 22507 22508 22509 22510 22511 22512 22513 22514 22515 22516 22517 22518 22519 22520 22521 22522 22523 22524 22525 22526 22527 22528 22529 22530 22531 22532 22533 22534 22535 22536 22537 22538 22539 22540 22541 22542 22543 22544 22545 22546 22547 22548 22549 22550 22551 22552 22553 22554 22555 22556 22557 22558 22559 22560 22561 22562 22563 22564 22565 22566 22567 22568 22569 22570 22571 22572 22573 22574 22575 22576 22577 22578 22579 22580 22581 22582 22583 22584 22585 22586 22587 22588 22589 22590 22591 22592 22593 22594 22595 22596 22597 22598 22599 22600 22601 22602 22603 22604 22605 22606 22607 22608 22609 22610 22611 22612 22613 22614 22615 22616 22617 22618 22619 22620 22621 22622 22623 22624 22625 22626 22627 22628 22629 22630 22631 22632 22633 22634 22635 22636 22637 22638 22639 22640 22641 22642 22643 22644 22645 22646 22647 22648 22649 22650 22651 22652 22653 22654 22655 22656 22657 22658 22659 22660 22661 22662 22663 22664 22665 22666 22667 22668 22669 22670 22671 22672 22673 22674 22675 22676 22677 22678 22679 22680 22681 22682 22683 22684 22685 22686 22687 22688 22689 22690 22691 22692 22693 22694 22695 22696 22697 22698 22699 22700 22701 22702 22703 22704 22705 22706 22707 22708 22709 22710 22711 22712 22713 22714 22715 22716 22717 22718 22719 22720 22721 22722 22723 22724 22725 22726 22727 22728 22729 22730 22731 22732 22733 22734 22735 22736 22737 22738 22739 22740 22741 22742 22743 22744 22745 22746 22747 22748 22749 22750 22751 22752 22753 22754 22755 22756 22757 22758 22759 22760 22761 22762 22763 22764 22765 22766 22767 22768 22769 22770 22771 22772 22773 22774 22775 22776 22777 22778 22779 22780 22781 22782 22783 22784 22785 22786 22787 22788 22789 22790 22791 22792 22793 22794 22795 22796 22797 22798 22799 22800 22801 22802 22803 22804 22805 22806 22807 22808 22809 22810 22811 22812 22813 22814 22815 22816 22817 22818 22819 22820 22821 22822 22823 22824 22825 22826 22827 22828 22829 22830 22831 22832 22833 22834 22835 22836 22837 22838 22839 22840 22841 22842 22843 22844 22845 22846 22847 22848 22849 22850 22851 22852 22853 22854 22855 22856 22857 22858 22859 22860 22861 22862 22863 22864 22865 22866 22867 22868 22869 22870 22871 22872 22873 22874 22875 22876 22877 22878 22879 22880 22881 22882 22883 22884 22885 22886 22887 22888 22889 22890 22891 22892 22893 22894 22895 22896 22897 22898 22899 22900 22901 22902 22903 22904 22905 22906 22907 22908 22909 22910 22911 22912 22913 22914 22915 22916 22917 22918 22919 22920 22921 22922 22923 22924 22925 22926 22927 22928 22929 22930 22931 22932 22933 22934 22935 22936 22937 22938 22939 22940 22941 22942 22943 22944 22945 22946 22947 22948 22949 22950 22951 22952 22953 22954 22955 22956 22957 22958 22959 22960 22961 22962 22963 22964 22965 22966 22967 22968 22969 22970 22971 22972 22973 22974 22975 22976 22977 22978 22979 22980 22981 22982 22983 22984 22985 22986 22987 22988 22989 22990 22991 22992 22993 22994 22995 22996 22997 22998 22999 23000 23001 23002 23003 23004 23005 23006 23007 23008 23009 23010 23011 23012 23013 23014 23015 23016 23017 23018 23019 23020 23021 23022 23023 23024 23025 23026 23027 23028 23029 23030 23031 23032 23033 23034 23035 23036 23037 23038 23039 23040 23041 23042 23043 23044 23045 23046 23047 23048 23049 23050 23051 23052 23053 23054 23055 23056 23057 23058 23059 23060 23061 23062 23063 23064 23065 23066 23067 23068 23069 23070 23071 23072 23073 23074 23075 23076 23077 23078 23079 23080 23081 23082 23083 23084 23085 23086 23087 23088 23089 23090 23091 23092 23093 23094 23095 23096 23097 23098 23099 23100 23101 23102 23103 23104 23105 23106 23107 23108 23109 23110 23111 23112 23113 23114 23115 23116 23117 23118 23119 23120 23121 23122 23123 23124 23125 23126 23127 23128 23129 23130 23131 23132 23133 23134 23135 23136 23137 23138 23139 23140 23141 23142 23143 23144 23145 23146 23147 23148 23149 23150 23151 23152 23153 23154 23155 23156 23157 23158 23159 23160 23161 23162 23163 23164 23165 23166 23167 23168 23169 23170 23171 23172 23173 23174 23175 23176 23177 23178 23179 23180 23181 23182 23183 23184 23185 23186 23187 23188 23189 23190 23191 23192 23193 23194 23195 23196 23197 23198 23199 23200 23201 23202 23203 23204 23205 23206 23207 23208 23209 23210 23211 23212 23213 23214 23215 23216 23217 23218 23219 23220 23221 23222 23223 23224 23225 23226 23227 23228 23229 23230 23231 23232 23233 23234 23235 23236 23237 23238 23239 23240 23241 23242 23243 23244 23245 23246 23247 23248 23249 23250 23251 23252 23253 23254 23255 23256 23257 23258 23259 23260 23261 23262 23263 23264 23265 23266 23267 23268 23269 23270 23271 23272 23273 23274 23275 23276 23277 23278 23279 23280 23281 23282 23283 23284 23285 23286 23287 23288 23289 23290 23291 23292 23293 23294 23295 23296 23297 23298 23299 23300 23301 23302 23303 23304 23305 23306 23307 23308 23309 23310 23311 23312 23313 23314 23315 23316 23317 23318 23319 23320 23321 23322 23323 23324 23325 23326 23327 23328 23329 23330 23331 23332 23333 23334 23335 23336 23337 23338 23339 23340 23341 23342 23343 23344 23345 23346 23347 23348 23349 23350 23351 23352 23353 23354 23355 23356 23357 23358 23359 23360 23361 23362 23363 23364 23365 23366 23367 23368 23369 23370 23371 23372 23373 23374 23375 23376 23377 23378 23379 23380 23381 23382 23383 23384 23385 23386 23387 23388 23389 23390 23391 23392 23393 23394 23395 23396 23397 23398 23399 23400 23401 23402 23403 23404 23405 23406 23407 23408 23409 23410 23411 23412 23413 23414 23415 23416 23417 23418 23419 23420 23421 23422 23423 23424 23425 23426 23427 23428 23429 23430 23431 23432 23433 23434 23435 23436 23437 23438 23439 23440 23441 23442 23443 23444 23445 23446 23447 23448 23449 23450 23451 23452 23453 23454 23455 23456 23457 23458 23459 23460 23461 23462 23463 23464 23465 23466 23467 23468 23469 23470 23471 23472 23473 23474 23475 23476 23477 23478 23479 23480 23481 23482 23483 23484 23485 23486 23487 23488 23489 23490 23491 23492 23493 23494 23495 23496 23497 23498 23499 23500 23501 23502 23503 23504 23505 23506 23507 23508 23509 23510 23511 23512 23513 23514 23515 23516 23517 23518 23519 23520 23521 23522 23523 23524 23525 23526 23527 23528 23529 23530 23531 23532 23533 23534 23535 23536 23537 23538 23539 23540 23541 23542 23543 23544 23545 23546 23547 23548 23549 23550 23551 23552 23553 23554 23555 23556 23557 23558 23559 23560 23561 23562 23563 23564 23565 23566 23567 23568 23569 23570 23571 23572 23573 23574 23575 23576 23577 23578 23579 23580 23581 23582 23583 23584 23585 23586 23587 23588 23589 23590 23591 23592 23593 23594 23595 23596 23597 23598 23599 23600 23601 23602 23603 23604 23605 23606 23607 23608 23609 23610 23611 23612 23613 23614 23615 23616 23617 23618 23619 23620 23621 23622 23623 23624 23625 23626 23627 23628 23629 23630 23631 23632 23633 23634 23635 23636 23637 23638 23639 23640 23641 23642 23643 23644 23645 23646 23647 23648 23649 23650 23651 23652 23653 23654 23655 23656 23657 23658 23659 23660 23661 23662 23663 23664 23665 23666 23667 23668 23669 23670 23671 23672 23673 23674 23675 23676 23677 23678 23679 23680 23681 23682 23683 23684 23685 23686 23687 23688 23689 23690 23691 23692 23693 23694 23695 23696 23697 23698 23699 23700 23701 23702 23703 23704 23705 23706 23707 23708 23709 23710 23711 23712 23713 23714 23715 23716 23717 23718 23719 23720 23721 23722 23723 23724 23725 23726 23727 23728 23729 23730 23731 23732 23733 23734 23735 23736 23737 23738 23739 23740 23741 23742 23743 23744 23745 23746 23747 23748 23749 23750 23751 23752 23753 23754 23755 23756 23757 23758 23759 23760 23761 23762 23763 23764 23765 23766 23767 23768 23769 23770 23771 23772 23773 23774 23775 23776 23777 23778 23779 23780 23781 23782 23783 23784 23785 23786 23787 23788 23789 23790 23791 23792 23793 23794 23795 23796 23797 23798 23799 23800 23801 23802 23803 23804 23805 23806 23807 23808 23809 23810 23811 23812 23813 23814 23815 23816 23817 23818 23819 23820 23821 23822 23823 23824 23825 23826 23827 23828 23829 23830 23831 23832 23833 23834 23835 23836 23837 23838 23839 23840 23841 23842 23843 23844 23845 23846 23847 23848 23849 23850 23851 23852 23853 23854 23855 23856 23857 23858 23859 23860 23861 23862 23863 23864 23865 23866 23867 23868 23869 23870 23871 23872 23873 23874 23875 23876 23877 23878 23879 23880 23881 23882 23883 23884 23885 23886 23887 23888 23889 23890 23891 23892 23893 23894 23895 23896 23897 23898 23899 23900 23901 23902 23903 23904 23905 23906 23907 23908 23909 23910 23911 23912 23913 23914 23915 23916 23917 23918 23919 23920 23921 23922 23923 23924 23925 23926 23927 23928 23929 23930 23931 23932 23933 23934 23935 23936 23937 23938 23939 23940 23941 23942 23943 23944 23945 23946 23947 23948 23949 23950 23951 23952 23953 23954 23955 23956 23957 23958 23959 23960 23961 23962 23963 23964 23965 23966 23967 23968 23969 23970 23971 23972 23973 23974 23975 23976 23977 23978 23979 23980 23981 23982 23983 23984 23985 23986 23987 23988 23989 23990 23991 23992 23993 23994 23995 23996 23997 23998 23999 24000 24001 24002 24003 24004 24005 24006 24007 24008 24009 24010 24011 24012 24013 24014 24015 24016 24017 24018 24019 24020 24021 24022 24023 24024 24025 24026 24027 24028 24029 24030 24031 24032 24033 24034 24035 24036 24037 24038 24039 24040 24041 24042 24043 24044 24045 24046 24047 24048 24049 24050 24051 24052 24053 24054 24055 24056 24057 24058 24059 24060 24061 24062 24063 24064 24065 24066 24067 24068 24069 24070 24071 24072 24073 24074 24075 24076 24077 24078 24079 24080 24081 24082 24083 24084 24085 24086 24087 24088 24089 24090 24091 24092 24093 24094 24095 24096 24097 24098 24099 24100 24101 24102 24103 24104 24105 24106 24107 24108 24109 24110 24111 24112 24113 24114 24115 24116 24117 24118 24119 24120 24121 24122 24123 24124 24125 24126 24127 24128 24129 24130 24131 24132 24133 24134 24135 24136 24137 24138 24139 24140 24141 24142 24143 24144 24145 24146 24147 24148 24149 24150 24151 24152 24153 24154 24155 24156 24157 24158 24159 24160 24161 24162 24163 24164 24165 24166 24167 24168 24169 24170 24171 24172 24173 24174 24175 24176 24177 24178 24179 24180 24181 24182 24183 24184 24185 24186 24187 24188 24189 24190 24191 24192 24193 24194 24195 24196 24197 24198 24199 24200 24201 24202 24203 24204 24205 24206 24207 24208 24209 24210 24211 24212 24213 24214 24215 24216 24217 24218 24219 24220 24221 24222 24223 24224 24225 24226 24227 24228 24229 24230 24231 24232 24233 24234 24235 24236 24237 24238 24239 24240 24241 24242 24243 24244 24245 24246 24247 24248 24249 24250 24251 24252 24253 24254 24255 24256 24257 24258 24259 24260 24261 24262 24263 24264 24265 24266 24267 24268 24269 24270 24271 24272 24273 24274 24275 24276 24277 24278 24279 24280 24281 24282 24283 24284 24285 24286 24287 24288 24289 24290 24291 24292 24293 24294 24295 24296 24297 24298 24299 24300 24301 24302 24303 24304 24305 24306 24307 24308 24309 24310 24311 24312 24313 24314 24315 24316 24317 24318 24319 24320 24321 24322 24323 24324 24325 24326 24327 24328 24329 24330 24331 24332 24333 24334 24335 24336 24337 24338 24339 24340 24341 24342 24343 24344 24345 24346 24347 24348 24349 24350 24351 24352 24353 24354 24355 24356 24357 24358 24359 24360 24361 24362 24363 24364 24365 24366 24367 24368 24369 24370 24371 24372 24373 24374 24375 24376 24377 24378 24379 24380 24381 24382 24383 24384 24385 24386 24387 24388 24389 24390 24391 24392 24393 24394 24395 24396 24397 24398 24399 24400 24401 24402 24403 24404 24405 24406 24407 24408 24409 24410 24411 24412 24413 24414 24415 24416 24417 24418 24419 24420 24421 24422 24423 24424 24425 24426 24427 24428 24429 24430 24431 24432 24433 24434 24435 24436 24437 24438 24439 24440 24441 24442 24443 24444 24445 24446 24447 24448 24449 24450 24451 24452 24453 24454 24455 24456 24457 24458 24459 24460 24461 24462 24463 24464 24465 24466 24467 24468 24469 24470 24471 24472 24473 24474 24475 24476 24477 24478 24479 24480 24481 24482 24483 24484 24485 24486 24487 24488 24489 24490 24491 24492 24493 24494 24495 24496 24497 24498 24499 24500 24501 24502 24503 24504 24505 24506 24507 24508 24509 24510 24511 24512 24513 24514 24515 24516 24517 24518 24519 24520 24521 24522 24523 24524 24525 24526 24527 24528 24529 24530 24531 24532 24533 24534 24535 24536 24537 24538 24539 24540 24541 24542 24543 24544 24545 24546 24547 24548 24549 24550 24551 24552 24553 24554 24555 24556 24557 24558 24559 24560 24561 24562 24563 24564 24565 24566 24567 24568 24569 24570 24571 24572 24573 24574 24575 24576 24577 24578 24579 24580 24581 24582 24583 24584 24585 24586 24587 24588 24589 24590 24591 24592 24593 24594 24595 24596 24597 24598 24599 24600 24601 24602 24603 24604 24605 24606 24607 24608 24609 24610 24611 24612 24613 24614 24615 24616 24617 24618 24619 24620 24621 24622 24623 24624 24625 24626 24627 24628 24629 24630 24631 24632 24633 24634 24635 24636 24637 24638 24639 24640 24641 24642 24643 24644 24645 24646 24647 24648 24649 24650 24651 24652 24653 24654 24655 24656 24657 24658 24659 24660 24661 24662 24663 24664 24665 24666 24667 24668 24669 24670 24671 24672 24673 24674 24675 24676 24677 24678 24679 24680 24681 24682 24683 24684 24685 24686 24687 24688 24689 24690 24691 24692 24693 24694 24695 24696 24697 24698 24699 24700 24701 24702 24703 24704 24705 24706 24707 24708 24709 24710 24711 24712 24713 24714 24715 24716 24717 24718 24719 24720 24721 24722 24723 24724 24725 24726 24727 24728 24729 24730 24731 24732 24733 24734 24735 24736 24737 24738 24739 24740 24741 24742 24743 24744 24745 24746 24747 24748 24749 24750 24751 24752 24753 24754 24755 24756 24757 24758 24759 24760 24761 24762 24763 24764 24765 24766 24767 24768 24769 24770 24771 24772 24773 24774 24775 24776 24777 24778 24779 24780 24781 24782 24783 24784 24785 24786 24787 24788 24789 24790 24791 24792 24793 24794 24795 24796 24797 24798 24799 24800 24801 24802 24803 24804 24805 24806 24807 24808 24809 24810 24811 24812 24813 24814 24815 24816 24817 24818 24819 24820 24821 24822 24823 24824 24825 24826 24827 24828 24829 24830 24831 24832 24833 24834 24835 24836 24837 24838 24839 24840 24841 24842 24843 24844 24845 24846 24847 24848 24849 24850 24851 24852 24853 24854 24855 24856 24857 24858 24859 24860 24861 24862 24863 24864 24865 24866 24867 24868 24869 24870 24871 24872 24873 24874 24875 24876 24877 24878 24879 24880 24881 24882 24883 24884 24885 24886 24887 24888 24889 24890 24891 24892 24893 24894 24895 24896 24897 24898 24899 24900 24901 24902 24903 24904 24905 24906 24907 24908 24909 24910 24911 24912 24913 24914 24915 24916 24917 24918 24919 24920 24921 24922 24923 24924 24925 24926 24927 24928 24929 24930 24931 24932 24933 24934 24935 24936 24937 24938 24939 24940 24941 24942 24943 24944 24945 24946 24947 24948 24949 24950 24951 24952 24953 24954 24955 24956 24957 24958 24959 24960 24961 24962 24963 24964 24965 24966 24967 24968 24969 24970 24971 24972 24973 24974 24975 24976 24977 24978 24979 24980 24981 24982 24983 24984 24985 24986 24987 24988 24989 24990 24991 24992 24993 24994 24995 24996 24997 24998 24999 25000 25001 25002 25003 25004 25005 25006 25007 25008 25009 25010 25011 25012 25013 25014 25015 25016 25017 25018 25019 25020 25021 25022 25023 25024 25025 25026 25027 25028 25029 25030 25031 25032 25033 25034 25035 25036 25037 25038 25039 25040 25041 25042 25043 25044 25045 25046 25047 25048 25049 25050 25051 25052 25053 25054 25055 25056 25057 25058 25059 25060 25061 25062 25063 25064 25065 25066 25067 25068 25069 25070 25071 25072 25073 25074 25075 25076 25077 25078 25079 25080 25081 25082 25083 25084 25085 25086 25087 25088 25089 25090 25091 25092 25093 25094 25095 25096 25097 25098 25099 25100 25101 25102 25103 25104 25105 25106 25107 25108 25109 25110 25111 25112 25113 25114 25115 25116 25117 25118 25119 25120 25121 25122 25123 25124 25125 25126 25127 25128 25129 25130 25131 25132 25133 25134 25135 25136 25137 25138 25139 25140 25141 25142 25143 25144 25145 25146 25147 25148 25149 25150 25151 25152 25153 25154 25155 25156 25157 25158 25159 25160 25161 25162 25163 25164 25165 25166 25167 25168 25169 25170 25171 25172 25173 25174 25175 25176 25177 25178 25179 25180 25181 25182 25183 25184 25185 25186 25187 25188 25189 25190 25191 25192 25193 25194 25195 25196 25197 25198 25199 25200 25201 25202 25203 25204 25205 25206 25207 25208 25209 25210 25211 25212 25213 25214 25215 25216 25217 25218 25219 25220 25221 25222 25223 25224 25225 25226 25227 25228 25229 25230 25231 25232 25233 25234 25235 25236 25237 25238 25239 25240 25241 25242 25243 25244 25245 25246 25247 25248 25249 25250 25251 25252 25253 25254 25255 25256 25257 25258 25259 25260 25261 25262 25263 25264 25265 25266 25267 25268 25269 25270 25271 25272 25273 25274 25275 25276 25277 25278 25279 25280 25281 25282 25283 25284 25285 25286 25287 25288 25289 25290 25291 25292 25293 25294 25295 25296 25297 25298 25299 25300 25301 25302 25303 25304 25305 25306 25307 25308 25309 25310 25311 25312 25313 25314 25315 25316 25317 25318 25319 25320 25321 25322 25323 25324 25325 25326 25327 25328 25329 25330 25331 25332 25333 25334 25335 25336 25337 25338 25339 25340 25341 25342 25343 25344 25345 25346 25347 25348 25349 25350 25351 25352 25353 25354 25355 25356 25357 25358 25359 25360 25361 25362 25363 25364 25365 25366 25367 25368 25369 25370 25371 25372 25373 25374 25375 25376 25377 25378 25379 25380 25381 25382 25383 25384 25385 25386 25387 25388 25389 25390 25391 25392 25393 25394 25395 25396 25397 25398 25399 25400 25401 25402 25403 25404 25405 25406 25407 25408 25409 25410 25411 25412 25413 25414 25415 25416 25417 25418 25419 25420 25421 25422 25423 25424 25425 25426 25427 25428 25429 25430 25431 25432 25433 25434 25435 25436 25437 25438 25439 25440 25441 25442 25443 25444 25445 25446 25447 25448 25449 25450 25451 25452 25453 25454 25455 25456 25457 25458 25459 25460 25461 25462 25463 25464 25465 25466 25467 25468 25469 25470 25471 25472 25473 25474 25475 25476 25477 25478 25479 25480 25481 25482 25483 25484 25485 25486 25487 25488 25489 25490 25491 25492 25493 25494 25495 25496 25497 25498 25499 25500 25501 25502 25503 25504 25505 25506 25507 25508 25509 25510 25511 25512 25513 25514 25515 25516 25517 25518 25519 25520 25521 25522 25523 25524 25525 25526 25527 25528 25529 25530 25531 25532 25533 25534 25535 25536 25537 25538 25539 25540 25541 25542 25543 25544 25545 25546 25547 25548 25549 25550 25551 25552 25553 25554 25555 25556 25557 25558 25559 25560 25561 25562 25563 25564 25565 25566 25567 25568 25569 25570 25571 25572 25573 25574 25575 25576 25577 25578 25579 25580 25581 25582 25583 25584 25585 25586 25587 25588 25589 25590 25591 25592 25593 25594 25595 25596 25597 25598 25599 25600 25601 25602 25603 25604 25605 25606 25607 25608 25609 25610 25611 25612 25613 25614 25615 25616 25617 25618 25619 25620 25621 25622 25623 25624 25625 25626 25627 25628 25629 25630 25631 25632 25633 25634 25635 25636 25637 25638 25639 25640 25641 25642 25643 25644 25645 25646 25647 25648 25649 25650 25651 25652 25653 25654 25655 25656 25657 25658 25659 25660 25661 25662 25663 25664 25665 25666 25667 25668 25669 25670 25671 25672 25673 25674 25675 25676 25677 25678 25679 25680 25681 25682 25683 25684 25685 25686 25687 25688 25689 25690 25691 25692 25693 25694 25695 25696 25697 25698 25699 25700 25701 25702 25703 25704 25705 25706 25707 25708 25709 25710 25711 25712 25713 25714 25715 25716 25717 25718 25719 25720 25721 25722 25723 25724 25725 25726 25727 25728 25729 25730 25731 25732 25733 25734 25735 25736 25737 25738 25739 25740 25741 25742 25743 25744 25745 25746 25747 25748 25749 25750 25751 25752 25753 25754 25755 25756 25757 25758 25759 25760 25761 25762 25763 25764 25765 25766 25767 25768 25769 25770 25771 25772 25773 25774 25775 25776 25777 25778 25779 25780 25781 25782 25783 25784 25785 25786 25787 25788 25789 25790 25791 25792 25793 25794 25795 25796 25797 25798 25799 25800 25801 25802 25803 25804 25805 25806 25807 25808 25809 25810 25811 25812 25813 25814 25815 25816 25817 25818 25819 25820 25821 25822 25823 25824 25825 25826 25827 25828 25829 25830 25831 25832 25833 25834 25835 25836 25837 25838 25839 25840 25841 25842 25843 25844 25845 25846 25847 25848 25849 25850 25851 25852 25853 25854 25855 25856 25857 25858 25859 25860 25861 25862 25863 25864 25865 25866 25867 25868 25869 25870 25871 25872 25873 25874 25875 25876 25877 25878 25879 25880 25881 25882 25883 25884 25885 25886 25887 25888 25889 25890 25891 25892 25893 25894 25895 25896 25897 25898 25899 25900 25901 25902 25903 25904 25905 25906 25907 25908 25909 25910 25911 25912 25913 25914 25915 25916 25917 25918 25919 25920 25921 25922 25923 25924 25925 25926 25927 25928 25929 25930 25931 25932 25933 25934 25935 25936 25937 25938 25939 25940 25941 25942 25943 25944 25945 25946 25947 25948 25949 25950 25951 25952 25953 25954 25955 25956 25957 25958 25959 25960 25961 25962 25963 25964 25965 25966 25967 25968 25969 25970 25971 25972 25973 25974 25975 25976 25977 25978 25979 25980 25981 25982 25983 25984 25985 25986 25987 25988 25989 25990 25991 25992 25993 25994 25995 25996 25997 25998 25999 26000 26001 26002 26003 26004 26005 26006 26007 26008 26009 26010 26011 26012 26013 26014 26015 26016 26017 26018 26019 26020 26021 26022 26023 26024 26025 26026 26027 26028 26029 26030 26031 26032 26033 26034 26035 26036 26037 26038 26039 26040 26041 26042 26043 26044 26045 26046 26047 26048 26049 26050 26051 26052 26053 26054 26055 26056 26057 26058 26059 26060 26061 26062 26063 26064 26065 26066 26067 26068 26069 26070 26071 26072 26073 26074 26075 26076 26077 26078 26079 26080 26081 26082 26083 26084 26085 26086 26087 26088 26089 26090 26091 26092 26093 26094 26095 26096 26097 26098 26099 26100 26101 26102 26103 26104 26105 26106 26107 26108 26109 26110 26111 26112 26113 26114 26115 26116 26117 26118 26119 26120 26121 26122 26123 26124 26125 26126 26127 26128 26129 26130 26131 26132 26133 26134 26135 26136 26137 26138 26139 26140 26141 26142 26143 26144 26145 26146 26147 26148 26149 26150 26151 26152 26153 26154 26155 26156 26157 26158 26159 26160 26161 26162 26163 26164 26165 26166 26167 26168 26169 26170 26171 26172 26173 26174 26175 26176 26177 26178 26179 26180 26181 26182 26183 26184 26185 26186 26187 26188 26189 26190 26191 26192 26193 26194 26195 26196 26197 26198 26199 26200 26201 26202 26203 26204 26205 26206 26207 26208 26209 26210 26211 26212 26213 26214 26215 26216 26217 26218 26219 26220 26221 26222 26223 26224 26225 26226 26227 26228 26229 26230 26231 26232 26233 26234 26235 26236 26237 26238 26239 26240 26241 26242 26243 26244 26245 26246 26247 26248 26249 26250 26251 26252 26253 26254 26255 26256 26257 26258 26259 26260 26261 26262 26263 26264 26265 26266 26267 26268 26269 26270 26271 26272 26273 26274 26275 26276 26277 26278 26279 26280 26281 26282 26283 26284 26285 26286 26287 26288 26289 26290 26291 26292 26293 26294 26295 26296 26297 26298 26299 26300 26301 26302 26303 26304 26305 26306 26307 26308 26309 26310 26311 26312 26313 26314 26315 26316 26317 26318 26319 26320 26321 26322 26323 26324 26325 26326 26327 26328 26329 26330 26331 26332 26333 26334 26335 26336 26337 26338 26339 26340 26341 26342 26343 26344 26345 26346 26347 26348 26349 26350 26351 26352 26353 26354 26355 26356 26357 26358 26359 26360 26361 26362 26363 26364 26365 26366 26367 26368 26369 26370 26371 26372 26373 26374 26375 26376 26377 26378 26379 26380 26381 26382 26383 26384 26385 26386 26387 26388 26389 26390 26391 26392 26393 26394 26395 26396 26397 26398 26399 26400 26401 26402 26403 26404 26405 26406 26407 26408 26409 26410 26411 26412 26413 26414 26415 26416 26417 26418 26419 26420 26421 26422 26423 26424 26425 26426 26427 26428 26429 26430 26431 26432 26433 26434 26435 26436 26437 26438 26439 26440 26441 26442 26443 26444 26445 26446 26447 26448 26449 26450 26451 26452 26453 26454 26455 26456 26457 26458 26459 26460 26461 26462 26463 26464 26465 26466 26467 26468 26469 26470 26471 26472 26473 26474 26475 26476 26477 26478 26479 26480 26481 26482 26483 26484 26485 26486 26487 26488 26489 26490 26491 26492 26493 26494 26495 26496 26497 26498 26499 26500 26501 26502 26503 26504 26505 26506 26507 26508 26509 26510 26511 26512 26513 26514 26515 26516 26517 26518 26519 26520 26521 26522 26523 26524 26525 26526 26527 26528 26529 26530 26531 26532 26533 26534 26535 26536 26537 26538 26539 26540 26541 26542 26543 26544 26545 26546 26547 26548 26549 26550 26551 26552 26553 26554 26555 26556 26557 26558 26559 26560 26561 26562 26563 26564 26565 26566 26567 26568 26569 26570 26571 26572 26573 26574 26575 26576 26577 26578 26579 26580 26581 26582 26583 26584 26585 26586 26587 26588 26589 26590 26591 26592 26593 26594 26595 26596 26597 26598 26599 26600 26601 26602 26603 26604 26605 26606 26607 26608 26609 26610 26611 26612 26613 26614 26615 26616 26617 26618 26619 26620 26621 26622 26623 26624 26625 26626 26627 26628 26629 26630 26631 26632 26633 26634 26635 26636 26637 26638 26639 26640 26641 26642 26643 26644 26645 26646 26647 26648 26649 26650 26651 26652 26653 26654 26655 26656 26657 26658 26659 26660 26661 26662 26663 26664 26665 26666 26667 26668 26669 26670 26671 26672 26673 26674 26675 26676 26677 26678 26679 26680 26681 26682 26683 26684 26685 26686 26687 26688 26689 26690 26691 26692 26693 26694 26695 26696 26697 26698 26699 26700 26701 26702 26703 26704 26705 26706 26707 26708 26709 26710 26711 26712 26713 26714 26715 26716 26717 26718 26719 26720 26721 26722 26723 26724 26725 26726 26727 26728 26729 26730 26731 26732 26733 26734 26735 26736 26737 26738 26739 26740 26741 26742 26743 26744 26745 26746 26747 26748 26749 26750 26751 26752 26753 26754 26755 26756 26757 26758 26759 26760 26761 26762 26763 26764 26765 26766 26767 26768 26769 26770 26771 26772 26773 26774 26775 26776 26777 26778 26779 26780 26781 26782 26783 26784 26785 26786 26787 26788 26789 26790 26791 26792 26793 26794 26795 26796 26797 26798 26799 26800 26801 26802 26803 26804 26805 26806 26807 26808 26809 26810 26811 26812 26813 26814 26815 26816 26817 26818 26819 26820 26821 26822 26823 26824 26825 26826 26827 26828 26829 26830 26831 26832 26833 26834 26835 26836 26837 26838 26839 26840 26841 26842 26843 26844 26845 26846 26847 26848 26849 26850 26851 26852 26853 26854 26855 26856 26857 26858 26859 26860 26861 26862 26863 26864 26865 26866 26867 26868 26869 26870 26871 26872 26873 26874 26875 26876 26877 26878 26879 26880 26881 26882 26883 26884 26885 26886 26887 26888 26889 26890 26891 26892 26893 26894 26895 26896 26897 26898 26899 26900 26901 26902 26903 26904 26905 26906 26907 26908 26909 26910 26911 26912 26913 26914 26915 26916 26917 26918 26919 26920 26921 26922 26923 26924 26925 26926 26927 26928 26929 26930 26931 26932 26933 26934 26935 26936 26937 26938 26939 26940 26941 26942 26943 26944 26945 26946 26947 26948 26949 26950 26951 26952 26953 26954 26955 26956 26957 26958 26959 26960 26961 26962 26963 26964 26965 26966 26967 26968 26969 26970 26971 26972 26973 26974 26975 26976 26977 26978 26979 26980 26981 26982 26983 26984 26985 26986 26987 26988 26989 26990 26991 26992 26993 26994 26995 26996 26997 26998 26999 27000 27001 27002 27003 27004 27005 27006 27007 27008 27009 27010 27011 27012 27013 27014 27015 27016 27017 27018 27019 27020 27021 27022 27023 27024 27025 27026 27027 27028 27029 27030 27031 27032 27033 27034 27035 27036 27037 27038 27039 27040 27041 27042 27043 27044 27045 27046 27047 27048 27049 27050 27051 27052 27053 27054 27055 27056 27057 27058 27059 27060 27061 27062 27063 27064 27065 27066 27067 27068 27069 27070 27071 27072 27073 27074 27075 27076 27077 27078 27079 27080 27081 27082 27083 27084 27085 27086 27087 27088 27089 27090 27091 27092 27093 27094 27095 27096 27097 27098 27099 27100 27101 27102 27103 27104 27105 27106 27107 27108 27109 27110 27111 27112 27113 27114 27115 27116 27117 27118 27119 27120 27121 27122 27123 27124 27125 27126 27127 27128 27129 27130 27131 27132 27133 27134 27135 27136 27137 27138 27139 27140 27141 27142 27143 27144 27145 27146 27147 27148 27149 27150 27151 27152 27153 27154 27155 27156 27157 27158 27159 27160 27161 27162 27163 27164 27165 27166 27167 27168 27169 27170 27171 27172 27173 27174 27175 27176 27177 27178 27179 27180 27181 27182 27183 27184 27185 27186 27187 27188 27189 27190 27191 27192 27193 27194 27195 27196 27197 27198 27199 27200 27201 27202 27203 27204 27205 27206 27207 27208 27209 27210 27211 27212 27213 27214 27215 27216 27217 27218 27219 27220 27221 27222 27223 27224 27225 27226 27227 27228 27229 27230 27231 27232 27233 27234 27235 27236 27237 27238 27239 27240 27241 27242 27243 27244 27245 27246 27247 27248 27249 27250 27251 27252 27253 27254 27255 27256 27257 27258 27259 27260 27261 27262 27263 27264 27265 27266 27267 27268 27269 27270 27271 27272 27273 27274 27275 27276 27277 27278 27279 27280 27281 27282 27283 27284 27285 27286 27287 27288 27289 27290 27291 27292 27293 27294 27295 27296 27297 27298 27299 27300 27301 27302 27303 27304 27305 27306 27307 27308 27309 27310 27311 27312 27313 27314 27315 27316 27317 27318 27319 27320 27321 27322 27323 27324 27325 27326 27327 27328 27329 27330 27331 27332 27333 27334 27335 27336 27337 27338 27339 27340 27341 27342 27343 27344 27345 27346 27347 27348 27349 27350 27351 27352 27353 27354 27355 27356 27357 27358 27359 27360 27361 27362 27363 27364 27365 27366 27367 27368 27369 27370 27371 27372 27373 27374 27375 27376 27377 27378 27379 27380 27381 27382 27383 27384 27385 27386 27387 27388 27389 27390 27391 27392 27393 27394 27395 27396 27397 27398 27399 27400 27401 27402 27403 27404 27405 27406 27407 27408 27409 27410 27411 27412 27413 27414 27415 27416 27417 27418 27419 27420 27421 27422 27423 27424 27425 27426 27427 27428 27429 27430 27431 27432 27433 27434 27435 27436 27437 27438 27439 27440 27441 27442 27443 27444 27445 27446 27447 27448 27449 27450 27451 27452 27453 27454 27455 27456 27457 27458 27459 27460 27461 27462 27463 27464 27465 27466 27467 27468 27469 27470 27471 27472 27473 27474 27475 27476 27477 27478 27479 27480 27481 27482 27483 27484 27485 27486 27487 27488 27489 27490 27491 27492 27493 27494 27495 27496 27497 27498 27499 27500 27501 27502 27503 27504 27505 27506 27507 27508 27509 27510 27511 27512 27513 27514 27515 27516 27517 27518 27519 27520 27521 27522 27523 27524 27525 27526 27527 27528 27529 27530 27531 27532 27533 27534 27535 27536 27537 27538 27539 27540 27541 27542 27543 27544 27545 27546 27547 27548 27549 27550 27551 27552 27553 27554 27555 27556 27557 27558 27559 27560 27561 27562 27563 27564 27565 27566 27567 27568 27569 27570 27571 27572 27573 27574 27575 27576 27577 27578 27579 27580 27581 27582 27583 27584 27585 27586 27587 27588 27589 27590 27591 27592 27593 27594 27595 27596 27597 27598 27599 27600 27601 27602 27603 27604 27605 27606 27607 27608 27609 27610 27611 27612 27613 27614 27615 27616 27617 27618 27619 27620 27621 27622 27623 27624 27625 27626 27627 27628 27629 27630 27631 27632 27633 27634 27635 27636 27637 27638 27639 27640 27641 27642 27643 27644 27645 27646 27647 27648 27649 27650 27651 27652 27653 27654 27655 27656 27657 27658 27659 27660 27661 27662 27663 27664 27665 27666 27667 27668 27669 27670 27671 27672 27673 27674 27675 27676 27677 27678 27679 27680 27681 27682 27683 27684 27685 27686 27687 27688 27689 27690 27691 27692 27693 27694 27695 27696 27697 27698 27699 27700 27701 27702 27703 27704 27705 27706 27707 27708 27709 27710 27711 27712 27713 27714 27715 27716 27717 27718 27719 27720 27721 27722 27723 27724 27725 27726 27727 27728 27729 27730 27731 27732 27733 27734 27735 27736 27737 27738 27739 27740 27741 27742 27743 27744 27745 27746 27747 27748 27749 27750 27751 27752 27753 27754 27755 27756 27757 27758 27759 27760 27761 27762 27763 27764 27765 27766 27767 27768 27769 27770 27771 27772 27773 27774 27775 27776 27777 27778 27779 27780 27781 27782 27783 27784 27785 27786 27787 27788 27789 27790 27791 27792 27793 27794 27795 27796 27797 27798 27799 27800 27801 27802 27803 27804 27805 27806 27807 27808 27809 27810 27811 27812 27813 27814 27815 27816 27817 27818 27819 27820 27821 27822 27823 27824 27825 27826 27827 27828 27829 27830 27831 27832 27833 27834 27835 27836 27837 27838 27839 27840 27841 27842 27843 27844 27845 27846 27847 27848 27849 27850 27851 27852 27853 27854 27855 27856 27857 27858 27859 27860 27861 27862 27863 27864 27865 27866 27867 27868 27869 27870 27871 27872 27873 27874 27875 27876 27877 27878 27879 27880 27881 27882 27883 27884 27885 27886 27887 27888 27889 27890 27891 27892 27893 27894 27895 27896 27897 27898 27899 27900 27901 27902 27903 27904 27905 27906 27907 27908 27909 27910 27911 27912 27913 27914 27915 27916 27917 27918 27919 27920 27921 27922 27923 27924 27925 27926 27927 27928 27929 27930 27931 27932 27933 27934 27935 27936 27937 27938 27939 27940 27941 27942 27943 27944 27945 27946 27947 27948 27949 27950 27951 27952 27953 27954 27955 27956 27957 27958 27959 27960 27961 27962 27963 27964 27965 27966 27967 27968 27969 27970 27971 27972 27973 27974 27975 27976 27977 27978 27979 27980 27981 27982 27983 27984 27985 27986 27987 27988 27989 27990 27991 27992 27993 27994 27995 27996 27997 27998 27999 28000 28001 28002 28003 28004 28005 28006 28007 28008 28009 28010 28011 28012 28013 28014 28015 28016 28017 28018 28019 28020 28021 28022 28023 28024 28025 28026 28027 28028 28029 28030 28031 28032 28033 28034 28035 28036 28037 28038 28039 28040 28041 28042 28043 28044 28045 28046 28047 28048 28049 28050 28051 28052 28053 28054 28055 28056 28057 28058 28059 28060 28061 28062 28063 28064 28065 28066 28067 28068 28069 28070 28071 28072 28073 28074 28075 28076 28077 28078 28079 28080 28081 28082 28083 28084 28085 28086 28087 28088 28089 28090 28091 28092 28093 28094 28095 28096 28097 28098 28099 28100 28101 28102 28103 28104 28105 28106 28107 28108 28109 28110 28111 28112 28113 28114 28115 28116 28117 28118 28119 28120 28121 28122 28123 28124 28125 28126 28127 28128 28129 28130 28131 28132 28133 28134 28135 28136 28137 28138 28139 28140 28141 28142 28143 28144 28145 28146 28147 28148 28149 28150 28151 28152 28153 28154 28155 28156 28157 28158 28159 28160 28161 28162 28163 28164 28165 28166 28167 28168 28169 28170 28171 28172 28173 28174 28175 28176 28177 28178 28179 28180 28181 28182 28183 28184 28185 28186 28187 28188 28189 28190 28191 28192 28193 28194 28195 28196 28197 28198 28199 28200 28201 28202 28203 28204 28205 28206 28207 28208 28209 28210 28211 28212 28213 28214 28215 28216 28217 28218 28219 28220 28221 28222 28223 28224 28225 28226 28227 28228 28229 28230 28231 28232 28233 28234 28235 28236 28237 28238 28239 28240 28241 28242 28243 28244 28245 28246 28247 28248 28249 28250 28251 28252 28253 28254 28255 28256 28257 28258 28259 28260 28261 28262 28263 28264 28265 28266 28267 28268 28269 28270 28271 28272 28273 28274 28275 28276 28277 28278 28279 28280 28281 28282 28283 28284 28285 28286 28287 28288 28289 28290 28291 28292 28293 28294 28295 28296 28297 28298 28299 28300 28301 28302 28303 28304 28305 28306 28307 28308 28309 28310 28311 28312 28313 28314 28315 28316 28317 28318 28319 28320 28321 28322 28323 28324 28325 28326 28327 28328 28329 28330 28331 28332 28333 28334 28335 28336 28337 28338 28339 28340 28341 28342 28343 28344 28345 28346 28347 28348 28349 28350 28351 28352 28353 28354 28355 28356 28357 28358 28359 28360 28361 28362 28363 28364 28365 28366 28367 28368 28369 28370 28371 28372 28373 28374 28375 28376 28377 28378 28379 28380 28381 28382 28383 28384 28385 28386 28387 28388 28389 28390 28391 28392 28393 28394 28395 28396 28397 28398 28399 28400 28401 28402 28403 28404 28405 28406 28407 28408 28409 28410 28411 28412 28413 28414 28415 28416 28417 28418 28419 28420 28421 28422 28423 28424 28425 28426 28427 28428 28429 28430 28431 28432 28433 28434 28435 28436 28437 28438 28439 28440 28441 28442 28443 28444 28445 28446 28447 28448 28449 28450 28451 28452 28453 28454 28455 28456 28457 28458 28459 28460 28461 28462 28463 28464 28465 28466 28467 28468 28469 28470 28471 28472 28473 28474 28475 28476 28477 28478 28479 28480 28481 28482 28483 28484 28485 28486 28487 28488 28489 28490 28491 28492 28493 28494 28495 28496 28497 28498 28499 28500 28501 28502 28503 28504 28505 28506 28507 28508 28509 28510 28511 28512 28513 28514 28515 28516 28517 28518 28519 28520 28521 28522 28523 28524 28525 28526 28527 28528 28529 28530 28531 28532 28533 28534 28535 28536 28537 28538 28539 28540 28541 28542 28543 28544 28545 28546 28547 28548 28549 28550 28551 28552 28553 28554 28555 28556 28557 28558 28559 28560 28561 28562 28563 28564 28565 28566 28567 28568 28569 28570 28571 28572 28573 28574 28575 28576 28577 28578 28579 28580 28581 28582 28583 28584 28585 28586 28587 28588 28589 28590 28591 28592 28593 28594 28595 28596 28597 28598 28599 28600 28601 28602 28603 28604 28605 28606 28607 28608 28609 28610 28611 28612 28613 28614 28615 28616 28617 28618 28619 28620 28621 28622 28623 28624 28625 28626 28627 28628 28629 28630 28631 28632 28633 28634 28635 28636 28637 28638 28639 28640 28641 28642 28643 28644 28645 28646 28647 28648 28649 28650 28651 28652 28653 28654 28655 28656 28657 28658 28659 28660 28661 28662 28663 28664 28665 28666 28667 28668 28669 28670 28671 28672 28673 28674 28675 28676 28677 28678 28679 28680 28681 28682 28683 28684 28685 28686 28687 28688 28689 28690 28691 28692 28693 28694 28695 28696 28697 28698 28699 28700 28701 28702 28703 28704 28705 28706 28707 28708 28709 28710 28711 28712 28713 28714 28715 28716 28717 28718 28719 28720 28721 28722 28723 28724 28725 28726 28727 28728 28729 28730 28731 28732 28733 28734 28735 28736 28737 28738 28739 28740 28741 28742 28743 28744 28745 28746 28747 28748 28749 28750 28751 28752 28753 28754 28755 28756 28757 28758 28759 28760 28761 28762 28763 28764 28765 28766 28767 28768 28769 28770 28771 28772 28773 28774 28775 28776 28777 28778 28779 28780 28781 28782 28783 28784 28785 28786 28787 28788 28789 28790 28791 28792 28793 28794 28795 28796 28797 28798 28799 28800 28801 28802 28803 28804 28805 28806 28807 28808 28809 28810 28811 28812 28813 28814 28815 28816 28817 28818 28819 28820 28821 28822 28823 28824 28825 28826 28827 28828 28829 28830 28831 28832 28833 28834 28835 28836 28837 28838 28839 28840 28841 28842 28843 28844 28845 28846 28847 28848 28849 28850 28851 28852 28853 28854 28855 28856 28857 28858 28859 28860 28861 28862 28863 28864 28865 28866 28867 28868 28869 28870 28871 28872 28873 28874 28875 28876 28877 28878 28879 28880 28881 28882 28883 28884 28885 28886 28887 28888 28889 28890 28891 28892 28893 28894 28895 28896 28897 28898 28899 28900 28901 28902 28903 28904 28905 28906 28907 28908 28909 28910 28911 28912 28913 28914 28915 28916 28917 28918 28919 28920 28921 28922 28923 28924 28925 28926 28927 28928 28929 28930 28931 28932 28933 28934 28935 28936 28937 28938 28939 28940 28941 28942 28943 28944 28945 28946 28947 28948 28949 28950 28951 28952 28953 28954 28955 28956 28957 28958 28959 28960 28961 28962 28963 28964 28965 28966 28967 28968 28969 28970 28971 28972 28973 28974 28975 28976 28977 28978 28979 28980 28981 28982 28983 28984 28985 28986 28987 28988 28989 28990 28991 28992 28993 28994 28995 28996 28997 28998 28999 29000 29001 29002 29003 29004 29005 29006 29007 29008 29009 29010 29011 29012 29013 29014 29015 29016 29017 29018 29019 29020 29021 29022 29023 29024 29025 29026 29027 29028 29029 29030 29031 29032 29033 29034 29035 29036 29037 29038 29039 29040 29041 29042 29043 29044 29045 29046 29047 29048 29049 29050 29051 29052 29053 29054 29055 29056 29057 29058 29059 29060 29061 29062 29063 29064 29065 29066 29067 29068 29069 29070 29071 29072 29073 29074 29075 29076 29077 29078 29079 29080 29081 29082 29083 29084 29085 29086 29087 29088 29089 29090 29091 29092 29093 29094 29095 29096 29097 29098 29099 29100 29101 29102 29103 29104 29105 29106 29107 29108 29109 29110 29111 29112 29113 29114 29115 29116 29117 29118 29119 29120 29121 29122 29123 29124 29125 29126 29127 29128 29129 29130 29131 29132 29133 29134 29135 29136 29137 29138 29139 29140 29141 29142 29143 29144 29145 29146 29147 29148 29149 29150 29151 29152 29153 29154 29155 29156 29157 29158 29159 29160 29161 29162 29163 29164 29165 29166 29167 29168 29169 29170 29171 29172 29173 29174 29175 29176 29177 29178 29179 29180 29181 29182 29183 29184 29185 29186 29187 29188 29189 29190 29191 29192 29193 29194 29195 29196 29197 29198 29199 29200 29201 29202 29203 29204 29205 29206 29207 29208 29209 29210 29211 29212 29213 29214 29215 29216 29217 29218 29219 29220 29221 29222 29223 29224 29225 29226 29227 29228 29229 29230 29231 29232 29233 29234 29235 29236 29237 29238 29239 29240 29241 29242 29243 29244 29245 29246 29247 29248 29249 29250 29251 29252 29253 29254 29255 29256 29257 29258 29259 29260 29261 29262 29263 29264 29265 29266 29267 29268 29269 29270 29271 29272 29273 29274 29275 29276 29277 29278 29279 29280 29281 29282 29283 29284 29285 29286 29287 29288 29289 29290 29291 29292 29293 29294 29295 29296 29297 29298 29299 29300 29301 29302 29303 29304 29305 29306 29307 29308 29309 29310 29311 29312 29313 29314 29315 29316 29317 29318 29319 29320 29321 29322 29323 29324 29325 29326 29327 29328 29329 29330 29331 29332 29333 29334 29335 29336 29337 29338 29339 29340 29341 29342 29343 29344 29345 29346 29347 29348 29349 29350 29351 29352 29353 29354 29355 29356 29357 29358 29359 29360 29361 29362 29363 29364 29365 29366 29367 29368 29369 29370 29371 29372 29373 29374 29375 29376 29377 29378 29379 29380 29381 29382 29383 29384 29385 29386 29387 29388 29389 29390 29391 29392 29393 29394 29395 29396 29397 29398 29399 29400 29401 29402 29403 29404 29405 29406 29407 29408 29409 29410 29411 29412 29413 29414 29415 29416 29417 29418 29419 29420 29421 29422 29423 29424 29425 29426 29427 29428 29429 29430 29431 29432 29433 29434 29435 29436 29437 29438 29439 29440 29441 29442 29443 29444 29445 29446 29447 29448 29449 29450 29451 29452 29453 29454 29455 29456 29457 29458 29459 29460 29461 29462 29463 29464 29465 29466 29467 29468 29469 29470 29471 29472 29473 29474 29475 29476 29477 29478 29479 29480 29481 29482 29483 29484 29485 29486 29487 29488 29489 29490 29491 29492 29493 29494 29495 29496 29497 29498 29499 29500 29501 29502 29503 29504 29505 29506 29507 29508 29509 29510 29511 29512 29513 29514 29515 29516 29517 29518 29519 29520 29521 29522 29523 29524 29525 29526 29527 29528 29529 29530 29531 29532 29533 29534 29535 29536 29537 29538 29539 29540 29541 29542 29543 29544 29545 29546 29547 29548 29549 29550 29551 29552 29553 29554 29555 29556 29557 29558 29559 29560 29561 29562 29563 29564 29565 29566 29567 29568 29569 29570 29571 29572 29573 29574 29575 29576 29577 29578 29579 29580 29581 29582 29583 29584 29585 29586 29587 29588 29589 29590 29591 29592 29593 29594 29595 29596 29597 29598 29599 29600 29601 29602 29603 29604 29605 29606 29607 29608 29609 29610 29611 29612 29613 29614 29615 29616 29617 29618 29619 29620 29621 29622 29623 29624 29625 29626 29627 29628 29629 29630 29631 29632 29633 29634 29635 29636 29637 29638 29639 29640 29641 29642 29643 29644 29645 29646 29647 29648 29649 29650 29651 29652 29653 29654 29655 29656 29657 29658 29659 29660 29661 29662 29663 29664 29665 29666 29667 29668 29669 29670 29671 29672 29673 29674 29675 29676 29677 29678 29679 29680 29681 29682 29683 29684 29685 29686 29687 29688 29689 29690 29691 29692 29693 29694 29695 29696 29697 29698 29699 29700 29701 29702 29703 29704 29705 29706 29707 29708 29709 29710 29711 29712 29713 29714 29715 29716 29717 29718 29719 29720 29721 29722 29723 29724 29725 29726 29727 29728 29729 29730 29731 29732 29733 29734 29735 29736 29737 29738 29739 29740 29741 29742 29743 29744 29745 29746 29747 29748 29749 29750 29751 29752 29753 29754 29755 29756 29757 29758 29759 29760 29761 29762 29763 29764 29765 29766 29767 29768 29769 29770 29771 29772 29773 29774 29775 29776 29777 29778 29779 29780 29781 29782 29783 29784 29785 29786 29787 29788 29789 29790 29791 29792 29793 29794 29795 29796 29797 29798 29799 29800 29801 29802 29803 29804 29805 29806 29807 29808 29809 29810 29811 29812 29813 29814 29815 29816 29817 29818 29819 29820 29821 29822 29823 29824 29825 29826 29827 29828 29829 29830 29831 29832 29833 29834 29835 29836 29837 29838 29839 29840 29841 29842 29843 29844 29845 29846 29847 29848 29849 29850 29851 29852 29853 29854 29855 29856 29857 29858 29859 29860 29861 29862 29863 29864 29865 29866 29867 29868 29869 29870 29871 29872 29873 29874 29875 29876 29877 29878 29879 29880 29881 29882 29883 29884 29885 29886 29887 29888 29889 29890 29891 29892 29893 29894 29895 29896 29897 29898 29899 29900 29901 29902 29903 29904 29905 29906 29907 29908 29909 29910 29911 29912 29913 29914 29915 29916 29917 29918 29919 29920 29921 29922 29923 29924 29925 29926 29927 29928 29929 29930 29931 29932 29933 29934 29935 29936 29937 29938 29939 29940 29941 29942 29943 29944 29945 29946 29947 29948 29949 29950 29951 29952 29953 29954 29955 29956 29957 29958 29959 29960 29961 29962 29963 29964 29965 29966 29967 29968 29969 29970 29971 29972 29973 29974 29975 29976 29977 29978 29979 29980 29981 29982 29983 29984 29985 29986 29987 29988 29989 29990 29991 29992 29993 29994 29995 29996 29997 29998 29999 30000 30001 30002 30003 30004 30005 30006 30007 30008 30009 30010 30011 30012 30013 30014 30015 30016 30017 30018 30019 30020 30021 30022 30023 30024 30025 30026 30027 30028 30029 30030 30031 30032 30033 30034 30035 30036 30037 30038 30039 30040 30041 30042 30043 30044 30045 30046 30047 30048 30049 30050 30051 30052 30053 30054 30055 30056 30057 30058 30059 30060 30061 30062 30063 30064 30065 30066 30067 30068 30069 30070 30071 30072 30073 30074 30075 30076 30077 30078 30079 30080 30081 30082 30083 30084 30085 30086 30087 30088 30089 30090 30091 30092 30093 30094 30095 30096 30097 30098 30099 30100 30101 30102 30103 30104 30105 30106 30107 30108 30109 30110 30111 30112 30113 30114 30115 30116 30117 30118 30119 30120 30121 30122 30123 30124 30125 30126 30127 30128 30129 30130 30131 30132 30133 30134 30135 30136 30137 30138 30139 30140 30141 30142 30143 30144 30145 30146 30147 30148 30149 30150 30151 30152 30153 30154 30155 30156 30157 30158 30159 30160 30161 30162 30163 30164 30165 30166 30167 30168 30169 30170 30171 30172 30173 30174 30175 30176 30177 30178 30179 30180 30181 30182 30183 30184 30185 30186 30187 30188 30189 30190 30191 30192 30193 30194 30195 30196 30197 30198 30199 30200 30201 30202 30203 30204 30205 30206 30207 30208 30209 30210 30211 30212 30213 30214 30215 30216 30217 30218 30219 30220 30221 30222 30223 30224 30225 30226 30227 30228 30229 30230 30231 30232 30233 30234 30235 30236 30237 30238 30239 30240 30241 30242 30243 30244 30245 30246 30247 30248 30249 30250 30251 30252 30253 30254 30255 30256 30257 30258 30259 30260 30261 30262 30263 30264 30265 30266 30267 30268 30269 30270 30271 30272 30273 30274 30275 30276 30277 30278 30279 30280 30281 30282 30283 30284 30285 30286 30287 30288 30289 30290 30291 30292 30293 30294 30295 30296 30297 30298 30299 30300 30301 30302 30303 30304 30305 30306 30307 30308 30309 30310 30311 30312 30313 30314 30315 30316 30317 30318 30319 30320 30321 30322 30323 30324 30325 30326 30327 30328 30329 30330 30331 30332 30333 30334 30335 30336 30337 30338 30339 30340 30341 30342 30343 30344 30345 30346 30347 30348 30349 30350 30351 30352 30353 30354 30355 30356 30357 30358 30359 30360 30361 30362 30363 30364 30365 30366 30367 30368 30369 30370 30371 30372 30373 30374 30375 30376 30377 30378 30379 30380 30381 30382 30383 30384 30385 30386 30387 30388 30389 30390 30391 30392 30393 30394 30395 30396 30397 30398 30399 30400 30401 30402 30403 30404 30405 30406 30407 30408 30409 30410 30411 30412 30413 30414 30415 30416 30417 30418 30419 30420 30421 30422 30423 30424 30425 30426 30427 30428 30429 30430 30431 30432 30433 30434 30435 30436 30437 30438 30439 30440 30441 30442 30443 30444 30445 30446 30447 30448 30449 30450 30451 30452 30453 30454 30455 30456 30457 30458 30459 30460 30461 30462 30463 30464 30465 30466 30467 30468 30469 30470 30471 30472 30473 30474 30475 30476 30477 30478 30479 30480 30481 30482 30483 30484 30485 30486 30487 30488 30489 30490 30491 30492 30493 30494 30495 30496 30497 30498 30499 30500 30501 30502 30503 30504 30505 30506 30507 30508 30509 30510 30511 30512 30513 30514 30515 30516 30517 30518 30519 30520 30521 30522 30523 30524 30525 30526 30527 30528 30529 30530 30531 30532 30533 30534 30535 30536 30537 30538 30539 30540 30541 30542 30543 30544 30545 30546 30547 30548 30549 30550 30551 30552 30553 30554 30555 30556 30557 30558 30559 30560 30561 30562 30563 30564 30565 30566 30567 30568 30569 30570 30571 30572 30573 30574 30575 30576 30577 30578 30579 30580 30581 30582 30583 30584 30585 30586 30587 30588 30589 30590 30591 30592 30593 30594 30595 30596 30597 30598 30599 30600 30601 30602 30603 30604 30605 30606 30607 30608 30609 30610 30611 30612 30613 30614 30615 30616 30617 30618 30619 30620 30621 30622 30623 30624 30625 30626 30627 30628 30629 30630 30631 30632 30633 30634 30635 30636 30637 30638 30639 30640 30641 30642 30643 30644 30645 30646 30647 30648 30649 30650 30651 30652 30653 30654 30655 30656 30657 30658 30659 30660 30661 30662 30663 30664 30665 30666 30667 30668 30669 30670 30671 30672 30673 30674 30675 30676 30677 30678 30679 30680 30681 30682 30683 30684 30685 30686 30687 30688 30689 30690 30691 30692 30693 30694 30695 30696 30697 30698 30699 30700 30701 30702 30703 30704 30705 30706 30707 30708 30709 30710 30711 30712 30713 30714 30715 30716 30717 30718 30719 30720 30721 30722 30723 30724 30725 30726 30727 30728 30729 30730 30731 30732 30733 30734 30735 30736 30737 30738 30739 30740 30741 30742 30743 30744 30745 30746 30747 30748 30749 30750 30751 30752 30753 30754 30755 30756 30757 30758 30759 30760 30761 30762 30763 30764 30765 30766 30767 30768 30769 30770 30771 30772 30773 30774 30775 30776 30777 30778 30779 30780 30781 30782 30783 30784 30785 30786 30787 30788 30789 30790 30791 30792 30793 30794 30795 30796 30797 30798 30799 30800 30801 30802 30803 30804 30805 30806 30807 30808 30809 30810 30811 30812 30813 30814 30815 30816 30817 30818 30819 30820 30821 30822 30823 30824 30825 30826 30827 30828 30829 30830 30831 30832 30833 30834 30835 30836 30837 30838 30839 30840 30841 30842 30843 30844 30845 30846 30847 30848 30849 30850 30851 30852 30853 30854 30855 30856 30857 30858 30859 30860 30861 30862 30863 30864 30865 30866 30867 30868 30869 30870 30871 30872 30873 30874 30875 30876 30877 30878 30879 30880 30881 30882 30883 30884 30885 30886 30887 30888 30889 30890 30891 30892 30893 30894 30895 30896 30897 30898 30899 30900 30901 30902 30903 30904 30905 30906 30907 30908 30909 30910 30911 30912 30913 30914 30915 30916 30917 30918 30919 30920 30921 30922 30923 30924 30925 30926 30927 30928 30929 30930 30931 30932 30933 30934 30935 30936 30937 30938 30939 30940 30941 30942 30943 30944 30945 30946 30947 30948 30949 30950 30951 30952 30953 30954 30955 30956 30957 30958 30959 30960 30961 30962 30963 30964 30965 30966 30967 30968 30969 30970 30971 30972 30973 30974 30975 30976 30977 30978 30979 30980 30981 30982 30983 30984 30985 30986 30987 30988 30989 30990 30991 30992 30993 30994 30995 30996 30997 30998 30999 31000 31001 31002 31003 31004 31005 31006 31007 31008 31009 31010 31011 31012 31013 31014 31015 31016 31017 31018 31019 31020 31021 31022 31023 31024 31025 31026 31027 31028 31029 31030 31031 31032 31033 31034 31035 31036 31037 31038 31039 31040 31041 31042 31043 31044 31045 31046 31047 31048 31049 31050 31051 31052 31053 31054 31055 31056 31057 31058 31059 31060 31061 31062 31063 31064 31065 31066 31067 31068 31069 31070 31071 31072 31073 31074 31075 31076 31077 31078 31079 31080 31081 31082 31083 31084 31085 31086 31087 31088 31089 31090 31091 31092 31093 31094 31095 31096 31097 31098 31099 31100 31101 31102 31103 31104 31105 31106 31107 31108 31109 31110 31111 31112 31113 31114 31115 31116 31117 31118 31119 31120 31121 31122 31123 31124 31125 31126 31127 31128 31129 31130 31131 31132 31133 31134 31135 31136 31137 31138 31139 31140 31141 31142 31143 31144 31145 31146 31147 31148 31149 31150 31151 31152 31153 31154 31155 31156 31157 31158 31159 31160 31161 31162 31163 31164 31165 31166 31167 31168 31169 31170 31171 31172 31173 31174 31175 31176 31177 31178 31179 31180 31181 31182 31183 31184 31185 31186 31187 31188 31189 31190 31191 31192 31193 31194 31195 31196 31197 31198 31199 31200 31201 31202 31203 31204 31205 31206 31207 31208 31209 31210 31211 31212 31213 31214 31215 31216 31217 31218 31219 31220 31221 31222 31223 31224 31225 31226 31227 31228 31229 31230 31231 31232 31233 31234 31235 31236 31237 31238 31239 31240 31241 31242 31243 31244 31245 31246 31247 31248 31249 31250 31251 31252 31253 31254 31255 31256 31257 31258 31259 31260 31261 31262 31263 31264 31265 31266 31267 31268 31269 31270 31271 31272 31273 31274 31275 31276 31277 31278 31279 31280 31281 31282 31283 31284 31285 31286 31287 31288 31289 31290 31291 31292 31293 31294 31295 31296 31297 31298 31299 31300 31301 31302 31303 31304 31305 31306 31307 31308 31309 31310 31311 31312 31313 31314 31315 31316 31317 31318 31319 31320 31321 31322 31323 31324 31325 31326 31327 31328 31329 31330 31331 31332 31333 31334 31335 31336 31337 31338 31339 31340 31341 31342 31343 31344 31345 31346 31347 31348 31349 31350 31351 31352 31353 31354 31355 31356 31357 31358 31359 31360 31361 31362 31363 31364 31365 31366 31367 31368 31369 31370 31371 31372 31373 31374 31375 31376 31377 31378 31379 31380 31381 31382 31383 31384 31385 31386 31387 31388 31389 31390 31391 31392 31393 31394 31395 31396 31397 31398 31399 31400 31401 31402 31403 31404 31405 31406 31407 31408 31409 31410 31411 31412 31413 31414 31415 31416 31417 31418 31419 31420 31421 31422 31423 31424 31425 31426 31427 31428 31429 31430 31431 31432 31433 31434 31435 31436 31437 31438 31439 31440 31441 31442 31443 31444 31445 31446 31447 31448 31449 31450 31451 31452 31453 31454 31455 31456 31457 31458 31459 31460 31461 31462 31463 31464 31465 31466 31467 31468 31469 31470 31471 31472 31473 31474 31475 31476 31477 31478 31479 31480 31481 31482 31483 31484 31485 31486 31487 31488 31489 31490 31491 31492 31493 31494 31495 31496 31497 31498 31499 31500 31501 31502 31503 31504 31505 31506 31507 31508 31509 31510 31511 31512 31513 31514 31515 31516 31517 31518 31519 31520 31521 31522 31523 31524 31525 31526 31527 31528 31529 31530 31531 31532 31533 31534 31535 31536 31537 31538 31539 31540 31541 31542 31543 31544 31545 31546 31547 31548 31549 31550 31551 31552 31553 31554 31555 31556 31557 31558 31559 31560 31561 31562 31563 31564 31565 31566 31567 31568 31569 31570 31571 31572 31573 31574 31575 31576 31577 31578 31579 31580 31581 31582 31583 31584 31585 31586 31587 31588 31589 31590 31591 31592 31593 31594 31595 31596 31597 31598 31599 31600 31601 31602 31603 31604 31605 31606 31607 31608 31609 31610 31611 31612 31613 31614 31615 31616 31617 31618 31619 31620 31621 31622 31623 31624 31625 31626 31627 31628 31629 31630 31631 31632 31633 31634 31635 31636 31637 31638 31639 31640 31641 31642 31643 31644 31645 31646 31647 31648 31649 31650 31651 31652 31653 31654 31655 31656 31657 31658 31659 31660 31661 31662 31663 31664 31665 31666 31667 31668 31669 31670 31671 31672 31673 31674 31675 31676 31677 31678 31679 31680 31681 31682 31683 31684 31685 31686 31687 31688 31689 31690 31691 31692 31693 31694 31695 31696 31697 31698 31699 31700 31701 31702 31703 31704 31705 31706 31707 31708 31709 31710 31711 31712 31713 31714 31715 31716 31717 31718 31719 31720 31721 31722 31723 31724 31725 31726 31727 31728 31729 31730 31731 31732 31733 31734 31735 31736 31737 31738 31739 31740 31741 31742 31743 31744 31745 31746 31747 31748 31749 31750 31751 31752 31753 31754 31755 31756 31757 31758 31759 31760 31761 31762 31763 31764 31765 31766 31767 31768 31769 31770 31771 31772 31773 31774 31775 31776 31777 31778 31779 31780 31781 31782 31783 31784 31785 31786 31787 31788 31789 31790 31791 31792 31793 31794 31795 31796 31797 31798 31799 31800 31801 31802 31803 31804 31805 31806 31807 31808 31809 31810 31811 31812 31813 31814 31815 31816 31817 31818 31819 31820 31821 31822 31823 31824 31825 31826 31827 31828 31829 31830 31831 31832 31833 31834 31835 31836 31837 31838 31839 31840 31841 31842 31843 31844 31845 31846 31847 31848 31849 31850 31851 31852 31853 31854 31855 31856 31857 31858 31859 31860 31861 31862 31863 31864 31865 31866 31867 31868 31869 31870 31871 31872 31873 31874 31875 31876 31877 31878 31879 31880 31881 31882 31883 31884 31885 31886 31887 31888 31889 31890 31891 31892 31893 31894 31895 31896 31897 
</DataArray>
<DataArray type="UInt32" Name="offsets" format="ascii">
3 6 9 12 15 17 20 23 26 29 32 35 38 40 43 46 49 52 54 57 60 62 65 68 71 74 76 79 82 85 88 90 93 96 99 102 105 108 111 114 117 120 123 126 129 131 134 137 139 142 145 148 151 154 156 159 162 165 168 171 174 177 179 182 185 188 191 193 196 199 202 205 208 211 214 217 220 222 225 228 230 233 236 238 241 244 247 250 252 255 258 261 264 267 270 273 275 277 279 282 285 287 290 293 296 299 302 304 307 310 313 316 319 322 325 328 331 334 337 340 343 345 348 351 354 356 359 362 365 368 371 374 376 379 382 385 388 391 394 397 400 403 406 409 412 415 418 421 424 427 430 433 436 439 442 445 448 451 453 456 459 462 464 467 470 472 475 478 481 484 487 490 493 496 499 502 505 507 510 513 516 519 522 525 528 531 533 536 539 542 545 548 551 554 557 559 562 565 568 571 574 577 580 583 586 588 591 594 597 600 603 606 609 612 615 618 621 624 627 630 633 636 639 642 645 648 651 654 657 659 662 665 668 670 673 675 678 680 683 686 688 691 694 697 699 702 704 707 709 712 714 716 719 721 724 727 729 732 734 737 740 743 745 748 750 752 755 758 760 763 766 769 771 774 776 778 780 783 785 788 791 794 796 799 801 803 805 808 811 813 815 818 821 824 827 829 832 834 837 840 842 845 848 851 853 856 858 860 862 865 868 871 873 876 878 880 882 884 887 890 893 895 897 900 903 905 907 909 912 914 917 920 923 926 928 931 934 937 940 943 946 949 951 954 957 960 963 966 969 971 973 976 979 982 984 987 990 993 995 998 1000 1003 1005 1007 1010 1013 1016 1019 1021 1024 1027 1029 1032 1035 1038 1041 1043 1046 1048 1051 1054 1057 1060 1063 1065 1067 1070 1073 1076 1079 1082 1085 1088 1091 1093 1096 1099 1102 1104 1107 1110 1112 1115 1117 1120 1123 1126 1129 1132 1135 1138 1141 1144 1147 1150 1152 1155 1157 1160 1162 1165 1168 1171 1173 1176 1178 1181 1183 1186 1189 1192 1195 1198 1201 1203 1206 1208 1211 1214 1217 1219 1222 1225 1228 1230 1233 1235 1237 1240 1243 1246 1249 1251 1254 1257 1260 1263 1265 1267 1270 1273 1275 1278 1280 1283 1285 1287 1290 1293 1296 1298 1301 1304 1307 1310 1312 1315 1318 1321 1324 1327 1330 1333 1336 1339 1342 1345 1347 1350 1353 1356 1359 1361 1364 1367 1370 1372 1375 1377 1379 1381 1384 1387 1390 1392 1394 1397 1399 1402 1405 1407 1410 1413 1416 1419 1421 1424 1427 1430 1433 1436 1439 1442 1445 1448 1451 1454 1456 1458 1461 1464 1466 1469 1472 1475 1477 1480 1483 1486 1489 1492 1495 1497 1500 1503 1506 1508 1511 1514 1517 1519 1522 1525 1528 1531 1534 1537 1540 1543 1546 1549 1552 1554 1557 1560 1563 1565 1568 1571 1574 1577 1580 1583 1586 1588 1591 1594 1597 1600 1603 1605 1608 1611 1614 1617 1620 1623 1626 1629 1632 1635 1638 1641 1644 1647 1650 1653 1656 1659 1662 1664 1667 1670 1673 1676 1678 1681 1684 1686 1689 1692 1695 1698 1701 1704 1707 1709 1712 1715 1718 1721 1724 1727 1730 1733 1735 1738 1740 1743 1746 1748 1751 1754 1757 1759 1762 1765 1767 1770 1773 1776 1778 1781 1783 1786 1789 1791 1794 1796 1799 1802 1805 1808 1811 1814 1817 1820 1823 1826 1829 1832 1835 1838 1841 1844 1847 1850 1853 1856 1859 1862 1864 1867 1869 1872 1874 1877 1880 1883 1886 1889 1892 1895 1898 1901 1904 1907 1910 1913 1916 1919 1921 1924 1927 1930 1933 1936 1939 1942 1945 1948 1950 1953 1956 1959 1962 1965 1968 1971 1974 1977 1980 1983 1986 1989 1992 1995 1998 2001 2004 2007 2010 2013 2016 2019 2022 2025 2028 2031 2034 2037 2039 2042 2045 2047 2050 2053 2056 2058 2060 2063 2065 2068 2071 2074 2077 2080 2082 2085 2088 2091 2094 2097 2099 2102 2105 2108 2111 2114 2117 2120 2123 2126 2129 2132 2135 2138 2141 2144 2147 2150 2153 2156 2159 2162 2165 2168 2171 2174 2177 2180 2183 2186 2189 2192 2195 2198 2201 2204 2207 2210 2213 2216 2219 2222 2225 2228 2231 2234 2237 2240 2243 2246 2248 2251 2254 2257 2260 2263 2266 2269 2272 2275 2278 2281 2284 2287 2290 2293 2295 2298 2301 2304 2307 2309 2312 2315 2318 2321 2324 2327 2330 2333 2336 2339 2342 2345 2348 2351 2354 2357 2360 2363 2366 2369 2372 2375 2378 2381 2384 2387 2390 2392 2395 2398 2400 2403 2405 2407 2409 2411 2414 2417 2419 2422 2425 2428 2431 2434 2437 2440 2443 2446 2449 2452 2455 2458 2461 2464 2467 2470 2472 2475 2478 2480 2483 2485 2488 2491 2494 2497 2499 2502 2504 2507 2510 2513 2516 2518 2521 2524 2527 2529 2532 2535 2538 2541 2544 2546 2549 2551 2554 2557 2559 2561 2564 2566 2569 2572 2575 2578 2581 2584 2587 2590 2593 2596 2599 2601 2604 2607 2610 2612 2615 2618 2621 2623 2626 2629 2631 2633 2635 2638 2641 2644 2647 2650 2653 2656 2659 2662 2665 2668 2670 2673 2676 2679 2682 2685 2688 2691 2694 2696 2698 2700 2703 2706 2709 2712 2715 2718 2721 2724 2726 2728 2731 2734 2737 2739 2742 2745 2747 2750 2753 2756 2759 2762 2765 2768 2771 2774 2777 2780 2782 2785 2788 2791 2794 2797 2800 2803 2806 2808 2811 2814 2817 2820 2823 2826 2829 2832 2835 2838 2840 2843 2845 2847 2849 2852 2855 2858 2861 2864 2867 2870 2872 2874 2877 2879 2882 2885 2888 2891 2894 2896 2899 2901 2903 2906 2909 2912 2914 2917 2919 2922 2925 2928 2931 2933 2936 2939 2942 2945 2948 2951 2954 2957 2960 2963 2966 2969 2972 2975 2978 2981 2984 2986 2989 2992 2995 2997 3000 3003 3006 3009 3012 3014 3017 3020 3023 3026 3029 3032 3034 3037 3039 3042 3045 3048 3051 3054 3057 3060 3063 3065 3068 3071 3074 3076 3079 3082 3085 3088 3091 3094 3097 3100 3103 3106 3109 3112 3115 3118 3121 3124 3127 3130 3133 3136 3139 3142 3145 3148 3151 3153 3155 3157 3160 3163 3166 3169 3171 3174 3177 3180 3183 3185 3188 3191 3194 3197 3200 3203 3206 3208 3211 3214 3217 3220 3223 3226 3229 3232 3234 3237 3240 3243 3246 3249 3252 3255 3258 3261 3264 3267 3270 3272 3275 3278 3281 3284 3287 3290 3292 3295 3298 3301 3304 3307 3310 3313 3316 3318 3321 3324 3327 3329 3332 3335 3338 3341 3344 3347 3350 3353 3356 3359 3362 3365 3367 3370 3373 3376 3379 3382 3385 3388 3391 3394 3397 3400 3403 3406 3409 3412 3415 3418 3421 3424 3427 3430 3433 3436 3439 3442 3445 3448 3451 3454 3457 3460 3463 3466 3469 3472 3475 3478 3481 3484 3487 3490 3493 3496 3499 3502 3505 3508 3510 3513 3516 3519 3522 3525 3528 3531 3534 3537 3540 3543 3546 3549 3552 3555 3558 3561 3564 3567 3570 3573 3576 3579 3582 3584 3587 3590 3593 3596 3599 3602 3605 3608 3611 3614 3616 3619 3622 3624 3627 3630 3633 3636 3639 3642 3645 3648 3651 3653 3656 3658 3661 3664 3667 3670 3672 3675 3678 3680 3683 3685 3688 3691 3694 3697 3700 3702 3705 3708 3711 3714 3717 3720 3723 3726 3728 3731 3734 3737 3740 3743 3746 3749 3752 3755 3758 3761 3764 3767 3770 3772 3775 3777 3779 3782 3785 3788 3791 3794 3796 3799 3802 3805 3808 3811 3814 3817 3820 3823 3826 3829 3832 3835 3838 3841 3843 3846 3849 3852 3855 3858 3861 3864 3867 3870 3873 3876 3879 3882 3885 3888 3891 3893 3896 3899 3902 3905 3908 3910 3912 3915 3918 3920 3923 3926 3929 3932 3935 3938 3941 3944 3947 3950 3952 3955 3958 3961 3964 3967 3970 3973 3976 3979 3981 3984 3986 3989 3992 3995 3998 4001 4003 4006 4009 4012 4015 4017 4020 4023 4026 4028 4031 4034 4037 4039 4042 4045 4047 4050 4053 4056 4059 4062 4065 4068 4071 4074 4077 4080 4083 4086 4089 4092 4095 4097 4100 4103 4106 4109 4112 4115 4118 4120 4123 4126 4129 4132 4135 4138 4141 4144 4147 4150 4153 4156 4159 4162 4165 4168 4171 4174 4177 4180 4183 4186 4189 4192 4195 4198 4201 4203 4206 4209 4212 4215 4217 4220 4223 4226 4228 4231 4234 4237 4240 4243 4246 4249 4252 4255 4257 4260 4262 4265 4268 4271 4274 4277 4280 4283 4286 4289 4292 4295 4298 4301 4304 4307 4310 4313 4316 4318 4320 4323 4326 4329 4331 4334 4337 4339 4342 4345 4347 4350 4353 4356 4358 4361 4364 4366 4369 4372 4375 4378 4381 4384 4387 4390 4393 4396 4399 4402 4405 4408 4411 4414 4417 4420 4423 4426 4428 4431 4433 4436 4439 4442 4445 4448 4451 4454 4457 4460 4463 4466 4468 4471 4473 4476 4479 4482 4484 4487 4490 4493 4496 4499 4501 4504 4507 4510 4513 4516 4519 4521 4524 4527 4530 4533 4536 4539 4542 4545 4548 4551 4554 4556 4559 4562 4565 4568 4571 4574 4577 4580 4582 4585 4588 4591 4593 4596 4599 4601 4604 4607 4610 4613 4616 4618 4621 4624 4627 4630 4633 4636 4639 4642 4645 4647 4650 4653 4655 4658 4660 4663 4665 4667 4669 4672 4674 4677 4680 4683 4686 4689 4692 4694 4697 4700 4703 4706 4709 4712 4714 4717 4720 4723 4726 4729 4732 4735 4737 4740 4743 4746 4749 4751 4754 4757 4760 4763 4766 4768 4771 4773 4776 4779 4782 4785 4788 4791 4794 4797 4800 4803 4805 4808 4811 4814 4817 4820 4823 4826 4828 4831 4834 4837 4840 4843 4846 4849 4851 4854 4856 4859 4862 4865 4868 4871 4874 4877 4880 4882 4885 4888 4891 4893 4895 4898 4901 4904 4907 4910 4912 4914 4917 4919 4922 4925 4927 4930 4933 4935 4938 4941 4944 4947 4950 4953 4956 4959 4961 4964 4967 4970 4973 4976 4978 4981 4984 4987 4990 4992 4995 4998 5000 5003 5006 5009 5012 5015 5018 5021 5024 5027 5030 5033 5036 5039 5042 5045 5048 5051 5054 5057 5060 5063 5066 5069 5072 5075 5078 5081 5084 5087 5090 5093 5096 5099 5102 5105 5108 5111 5114 5117 5120 5123 5125 5128 5131 5133 5136 5139 5142 5145 5148 5150 5153 5156 5159 5162 5164 5167 5170 5173 5176 5179 5182 5185 5188 5191 5194 5197 5200 5203 5206 5209 5212 5215 5218 5221 5224 5227 5230 5233 5236 5238 5241 5244 5247 5249 5252 5255 5258 5261 5264 5267 5269 5272 5275 5278 5281 5284 5287 5290 5293 5296 5299 5302 5304 5307 5309 5311 5314 5317 5319 5322 5325 5328 5331 5334 5337 5340 5343 5346 5349 5352 5354 5357 5360 5362 5365 5368 5371 5374 5377 5380 5383 5386 5389 5392 5395 5398 5401 5404 5407 5409 5412 5415 5418 5421 5424 5427 5430 5432 5435 5437 5440 5443 5446 5449 5451 5454 5456 5459 5462 5465 5468 5471 5474 5477 5480 5483 5485 5488 5491 5494 5497 5500 5503 5506 5509 5512 5515 5518 5521 5524 5527 5530 5533 5536 5538 5541 5544 5547 5550 5553 5556 5559 5562 5565 5568 5571 5574 5577 5580 5583 5586 5589 5592 5595 5598 5601 5604 5607 5610 5613 5615 5617 5620 5623 5626 5629 5632 5635 5638 5641 5644 5647 5650 5652 5655 5658 5661 5664 5666 5669 5672 5675 5678 5680 5683 5686 5689 5692 5695 5698 5701 5704 5706 5709 5712 5715 5718 5721 5724 5727 5730 5733 5735 5738 5741 5744 5747 5750 5753 5756 5759 5762 5765 5768 5771 5774 5777 5780 5783 5786 5789 5792 5795 5797 5800 5803 5806 5809 5812 5815 5818 5821 5824 5827 5830 5833 5836 5839 5841 5844 5846 5849 5852 5855 5858 5861 5864 5867 5870 5872 5875 5878 5880 5883 5886 5889 5892 5895 5898 5901 5904 5907 5910 5913 5916 5919 5922 5925 5928 5931 5934 5937 5940 5943 5946 5949 5952 5955 5958 5961 5964 5967 5970 5973 5976 5979 5982 5985 5988 5990 5993 5996 5998 6001 6004 6007 6010 6012 6015 6017 6020 6023 6025 6028 6030 6033 6036 6039 6042 6045 6047 6050 6053 6056 6059 6062 6065 6068 6071 6074 6077 6080 6083 6085 6088 6091 6094 6096 6099 6102 6105 6108 6111 6114 6117 6120 6123 6125 6128 6131 6134 6137 6139 6141 6144 6147 6150 6153 6156 6159 6162 6165 6167 6170 6173 6176 6179 6182 6184 6187 6190 6193 6195 6198 6201 6204 6206 6209 6212 6215 6218 6220 6223 6226 6229 6232 6235 6238 6241 6244 6247 6250 6253 6256 6259 6262 6264 6267 6270 6273 6276 6279 6282 6284 6287 6289 6291 6294 6296 6299 6301 6304 6307 6310 6313 6315 6318 6321 6324 6327 6329 6332 6335 6338 6341 6344 6347 6350 6353 6356 6358 6361 6364 6367 6370 6373 6376 6379 6382 6385 6388 6391 6394 6397 6400 6402 6405 6408 6411 6413 6416 6419 6422 6424 6427 6429 6432 6435 6438 6441 6444 6447 6450 6453 6456 6459 6462 6465 6468 6471 6474 6477 6479 6482 6485 6488 6491 6494 6497 6499 6502 6505 6508 6511 6514 6517 6520 6523 6526 6529 6532 6535 6538 6541 6544 6547 6550 6553 6555 6558 6561 6564 6567 6570 6573 6576 6579 6582 6585 6588 6591 6594 6597 6600 6603 6606 6609 6612 6615 6618 6621 6624 6627 6630 6633 6636 6639 6642 6645 6648 6651 6654 6657 6659 6662 6665 6668 6671 6673 6676 6679 6682 6685 6688 6691 6694 6696 6699 6702 6705 6708 6711 6714 6717 6720 6723 6725 6728 6731 6733 6736 6739 6742 6745 6748 6750 6753 6756 6759 6761 6764 6767 6769 6772 6775 6778 6781 6784 6787 6790 6793 6796 6799 6802 6805 6808 6811 6814 6817 6820 6823 6826 6829 6831 6834 6837 6840 6843 6846 6849 6852 6855 6858 6861 6863 6865 6868 6870 6873 6876 6879 6882 6885 6887 6890 6893 6896 6899 6901 6904 6907 6910 6913 6916 6918 6921 6923 6926 6929 6931 6934 6937 6940 6943 6946 6949 6952 6955 6957 6960 6963 6966 6969 6972 6975 6977 6980 6983 6986 6989 6992 6995 6997 7000 7003 7006 7009 7011 7014 7017 7019 7022 7024 7027 7030 7032 7035 7038 7041 7044 7047 7050 7052 7055 7058 7061 7064 7066 7069 7072 7075 7078 7081 7084 7087 7090 7092 7094 7097 7100 7103 7106 7109 7112 7115 7118 7120 7123 7126 7129 7132 7135 7138 7140 7143 7146 7149 7152 7155 7158 7161 7163 7166 7169 7172 7174 7177 7180 7183 7186 7189 7192 7195 7198 7201 7204 7207 7210 7212 7215 7218 7221 7224 7226 7229 7232 7234 7237 7240 7243 7246 7248 7251 7254 7257 7259 7261 7264 7267 7270 7272 7275 7278 7281 7283 7286 7289 7292 7295 7298 7301 7304 7307 7310 7312 7315 7318 7321 7323 7326 7329 7332 7335 7338 7341 7344 7347 7350 7353 7356 7359 7361 7364 7366 7369 7372 7374 7377 7380 7382 7385 7388 7391 7394 7397 7400 7403 7405 7408 7411 7414 7417 7420 7422 7425 7427 7430 7433 7436 7438 7440 7443 7445 7447 7450 7452 7455 7458 7461 7464 7467 7470 7472 7475 7477 7480 7483 7486 7489 7492 7495 7498 7501 7504 7507 7510 7513 7516 7518 7521 7524 7526 7529 7531 7534 7537 7539 7542 7545 7548 7550 7552 7555 7558 7560 7563 7566 7569 7572 7575 7578 7581 7584 7587 7590 7593 7596 7599 7602 7605 7608 7611 7614 7617 7620 7623 7626 7629 7631 7633 7636 7638 7641 7643 7646 7649 7651 7653 7656 7659 7661 7664 7667 7669 7672 7675 7677 7680 7682 7685 7688 7691 7694 7696 7699 7702 7705 7708 7710 7713 7715 7717 7720 7722 7725 7728 7730 7732 7735 7738 7741 7743 7746 7749 7752 7755 7757 7759 7762 7765 7768 7771 7774 7776 7779 7782 7785 7788 7791 7794 7797 7800 7803 7806 7809 7811 7814 7816 7819 7821 7824 7827 7829 7832 7834 7837 7840 7843 7846 7849 7852 7855 7858 7860 7863 7866 7868 7871 7874 7877 7880 7882 7885 7888 7891 7894 7897 7900 7903 7906 7909 7912 7915 7918 7920 7923 7926 7929 7932 7935 7938 7941 7944 7947 7950 7953 7955 7958 7961 7964 7967 7970 7973 7975 7978 7980 7983 7986 7988 7991 7994 7997 8000 8003 8006 8009 8012 8015 8018 8021 8024 8027 8030 8033 8036 8039 8041 8043 8046 8049 8052 8054 8057 8060 8062 8065 8068 8071 8074 8077 8080 8083 8086 8089 8092 8095 8098 8101 8104 8107 8110 8113 8116 8119 8122 8125 8128 8131 8134 8137 8139 8141 8144 8147 8150 8153 8156 8159 8162 8165 8168 8171 8174 8176 8179 8182 8185 8188 8191 8194 8197 8200 8203 8206 8209 8212 8215 8218 8221 8224 8227 8230 8233 8236 8239 8242 8245 8248 8251 8254 8257 8260 8263 8266 8269 8272 8275 8277 8280 8283 8286 8289 8292 8294 8297 8300 8302 8305 8308 8310 8312 8315 8318 8321 8324 8327 8330 8333 8336 8339 8342 8345 8348 8351 8353 8356 8359 8361 8364 8367 8370 8373 8376 8379 8381 8384 8387 8389 8392 8395 8398 8401 8404 8407 8410 8413 8416 8419 8422 8425 8428 8430 8433 8436 8439 8442 8445 8448 8451 8453 8456 8459 8462 8465 8468 8471 8474 8477 8480 8483 8486 8489 8491 8494 8497 8499 8502 8505 8508 8511 8514 8517 8520 8523 8526 8529 8532 8535 8538 8541 8544 8547 8550 8553 8556 8559 8561 8564 8567 8569 8572 8574 8577 8580 8583 8585 8588 8591 8593 8596 8598 8601 8604 8607 8609 8612 8615 8618 8621 8623 8626 8629 8632 8635 8638 8641 8644 8646 8649 8652 8655 8657 8660 8663 8666 8669 8672 8675 8678 8681 8684 8687 8690 8693 8695 8698 8701 8704 8707 8710 8713 8716 8719 8721 8724 8727 8730 8733 8736 8739 8742 8745 8748 8751 8754 8756 8759 8762 8765 8768 8771 8774 8777 8780 8783 8786 8789 8792 8795 8798 8801 8804 8807 8810 8813 8815 8817 8820 8823 8826 8828 8831 8834 8837 8840 8843 8846 8849 8852 8855 8858 8861 8864 8866 8869 8872 8875 8878 8881 8884 8887 8890 8893 8895 8898 8901 8904 8907 8910 8913 8916 8919 8922 8925 8928 8931 8934 8937 8940 8943 8945 8948 8950 8953 8956 8959 8962 8965 8967 8970 8973 8976 8979 8981 8984 8987 8990 8992 8995 8998 9001 9003 9006 9009 9012 9015 9018 9021 9024 9027 9030 9032 9035 9038 9041 9043 9046 9049 9051 9054 9057 9060 9063 9066 9069 9071 9074 9077 9080 9083 9086 9089 9092 9095 9097 9100 9103 9106 9108 9111 9114 9117 9120 9123 9126 9129 9132 9135 9138 9141 9144 9147 9150 9153 9156 9159 9162 9165 9168 9171 9174 9177 9180 9183 9186 9189 9191 9194 9197 9200 9203 9206 9209 9212 9214 9217 9220 9223 9226 9229 9232 9235 9238 9241 9244 9247 9250 9253 9256 9259 9262 9265 9268 9271 9274 9277 9280 9283 9286 9289 9291 9294 9296 9299 9302 9305 9308 9311 9314 9316 9319 9322 9325 9327 9330 9333 9335 9338 9341 9344 9347 9350 9353 9356 9359 9362 9365 9368 9371 9373 9376 9379 9382 9385 9388 9390 9393 9396 9399 9402 9405 9408 9411 9414 9417 9420 9423 9426 9429 9431 9434 9437 9440 9442 9445 9448 9451 9454 9457 9460 9463 9466 9469 9472 9475 9478 9480 9482 9485 9488 9491 9494 9496 9499 9502 9505 9508 9511 9514 9517 9520 9523 9525 9527 9530 9533 9536 9539 9542 9544 9547 9550 9553 9556 9559 9561 9564 9567 9570 9573 9576 9578 9581 9583 9586 9589 9592 9595 9597 9600 9602 9605 9607 9609 9612 9615 9618 9621 9624 9627 9630 9632 9634 9637 9640 9643 9646 9649 9652 9654 9656 9658 9661 9663 9665 9668 9671 9674 9676 9679 9682 9685 9688 9691 9693 9695 9697 9700 9702 9705 9708 9711 9713 9716 9718 9720 9723 9726 9729 9732 9735 9738 9741 9743 9745 9748 9751 9753 9755 9757 9760 9763 9766 9769 9772 9775 9778 9781 9784 9787 9790 9793 9796 9799 9802 9805 9808 9811 9814 9817 9820 9823 9826 9829 9832 9835 9838 9841 9844 9847 9850 9853 9856 9859 9862 9865 9868 9871 9874 9877 9879 9882 9885 9888 9891 9894 9897 9900 9903 9906 9909 9911 9914 9917 9920 9923 9926 9929 9931 9934 9937 9939 9942 9945 9948 9951 9954 9957 9960 9963 9966 9969 9972 9975 9978 9980 9983 9985 9988 9991 9994 9997 9999 10002 10005 10008 10010 10013 10016 10018 10021 10024 10027 10029 10032 10035 10037 10040 10043 10046 10049 10052 10054 10057 10060 10063 10066 10069 10072 10075 10077 10080 10083 10086 10089 10092 10095 10098 10100 10103 10106 10108 10111 10114 10117 10120 10122 10125 10127 10130 10133 10136 10139 10142 10144 10147 10150 10153 10156 10158 10161 10164 10167 10170 10173 10176 10178 10180 10183 10186 10189 10192 10195 10197 10200 10203 10205 10208 10211 10214 10217 10220 10223 10226 10229 10232 10235 10237 10240 10243 10246 10249 10252 10255 10258 10261 10264 10267 10270 10273 10276 10279 10282 10285 10288 10291 10293 10296 10299 10302 10305 10308 10311 10313 10316 10319 10322 10325 10328 10331 10334 10336 10338 10341 10344 10347 10350 10352 10355 10358 10361 10364 10367 10370 10373 10375 10378 10381 10383 10386 10388 10390 10392 10395 10398 10401 10404 10407 10410 10412 10415 10418 10421 10424 10427 10429 10432 10435 10438 10441 10443 10446 10449 10452 10454 10457 10460 10463 10465 10468 10471 10474 10477 10480 10483 10486 10489 10492 10495 10498 10501 10504 10507 10510 10513 10516 10519 10522 10525 10528 10531 10534 10537 10540 10542 10545 10548 10551 10554 10557 10560 10563 10565 10568 10570 10573 10576 10579 10582 10585 10588 10590 10593 10596 10598 10601 10604 10607 10609 10612 10615 10617 10620 10623 10626 10629 10632 10634 10637 10640 10643 10645 10647 10650 10653 10656 10659 10662 10665 10668 10671 10674 10677 10680 10683 10685 10688 10691 10694 10697 10700 10703 10706 10709 10712 10714 10717 10720 10723 10726 10729 10731 10733 10736 10739 10742 10745 10748 10751 10754 10757 10760 10762 10765 10768 10771 10774 10777 10780 10783 10786 10788 10791 10794 10797 10800 10803 10806 10809 10812 10815 10818 10821 10824 10827 10830 10833 10836 10839 10842 10844 10847 10850 10853 10856 10858 10861 10863 10866 10868 10871 10874 10877 10880 10883 10886 10889 10892 10895 10898 10901 10904 10907 10910 10913 10916 10919 10921 10924 10927 10930 10933 10936 10938 10941 10944 10947 10949 10951 10954 10957 10960 10963 10966 10968 10971 10974 10977 10980 10982 10985 10988 10991 10994 10997 11000 11003 11006 11008 11011 11014 11017 11020 11023 11026 11029 11031 11034 11037 11040 11043 11046 11049 11052 11055 11058 11060 11063 11066 11069 11072 11075 11078 11081 11084 11087 11090 11093 11096 11099 11102 11105 11108 11111 11114 11116 11119 11122 11125 11128 11131 11134 11137 11140 11143 11146 11149 11152 11155 11157 11160 11163 11166 11169 11172 11175 11177 11180 11183 11185 11188 11191 11193 11196 11199 11202 11205 11208 11211 11214 11217 11220 11223 11226 11229 11232 11235 11238 11241 11244 11247 11250 11253 11256 11259 11262 11265 11268 11271 11273 11276 11278 11281 11283 11285 11288 11291 11294 11296 11299 11302 11305 11308 11311 11314 11317 11320 11323 11325 11327 11330 11332 11335 11338 11341 11344 11347 11350 11353 11356 11359 11362 11365 11368 11371 11374 11376 11379 11381 11383 11386 11388 11391 11394 11397 11400 11403 11406 11409 11412 11415 11417 11419 11422 11425 11428 11431 11434 11437 11440 11443 11446 11449 11452 11455 11458 11461 11464 11467 11470 11473 11476 11479 11482 11485 11487 11490 11493 11496 11499 11502 11504 11507 11510 11513 11516 11519 11521 11524 11527 11530 11532 11535 11538 11541 11544 11547 11550 11553 11556 11559 11561 11564 11567 11570 11573 11575 11578 11581 11584 11587 11590 11593 11595 11598 11601 11604 11607 11610 11613 11616 11618 11621 11624 11627 11630 11632 11635 11638 11641 11644 11647 11650 11653 11656 11659 11662 11664 11667 11670 11673 11676 11678 11681 11684 11687 11689 11692 11695 11698 11701 11704 11706 11709 11712 11715 11718 11721 11724 11727 11730 11733 11736 11739 11742 11745 11748 11750 11752 11755 11758 11760 11763 11766 11769 11772 11775 11778 11781 11783 11786 11789 11792 11795 11798 11801 11803 11806 11809 11812 11815 11818 11821 11824 11827 11830 11833 11836 11839 11842 11845 11848 11851 11854 11857 11860 11863 11866 11869 11872 11874 11877 11880 11883 11886 11889 11892 11895 11898 11900 11903 11906 11909 11912 11914 11917 11920 11923 11926 11929 11931 11934 11936 11939 11941 11944 11947 11950 11953 11956 11959 11962 11964 11967 11970 11973 11975 11978 11981 11984 11987 11990 11992 11995 11998 12001 12004 12007 12009 12012 12014 12017 12020 12022 12025 12027 12030 12033 12036 12039 12042 12044 12047 12050 12053 12055 12058 12061 12064 12067 12070 12073 12076 12079 12082 12085 12087 12090 12093 12096 12099 12102 12105 12108 12111 12114 12117 12120 12123 12126 12129 12132 12135 12138 12141 12144 12147 12150 12153 12155 12158 12161 12164 12167 12170 12173 12176 12179 12182 12185 12188 12191 12194 12197 12200 12203 12206 12209 12211 12214 12217 12220 12222 12225 12228 12231 12234 12237 12240 12242 12245 12248 12251 12253 12255 12258 12260 12263 12265 12267 12270 12272 12275 12278 12280 12283 12286 12288 12290 12293 12296 12299 12302 12305 12308 12311 12314 12316 12319 12321 12324 12327 12330 12333 12336 12339 12342 12345 12348 12351 12354 12357 12360 12363 12366 12369 12372 12375 12378 12381 12384 12387 12389 12392 12395 12398 12401 12404 12407 12410 12413 12415 12418 12421 12423 12426 12429 12431 12433 12436 12439 12441 12444 12447 12450 12453 12456 12459 12462 12465 12468 12471 12474 12477 12480 12483 12486 12489 12492 12495 12498 12501 12504 12507 12510 12513 12516 12519 12522 12525 12528 12531 12534 12537 12540 12543 12546 12549 12552 12555 12558 12560 12563 12565 12568 12571 12574 12577 12580 12583 12586 12589 12592 12595 12598 12601 12604 12607 12610 12613 12616 12619 12622 12625 12628 12631 12634 12637 12640 12643 12646 12649 12652 12655 12658 12661 12664 12667 12670 12673 12676 12679 12682 12685 12687 12690 12693 12695 12698 12701 12704 12707 12710 12712 12715 12717 12720 12723 12725 12728 12731 12734 12737 12740 12743 12745 12748 12751 12754 12757 12760 12763 12766 12769 12772 12775 12778 12780 12783 12786 12788 12790 12793 12795 12798 12801 12803 12806 12809 12812 12815 12817 12820 12823 12826 12829 12832 12835 12838 12841 12844 12846 12849 12851 12854 12857 12860 12863 12866 12869 12872 12874 12877 12879 12882 12885 12888 12891 12894 12897 12900 12903 12906 12908 12911 12913 12916 12919 12922 12925 12928 12931 12934 12937 12940 12943 12945 12948 12951 12954 12956 12959 12962 12964 12967 12970 12972 12975 12978 12981 12984 12986 12989 12992 12995 12997 13000 13003 13006 13009 13012 13015 13018 13021 13024 13027 13030 13033 13036 13039 13041 13044 13047 13050 13053 13056 13059 13061 13064 13066 13069 13071 13074 13077 13080 13082 13085 13088 13091 13094 13097 13100 13103 13106 13108 13111 13114 13117 13120 13123 13125 13128 13131 13133 13136 13139 13142 13145 13148 13151 13154 13157 13160 13162 13165 13168 13171 13173 13176 13179 13182 13185 13188 13191 13193 13196 13199 13202 13205 13208 13211 13214 13217 13220 13223 13226 13229 13232 13235 13238 13241 13244 13247 13250 13253 13256 13259 13262 13265 13268 13271 13274 13277 13280 13283 13286 13288 13291 13294 13297 13300 13303 13305 13308 13311 13313 13315 13318 13321 13324 13327 13329 13332 13335 13338 13341 13344 13346 13349 13352 13355 13358 13361 13364 13367 13370 13373 13376 13379 13382 13385 13388 13391 13394 13396 13399 13402 13405 13408 13411 13414 13417 13420 13422 13424 13427 13430 13433 13436 13439 13442 13444 13447 13450 13453 13456 13458 13461 13464 13467 13470 13473 13476 13479 13482 13485 13488 13491 13494 13497 13500 13503 13506 13509 13512 13515 13518 13521 13524 13527 13530 13532 13535 13538 13540 13543 13546 13549 13552 13555 13558 13561 13564 13567 13570 13573 13576 13579 13582 13585 13588 13591 13594 13597 13600 13603 13606 13609 13612 13615 13618 13621 13623 13626 13628 13631 13634 13637 13640 13643 13645 13648 13651 13654 13657 13660 13663 13666 13669 13672 13675 13678 13681 13684 13687 13690 13693 13696 13699 13702 13705 13707 13709 13712 13714 13717 13720 13723 13726 13729 13732 13735 13738 13741 13744 13747 13750 13753 13756 13759 13762 13764 13767 13770 13773 13775 13778 13781 13784 13787 13790 13793 13796 13799 13802 13805 13808 13811 13814 13816 13819 13822 13825 13828 13831 13834 13837 13840 13843 13846 13849 13852 13855 13858 13861 13864 13867 13870 13873 13876 13879 13882 13884 13887 13890 13893 13896 13899 13902 13905 13908 13911 13914 13917 13920 13923 13925 13928 13930 13933 13936 13938 13940 13943 13946 13949 13952 13955 13958 13961 13964 13967 13970 13973 13976 13979 13982 13985 13988 13991 13994 13997 14000 14002 14005 14008 14010 14013 14016 14019 14021 14024 14027 14030 14033 14036 14039 14041 14044 14047 14050 14052 14055 14058 14061 14064 14067 14070 14073 14076 14078 14081 14084 14086 14089 14092 14094 14097 14099 14102 14105 14108 14111 14113 14115 14118 14121 14123 14125 14128 14131 14133 14136 14139 14142 14145 14147 14150 14153 14155 14157 14160 14162 14165 14168 14171 14174 14177 14180 14183 14186 14189 14192 14195 14198 14201 14204 14207 14210 14213 14216 14219 14222 14224 14227 14230 14233 14236 14238 14241 14244 14247 14250 14252 14254 14257 14260 14263 14266 14269 14272 14275 14278 14281 14284 14287 14290 14292 14295 14298 14301 14303 14306 14309 14312 14315 14318 14321 14324 14326 14329 14332 14335 14337 14340 14343 14345 14347 14350 14353 14356 14358 14361 14364 14367 14369 14372 14375 14378 14381 14384 14387 14390 14393 14396 14399 14402 14405 14408 14411 14414 14417 14420 14423 14425 14428 14431 14434 14437 14440 14443 14446 14449 14452 14455 14458 14461 14464 14467 14470 14473 14476 14479 14481 14483 14486 14489 14492 14495 14498 14500 14502 14505 14507 14510 14513 14516 14519 14522 14525 14528 14531 14534 14536 14539 14542 14545 14547 14550 14553 14556 14559 14562 14565 14568 14571 14574 14577 14580 14583 14586 14589 14591 14594 14597 14600 14603 14606 14609 14612 14614 14617 14620 14622 14625 14628 14631 14634 14637 14640 14642 14645 14648 14651 14654 14656 14659 14662 14665 14668 14671 14674 14676 14679 14682 14685 14688 14691 14694 14697 14700 14702 14704 14707 14710 14713 14715 14717 14720 14723 14726 14729 14732 14734 14737 14740 14743 14746 14749 14752 14754 14757 14760 14763 14766 14768 14771 14774 14777 14780 14783 14785 14788 14791 14794 14797 14799 14802 14805 14808 14811 14814 14817 14820 14823 14826 14829 14832 14835 14838 14841 14844 14847 14850 14853 14856 14859 14862 14865 14868 14871 14874 14876 14879 14882 14885 14888 14890 14893 14895 14898 14900 14903 14906 14908 14911 14914 14916 14919 14922 14924 14927 14930 14933 14936 14939 14942 14944 14947 14950 14952 14955 14957 14959 14961 14964 14967 14969 14972 14974 14976 14979 14982 14985 14987 14990 14992 14995 14998 15001 15004 15007 15010 15012 15015 15018 15021 15023 15026 15029 15032 15035 15038 15041 15044 15046 15049 15052 15055 15057 15060 15062 15064 15067 15070 15073 15076 15079 15082 15085 15087 15090 15093 15096 15099 15102 15105 15108 15111 15113 15115 15118 15121 15124 15127 15129 15132 15135 15137 15140 15143 15146 15148 15151 15154 15157 15159 15161 15164 15167 15170 15173 15175 15178 15181 15184 15187 15190 15192 15194 15197 15200 15203 15206 15209 15212 15215 15218 15221 15224 15227 15230 15233 15236 15239 15242 15245 15248 15251 15254 15257 15260 15263 15266 15269 15272 15275 15278 15281 15284 15287 15289 15292 15295 15298 15300 15303 15306 15309 15312 15315 15318 15321 15324 15327 15330 15333 15336 15339 15342 15345 15347 15350 15352 15354 15357 15360 15362 15365 15368 15371 15374 15377 15380 15383 15386 15389 15392 15395 15398 15401 15404 15407 15410 15413 15416 15419 15422 15425 15428 15431 15433 15436 15439 15441 15443 15446 15449 15452 15455 15458 15461 15464 15466 15469 15472 15475 15477 15480 15483 15486 15489 15491 15493 15496 15499 15502 15505 15508 15511 15514 15516 15519 15522 15525 15528 15530 15533 15536 15539 15542 15544 15547 15550 15553 15556 15559 15562 15565 15568 15571 15574 15577 15580 15583 15586 15589 15592 15595 15598 15601 15603 15606 15609 15612 15615 15618 15621 15624 15627 15630 15633 15636 15639 15642 15645 15648 15651 15653 15656 15659 15662 15664 15667 15670 15673 15676 15679 15682 15685 15688 15691 15693 15696 15699 15702 15705 15708 15711 15714 15717 15720 15723 15726 15729 15732 15735 15738 15741 15744 15747 15750 15753 15756 15758 15761 15764 15767 15770 15773 15776 15779 15782 15785 15788 15791 15794 15797 15800 15803 15806 15809 15811 15814 15817 15820 15823 15826 15828 15831 15834 15837 15840 15843 15846 15849 15852 15855 15858 15861 15864 15867 15870 15873 15876 15879 15882 15885 15888 15891 15894 15897 15900 15903 15906 15909 15911 15914 15917 15919 15922 15925 15928 15930 15933 15936 15939 15942 15945 15948 15951 15954 15957 15960 15963 15966 15969 15972 15975 15977 15980 15982 15985 15988 15991 15994 15997 16000 16003 16006 16009 16011 16014 16017 16020 16023 16026 16029 16032 16035 16038 16040 16042 16045 16048 16051 16054 16057 16060 16063 16066 16069 16072 16075 16078 16081 16084 16087 16090 16093 16096 16099 16102 16105 16108 16111 16114 16117 16120 16123 16126 16129 16132 16135 16138 16141 16144 16147 16150 16153 16156 16159 16162 16165 16168 16171 16174 16177 16180 16183 16186 16189 16192 16195 16198 16201 16204 16207 16210 16213 16216 16219 16222 16225 16228 16231 16234 16237 16240 16243 16246 16249 16252 16255 16257 16260 16263 16266 16269 16272 16275 16277 16280 16283 16286 16289 16292 16295 16298 16301 16304 16306 16309 16311 16314 16317 16320 16323 16326 16329 16332 16335 16338 16341 16344 16347 16350 16353 16356 16359 16362 16365 16368 16371 16374 16377 16380 16383 16386 16389 16392 16395 16398 16401 16404 16407 16410 16413 16415 16418 16421 16424 16426 16428 16431 16434 16437 16440 16443 16446 16449 16452 16455 16458 16461 16464 16467 16470 16473 16476 16479 16482 16485 16488 16491 16494 16496 16498 16501 16504 16507 16510 16513 16516 16519 16522 16524 16527 16530 16533 16536 16539 16542 16544 16547 16550 16553 16556 16559 16561 16564 16567 16570 16573 16575 16578 16581 16584 16586 16589 16592 16595 16597 16600 16603 16605 16608 16611 16614 16617 16620 16623 16626 16629 16632 16635 16638 16641 16644 16646 16649 16652 16655 16658 16661 16664 16667 16670 16672 16675 16678 16681 16684 16687 16690 16693 16696 16699 16702 16705 16707 16710 16713 16716 16718 16721 16724 16727 16730 16732 16735 16738 16741 16744 16747 16750 16753 16756 16758 16761 16763 16766 16769 16771 16774 16777 16780 16783 16786 16788 16791 16794 16797 16800 16803 16806 16809 16812 16815 16818 16821 16824 16826 16829 16832 16835 16838 16841 16844 16847 16850 16853 16855 16858 16861 16864 16867 16870 16873 16875 16878 16881 16884 16887 16890 16893 16896 16898 16901 16904 16907 16910 16913 16915 16918 16921 16924 16927 16930 16933 16936 16939 16942 16945 16948 16951 16954 16957 16960 16963 16966 16969 16972 16975 16978 16981 16984 16987 16990 16993 16996 16999 17002 17005 17008 17011 17014 17017 17020 17023 17026 17029 17032 17035 17038 17041 17044 17047 17050 17053 17056 17058 17061 17063 17066 17069 17072 17075 17078 17081 17084 17087 17090 17093 17096 17099 17102 17105 17107 17110 17113 17116 17119 17122 17125 17128 17131 17134 17137 17140 17143 17146 17149 17152 17154 17157 17160 17162 17165 17167 17170 17173 17176 17179 17182 17184 17187 17190 17193 17196 17199 17202 17205 17208 17211 17214 17217 17220 17223 17226 17229 17232 17235 17238 17241 17244 17246 17249 17252 17255 17258 17261 17264 17267 17270 17273 17276 17279 17281 17284 17286 17289 17292 17294 17297 17299 17302 17305 17308 17311 17314 17317 17320 17322 17325 17327 17330 17333 17336 17339 17341 17344 17347 17350 17353 17355 17357 17360 17363 17365 17368 17371 17374 17377 17380 17383 17386 17389 17392 17395 17398 17401 17404 17407 17410 17413 17415 17418 17421 17424 17427 17430 17433 17436 17439 17442 17445 17448 17451 17454 17457 17459 17462 17464 17467 17470 17473 17476 17479 17482 17485 17487 17490 17492 17495 17498 17501 17504 17507 17510 17513 17516 17519 17521 17523 17526 17529 17532 17534 17537 17540 17543 17546 17548 17551 17553 17556 17559 17561 17564 17566 17568 17570 17573 17576 17578 17581 17584 17587 17589 17591 17593 17596 17599 17602 17605 17608 17611 17614 17617 17620 17623 17626 17628 17631 17634 17637 17640 17643 17646 17648 17651 17654 17657 17659 17662 17665 17668 17671 17674 17677 17680 17683 17685 17688 17691 17694 17696 17699 17702 17705 17708 17711 17714 17717 17720 17723 17726 17729 17732 17735 17738 17741 17744 17747 17750 17753 17756 17759 17762 17765 17768 17771 17774 17777 17780 17783 17786 17789 17792 17795 17798 17801 17804 17807 17810 17813 17816 17819 17822 17825 17828 17831 17834 17837 17840 17843 17846 17849 17852 17855 17858 17861 17864 17867 17870 17873 17876 17878 17881 17884 17887 17890 17893 17895 17898 17901 17904 17907 17909 17912 17915 17918 17920 17923 17926 17929 17932 17935 17938 17941 17944 17947 17950 17953 17956 17959 17962 17965 17968 17971 17974 17977 17980 17983 17986 17989 17992 17995 17998 18001 18004 18007 18010 18013 18016 18019 18022 18025 18028 18031 18034 18037 18040 18042 18045 18048 18050 18053 18056 18059 18062 18065 18068 18071 18073 18076 18079 18082 18085 18088 18091 18094 18097 18100 18103 18106 18108 18111 18114 18116 18119 18121 18124 18127 18130 18132 18135 18138 18141 18144 18147 18150 18153 18156 18158 18161 18164 18167 18170 18172 18175 18178 18181 18184 18186 18189 18191 18194 18197 18200 18203 18206 18209 18212 18215 18218 18221 18224 18227 18229 18232 18234 18237 18240 18243 18246 18249 18252 18255 18258 18261 18264 18267 18270 18273 18275 18278 18281 18284 18287 18290 18293 18296 18299 18302 18304 18307 18310 18313 18315 18318 18321 18324 18327 18330 18333 18336 18339 18342 18345 18348 18351 18354 18357 18360 18363 18366 18369 18372 18375 18378 18381 18384 18387 18390 18393 18396 18399 18402 18405 18408 18411 18414 18417 18420 18422 18425 18428 18430 18433 18436 18439 18442 18444 18447 18450 18453 18456 18459 18462 18465 18468 18471 18474 18477 18480 18483 18486 18489 18491 18494 18497 18500 18503 18506 18509 18512 18515 18518 18520 18523 18525 18528 18531 18534 18537 18540 18543 18546 18548 18551 18554 18557 18560 18563 18566 18569 18572 18575 18578 18581 18584 18587 18590 18592 18595 18598 18601 18604 18607 18610 18613 18616 18619 18622 18625 18627 18630 18633 18636 18639 18642 18645 18648 18651 18654 18657 18660 18663 18666 18669 18672 18675 18678 18681 18684 18687 18690 18693 18696 18698 18701 18703 18706 18709 18712 18715 18718 18721 18723 18726 18728 18731 18734 18737 18739 18742 18745 18748 18750 18753 18756 18759 18761 18764 18767 18769 18772 18775 18778 18781 18784 18787 18790 18792 18795 18798 18801 18804 18807 18810 18813 18815 18818 18821 18824 18827 18830 18833 18836 18839 18842 18845 18848 18851 18854 18856 18859 18862 18865 18868 18871 18874 18877 18880 18882 18885 18888 18891 18894 18897 18900 18903 18906 18909 18912 18915 18918 18921 18924 18927 18930 18933 18936 18939 18942 18944 18947 18950 18953 18956 18959 18962 18965 18968 18971 18974 18977 18980 18983 18986 18989 18992 18995 18998 19001 19004 19007 19010 19013 19016 19019 19022 19025 19028 19031 19034 19037 19040 19043 19046 19049 19052 19055 19058 19061 19064 19067 19070 19073 19076 19079 19082 19085 19088 19091 19094 19096 19099 19101 19104 19107 19110 19112 19115 19118 19120 19122 19125 19127 19130 19133 19136 19139 19142 19145 19148 19151 19154 19157 19160 19163 19166 19169 19172 19175 19178 19181 19184 19187 19190 19193 19196 19199 19202 19205 19208 19211 19214 19217 19220 19223 19226 19229 19232 19234 19237 19240 19243 19246 19248 19251 19254 19256 19259 19262 19265 19267 19270 19273 19276 19279 19281 19284 19286 19288 19291 19294 19297 19300 19302 19305 19308 19311 19313 19316 19319 19322 19324 19327 19330 19333 19336 19339 19342 19344 19347 19350 19353 19356 19359 19362 19365 19368 19371 19374 19377 19380 19383 19386 19389 19392 19395 19398 19401 19404 19406 19409 19412 19415 19418 19421 19424 19427 19430 19433 19436 19439 19442 19445 19448 19451 19454 19457 19460 19462 19465 19468 19470 19473 19476 19478 19481 19484 19487 19490 19493 19496 19499 19502 19505 19508 19511 19513 19516 19519 19522 19525 19527 19530 19533 19536 19539 19541 19544 19547 19550 19552 19555 19558 19561 19564 19567 19570 19573 19576 19579 19582 19585 19588 19591 19594 19597 19600 19603 19606 19609 19612 19615 19618 19621 19624 19627 19629 19632 19635 19638 19641 19644 19647 19650 19653 19655 19658 19661 19664 19666 19669 19672 19675 19678 19681 19684 19687 19690 19693 19696 19699 19702 19705 19708 19711 19714 19717 19720 19723 19726 19729 19732 19735 19738 19740 19743 19746 19749 19751 19754 19757 19760 19763 19766 19769 19772 19775 19777 19780 19783 19785 19788 19791 19794 19797 19799 19802 19805 19808 19811 19814 19817 19820 19822 19825 19827 19830 19833 19835 19838 19841 19843 19845 19848 19851 19854 19857 19860 19863 19866 19869 19872 19875 19878 19881 19884 19887 19890 19893 19896 19899 19902 19905 19908 19910 19913 19916 19919 19922 19924 19927 19930 19933 19936 19939 19942 19945 19948 19951 19954 19957 19960 19963 19965 19968 19971 19973 19976 19979 19982 19985 19988 19991 19994 19997 20000 20003 20006 20009 20012 20015 20018 20021 20024 20027 20030 20033 20036 20039 20042 20045 20048 20051 20054 20057 20060 20063 20066 20069 20072 20075 20078 20081 20084 20087 20090 20093 20096 20099 20102 20105 20108 20111 20114 20117 20120 20123 20126 20129 20132 20135 20138 20141 20144 20147 20150 20153 20156 20159 20162 20165 20168 20171 20174 20177 20180 20183 20186 20189 20192 20195 20198 20201 20204 20207 20210 20213 20216 20219 20222 20225 20228 20231 20234 20237 20240 20243 20246 20249 20252 20255 20258 20261 20264 20267 20270 20273 20276 20279 20282 20285 20288 20291 20294 20297 20300 20303 20306 20309 20312 20315 20318 20321 20324 20327 20330 20333 20336 20339 20342 20345 20348 20351 20354 20357 20359 20362 20365 20368 20371 20374 20377 20380 20382 20385 20388 20391 20394 20397 20400 20403 20406 20409 20411 20414 20416 20419 20422 20425 20427 20430 20433 20435 20438 20441 20444 20447 20450 20453 20456 20459 20462 20465 20468 20471 20474 20477 20480 20483 20486 20489 20492 20495 20498 20501 20504 20507 20510 20513 20516 20519 20522 20525 20528 20531 20534 20537 20540 20543 20546 20548 20551 20554 20556 20558 20561 20564 20566 20569 20572 20574 20577 20580 20583 20585 20588 20591 20594 20597 20600 20603 20606 20609 20612 20614 20617 20620 20623 20626 20629 20632 20634 20637 20640 20643 20646 20649 20652 20655 20658 20661 20664 20667 20670 20673 20676 20679 20682 20685 20688 20691 20694 20697 20700 20703 20706 20709 20712 20715 20718 20721 20724 20727 20729 20732 20735 20738 20741 20744 20747 20750 20753 20756 20759 20762 20765 20768 20771 20774 20777 20780 20783 20786 20789 20792 20795 20798 20801 20804 20807 20810 20813 20816 20819 20822 20825 20828 20831 20834 20837 20840 20843 20846 20849 20852 20855 20858 20861 20864 20867 20869 20872 20874 20877 20880 20883 20886 20888 20891 20894 20897 20900 20902 20905 20908 20911 20914 20916 20919 20922 20925 20928 20931 20934 20937 20940 20942 20945 20948 20950 20953 20955 20958 20961 20964 20967 20969 20972 20975 20977 20979 20982 20985 20988 20991 20994 20997 20999 21002 21005 21008 21011 21014 21017 21020 21023 21026 21029 21031 21033 21036 21039 21042 21045 21048 21050 21053 21056 21058 21061 21064 21067 21070 21072 21075 21078 21080 21083 21086 21089 21092 21095 21098 21101 21104 21107 21110 21113 21116 21119 21122 21125 21128 21131 21134 21137 21140 21143 21146 21149 21152 21155 21158 21161 21164 21167 21169 21172 21174 21177 21180 21183 21186 21189 21192 21195 21198 21201 21204 21207 21210 21213 21215 21218 21221 21224 21227 21229 21231 21234 21237 21240 21243 21246 21249 21252 21255 21258 21261 21264 21267 21270 21273 21276 21279 21282 21285 21288 21291 21294 21297 21300 21303 21306 21309 21312 21315 21318 21321 21324 21327 21330 21333 21336 21339 21342 21345 21348 21351 21354 21357 21359 21362 21365 21368 21370 21373 21376 21379 21382 21385 21388 21391 21394 21397 21400 21403 21406 21409 21412 21415 21418 21421 21424 21427 21430 21432 21435 21438 21440 21443 21446 21449 21452 21455 21458 21461 21464 21467 21469 21472 21475 21478 21481 21484 21486 21489 21492 21495 21498 21501 21503 21506 21508 21511 21514 21517 21520 21523 21526 21529 21532 21535 21538 21541 21544 21547 21549 21552 21555 21558 21560 21562 21565 21568 21571 21574 21577 21580 21583 21586 21588 21591 21594 21596 21599 21602 21604 21606 21609 21612 21615 21618 21621 21623 21626 21629 21632 21635 21638 21641 21644 21646 21649 21652 21654 21656 21659 21662 21665 21668 21671 21674 21676 21678 21681 21684 21687 21689 21692 21695 21698 21701 21704 21707 21710 21712 21715 21718 21721 21724 21727 21730 21733 21736 21739 21742 21745 21748 21751 21754 21757 21760 21763 21766 21769 21772 21775 21778 21781 21784 21787 21790 21792 21795 21798 21801 21804 21807 21810 21813 21815 21818 21821 21824 21827 21830 21833 21836 21839 21842 21845 21848 21850 21853 21856 21859 21862 21865 21868 21871 21874 21876 21879 21882 21885 21888 21891 21894 21897 21900 21903 21906 21909 21912 21915 21918 21921 21924 21926 21929 21932 21935 21937 21940 21943 21946 21949 21952 21954 21957 21960 21963 21966 21969 21972 21975 21978 21981 21984 21987 21990 21993 21996 21998 22001 22004 22007 22010 22012 22015 22018 22020 22023 22026 22029 22032 22035 22037 22040 22043 22046 22049 22052 22055 22058 22061 22064 22067 22070 22073 22076 22079 22081 22084 22086 22089 22092 22095 22097 22100 22102 22105 22107 22110 22113 22116 22119 22122 22125 22127 22129 22132 22135 22138 22141 22144 22147 22149 22152 22154 22157 22160 22163 22166 22169 22172 22175 22178 22181 22184 22187 22190 22193 22196 22199 22202 22205 22207 22210 22213 22216 22218 22220 22223 22226 22229 22232 22235 22237 22240 22243 22245 22247 22250 22253 22256 22259 22262 22265 22268 22271 22274 22277 22280 22283 22286 22289 22292 22295 22298 22301 22304 22307 22310 22313 22316 22319 22322 22325 22328 22331 22334 22337 22340 22343 22346 22349 22352 22355 22358 22361 22364 22367 22370 22373 22376 22379 22381 22384 22387 22389 22391 22393 22396 22399 22402 22405 22408 22411 22413 22416 22419 22422 22425 22428 22431 22434 22437 22440 22442 22445 22448 22451 22453 22456 22459 22462 22465 22468 22471 22474 22477 22480 22483 22486 22489 22492 22495 22498 22501 22504 22507 22510 22513 22515 22518 22521 22524 22527 22529 22532 22535 22538 22541 22544 22547 22550 22553 22556 22559 22562 22565 22568 22571 22574 22577 22580 22583 22586 22589 22592 22595 22598 22601 22604 22607 22610 22613 22616 22619 22622 22625 22628 22631 22633 22636 22638 22641 22644 22647 22650 22653 22656 22659 22662 22664 22667 22670 22673 22675 22678 22680 22683 22686 22689 22692 22695 22698 22701 22704 22706 22709 22712 22715 22718 22720 22723 22726 22729 22732 22734 22737 22740 22743 22746 22749 22752 22755 22757 22760 22763 22766 22769 22771 22774 22777 22780 22783 22786 22789 22792 22795 22798 22801 22804 22807 22810 22813 22816 22819 22822 22825 22828 22831 22834 22837 22840 22843 22846 22849 22852 22855 22858 22861 22864 22867 22870 22873 22876 22879 22882 22885 22888 22891 22894 22897 22900 22903 22906 22909 22911 22914 22917 22920 22923 22925 22927 22930 22933 22935 22937 22940 22943 22946 22949 22952 22955 22958 22961 22964 22967 22970 22973 22976 22979 22982 22985 22988 22991 22994 22996 22999 23002 23005 23007 23009 23012 23015 23018 23021 23024 23027 23030 23033 23036 23039 23042 23045 23048 23051 23054 23057 23060 23063 23066 23069 23072 23075 23078 23081 23084 23087 23090 23092 23095 23098 23101 23104 23107 23110 23113 23115 23118 23121 23124 23127 23130 23133 23136 23139 23142 23145 23148 23151 23154 23157 23160 23162 23165 23168 23171 23174 23177 23180 23183 23186 23188 23191 23193 23195 23198 23201 23204 23207 23210 23213 23216 23219 23222 23225 23228 23231 23233 23236 23239 23242 23245 23248 23251 23254 23257 23260 23263 23266 23269 23272 23275 23278 23281 23284 23287 23289 23292 23295 23298 23300 23303 23306 23309 23312 23315 23318 23321 23324 23326 23329 23332 23335 23338 23341 23344 23347 23350 23353 23356 23359 23362 23365 23368 23371 23373 23376 23379 23382 23384 23387 23390 23393 23396 23399 23402 23405 23408 23411 23414 23417 23420 23423 23426 23429 23432 23435 23438 23441 23444 23447 23450 23453 23456 23459 23462 23465 23468 23471 23474 23477 23480 23483 23485 23488 23490 23493 23496 23499 23502 23505 23508 23511 23514 23516 23519 23522 23525 23528 23531 23534 23537 23540 23543 23545 23548 23551 23553 23556 23559 23562 23565 23568 23570 23573 23576 23579 23582 23584 23587 23590 23593 23596 23598 23601 23604 23607 23609 23612 23614 23617 23620 23622 23625 23628 23631 23634 23637 23640 23643 23646 23649 23652 23655 23658 23661 23664 23666 23669 23672 23674 23677 23679 23682 23685 23688 23690 23693 23696 23698 23701 23704 23707 23710 23712 23715 23717 23720 23723 23726 23729 23732 23735 23737 23740 23742 23745 23748 23751 23754 23757 23759 23762 23765 23768 23771 23773 23776 23779 23782 23785 23788 23791 23793 23796 23799 23802 23805 23808 23811 23814 23817 23820 23823 23826 23829 23832 23835 23838 23841 23844 23847 23850 23853 23856 23859 23862 23865 23868 23871 23874 23877 23880 23883 23886 23889 23892 23894 23896 23899 23902 23905 23908 23911 23914 23917 23920 23923 23926 23928 23931 23934 23936 23938 23941 23943 23946 23949 23952 23955 23958 23961 23964 23966 23969 23972 23975 23978 23981 23984 23987 23990 23993 23996 23999 24002 24004 24007 24010 24013 24016 24018 24021 24024 24027 24030 24033 24036 24039 24042 24045 24048 24051 24054 24056 24059 24062 24065 24068 24071 24074 24077 24080 24083 24086 24089 24092 24095 24098 24101 24104 24107 24109 24112 24115 24118 24121 24124 24126 24129 24132 24135 24137 24140 24143 24146 24149 24152 24155 24157 24160 24162 24165 24168 24171 24173 24176 24179 24182 24185 24188 24191 24194 24197 24200 24202 24205 24208 24210 24213 24216 24219 24222 24225 24228 24231 24233 24236 24239 24242 24245 24248 24251 24254 24257 24260 24263 24266 24269 24272 24274 24277 24280 24282 24285 24288 24291 24294 24297 24300 24302 24305 24308 24311 24314 24317 24320 24322 24325 24328 24331 24334 24337 24340 24343 24345 24348 24351 24354 24357 24360 24363 24366 24369 24372 24375 24378 24381 24384 24387 24390 24393 24396 24399 24402 24405 24408 24411 24413 24416 24419 24422 24425 24428 24431 24434 24437 24440 24443 24445 24448 24451 24454 24457 24459 24461 24464 24467 24470 24473 24475 24478 24481 24484 24487 24490 24493 24496 24499 24502 24504 24507 24510 24513 24516 24519 24522 24525 24528 24531 24534 24537 24539 24542 24545 24548 24550 24553 24556 24559 24561 24564 24567 24570 24573 24576 24579 24582 24585 24588 24591 24594 24597 24599 24602 24605 24608 24611 24614 24616 24619 24622 24624 24627 24630 24633 24636 24639 24642 24645 24648 24651 24654 24657 24660 24663 24666 24668 24671 24674 24677 24680 24683 24686 24689 24691 24694 24697 24700 24702 24705 24708 24711 24714 24717 24719 24722 24725 24728 24731 24734 24737 24740 24743 24746 24748 24751 24754 24757 24760 24763 24766 24769 24772 24774 24777 24780 24783 24786 24789 24791 24794 24797 24800 24803 24806 24809 24812 24814 24817 24820 24823 24826 24829 24832 24835 24838 24841 24844 24847 24850 24853 24856 24859 24862 24865 24868 24871 24874 24877 24880 24883 24886 24889 24892 24895 24898 24901 24904 24907 24910 24913 24916 24919 24922 24925 24928 24931 24934 24937 24940 24943 24946 24949 24952 24955 24958 24960 24963 24966 24969 24972 24975 24978 24981 24983 24986 24989 24992 24995 24998 25001 25004 25007 25010 25013 25016 25019 25022 25025 25028 25031 25034 25037 25040 25043 25046 25049 25051 25053 25056 25059 25061 25063 25066 25069 25072 25075 25078 25081 25084 25086 25089 25092 25095 25098 25101 25104 25107 25110 25113 25116 25119 25122 25125 25128 25130 25133 25136 25139 25142 25145 25148 25151 25154 25156 25159 25162 25164 25167 25170 25173 25175 25178 25181 25184 25187 25190 25193 25196 25199 25202 25205 25208 25211 25214 25217 25220 25223 25226 25229 25232 25235 25238 25241 25244 25247 25250 25253 25256 25259 25261 25264 25267 25270 25273 25276 25279 25282 25285 25287 25290 25293 25296 25299 25302 25305 25307 25309 25312 25315 25318 25321 25323 25326 25329 25331 25334 25337 25339 25342 25345 25348 25351 25354 25357 25359 25362 25365 25368 25371 25374 25377 25380 25383 25385 25388 25391 25394 25397 25400 25403 25406 25409 25412 25415 25418 25420 25423 25426 25428 25431 25434 25437 25440 25443 25446 25449 25451 25454 25457 25460 25462 25465 25467 25470 25472 25475 25478 25481 25484 25487 25490 25493 25496 25499 25502 25505 25508 25511 25514 25517 25520 25523 25525 25528 25530 25533 25536 25539 25542 25545 25548 25551 25554 25557 25560 25562 25565 25568 25571 25574 25577 25580 25583 25585 25588 25591 25594 25596 25599 25601 25603 25606 25609 25611 25614 25617 25620 25623 25625 25628 25631 25634 25636 25639 25642 25645 25647 25650 25652 25654 25657 25660 25663 25666 25669 25672 25674 25677 25680 25683 25686 25689 25692 25695 25698 25700 25702 25704 25707 25709 25712 25715 25717 25719 25722 25725 25727 25730 25733 25736 25739 25742 25745 25748 25751 25754 25757 25760 25762 25765 25768 25771 25774 25777 25780 25783 25786 25789 25792 25795 25798 25801 25803 25805 25808 25811 25814 25817 25819 25822 25825 25828 25830 25833 25836 25839 25842 25845 25847 25849 25852 25855 25858 25860 25863 25866 25869 25872 25875 25878 25881 25884 25887 25890 25893 25896 25899 25902 25905 25907 25910 25913 25916 25918 25921 25924 25927 25929 25932 25935 25938 25941 25944 25947 25949 25952 25955 25958 25961 25964 25966 25969 25972 25975 25978 25981 25984 25987 25990 25992 25995 25998 26001 26004 26007 26010 26013 26016 26019 26021 26024 26027 26030 26033 26035 26038 26040 26043 26046 26048 26051 26053 26056 26059 26062 26065 26068 26071 26073 26076 26078 26080 26083 26086 26089 26092 26095 26098 26101 26104 26106 26109 26111 26114 26116 26119 26121 26124 26127 26130 26133 26136 26139 26142 26145 26148 26151 26154 26156 26159 26162 26165 26167 26170 26173 26176 26179 26182 26185 26188 26191 26193 26196 26199 26202 26205 26208 26211 26214 26217 26220 26222 26225 26228 26231 26234 26236 26239 26242 26244 26247 26250 26253 26256 26259 26262 26265 26268 26271 26273 26276 26279 26282 26284 26287 26290 26293 26296 26299 26302 26305 26308 26311 26314 26317 26320 26323 26326 26329 26332 26335 26338 26341 26343 26346 26349 26352 26355 26358 26361 26364 26367 26370 26373 26375 26378 26381 26384 26387 26390 26393 26396 26399 26402 26405 26408 26411 26414 26417 26420 26423 26426 26429 26432 26435 26438 26441 26444 26447 26450 26453 26456 26459 26462 26465 26468 26471 26474 26477 26480 26483 26486 26489 26492 26495 26498 26501 26504 26507 26510 26512 26514 26517 26520 26523 26526 26529 26532 26535 26538 26541 26544 26547 26550 26553 26555 26557 26560 26563 26566 26568 26571 26574 26576 26579 26582 26585 26587 26590 26593 26596 26598 26601 26604 26607 26610 26613 26616 26619 26622 26624 26627 26630 26632 26635 26637 26639 26642 26645 26648 26651 26654 26657 26659 26662 26664 26666 26668 26671 26674 26676 26679 26682 26684 26686 26689 26692 26695 26698 26701 26704 26707 26710 26713 26716 26719 26722 26725 26728 26731 26734 26737 26740 26743 26746 26749 26751 26754 26757 26760 26763 26766 26769 26772 26775 26778 26780 26783 26786 26789 26792 26795 26798 26801 26803 26805 26808 26811 26814 26817 26820 26823 26826 26829 26832 26835 26838 26841 26844 26847 26850 26853 26856 26859 26862 26865 26868 26871 26874 26876 26879 26881 26884 26887 26890 26893 26896 26899 26902 26904 26907 26910 26913 26915 26917 26920 26923 26925 26928 26931 26934 26937 26939 26942 26945 26948 26950 26953 26956 26959 26961 26964 26967 26970 26973 26976 26979 26982 26985 26988 26990 26992 26995 26998 27001 27004 27007 27009 27012 27015 27017 27019 27021 27024 27027 27030 27033 27036 27038 27041 27044 27047 27050 27053 27056 27059 27062 27065 27067 27070 27072 27075 27078 27081 27084 27087 27090 27093 27096 27099 27102 27105 27108 27111 27114 27117 27120 27123 27126 27129 27132 27135 27138 27141 27144 27146 27149 27152 27155 27158 27160 27162 27165 27168 27171 27173 27176 27179 27182 27185 27188 27191 27194 27197 27200 27203 27206 27209 27212 27215 27218 27221 27223 27226 27229 27232 27234 27237 27240 27242 27245 27248 27251 27254 27257 27260 27263 27266 27269 27272 27275 27278 27281 27283 27286 27289 27291 27294 27297 27300 27302 27305 27307 27310 27312 27315 27317 27319 27321 27324 27327 27330 27333 27336 27339 27342 27345 27347 27350 27353 27356 27359 27362 27365 27368 27371 27373 27376 27379 27381 27384 27387 27390 27393 27396 27399 27402 27405 27408 27411 27414 27417 27420 27423 27426 27429 27432 27435 27438 27441 27444 27446 27449 27452 27455 27458 27461 27464 27467 27470 27473 27476 27478 27481 27483 27486 27489 27491 27494 27496 27499 27501 27504 27507 27509 27512 27514 27517 27520 27522 27525 27528 27531 27533 27536 27539 27542 27545 27548 27551 27554 27557 27560 27563 27566 27569 27572 27575 27578 27581 27584 27587 27590 27593 27596 27599 27602 27605 27608 27611 27614 27617 27620 27623 27626 27629 27632 27635 27638 27641 27644 27647 27650 27653 27656 27659 27662 27665 27668 27671 27674 27677 27680 27683 27686 27689 27692 27695 27698 27701 27704 27707 27710 27713 27716 27718 27721 27724 27726 27729 27732 27735 27738 27741 27744 27746 27748 27751 27754 27757 27760 27763 27766 27769 27772 27775 27778 27781 27784 27787 27790 27793 27796 27799 27802 27804 27807 27810 27813 27815 27818 27821 27824 27827 27830 27833 27836 27839 27842 27845 27848 27851 27854 27857 27860 27863 27865 27868 27871 27874 27877 27880 27883 27886 27888 27891 27894 27897 27900 27903 27906 27909 27912 27914 27917 27919 27922 27925 27928 27931 27934 27937 27940 27943 27946 27949 27952 27955 27958 27961 27964 27967 27969 27972 27975 27978 27981 27984 27987 27990 27992 27995 27998 28001 28004 28006 28009 28012 28015 28018 28021 28024 28027 28029 28032 28035 28037 28039 28042 28045 28047 28050 28053 28056 28059 28062 28065 28067 28070 28073 28076 28079 28082 28085 28088 28091 28094 28096 28099 28102 28104 28107 28110 28112 28115 28118 28120 28123 28126 28129 28132 28135 28137 28140 28143 28146 28149 28152 28155 28158 28161 28163 28166 28169 28172 28175 28178 28181 28184 28186 28189 28192 28195 28198 28201 28204 28207 28210 28213 28216 28219 28222 28224 28227 28230 28233 28236 28239 28242 28245 28247 28249 28252 28254 28257 28259 28262 28265 28268 28271 28274 28277 28280 28283 28286 28289 28292 28295 28298 28301 28304 28306 28309 28311 28314 28317 28320 28323 28326 28329 28332 28335 28337 28340 28342 28345 28347 28350 28352 28355 28357 28360 28363 28365 28368 28371 28374 28377 28380 28382 28385 28388 28391 28394 28397 28400 28403 28406 28408 28411 28414 28417 28420 28423 28425 28428 28431 28433 28436 28438 28440 28443 28446 28449 28452 28455 28458 28461 28464 28466 28469 28472 28475 28478 28481 28484 28487 28490 28493 28496 28499 28502 28505 28507 28510 28513 28516 28519 28522 28525 28528 28530 28533 28536 28539 28541 28544 28547 28550 28553 28556 28559 28562 28565 28568 28571 28574 28577 28580 28583 28586 28589 28592 28594 28597 28600 28603 28606 28609 28612 28615 28617 28620 28623 28625 28628 28631 28634 28637 28640 28643 28646 28649 28652 28655 28658 28661 28664 28667 28670 28672 28675 28678 28681 28684 28686 28689 28692 28695 28698 28701 28704 28707 28710 28713 28716 28719 28722 28725 28728 28731 28734 28737 28740 28743 28746 28749 28752 28755 28758 28761 28763 28766 28769 28772 28775 28778 28781 28783 28786 28789 28792 28795 28798 28801 28804 28807 28810 28812 28814 28817 28820 28823 28825 28828 28830 28833 28836 28839 28842 28845 28848 28851 28854 28857 28860 28863 28866 28869 28872 28875 28877 28880 28883 28886 28889 28892 28895 28898 28901 28904 28907 28910 28913 28915 28917 28920 28923 28926 28929 28932 28935 28938 28941 28943 28946 28949 28951 28954 28957 28959 28961 28964 28967 28970 28973 28976 28979 28982 28984 28987 28990 28993 28996 28999 29002 29005 29008 29011 29013 29016 29019 29022 29024 29027 29030 29033 29036 29039 29041 29044 29047 29050 29053 29056 29059 29062 29065 29068 29071 29074 29077 29079 29082 29085 29088 29090 29093 29096 29099 29101 29104 29107 29110 29113 29116 29119 29122 29125 29128 29131 29134 29137 29140 29143 29146 29149 29152 29155 29158 29161 29164 29167 29170 29173 29176 29179 29182 29185 29188 29191 29194 29197 29199 29202 29205 29208 29211 29214 29217 29220 29223 29226 29229 29232 29235 29238 29241 29244 29247 29250 29253 29256 29259 29262 29265 29268 29271 29273 29276 29278 29281 29284 29286 29289 29292 29295 29298 29301 29304 29307 29310 29313 29315 29318 29321 29324 29327 29330 29333 29336 29339 29342 29345 29348 29351 29354 29357 29359 29362 29365 29368 29371 29373 29376 29379 29382 29384 29387 29390 29393 29396 29399 29402 29405 29408 29411 29414 29417 29420 29423 29426 29429 29432 29435 29438 29441 29444 29447 29450 29453 29456 29459 29462 29465 29468 29471 29474 29477 29480 29483 29486 29489 29492 29495 29498 29501 29504 29507 29510 29513 29516 29519 29522 29525 29528 29531 29534 29537 29540 29543 29546 29549 29552 29555 29558 29561 29564 29567 29570 29573 29576 29579 29582 29585 29588 29591 29594 29597 29600 29603 29606 29609 29612 29615 29618 29621 29624 29627 29630 29633 29636 29639 29642 29645 29648 29651 29654 29657 29660 29663 29666 29669 29672 29675 29678 29681 29684 29687 29690 29693 29696 29699 29702 29705 29708 29711 29714 29717 29720 29723 29726 29729 29732 29735 29738 29741 29744 29747 29750 29753 29756 29759 29762 29765 29768 29771 29774 29777 29780 29783 29786 29789 29792 29795 29798 29801 29804 29807 29810 29813 29816 29819 29822 29825 29828 29831 29834 29837 29840 29843 29846 29849 29852 29855 29858 29861 29864 29867 29870 29873 29876 29879 29882 29885 29888 29891 29894 29897 29900 29903 29906 29909 29912 29915 29918 29921 29924 29927 29930 29933 29936 29939 29942 29945 29948 29951 29953 29956 29959 29962 29965 29968 29971 29974 29977 29980 29983 29986 29989 29992 29995 29998 30001 30003 30006 30009 30012 30015 30018 30021 30024 30027 30029 30032 30035 30038 30041 30043 30046 30049 30052 30055 30058 30061 30064 30067 30070 30073 30076 30079 30082 30085 30088 30091 30094 30097 30100 30103 30106 30109 30111 30114 30117 30120 30123 30126 30129 30132 30135 30138 30141 30144 30147 30150 30152 30154 30157 30160 30163 30166 30169 30171 30174 30176 30179 30182 30185 30188 30191 30194 30197 30200 30203 30206 30209 30211 30214 30217 30220 30223 30226 30229 30232 30234 30237 30240 30243 30246 30249 30252 30255 30258 30261 30264 30267 30270 30273 30276 30279 30281 30283 30286 30289 30292 30295 30298 30301 30304 30307 30310 30313 30316 30319 30321 30324 30327 30330 30333 30336 30339 30342 30345 30348 30351 30354 30357 30360 30363 30366 30369 30371 30374 30377 30380 30383 30386 30389 30392 30394 30397 30400 30403 30406 30409 30412 30415 30418 30421 30424 30426 30428 30431 30434 30437 30440 30443 30446 30449 30452 30455 30458 30461 30464 30467 30470 30473 30476 30479 30482 30485 30488 30491 30494 30497 30500 30503 30506 30509 30512 30515 30518 30520 30523 30526 30529 30532 30535 30537 30540 30543 30546 30549 30552 30555 30558 30561 30564 30567 30569 30572 30575 30578 30581 30583 30586 30589 30592 30595 30598 30601 30604 30607 30610 30613 30615 30618 30620 30623 30626 30629 30632 30635 30638 30641 30644 30647 30650 30653 30656 30659 30662 30665 30668 30671 30674 30677 30680 30683 30686 30689 30692 30695 30698 30701 30704 30707 30710 30713 30715 30718 30721 30724 30727 30730 30732 30735 30738 30741 30744 30747 30750 30753 30756 30759 30762 30765 30768 30771 30774 30777 30780 30783 30786 30788 30791 30794 30796 30799 30802 30805 30807 30810 30813 30816 30819 30822 30824 30827 30830 30833 30836 30839 30842 30845 30848 30851 30854 30856 30859 30862 30865 30868 30871 30874 30876 30879 30882 30885 30888 30891 30893 30895 30898 30901 30903 30906 30909 30911 30914 30917 30920 30923 30926 30929 30932 30935 30938 30941 30943 30946 30949 30951 30954 30957 30959 30962 30965 30967 30970 30973 30975 30978 30981 30983 30986 30989 30992 30995 30998 31001 31003 31006 31009 31012 31015 31018 31021 31024 31027 31030 31033 31036 31038 31041 31044 31047 31050 31053 31056 31059 31061 31064 31067 31070 31073 31075 31078 31081 31084 31086 31089 31092 31095 31098 31101 31104 31107 31110 31113 31116 31119 31121 31124 31127 31130 31133 31136 31139 31142 31145 31148 31151 31154 31157 31160 31163 31166 31169 31172 31175 31178 31181 31184 31187 31190 31193 31195 31198 31201 31204 31207 31210 31212 31215 31218 31221 31224 31227 31230 31233 31236 31239 31242 31245 31248 31251 31254 31256 31259 31262 31264 31267 31269 31272 31275 31278 31281 31283 31286 31288 31290 31293 31295 31298 31301 31304 31307 31310 31313 31316 31318 31321 31323 31326 31329 31332 31335 31338 31341 31343 31346 31349 31352 31355 31358 31361 31363 31366 31369 31372 31375 31377 31380 31383 31386 31389 31392 31394 31397 31400 31402 31405 31408 31411 31414 31416 31419 31422 31425 31428 31430 31433 31436 31439 31442 31445 31448 31450 31453 31456 31459 31462 31465 31468 31471 31474 31477 31479 31482 31485 31488 31491 31494 31497 31499 31502 31505 31508 31511 31513 31516 31519 31522 31525 31528 31531 31534 31537 31540 31543 31546 31549 31552 31555 31558 31561 31563 31566 31569 31572 31574 31577 31580 31582 31585 31588 31591 31594 31597 31600 31603 31606 31609 31612 31615 31618 31621 31624 31627 31630 31632 31635 31637 31640 31643 31646 31649 31652 31655 31658 31661 31664 31667 31670 31673 31676 31679 31682 31685 31688 31691 31694 31697 31700 31703 31706 31709 31712 31715 31717 31720 31723 31725 31728 31731 31734 31737 31740 31743 31746 31749 31752 31755 31757 31760 31763 31766 31769 31771 31774 31777 31780 31783 31785 31788 31791 31794 31797 31800 31803 31806 31809 31812 31814 31817 31820 31823 31826 31829 31832 31835 31838 31841 31844 31847 31850 31853 31856 31859 31862 31865 31868 31871 31874 31877 31880 31883 31886 31889 31892 31895 31898 
</DataArray>
<DataArray type="UInt32" Name="types" format="ascii">
5 5 5 5 5 3 5 5 5 5 5 5 5 3 5 5 5 5 3 5 5 3 5 5 5 5 3 5 5 5 5 3 5 5 5 5 5 5 5 5 5 5 5 5 5 3 5 5 3 5 5 5 5 5 3 5 5 5 5 5 5 5 3 5 5 5 5 3 5 5 5 5 5 5 5 5 5 3 5 5 3 5 5 3 5 5 5 5 3 5 5 5 5 5 5 5 3 3 3 5 5 3 5 5 5 5 5 3 5 5 5 5 5 5 5 5 5 5 5 5 5 3 5 5 5 3 5 5 5 5 5 5 3 5 5 5 5 5 5 5 5 5 5 5 5 5 5 5 5 5 5 5 5 5 5 5 5 5 3 5 5 5 3 5 5 3 5 5 5 5 5 5 5 5 5 5 5 3 5 5 5 5 5 5 5 5 3 5 5 5 5 5 5 5 5 3 5 5 5 5 5 5 5 5 5 3 5 5 5 5 5 5 5 5 5 5 5 5 5 5 5 5 5 5 5 5 5 5 5 3 5 5 5 3 5 3 5 3 5 5 3 5 5 5 3 5 3 5 3 5 3 3 5 3 5 5 3 5 3 5 5 5 3 5 3 3 5 5 3 5 5 5 3 5 3 3 3 5 3 5 5 5 3 5 3 3 3 5 5 3 3 5 5 5 5 3 5 3 5 5 3 5 5 5 3 5 3 3 3 5 5 5 3 5 3 3 3 3 5 5 5 3 3 5 5 3 3 3 5 3 5 5 5 5 3 5 5 5 5 5 5 5 3 5 5 5 5 5 5 3 3 5 5 5 3 5 5 5 3 5 3 5 3 3 5 5 5 5 3 5 5 3 5 5 5 5 3 5 3 5 5 5 5 5 3 3 5 5 5 5 5 5 5 5 3 5 5 5 3 5 5 3 5 3 5 5 5 5 5 5 5 5 5 5 5 3 5 3 5 3 5 5 5 3 5 3 5 3 5 5 5 5 5 5 3 5 3 5 5 5 3 5 5 5 3 5 3 3 5 5 5 5 3 5 5 5 5 3 3 5 5 3 5 3 5 3 3 5 5 5 3 5 5 5 5 3 5 5 5 5 5 5 5 5 5 5 5 3 5 5 5 5 3 5 5 5 3 5 3 3 3 5 5 5 3 3 5 3 5 5 3 5 5 5 5 3 5 5 5 5 5 5 5 5 5 5 5 3 3 5 5 3 5 5 5 3 5 5 5 5 5 5 3 5 5 5 3 5 5 5 3 5 5 5 5 5 5 5 5 5 5 5 3 5 5 5 3 5 5 5 5 5 5 5 3 5 5 5 5 5 3 5 5 5 5 5 5 5 5 5 5 5 5 5 5 5 5 5 5 5 3 5 5 5 5 3 5 5 3 5 5 5 5 5 5 5 3 5 5 5 5 5 5 5 5 3 5 3 5 5 3 5 5 5 3 5 5 3 5 5 5 3 5 3 5 5 3 5 3 5 5 5 5 5 5 5 5 5 5 5 5 5 5 5 5 5 5 5 5 5 5 3 5 3 5 3 5 5 5 5 5 5 5 5 5 5 5 5 5 5 5 3 5 5 5 5 5 5 5 5 5 3 5 5 5 5 5 5 5 5 5 5 5 5 5 5 5 5 5 5 5 5 5 5 5 5 5 5 5 5 5 3 5 5 3 5 5 5 3 3 5 3 5 5 5 5 5 3 5 5 5 5 5 3 5 5 5 5 5 5 5 5 5 5 5 5 5 5 5 5 5 5 5 5 5 5 5 5 5 5 5 5 5 5 5 5 5 5 5 5 5 5 5 5 5 5 5 5 5 5 5 5 5 3 5 5 5 5 5 5 5 5 5 5 5 5 5 5 5 3 5 5 5 5 3 5 5 5 5 5 5 5 5 5 5 5 5 5 5 5 5 5 5 5 5 5 5 5 5 5 5 5 3 5 5 3 5 3 3 3 3 5 5 3 5 5 5 5 5 5 5 5 5 5 5 5 5 5 5 5 5 3 5 5 3 5 3 5 5 5 5 3 5 3 5 5 5 5 3 5 5 5 3 5 5 5 5 5 3 5 3 5 5 3 3 5 3 5 5 5 5 5 5 5 5 5 5 5 3 5 5 5 3 5 5 5 3 5 5 3 3 3 5 5 5 5 5 5 5 5 5 5 5 3 5 5 5 5 5 5 5 5 3 3 3 5 5 5 5 5 5 5 5 3 3 5 5 5 3 5 5 3 5 5 5 5 5 5 5 5 5 5 5 3 5 5 5 5 5 5 5 5 3 5 5 5 5 5 5 5 5 5 5 3 5 3 3 3 5 5 5 5 5 5 5 3 3 5 3 5 5 5 5 5 3 5 3 3 5 5 5 3 5 3 5 5 5 5 3 5 5 5 5 5 5 5 5 5 5 5 5 5 5 5 5 5 3 5 5 5 3 5 5 5 5 5 3 5 5 5 5 5 5 3 5 3 5 5 5 5 5 5 5 5 3 5 5 5 3 5 5 5 5 5 5 5 5 5 5 5 5 5 5 5 5 5 5 5 5 5 5 5 5 5 3 3 3 5 5 5 5 3 5 5 5 5 3 5 5 5 5 5 5 5 3 5 5 5 5 5 5 5 5 3 5 5 5 5 5 5 5 5 5 5 5 5 3 5 5 5 5 5 5 3 5 5 5 5 5 5 5 5 3 5 5 5 3 5 5 5 5 5 5 5 5 5 5 5 5 3 5 5 5 5 5 5 5 5 5 5 5 5 5 5 5 5 5 5 5 5 5 5 5 5 5 5 5 5 5 5 5 5 5 5 5 5 5 5 5 5 5 5 5 5 5 5 5 3 5 5 5 5 5 5 5 5 5 5 5 5 5 5 5 5 5 5 5 5 5 5 5 5 3 5 5 5 5 5 5 5 5 5 5 3 5 5 3 5 5 5 5 5 5 5 5 5 3 5 3 5 5 5 5 3 5 5 3 5 3 5 5 5 5 5 3 5 5 5 5 5 5 5 5 3 5 5 5 5 5 5 5 5 5 5 5 5 5 5 3 5 3 3 5 5 5 5 5 3 5 5 5 5 5 5 5 5 5 5 5 5 5 5 5 3 5 5 5 5 5 5 5 5 5 5 5 5 5 5 5 5 3 5 5 5 5 5 3 3 5 5 3 5 5 5 5 5 5 5 5 5 5 3 5 5 5 5 5 5 5 5 5 3 5 3 5 5 5 5 5 3 5 5 5 5 3 5 5 5 3 5 5 5 3 5 5 3 5 5 5 5 5 5 5 5 5 5 5 5 5 5 5 5 3 5 5 5 5 5 5 5 3 5 5 5 5 5 5 5 5 5 5 5 5 5 5 5 5 5 5 5 5 5 5 5 5 5 5 5 3 5 5 5 5 3 5 5 5 3 5 5 5 5 5 5 5 5 5 3 5 3 5 5 5 5 5 5 5 5 5 5 5 5 5 5 5 5 5 5 3 3 5 5 5 3 5 5 3 5 5 3 5 5 5 3 5 5 3 5 5 5 5 5 5 5 5 5 5 5 5 5 5 5 5 5 5 5 5 3 5 3 5 5 5 5 5 5 5 5 5 5 5 3 5 3 5 5 5 3 5 5 5 5 5 3 5 5 5 5 5 5 3 5 5 5 5 5 5 5 5 5 5 5 3 5 5 5 5 5 5 5 5 3 5 5 5 3 5 5 3 5 5 5 5 5 3 5 5 5 5 5 5 5 5 5 3 5 5 3 5 3 5 3 3 3 5 3 5 5 5 5 5 5 3 5 5 5 5 5 5 3 5 5 5 5 5 5 5 3 5 5 5 5 3 5 5 5 5 5 3 5 3 5 5 5 5 5 5 5 5 5 5 3 5 5 5 5 5 5 5 3 5 5 5 5 5 5 5 3 5 3 5 5 5 5 5 5 5 5 3 5 5 5 3 3 5 5 5 5 5 3 3 5 3 5 5 3 5 5 3 5 5 5 5 5 5 5 5 3 5 5 5 5 5 3 5 5 5 5 3 5 5 3 5 5 5 5 5 5 5 5 5 5 5 5 5 5 5 5 5 5 5 5 5 5 5 5 5 5 5 5 5 5 5 5 5 5 5 5 5 5 5 5 5 3 5 5 3 5 5 5 5 5 3 5 5 5 5 3 5 5 5 5 5 5 5 5 5 5 5 5 5 5 5 5 5 5 5 5 5 5 5 5 3 5 5 5 3 5 5 5 5 5 5 3 5 5 5 5 5 5 5 5 5 5 5 3 5 3 3 5 5 3 5 5 5 5 5 5 5 5 5 5 5 3 5 5 3 5 5 5 5 5 5 5 5 5 5 5 5 5 5 5 3 5 5 5 5 5 5 5 3 5 3 5 5 5 5 3 5 3 5 5 5 5 5 5 5 5 5 3 5 5 5 5 5 5 5 5 5 5 5 5 5 5 5 5 5 3 5 5 5 5 5 5 5 5 5 5 5 5 5 5 5 5 5 5 5 5 5 5 5 5 5 3 3 5 5 5 5 5 5 5 5 5 5 5 3 5 5 5 5 3 5 5 5 5 3 5 5 5 5 5 5 5 5 3 5 5 5 5 5 5 5 5 5 3 5 5 5 5 5 5 5 5 5 5 5 5 5 5 5 5 5 5 5 5 3 5 5 5 5 5 5 5 5 5 5 5 5 5 5 3 5 3 5 5 5 5 5 5 5 5 3 5 5 3 5 5 5 5 5 5 5 5 5 5 5 5 5 5 5 5 5 5 5 5 5 5 5 5 5 5 5 5 5 5 5 5 5 5 5 5 3 5 5 3 5 5 5 5 3 5 3 5 5 3 5 3 5 5 5 5 5 3 5 5 5 5 5 5 5 5 5 5 5 5 3 5 5 5 3 5 5 5 5 5 5 5 5 5 3 5 5 5 5 3 3 5 5 5 5 5 5 5 5 3 5 5 5 5 5 3 5 5 5 3 5 5 5 3 5 5 5 5 3 5 5 5 5 5 5 5 5 5 5 5 5 5 5 3 5 5 5 5 5 5 3 5 3 3 5 3 5 3 5 5 5 5 3 5 5 5 5 3 5 5 5 5 5 5 5 5 5 3 5 5 5 5 5 5 5 5 5 5 5 5 5 5 3 5 5 5 3 5 5 5 3 5 3 5 5 5 5 5 5 5 5 5 5 5 5 5 5 5 5 3 5 5 5 5 5 5 3 5 5 5 5 5 5 5 5 5 5 5 5 5 5 5 5 5 5 3 5 5 5 5 5 5 5 5 5 5 5 5 5 5 5 5 5 5 5 5 5 5 5 5 5 5 5 5 5 5 5 5 5 5 3 5 5 5 5 3 5 5 5 5 5 5 5 3 5 5 5 5 5 5 5 5 5 3 5 5 3 5 5 5 5 5 3 5 5 5 3 5 5 3 5 5 5 5 5 5 5 5 5 5 5 5 5 5 5 5 5 5 5 5 3 5 5 5 5 5 5 5 5 5 5 3 3 5 3 5 5 5 5 5 3 5 5 5 5 3 5 5 5 5 5 3 5 3 5 5 3 5 5 5 5 5 5 5 5 3 5 5 5 5 5 5 3 5 5 5 5 5 5 3 5 5 5 5 3 5 5 3 5 3 5 5 3 5 5 5 5 5 5 3 5 5 5 5 3 5 5 5 5 5 5 5 5 3 3 5 5 5 5 5 5 5 5 3 5 5 5 5 5 5 3 5 5 5 5 5 5 5 3 5 5 5 3 5 5 5 5 5 5 5 5 5 5 5 5 3 5 5 5 5 3 5 5 3 5 5 5 5 3 5 5 5 3 3 5 5 5 3 5 5 5 3 5 5 5 5 5 5 5 5 5 3 5 5 5 3 5 5 5 5 5 5 5 5 5 5 5 5 3 5 3 5 5 3 5 5 3 5 5 5 5 5 5 5 3 5 5 5 5 5 3 5 3 5 5 5 3 3 5 3 3 5 3 5 5 5 5 5 5 3 5 3 5 5 5 5 5 5 5 5 5 5 5 5 5 3 5 5 3 5 3 5 5 3 5 5 5 3 3 5 5 3 5 5 5 5 5 5 5 5 5 5 5 5 5 5 5 5 5 5 5 5 5 5 5 3 3 5 3 5 3 5 5 3 3 5 5 3 5 5 3 5 5 3 5 3 5 5 5 5 3 5 5 5 5 3 5 3 3 5 3 5 5 3 3 5 5 5 3 5 5 5 5 3 3 5 5 5 5 5 3 5 5 5 5 5 5 5 5 5 5 5 3 5 3 5 3 5 5 3 5 3 5 5 5 5 5 5 5 5 3 5 5 3 5 5 5 5 3 5 5 5 5 5 5 5 5 5 5 5 5 3 5 5 5 5 5 5 5 5 5 5 5 3 5 5 5 5 5 5 3 5 3 5 5 3 5 5 5 5 5 5 5 5 5 5 5 5 5 5 5 5 5 3 3 5 5 5 3 5 5 3 5 5 5 5 5 5 5 5 5 5 5 5 5 5 5 5 5 5 5 5 5 5 5 5 5 3 3 5 5 5 5 5 5 5 5 5 5 5 3 5 5 5 5 5 5 5 5 5 5 5 5 5 5 5 5 5 5 5 5 5 5 5 5 5 5 5 5 5 5 5 5 5 3 5 5 5 5 5 3 5 5 3 5 5 3 3 5 5 5 5 5 5 5 5 5 5 5 5 5 3 5 5 3 5 5 5 5 5 5 3 5 5 3 5 5 5 5 5 5 5 5 5 5 5 5 5 3 5 5 5 5 5 5 5 3 5 5 5 5 5 5 5 5 5 5 5 5 3 5 5 3 5 5 5 5 5 5 5 5 5 5 5 5 5 5 5 5 5 5 5 5 3 5 5 3 5 3 5 5 5 3 5 5 3 5 3 5 5 5 3 5 5 5 5 3 5 5 5 5 5 5 5 3 5 5 5 3 5 5 5 5 5 5 5 5 5 5 5 5 3 5 5 5 5 5 5 5 5 3 5 5 5 5 5 5 5 5 5 5 5 3 5 5 5 5 5 5 5 5 5 5 5 5 5 5 5 5 5 5 5 3 3 5 5 5 3 5 5 5 5 5 5 5 5 5 5 5 5 3 5 5 5 5 5 5 5 5 5 3 5 5 5 5 5 5 5 5 5 5 5 5 5 5 5 5 3 5 3 5 5 5 5 5 3 5 5 5 5 3 5 5 5 3 5 5 5 3 5 5 5 5 5 5 5 5 5 3 5 5 5 3 5 5 3 5 5 5 5 5 5 3 5 5 5 5 5 5 5 5 3 5 5 5 3 5 5 5 5 5 5 5 5 5 5 5 5 5 5 5 5 5 5 5 5 5 5 5 5 5 5 5 3 5 5 5 5 5 5 5 3 5 5 5 5 5 5 5 5 5 5 5 5 5 5 5 5 5 5 5 5 5 5 5 5 5 3 5 3 5 5 5 5 5 5 3 5 5 5 3 5 5 3 5 5 5 5 5 5 5 5 5 5 5 5 3 5 5 5 5 5 3 5 5 5 5 5 5 5 5 5 5 5 5 5 3 5 5 5 3 5 5 5 5 5 5 5 5 5 5 5 5 3 3 5 5 5 5 3 5 5 5 5 5 5 5 5 5 3 3 5 5 5 5 5 3 5 5 5 5 5 3 5 5 5 5 5 3 5 3 5 5 5 5 3 5 3 5 3 3 5 5 5 5 5 5 5 3 3 5 5 5 5 5 5 3 3 3 5 3 3 5 5 5 3 5 5 5 5 5 3 3 3 5 3 5 5 5 3 5 3 3 5 5 5 5 5 5 5 3 3 5 5 3 3 3 5 5 5 5 5 5 5 5 5 5 5 5 5 5 5 5 5 5 5 5 5 5 5 5 5 5 5 5 5 5 5 5 5 5 5 5 5 5 5 5 3 5 5 5 5 5 5 5 5 5 5 3 5 5 5 5 5 5 3 5 5 3 5 5 5 5 5 5 5 5 5 5 5 5 5 3 5 3 5 5 5 5 3 5 5 5 3 5 5 3 5 5 5 3 5 5 3 5 5 5 5 5 3 5 5 5 5 5 5 5 3 5 5 5 5 5 5 5 3 5 5 3 5 5 5 5 3 5 3 5 5 5 5 5 3 5 5 5 5 3 5 5 5 5 5 5 3 3 5 5 5 5 5 3 5 5 3 5 5 5 5 5 5 5 5 5 5 3 5 5 5 5 5 5 5 5 5 5 5 5 5 5 5 5 5 5 3 5 5 5 5 5 5 3 5 5 5 5 5 5 5 3 3 5 5 5 5 3 5 5 5 5 5 5 5 3 5 5 3 5 3 3 3 5 5 5 5 5 5 3 5 5 5 5 5 3 5 5 5 5 3 5 5 5 3 5 5 5 3 5 5 5 5 5 5 5 5 5 5 5 5 5 5 5 5 5 5 5 5 5 5 5 5 5 3 5 5 5 5 5 5 5 3 5 3 5 5 5 5 5 5 3 5 5 3 5 5 5 3 5 5 3 5 5 5 5 5 3 5 5 5 3 3 5 5 5 5 5 5 5 5 5 5 5 5 3 5 5 5 5 5 5 5 5 5 3 5 5 5 5 5 3 3 5 5 5 5 5 5 5 5 5 3 5 5 5 5 5 5 5 5 3 5 5 5 5 5 5 5 5 5 5 5 5 5 5 5 5 5 5 3 5 5 5 5 3 5 3 5 3 5 5 5 5 5 5 5 5 5 5 5 5 5 5 5 5 5 3 5 5 5 5 5 3 5 5 5 3 3 5 5 5 5 5 3 5 5 5 5 3 5 5 5 5 5 5 5 5 3 5 5 5 5 5 5 5 3 5 5 5 5 5 5 5 5 5 3 5 5 5 5 5 5 5 5 5 5 5 5 5 5 5 5 5 5 3 5 5 5 5 5 5 5 5 5 5 5 5 5 3 5 5 5 5 5 5 3 5 5 3 5 5 3 5 5 5 5 5 5 5 5 5 5 5 5 5 5 5 5 5 5 5 5 5 5 5 5 5 5 3 5 3 5 3 3 5 5 5 3 5 5 5 5 5 5 5 5 5 3 3 5 3 5 5 5 5 5 5 5 5 5 5 5 5 5 5 3 5 3 3 5 3 5 5 5 5 5 5 5 5 5 3 3 5 5 5 5 5 5 5 5 5 5 5 5 5 5 5 5 5 5 5 5 5 5 3 5 5 5 5 5 3 5 5 5 5 5 3 5 5 5 3 5 5 5 5 5 5 5 5 5 3 5 5 5 5 3 5 5 5 5 5 5 3 5 5 5 5 5 5 5 3 5 5 5 5 3 5 5 5 5 5 5 5 5 5 5 3 5 5 5 5 3 5 5 5 3 5 5 5 5 5 3 5 5 5 5 5 5 5 5 5 5 5 5 5 5 3 3 5 5 3 5 5 5 5 5 5 5 3 5 5 5 5 5 5 3 5 5 5 5 5 5 5 5 5 5 5 5 5 5 5 5 5 5 5 5 5 5 5 3 5 5 5 5 5 5 5 5 3 5 5 5 5 3 5 5 5 5 5 3 5 3 5 3 5 5 5 5 5 5 5 3 5 5 5 3 5 5 5 5 5 3 5 5 5 5 5 3 5 3 5 5 3 5 3 5 5 5 5 5 3 5 5 5 3 5 5 5 5 5 5 5 5 5 5 3 5 5 5 5 5 5 5 5 5 5 5 5 5 5 5 5 5 5 5 5 5 5 3 5 5 5 5 5 5 5 5 5 5 5 5 5 5 5 5 5 5 3 5 5 5 3 5 5 5 5 5 5 3 5 5 5 3 3 5 3 5 3 3 5 3 5 5 3 5 5 3 3 5 5 5 5 5 5 5 5 3 5 3 5 5 5 5 5 5 5 5 5 5 5 5 5 5 5 5 5 5 5 5 5 5 3 5 5 5 5 5 5 5 5 3 5 5 3 5 5 3 3 5 5 3 5 5 5 5 5 5 5 5 5 5 5 5 5 5 5 5 5 5 5 5 5 5 5 5 5 5 5 5 5 5 5 5 5 5 5 5 5 5 5 3 5 3 5 5 5 5 5 5 5 5 5 5 5 5 5 5 5 5 5 5 5 5 5 5 5 5 5 5 5 5 5 5 5 5 5 5 5 5 5 5 5 5 3 5 5 3 5 5 5 5 5 3 5 3 5 5 3 5 5 5 5 5 5 3 5 5 5 5 5 5 5 5 5 5 5 3 5 5 3 3 5 3 5 5 3 5 5 5 5 3 5 5 5 5 5 5 5 5 5 3 5 3 5 5 5 5 5 5 5 3 5 3 5 5 5 5 5 5 5 5 5 3 5 3 5 5 5 5 5 5 5 5 5 5 3 5 5 5 3 5 5 3 5 5 3 5 5 5 5 3 5 5 5 3 5 5 5 5 5 5 5 5 5 5 5 5 5 5 3 5 5 5 5 5 5 3 5 3 5 3 5 5 5 3 5 5 5 5 5 5 5 5 3 5 5 5 5 5 3 5 5 3 5 5 5 5 5 5 5 5 5 3 5 5 5 3 5 5 5 5 5 5 3 5 5 5 5 5 5 5 5 5 5 5 5 5 5 5 5 5 5 5 5 5 5 5 5 5 5 5 5 5 5 5 3 5 5 5 5 5 3 5 5 3 3 5 5 5 5 3 5 5 5 5 5 3 5 5 5 5 5 5 5 5 5 5 5 5 5 5 5 5 3 5 5 5 5 5 5 5 5 3 3 5 5 5 5 5 5 3 5 5 5 5 3 5 5 5 5 5 5 5 5 5 5 5 5 5 5 5 5 5 5 5 5 5 5 5 5 3 5 5 3 5 5 5 5 5 5 5 5 5 5 5 5 5 5 5 5 5 5 5 5 5 5 5 5 5 5 5 3 5 3 5 5 5 5 5 3 5 5 5 5 5 5 5 5 5 5 5 5 5 5 5 5 5 5 5 5 3 3 5 3 5 5 5 5 5 5 5 5 5 5 5 5 5 5 5 5 3 5 5 5 3 5 5 5 5 5 5 5 5 5 5 5 5 5 3 5 5 5 5 5 5 5 5 5 5 5 5 5 5 5 5 5 5 5 5 5 5 3 5 5 5 5 5 5 5 5 5 5 5 5 5 3 5 3 5 5 3 3 5 5 5 5 5 5 5 5 5 5 5 5 5 5 5 5 5 5 5 5 3 5 5 3 5 5 5 3 5 5 5 5 5 5 3 5 5 5 3 5 5 5 5 5 5 5 5 3 5 5 3 5 5 3 5 3 5 5 5 5 3 3 5 5 3 3 5 5 3 5 5 5 5 3 5 5 3 3 5 3 5 5 5 5 5 5 5 5 5 5 5 5 5 5 5 5 5 5 5 5 3 5 5 5 5 3 5 5 5 5 3 3 5 5 5 5 5 5 5 5 5 5 5 5 3 5 5 5 3 5 5 5 5 5 5 5 3 5 5 5 3 5 5 3 3 5 5 5 3 5 5 5 3 5 5 5 5 5 5 5 5 5 5 5 5 5 5 5 5 5 5 3 5 5 5 5 5 5 5 5 5 5 5 5 5 5 5 5 5 5 3 3 5 5 5 5 5 3 3 5 3 5 5 5 5 5 5 5 5 5 3 5 5 5 3 5 5 5 5 5 5 5 5 5 5 5 5 5 5 3 5 5 5 5 5 5 5 3 5 5 3 5 5 5 5 5 5 3 5 5 5 5 3 5 5 5 5 5 5 3 5 5 5 5 5 5 5 5 3 3 5 5 5 3 3 5 5 5 5 5 3 5 5 5 5 5 5 3 5 5 5 5 3 5 5 5 5 5 3 5 5 5 5 3 5 5 5 5 5 5 5 5 5 5 5 5 5 5 5 5 5 5 5 5 5 5 5 5 5 3 5 5 5 5 3 5 3 5 3 5 5 3 5 5 3 5 5 3 5 5 5 5 5 5 3 5 5 3 5 3 3 3 5 5 3 5 3 3 5 5 5 3 5 3 5 5 5 5 5 5 3 5 5 5 3 5 5 5 5 5 5 5 3 5 5 5 3 5 3 3 5 5 5 5 5 5 5 3 5 5 5 5 5 5 5 5 3 3 5 5 5 5 3 5 5 3 5 5 5 3 5 5 5 3 3 5 5 5 5 3 5 5 5 5 5 3 3 5 5 5 5 5 5 5 5 5 5 5 5 5 5 5 5 5 5 5 5 5 5 5 5 5 5 5 5 5 5 5 3 5 5 5 3 5 5 5 5 5 5 5 5 5 5 5 5 5 5 5 3 5 3 3 5 5 3 5 5 5 5 5 5 5 5 5 5 5 5 5 5 5 5 5 5 5 5 5 5 5 3 5 5 3 3 5 5 5 5 5 5 5 3 5 5 5 3 5 5 5 5 3 3 5 5 5 5 5 5 5 3 5 5 5 5 3 5 5 5 5 3 5 5 5 5 5 5 5 5 5 5 5 5 5 5 5 5 5 5 5 3 5 5 5 5 5 5 5 5 5 5 5 5 5 5 5 5 3 5 5 5 3 5 5 5 5 5 5 5 5 5 3 5 5 5 5 5 5 5 5 5 5 5 5 5 5 5 5 5 5 5 5 5 3 5 5 5 5 5 5 5 5 5 5 5 5 5 5 5 5 5 3 5 5 5 5 5 3 5 5 5 5 5 5 5 5 5 5 5 5 5 5 5 5 5 5 5 5 5 5 5 5 5 5 5 3 5 5 3 5 5 5 3 5 5 5 5 5 5 5 5 5 5 5 5 5 5 5 3 5 3 5 5 5 5 5 5 5 5 5 3 5 5 5 5 5 5 5 5 5 3 3 5 5 5 5 5 5 5 5 5 5 5 5 5 5 5 5 5 5 5 5 5 5 5 5 5 5 5 5 5 5 5 5 5 5 5 5 5 5 5 5 5 5 5 5 5 5 5 5 5 5 5 5 5 5 5 5 5 5 5 5 5 5 5 5 5 5 5 5 5 5 5 3 5 5 5 5 5 5 3 5 5 5 5 5 5 5 5 5 3 5 3 5 5 5 5 5 5 5 5 5 5 5 5 5 5 5 5 5 5 5 5 5 5 5 5 5 5 5 5 5 5 5 5 5 5 3 5 5 5 3 3 5 5 5 5 5 5 5 5 5 5 5 5 5 5 5 5 5 5 5 5 5 5 3 3 5 5 5 5 5 5 5 5 3 5 5 5 5 5 5 3 5 5 5 5 5 3 5 5 5 5 3 5 5 5 3 5 5 5 3 5 5 3 5 5 5 5 5 5 5 5 5 5 5 5 5 3 5 5 5 5 5 5 5 5 3 5 5 5 5 5 5 5 5 5 5 5 3 5 5 5 3 5 5 5 5 3 5 5 5 5 5 5 5 5 3 5 3 5 5 3 5 5 5 5 5 3 5 5 5 5 5 5 5 5 5 5 5 5 3 5 5 5 5 5 5 5 5 5 3 5 5 5 5 5 5 3 5 5 5 5 5 5 5 3 5 5 5 5 5 3 5 5 5 5 5 5 5 5 5 5 5 5 5 5 5 5 5 5 5 5 5 5 5 5 5 5 5 5 5 5 5 5 5 5 5 5 5 5 5 5 5 5 5 5 5 5 5 3 5 3 5 5 5 5 5 5 5 5 5 5 5 5 5 5 3 5 5 5 5 5 5 5 5 5 5 5 5 5 5 5 3 5 5 3 5 3 5 5 5 5 5 3 5 5 5 5 5 5 5 5 5 5 5 5 5 5 5 5 5 5 5 5 3 5 5 5 5 5 5 5 5 5 5 5 3 5 3 5 5 3 5 3 5 5 5 5 5 5 5 3 5 3 5 5 5 5 3 5 5 5 5 3 3 5 5 3 5 5 5 5 5 5 5 5 5 5 5 5 5 5 5 5 3 5 5 5 5 5 5 5 5 5 5 5 5 5 5 3 5 3 5 5 5 5 5 5 5 3 5 3 5 5 5 5 5 5 5 5 5 3 3 5 5 5 3 5 5 5 5 3 5 3 5 5 3 5 3 3 3 5 5 3 5 5 5 3 3 3 5 5 5 5 5 5 5 5 5 5 5 3 5 5 5 5 5 5 3 5 5 5 3 5 5 5 5 5 5 5 5 3 5 5 5 3 5 5 5 5 5 5 5 5 5 5 5 5 5 5 5 5 5 5 5 5 5 5 5 5 5 5 5 5 5 5 5 5 5 5 5 5 5 5 5 5 5 5 5 5 5 5 5 5 5 5 5 5 5 5 5 5 5 5 5 5 3 5 5 5 5 5 3 5 5 5 5 3 5 5 5 3 5 5 5 5 5 5 5 5 5 5 5 5 5 5 5 5 5 5 5 5 5 5 5 5 5 5 5 5 5 5 5 5 5 5 5 5 5 5 5 5 3 5 5 3 5 5 5 5 5 5 5 3 5 5 5 5 5 5 5 5 5 5 5 3 5 5 3 5 3 5 5 5 3 5 5 5 5 5 5 5 5 3 5 5 5 5 3 5 5 5 5 3 5 3 5 5 5 5 5 5 5 5 5 5 5 5 3 5 3 5 5 5 5 5 5 5 5 5 5 5 5 5 3 5 5 5 5 5 5 5 5 5 3 5 5 5 3 5 5 5 5 5 5 5 5 5 5 5 5 5 5 5 5 5 5 5 5 5 5 5 5 5 5 5 5 5 5 5 5 5 5 5 3 5 5 3 5 5 5 5 3 5 5 5 5 5 5 5 5 5 5 5 5 5 5 5 3 5 5 5 5 5 5 5 5 5 3 5 3 5 5 5 5 5 5 5 3 5 5 5 5 5 5 5 5 5 5 5 5 5 5 3 5 5 5 5 5 5 5 5 5 5 5 3 5 5 5 5 5 5 5 5 5 5 5 5 5 5 5 5 5 5 5 5 5 5 5 3 5 3 5 5 5 5 5 5 3 5 3 5 5 5 3 5 5 5 3 5 5 5 3 5 5 3 5 5 5 5 5 5 5 3 5 5 5 5 5 5 5 3 5 5 5 5 5 5 5 5 5 5 5 5 5 3 5 5 5 5 5 5 5 5 3 5 5 5 5 5 5 5 5 5 5 5 5 5 5 5 5 5 5 5 5 3 5 5 5 5 5 5 5 5 5 5 5 5 5 5 5 5 5 5 5 5 5 5 5 5 5 5 5 5 5 5 5 5 5 5 5 5 5 5 5 5 5 5 5 5 5 5 5 5 5 5 3 5 3 5 5 5 3 5 5 3 3 5 3 5 5 5 5 5 5 5 5 5 5 5 5 5 5 5 5 5 5 5 5 5 5 5 5 5 5 5 5 5 5 5 5 5 5 5 3 5 5 5 5 3 5 5 3 5 5 5 3 5 5 5 5 3 5 3 3 5 5 5 5 3 5 5 5 3 5 5 5 3 5 5 5 5 5 5 3 5 5 5 5 5 5 5 5 5 5 5 5 5 5 5 5 5 5 5 5 3 5 5 5 5 5 5 5 5 5 5 5 5 5 5 5 5 5 5 3 5 5 3 5 5 3 5 5 5 5 5 5 5 5 5 5 5 3 5 5 5 5 3 5 5 5 5 3 5 5 5 3 5 5 5 5 5 5 5 5 5 5 5 5 5 5 5 5 5 5 5 5 5 5 5 5 5 3 5 5 5 5 5 5 5 5 3 5 5 5 3 5 5 5 5 5 5 5 5 5 5 5 5 5 5 5 5 5 5 5 5 5 5 5 5 3 5 5 5 3 5 5 5 5 5 5 5 5 3 5 5 3 5 5 5 5 3 5 5 5 5 5 5 5 3 5 3 5 5 3 5 5 3 3 5 5 5 5 5 5 5 5 5 5 5 5 5 5 5 5 5 5 5 5 5 3 5 5 5 5 3 5 5 5 5 5 5 5 5 5 5 5 5 5 3 5 5 3 5 5 5 5 5 5 5 5 5 5 5 5 5 5 5 5 5 5 5 5 5 5 5 5 5 5 5 5 5 5 5 5 5 5 5 5 5 5 5 5 5 5 5 5 5 5 5 5 5 5 5 5 5 5 5 5 5 5 5 5 5 5 5 5 5 5 5 5 5 5 5 5 5 5 5 5 5 5 5 5 5 5 5 5 5 5 5 5 5 5 5 5 5 5 5 5 5 5 5 5 5 5 5 5 5 5 5 5 5 5 5 5 5 5 5 5 5 5 5 5 5 5 5 5 5 5 5 5 3 5 5 5 5 5 5 5 3 5 5 5 5 5 5 5 5 5 3 5 3 5 5 5 3 5 5 3 5 5 5 5 5 5 5 5 5 5 5 5 5 5 5 5 5 5 5 5 5 5 5 5 5 5 5 5 5 5 5 5 5 5 5 5 5 3 5 5 3 3 5 5 3 5 5 3 5 5 5 3 5 5 5 5 5 5 5 5 5 3 5 5 5 5 5 5 3 5 5 5 5 5 5 5 5 5 5 5 5 5 5 5 5 5 5 5 5 5 5 5 5 5 5 5 5 5 5 5 3 5 5 5 5 5 5 5 5 5 5 5 5 5 5 5 5 5 5 5 5 5 5 5 5 5 5 5 5 5 5 5 5 5 5 5 5 5 5 5 5 5 5 5 5 5 5 3 5 3 5 5 5 5 3 5 5 5 5 3 5 5 5 5 3 5 5 5 5 5 5 5 5 3 5 5 3 5 3 5 5 5 5 3 5 5 3 3 5 5 5 5 5 5 3 5 5 5 5 5 5 5 5 5 5 3 3 5 5 5 5 5 3 5 5 3 5 5 5 5 3 5 5 3 5 5 5 5 5 5 5 5 5 5 5 5 5 5 5 5 5 5 5 5 5 5 5 5 5 5 5 5 5 3 5 3 5 5 5 5 5 5 5 5 5 5 5 5 5 3 5 5 5 5 3 3 5 5 5 5 5 5 5 5 5 5 5 5 5 5 5 5 5 5 5 5 5 5 5 5 5 5 5 5 5 5 5 5 5 5 5 5 5 5 5 5 5 5 3 5 5 5 3 5 5 5 5 5 5 5 5 5 5 5 5 5 5 5 5 5 5 5 5 3 5 5 3 5 5 5 5 5 5 5 5 5 3 5 5 5 5 5 3 5 5 5 5 5 3 5 3 5 5 5 5 5 5 5 5 5 5 5 5 5 3 5 5 5 3 3 5 5 5 5 5 5 5 5 3 5 5 3 5 5 3 3 5 5 5 5 5 3 5 5 5 5 5 5 5 3 5 5 3 3 5 5 5 5 5 5 3 3 5 5 5 3 5 5 5 5 5 5 5 3 5 5 5 5 5 5 5 5 5 5 5 5 5 5 5 5 5 5 5 5 5 5 5 5 5 5 3 5 5 5 5 5 5 5 3 5 5 5 5 5 5 5 5 5 5 5 3 5 5 5 5 5 5 5 5 3 5 5 5 5 5 5 5 5 5 5 5 5 5 5 5 5 3 5 5 5 3 5 5 5 5 5 3 5 5 5 5 5 5 5 5 5 5 5 5 5 5 3 5 5 5 5 3 5 5 3 5 5 5 5 5 3 5 5 5 5 5 5 5 5 5 5 5 5 5 5 3 5 3 5 5 5 3 5 3 5 3 5 5 5 5 5 5 3 3 5 5 5 5 5 5 3 5 3 5 5 5 5 5 5 5 5 5 5 5 5 5 5 5 5 5 3 5 5 5 3 3 5 5 5 5 5 3 5 5 3 3 5 5 5 5 5 5 5 5 5 5 5 5 5 5 5 5 5 5 5 5 5 5 5 5 5 5 5 5 5 5 5 5 5 5 5 5 5 5 5 5 5 5 5 5 3 5 5 3 3 3 5 5 5 5 5 5 3 5 5 5 5 5 5 5 5 5 3 5 5 5 3 5 5 5 5 5 5 5 5 5 5 5 5 5 5 5 5 5 5 5 5 3 5 5 5 5 3 5 5 5 5 5 5 5 5 5 5 5 5 5 5 5 5 5 5 5 5 5 5 5 5 5 5 5 5 5 5 5 5 5 5 3 5 3 5 5 5 5 5 5 5 5 3 5 5 5 3 5 3 5 5 5 5 5 5 5 5 3 5 5 5 5 3 5 5 5 5 3 5 5 5 5 5 5 5 3 5 5 5 5 3 5 5 5 5 5 5 5 5 5 5 5 5 5 5 5 5 5 5 5 5 5 5 5 5 5 5 5 5 5 5 5 5 5 5 5 5 5 5 5 5 5 5 5 5 5 5 3 5 5 5 5 3 3 5 5 3 3 5 5 5 5 5 5 5 5 5 5 5 5 5 5 5 5 5 5 5 3 5 5 5 3 3 5 5 5 5 5 5 5 5 5 5 5 5 5 5 5 5 5 5 5 5 5 5 5 5 5 5 5 3 5 5 5 5 5 5 5 3 5 5 5 5 5 5 5 5 5 5 5 5 5 5 5 3 5 5 5 5 5 5 5 5 3 5 3 3 5 5 5 5 5 5 5 5 5 5 5 5 3 5 5 5 5 5 5 5 5 5 5 5 5 5 5 5 5 5 5 3 5 5 5 3 5 5 5 5 5 5 5 5 3 5 5 5 5 5 5 5 5 5 5 5 5 5 5 5 3 5 5 5 3 5 5 5 5 5 5 5 5 5 5 5 5 5 5 5 5 5 5 5 5 5 5 5 5 5 5 5 5 5 5 5 5 5 3 5 3 5 5 5 5 5 5 5 5 3 5 5 5 5 5 5 5 5 5 3 5 5 3 5 5 5 5 5 3 5 5 5 5 3 5 5 5 5 3 5 5 5 3 5 3 5 5 3 5 5 5 5 5 5 5 5 5 5 5 5 5 5 3 5 5 3 5 3 5 5 5 3 5 5 3 5 5 5 5 3 5 3 5 5 5 5 5 5 3 5 3 5 5 5 5 5 3 5 5 5 5 3 5 5 5 5 5 5 3 5 5 5 5 5 5 5 5 5 5 5 5 5 5 5 5 5 5 5 5 5 5 5 5 5 5 5 5 5 5 5 5 5 3 3 5 5 5 5 5 5 5 5 5 5 3 5 5 3 3 5 3 5 5 5 5 5 5 5 3 5 5 5 5 5 5 5 5 5 5 5 5 3 5 5 5 5 3 5 5 5 5 5 5 5 5 5 5 5 5 3 5 5 5 5 5 5 5 5 5 5 5 5 5 5 5 5 5 3 5 5 5 5 5 3 5 5 5 3 5 5 5 5 5 5 3 5 3 5 5 5 3 5 5 5 5 5 5 5 5 5 3 5 5 3 5 5 5 5 5 5 5 3 5 5 5 5 5 5 5 5 5 5 5 5 5 3 5 5 3 5 5 5 5 5 5 3 5 5 5 5 5 5 3 5 5 5 5 5 5 5 3 5 5 5 5 5 5 5 5 5 5 5 5 5 5 5 5 5 5 5 5 5 5 3 5 5 5 5 5 5 5 5 5 5 3 5 5 5 5 3 3 5 5 5 5 3 5 5 5 5 5 5 5 5 5 3 5 5 5 5 5 5 5 5 5 5 5 3 5 5 5 3 5 5 5 3 5 5 5 5 5 5 5 5 5 5 5 5 3 5 5 5 5 5 3 5 5 3 5 5 5 5 5 5 5 5 5 5 5 5 5 5 3 5 5 5 5 5 5 5 3 5 5 5 3 5 5 5 5 5 3 5 5 5 5 5 5 5 5 5 3 5 5 5 5 5 5 5 5 3 5 5 5 5 5 3 5 5 5 5 5 5 5 3 5 5 5 5 5 5 5 5 5 5 5 5 5 5 5 5 5 5 5 5 5 5 5 5 5 5 5 5 5 5 5 5 5 5 5 5 5 5 5 5 5 5 5 5 5 5 5 5 3 5 5 5 5 5 5 5 3 5 5 5 5 5 5 5 5 5 5 5 5 5 5 5 5 5 5 5 5 5 5 3 3 5 5 3 3 5 5 5 5 5 5 5 3 5 5 5 5 5 5 5 5 5 5 5 5 5 5 3 5 5 5 5 5 5 5 5 3 5 5 3 5 5 5 3 5 5 5 5 5 5 5 5 5 5 5 5 5 5 5 5 5 5 5 5 5 5 5 5 5 5 5 5 3 5 5 5 5 5 5 5 5 3 5 5 5 5 5 5 3 3 5 5 5 5 3 5 5 3 5 5 3 5 5 5 5 5 5 3 5 5 5 5 5 5 5 5 3 5 5 5 5 5 5 5 5 5 5 5 3 5 5 3 5 5 5 5 5 5 5 3 5 5 5 3 5 3 5 3 5 5 5 5 5 5 5 5 5 5 5 5 5 5 5 5 5 3 5 3 5 5 5 5 5 5 5 5 5 5 3 5 5 5 5 5 5 5 3 5 5 5 3 5 3 3 5 5 3 5 5 5 5 3 5 5 5 3 5 5 5 3 5 3 3 5 5 5 5 5 5 3 5 5 5 5 5 5 5 5 3 3 3 5 3 5 5 3 3 5 5 3 5 5 5 5 5 5 5 5 5 5 5 3 5 5 5 5 5 5 5 5 5 5 5 5 5 3 3 5 5 5 5 3 5 5 5 3 5 5 5 5 5 3 3 5 5 5 3 5 5 5 5 5 5 5 5 5 5 5 5 5 5 5 3 5 5 5 3 5 5 5 3 5 5 5 5 5 5 3 5 5 5 5 5 3 5 5 5 5 5 5 5 5 3 5 5 5 5 5 5 5 5 5 3 5 5 5 5 3 5 3 5 5 3 5 3 5 5 5 5 5 5 3 5 3 3 5 5 5 5 5 5 5 5 3 5 3 5 3 5 3 5 5 5 5 5 5 5 5 5 5 5 3 5 5 5 3 5 5 5 5 5 5 5 5 3 5 5 5 5 5 5 5 5 5 3 5 5 5 5 3 5 5 3 5 5 5 5 5 5 5 5 5 3 5 5 5 3 5 5 5 5 5 5 5 5 5 5 5 5 5 5 5 5 5 5 5 3 5 5 5 5 5 5 5 5 5 5 3 5 5 5 5 5 5 5 5 5 5 5 5 5 5 5 5 5 5 5 5 5 5 5 5 5 5 5 5 5 5 5 5 5 5 5 5 5 5 5 5 5 5 5 5 5 3 3 5 5 5 5 5 5 5 5 5 5 5 5 5 3 3 5 5 5 3 5 5 3 5 5 5 3 5 5 5 3 5 5 5 5 5 5 5 5 3 5 5 3 5 3 3 5 5 5 5 5 5 3 5 3 3 3 5 5 3 5 5 3 3 5 5 5 5 5 5 5 5 5 5 5 5 5 5 5 5 5 5 5 5 5 3 5 5 5 5 5 5 5 5 5 3 5 5 5 5 5 5 5 3 3 5 5 5 5 5 5 5 5 5 5 5 5 5 5 5 5 5 5 5 5 5 5 5 3 5 3 5 5 5 5 5 5 5 3 5 5 5 3 3 5 5 3 5 5 5 5 3 5 5 5 3 5 5 5 3 5 5 5 5 5 5 5 5 5 3 3 5 5 5 5 5 3 5 5 3 3 3 5 5 5 5 5 3 5 5 5 5 5 5 5 5 5 3 5 3 5 5 5 5 5 5 5 5 5 5 5 5 5 5 5 5 5 5 5 5 5 5 5 5 3 5 5 5 5 3 3 5 5 5 3 5 5 5 5 5 5 5 5 5 5 5 5 5 5 5 5 3 5 5 5 3 5 5 3 5 5 5 5 5 5 5 5 5 5 5 5 5 3 5 5 3 5 5 5 3 5 3 5 3 5 3 3 3 5 5 5 5 5 5 5 5 3 5 5 5 5 5 5 5 5 3 5 5 3 5 5 5 5 5 5 5 5 5 5 5 5 5 5 5 5 5 5 5 5 5 3 5 5 5 5 5 5 5 5 5 5 3 5 3 5 5 3 5 3 5 3 5 5 3 5 3 5 5 3 5 5 5 3 5 5 5 5 5 5 5 5 5 5 5 5 5 5 5 5 5 5 5 5 5 5 5 5 5 5 5 5 5 5 5 5 5 5 5 5 5 5 5 5 5 5 5 5 5 5 5 5 5 5 5 5 5 5 5 5 5 5 5 5 5 3 5 5 3 5 5 5 5 5 5 3 3 5 5 5 5 5 5 5 5 5 5 5 5 5 5 5 5 5 5 3 5 5 5 3 5 5 5 5 5 5 5 5 5 5 5 5 5 5 5 5 3 5 5 5 5 5 5 5 3 5 5 5 5 5 5 5 5 3 5 3 5 5 5 5 5 5 5 5 5 5 5 5 5 5 5 5 3 5 5 5 5 5 5 5 3 5 5 5 5 3 5 5 5 5 5 5 5 3 5 5 3 3 5 5 3 5 5 5 5 5 5 3 5 5 5 5 5 5 5 5 5 3 5 5 3 5 5 3 5 5 3 5 5 5 5 5 3 5 5 5 5 5 5 5 5 3 5 5 5 5 5 5 5 3 5 5 5 5 5 5 5 5 5 5 5 5 3 5 5 5 5 5 5 5 3 3 5 3 5 3 5 5 5 5 5 5 5 5 5 5 5 5 5 5 5 3 5 3 5 5 5 5 5 5 5 5 3 5 3 5 3 5 3 5 3 5 5 3 5 5 5 5 5 3 5 5 5 5 5 5 5 5 3 5 5 5 5 5 3 5 5 3 5 3 3 5 5 5 5 5 5 5 5 3 5 5 5 5 5 5 5 5 5 5 5 5 5 3 5 5 5 5 5 5 5 3 5 5 5 3 5 5 5 5 5 5 5 5 5 5 5 5 5 5 5 5 5 3 5 5 5 5 5 5 5 3 5 5 3 5 5 5 5 5 5 5 5 5 5 5 5 5 5 5 3 5 5 5 5 3 5 5 5 5 5 5 5 5 5 5 5 5 5 5 5 5 5 5 5 5 5 5 5 5 5 3 5 5 5 5 5 5 3 5 5 5 5 5 5 5 5 5 3 3 5 5 5 3 5 3 5 5 5 5 5 5 5 5 5 5 5 5 5 5 5 3 5 5 5 5 5 5 5 5 5 5 5 5 3 3 5 5 5 5 5 5 5 5 3 5 5 3 5 5 3 3 5 5 5 5 5 5 5 3 5 5 5 5 5 5 5 5 5 3 5 5 5 3 5 5 5 5 5 3 5 5 5 5 5 5 5 5 5 5 5 5 3 5 5 5 3 5 5 5 3 5 5 5 5 5 5 5 5 5 5 5 5 5 5 5 5 5 5 5 5 5 5 5 5 5 5 5 5 5 5 5 5 3 5 5 5 5 5 5 5 5 5 5 5 5 5 5 5 5 5 5 5 5 5 5 5 5 3 5 3 5 5 3 5 5 5 5 5 5 5 5 5 3 5 5 5 5 5 5 5 5 5 5 5 5 5 5 3 5 5 5 5 3 5 5 5 3 5 5 5 5 5 5 5 5 5 5 5 5 5 5 5 5 5 5 5 5 5 5 5 5 5 5 5 5 5 5 5 5 5 5 5 5 5 5 5 5 5 5 5 5 5 5 5 5 5 5 5 5 5 5 5 5 5 5 5 5 5 5 5 5 5 5 5 5 5 5 5 5 5 5 5 5 5 5 5 5 5 5 5 5 5 5 5 5 5 5 5 5 5 5 5 5 5 5 5 5 5 5 5 5 5 5 5 5 5 5 5 5 5 5 5 5 5 5 5 5 5 5 5 5 5 5 5 5 5 5 5 5 5 5 5 5 5 5 5 5 5 5 5 5 5 5 5 5 5 5 5 5 5 5 5 5 5 5 5 5 5 5 5 5 5 5 5 5 5 5 5 5 5 5 5 5 5 5 5 5 5 5 5 5 5 5 5 5 5 3 5 5 5 5 5 5 5 5 5 5 5 5 5 5 5 5 3 5 5 5 5 5 5 5 5 3 5 5 5 5 3 5 5 5 5 5 5 5 5 5 5 5 5 5 5 5 5 5 5 5 5 5 5 3 5 5 5 5 5 5 5 5 5 5 5 5 5 3 3 5 5 5 5 5 3 5 3 5 5 5 5 5 5 5 5 5 5 5 3 5 5 5 5 5 5 5 3 5 5 5 5 5 5 5 5 5 5 5 5 5 5 5 3 3 5 5 5 5 5 5 5 5 5 5 5 5 3 5 5 5 5 5 5 5 5 5 5 5 5 5 5 5 5 3 5 5 5 5 5 5 5 3 5 5 5 5 5 5 5 5 5 5 3 3 5 5 5 5 5 5 5 5 5 5 5 5 5 5 5 5 5 5 5 5 5 5 5 5 5 5 5 5 5 5 3 5 5 5 5 5 3 5 5 5 5 5 5 5 5 5 5 3 5 5 5 5 3 5 5 5 5 5 5 5 5 5 5 3 5 3 5 5 5 5 5 5 5 5 5 5 5 5 5 5 5 5 5 5 5 5 5 5 5 5 5 5 5 5 5 5 5 3 5 5 5 5 5 3 5 5 5 5 5 5 5 5 5 5 5 5 5 5 5 5 5 5 3 5 5 3 5 5 5 3 5 5 5 5 5 3 5 5 5 5 5 5 5 5 5 5 3 5 5 5 5 5 5 3 5 5 5 5 5 3 3 5 5 3 5 5 3 5 5 5 5 5 5 5 5 5 5 3 5 5 3 5 5 3 5 5 3 5 5 3 5 5 3 5 5 5 5 5 5 3 5 5 5 5 5 5 5 5 5 5 5 3 5 5 5 5 5 5 5 3 5 5 5 5 3 5 5 5 3 5 5 5 5 5 5 5 5 5 5 5 3 5 5 5 5 5 5 5 5 5 5 5 5 5 5 5 5 5 5 5 5 5 5 5 5 3 5 5 5 5 5 3 5 5 5 5 5 5 5 5 5 5 5 5 5 5 3 5 5 3 5 3 5 5 5 5 3 5 3 3 5 3 5 5 5 5 5 5 5 3 5 3 5 5 5 5 5 5 3 5 5 5 5 5 5 3 5 5 5 5 3 5 5 5 5 5 3 5 5 3 5 5 5 5 3 5 5 5 5 3 5 5 5 5 5 5 3 5 5 5 5 5 5 5 5 5 3 5 5 5 5 5 5 3 5 5 5 5 3 5 5 5 5 5 5 5 5 5 5 5 5 5 5 5 5 3 5 5 5 3 5 5 3 5 5 5 5 5 5 5 5 5 5 5 5 5 5 5 5 3 5 3 5 5 5 5 5 5 5 5 5 5 5 5 5 5 5 5 5 5 5 5 5 5 5 5 5 5 3 5 5 3 5 5 5 5 5 5 5 5 5 5 3 5 5 5 5 3 5 5 5 5 3 5 5 5 5 5 5 5 5 5 3 5 5 5 5 5 5 5 5 5 5 5 5 5 5 5 5 5 5 5 5 5 5 5 5 5 5 5 5 
</DataArray>
</Cells>
<PointData Scalars="" Vectors="displacement," Tensors="">
<DataArray type="Float64" Name="displacement" NumberOfComponents="3" format="ascii">
0.024997943095981592 1.9122997429452684e-07 0 0.024367518529267496 0.00012694257255506562 0 0.024998326068862549 5.2954600779536277e-07 0 0.024997943095981592 1.9122997429452684e-07 0 0.023905872587317262 8.4134010783470421e-05 0 0.024367518529267496 0.00012694257255506562 0 0.024997943095981592 1.9122997429452684e-07 0 0.023905872587317262 8.4134010783470421e-05 0 0.022431578974787796 1.8542134301801494e-07 0 0.023905872587317262 8.4134010783470421e-05 0 0.022431578974787796 1.8542134301801494e-07 0 0.023460285999804029 -5.8775610996149229e-05 0 0.022431578974787796 1.8542134301801494e-07 0 0.023460285999804029 -5.8775610996149229e-05 0 0.022291998723373178 4.814881394136012e-05 0 0.023696022291693694 -0.00015648508675135977 0 0.023819477964574908 -0.00015701307956367722 0 0.023460285999804029 -5.8775610996149229e-05 0 0.02302773789860527 -0.00024913330204692568 0 0.022988299865099083 -8.0120260614993818e-05 0 0.023460285999804029 -5.8775610996149229e-05 0 0.022988299865099083 -8.0120260614993818e-05 0 0.023027160566711908 -7.7253360697280187e-06 0 0.023905872587317262 8.4134010783470421e-05 0 0.023460285999804029 -5.8775610996149229e-05 0 0.024367518529267496 0.00012694257255506562 0 0.023460285999804029 -5.8775610996149229e-05 0 0.024367518529267496 0.00012694257255506562 0 0.024602420518724532 -0.0001936336498668217 0 0.024367518529267496 0.00012694257255506562 0 0.024917663568853988 2.0413828641326965e-05 0 0.024602420518724532 -0.0001936336498668217 0 0.024367518529267496 0.00012694257255506562 0 0.024998326068862549 5.2954600779536277e-07 0 0.024917663568853988 2.0413828641326965e-05 0 0.02499999914923718 -7.1341183809375176e-11 0 0.024998943511789058 3.0080090237353675e-07 0 0.024999998707978244 3.8587035003677634e-10 0 0.02499923047879312 -3.0282304652267152e-07 0 0.02461935741343893 -9.6646328399387825e-05 0 0.024999998707978244 3.8587035003677634e-10 0 0.024998752682706106 5.484531443545737e-07 0 0.024999471140798507 8.9516027725514679e-07 0 0.024999998707978244 3.8587035003677634e-10 0 0.024999997869956058 1.3544139625642605e-09 0 0.024999471140798507 8.9516027725514679e-07 0 0.024998943511789058 3.0080090237353675e-07 0 0.024999998707978244 3.8587035003677634e-10 0 0.024998752682706106 5.484531443545737e-07 0 0.024998943511789058 3.0080090237353675e-07 0 0.024998752682706106 5.484531443545737e-07 0 0.024997392009619011 4.3082943973394794e-07 0 0.02461935741343893 -9.6646328399387825e-05 0 0.024032887966101573 -0.00011478304491330734 0 0.024998752682706106 5.484531443545737e-07 0 0.024998455374282361 5.9164163119799015e-07 0 0.024997392009619011 4.3082943973394794e-07 0 0.024998752682706106 5.484531443545737e-07 0 0.024998455374282361 5.9164163119799015e-07 0 0.024999471140798507 8.9516027725514679e-07 0 0.024410070061742166 -4.7848211878240362e-05 0 0.024032887966101573 -0.00011478304491330734 0 0.023918372279469729 -0.00010444068773303752 0 0.023787505279950962 -0.00025884876703893812 0 0.023601297620553959 -0.00018322855397819488 0 0.023918372279469729 -0.00010444068773303752 0 0.023787505279950962 -0.00025884876703893812 0 0.023954157995030107 -0.00029617249470457064 0 0.023787505279950962 -0.00025884876703893812 0 0.023601297620553959 -0.00018322855397819488 0 0.023753119652023466 -0.00044932056962756058 0 0.02280277732501822 -0.00029209011672094904 0 0.022716603709962837 -0.00015013810588003412 0 0.022886164756620316 -0.00017615826082079868 0 0.024032887966101573 -0.00011478304491330734 0 0.023415183193786139 -0.0002705792283293106 0 0.022716603709962837 -0.00015013810588003412 0 0.022886164756620316 -0.00017615826082079868 0 0.02283802705866083 -8.8979361044856626e-05 0 0.023753119652023466 -0.00044932056962756058 0 0.023954157995030107 -0.00029617249470457064 0 0.024004670520656086 -0.0004614956180418663 0 0.023787505279950962 -0.00025884876703893812 0 0.023753119652023466 -0.00044932056962756058 0 0.023954157995030107 -0.00029617249470457064 0 0.02280277732501822 -0.00029209011672094904 0 0.02302773789860527 -0.00024913330204692568 0 0.022886164756620316 -0.00017615826082079868 0 0.024032887966101573 -0.00011478304491330734 0 0.023819477964574908 -0.00015701307956367722 0 0.024917663568853988 2.0413828641326965e-05 0 0.025005216278371163 -0.00017264248704233315 0 0.024602420518724532 -0.0001936336498668217 0 0.022886164756620316 -0.00017615826082079868 0 0.022988299865099083 -8.0120260614993818e-05 0 0.022920773912501611 -9.659894200259065e-05 0 0.022886164756620316 -0.00017615826082079868 0 0.022920773912501611 -9.659894200259065e-05 0 0.02283802705866083 -8.8979361044856626e-05 0 0.02302773789860527 -0.00024913330204692568 0 0.022886164756620316 -0.00017615826082079868 0 0.022988299865099083 -8.0120260614993818e-05 0 0.022988299865099083 -8.0120260614993818e-05 0 0.022987793223646039 -4.824567746232167e-05 0 0.023027160566711908 -7.7253360697280187e-06 0 0.022987793223646039 -4.824567746232167e-05 0 0.022992020338846689 -7.9794956005147945e-05 0 0.023027160566711908 -7.7253360697280187e-06 0 0.022987793223646039 -4.824567746232167e-05 0 0.022969496098360753 -5.1711638094488543e-05 0 0.022976390592642521 -6.0324515004447068e-05 0 0.022987793223646039 -4.824567746232167e-05 0 0.022959657746964884 -6.1905356428527261e-05 0 0.022969496098360753 -5.1711638094488543e-05 0 0.022988299865099083 -8.0120260614993818e-05 0 0.022987793223646039 -4.824567746232167e-05 0 0.022959657746964884 -6.1905356428527261e-05 0 0.022988299865099083 -8.0120260614993818e-05 0 0.022920773912501611 -9.659894200259065e-05 0 0.022959657746964884 -6.1905356428527261e-05 0 0.022920773912501611 -9.659894200259065e-05 0 0.022959657746964884 -6.1905356428527261e-05 0 0.022925017699778245 -5.2675928585373823e-05 0 0.022920773912501611 -9.659894200259065e-05 0 0.022925017699778245 -5.2675928585373823e-05 0 0.02283802705866083 -8.8979361044856626e-05 0 0.022925017699778245 -5.2675928585373823e-05 0 0.02283802705866083 -8.8979361044856626e-05 0 0.022837426693271663 -6.9796727442977876e-06 0 0.020639754354318866 -0.00058331463843693215 0 0.020564921583173999 -0.00062398318494254527 0 0.022925017699778245 -5.2675928585373823e-05 0 0.022952686287057066 -4.2964704269230998e-05 0 0.022929965300355928 -3.8727616003130643e-06 0 0.022925017699778245 -5.2675928585373823e-05 0 0.022906042978701777 3.3379501336254832e-05 0 0.022837426693271663 -6.9796727442977876e-06 0 0.02063624392400748 -0.00064784855863082001 0 0.020564921583173999 -0.00062398318494254527 0 0.022952686287057066 -4.2964704269230998e-05 0 0.022976390592642521 -6.0324515004447068e-05 0 0.02298224976675687 -6.3679614360122967e-05 0 0.022959657746964884 -6.1905356428527261e-05 0 0.022969496098360753 -5.1711638094488543e-05 0 0.022952686287057066 -4.2964704269230998e-05 0 0.022959657746964884 -6.1905356428527261e-05 0 0.022925017699778245 -5.2675928585373823e-05 0 0.022952686287057066 -4.2964704269230998e-05 0 0.022969496098360753 -5.1711638094488543e-05 0 0.022952686287057066 -4.2964704269230998e-05 0 0.022976390592642521 -6.0324515004447068e-05 0 0.022976390592642521 -6.0324515004447068e-05 0 0.02298224976675687 -6.3679614360122967e-05 0 0.02298177237796873 -8.3716494914056524e-05 0 0.020564921583173999 -0.00062398318494254527 0 0.020013810898597127 -0.00049037668157291263 0 0.02298224976675687 -6.3679614360122967e-05 0 0.02298177237796873 -8.3716494914056524e-05 0 0.022990948279989435 -0.00010634409817115867 0 0.02298177237796873 -8.3716494914056524e-05 0 0.022992020338846689 -7.9794956005147945e-05 0 0.022972371424973128 -0.00011286386840484492 0 0.022992020338846689 -7.9794956005147945e-05 0 0.022972371424973128 -0.00011286386840484492 0 0.022976476968812401 -0.00012868713567194503 0 0.022976390592642521 -6.0324515004447068e-05 0 0.02298177237796873 -8.3716494914056524e-05 0 0.022992020338846689 -7.9794956005147945e-05 0 0.022987793223646039 -4.824567746232167e-05 0 0.022976390592642521 -6.0324515004447068e-05 0 0.022992020338846689 -7.9794956005147945e-05 0 0.022716603709962837 -0.00015013810588003412 0 0.022608929043207465 5.6161825643902683e-06 0 0.022745953679703772 -1.7306299821665301e-05 0 0.023753119652023466 -0.00044932056962756058 0 0.023903297209767499 -0.00070535455839297839 0 0.024004670520656086 -0.0004614956180418663 0 0.023415183193786139 -0.0002705792283293106 0 0.022935323867417777 -0.00052244152330091129 0 0.022608929043207465 5.6161825643902683e-06 0 0.022745953679703772 -1.7306299821665301e-05 0 0.022689902535987291 6.1737798649543507e-05 0 0.022716603709962837 -0.00015013810588003412 0 0.022745953679703772 -1.7306299821665301e-05 0 0.02283802705866083 -8.8979361044856626e-05 0 0.022745953679703772 -1.7306299821665301e-05 0 0.02283802705866083 -8.8979361044856626e-05 0 0.022837426693271663 -6.9796727442977876e-06 0 0.022906042978701777 3.3379501336254832e-05 0 0.022781056732363619 9.1343674135291111e-05 0 0.022787483936626024 0.00023005758174616216 0 0.020564921583173999 -0.00062398318494254527 0 0.020098763244355274 -0.00069337803974087793 0 0.022745953679703772 -1.7306299821665301e-05 0 0.022837426693271663 -6.9796727442977876e-06 0 0.022781056732363619 9.1343674135291111e-05 0 0.022906042978701777 3.3379501336254832e-05 0 0.022837426693271663 -6.9796727442977876e-06 0 0.022781056732363619 9.1343674135291111e-05 0 0.022745953679703772 -1.7306299821665301e-05 0 0.022781056732363619 9.1343674135291111e-05 0 0.022689902535987291 6.1737798649543507e-05 0 0.022781056732363619 9.1343674135291111e-05 0 0.022689902535987291 6.1737798649543507e-05 0 0.022624106963353752 0.00016834607799173356 0 0.022608929043207465 5.6161825643902683e-06 0 0.022624106963353752 0.00016834607799173356 0 0.022507918795034016 0.00016994484752114533 0 0.022608929043207465 5.6161825643902683e-06 0 0.022689902535987291 6.1737798649543507e-05 0 0.022624106963353752 0.00016834607799173356 0 0.022624106963353752 0.00016834607799173356 0 0.02265579816563916 0.00028726409309635145 0 0.022787483936626024 0.00023005758174616216 0 0.022624106963353752 0.00016834607799173356 0 0.02265579816563916 0.00028726409309635145 0 0.022548467196738805 0.00030199022259709768 0 0.022781056732363619 9.1343674135291111e-05 0 0.022624106963353752 0.00016834607799173356 0 0.022787483936626024 0.00023005758174616216 0 0.020098763244355274 -0.00069337803974087793 0 0.01885369748322183 -0.00079950483333569194 0 0.019615113814099014 -0.00061637226265540091 0 0.019680461628462653 -0.00037239114350612703 0 0.019475542251236738 -0.00037564293166137173 0 0.019615113814099014 -0.00061637226265540091 0 0.019680461628462653 -0.00037239114350612703 0 0.019717729731958414 -0.00061477064649327281 0 0.018857368226296106 -0.00030533868356411313 0 0.01885369748322183 -0.00079950483333569194 0 0.022661369561493682 0.00045059713662938615 0 0.022548467196738805 0.00030199022259709768 0 0.022487351696299254 0.00045129264982445049 0 0.02265579816563916 0.00028726409309635145 0 0.022661369561493682 0.00045059713662938615 0 0.022548467196738805 0.00030199022259709768 0 0.01885369748322183 -0.00079950483333569194 0 0.019969801685992754 -0.00073671124450153461 0 0.02265579816563916 0.00028726409309635145 0 0.022787483936626024 0.00023005758174616216 0 0.022661369561493682 0.00045059713662938615 0 0.019755976400204184 -0.00085673758187891972 0 0.019615113814099014 -0.00061637226265540091 0 0.019717729731958414 -0.00061477064649327281 0 0.02298177237796873 -8.3716494914056524e-05 0 0.022972371424973128 -0.00011286386840484492 0 0.022990948279989435 -0.00010634409817115867 0 0.022984143896235841 -0.00012970487590363461 0 0.022972371424973128 -0.00011286386840484492 0 0.022990948279989435 -0.00010634409817115867 0 0.018857368226296106 -0.00030533868356411313 0 0.020013810898597127 -0.00049037668157291263 0 0.022984143896235841 -0.00012970487590363461 0 0.022972371424973128 -0.00011286386840484492 0 0.02296319349740886 -0.00013131517073211585 0 0.022972371424973128 -0.00011286386840484492 0 0.022963096769261102 -0.00012163629711096761 0 0.02296319349740886 -0.00013131517073211585 0 0.022963096769261102 -0.00012163629711096761 0 0.022941386955594018 -0.00013547735959557153 0 0.02296319349740886 -0.00013131517073211585 0 0.022972371424973128 -0.00011286386840484492 0 0.022963096769261102 -0.00012163629711096761 0 0.022976476968812401 -0.00012868713567194503 0 0.022963096769261102 -0.00012163629711096761 0 0.022959634005509166 -0.00012162835490835159 0 0.022976476968812401 -0.00012868713567194503 0 0.022631654666487998 -0.00044312560966621871 0 0.021216237758296293 -0.00052469977896714068 0 0.022190457300632151 -0.00015237687358882164 0 0.016976888349187008 -0.0011836515263516003 0 0.017128023282932597 -0.00060907873432300007 0 0.017803117598372355 -0.00074927772406461557 0 0.020217609850629214 0.00040149890521415214 0 0.019573159838993968 3.1072946082633415e-05 0 0.020217609850629214 0.00040149890521415214 0 0.020224276849017953 0.00039904986556441236 0 0.020217609850629214 0.00040149890521415214 0 0.019671784221697308 -0.00012580359957628255 0 0.022963096769261102 -0.00012163629711096761 0 0.022959634005509166 -0.00012162835490835159 0 0.022949633424285163 -0.00012519850214569487 0 0.022963096769261102 -0.00012163629711096761 0 0.022949633424285163 -0.00012519850214569487 0 0.022941386955594018 -0.00013547735959557153 0 0.019671784221697308 -0.00012580359957628255 0 0.019078236690288759 -0.00051773507372728173 0 0.017128023282932597 -0.00060907873432300007 0 0.017518924993958296 -0.00039773791377530055 0 0.017280938171974868 -1.9742118347864882e-05 0 0.017518924993958296 -0.00039773791377530055 0 0.017803117598372355 -0.00074927772406461557 0 0.017742825059710001 -5.4710669872369869e-06 0 0.017803117598372355 -0.00074927772406461557 0 0.018236486424685488 9.0541396306816586e-05 0 0.017742825059710001 -5.4710669872369869e-06 0 0.017518924993958296 -0.00039773791377530055 0 0.017742825059710001 -5.4710669872369869e-06 0 0.017280938171974868 -1.9742118347864882e-05 0 0.017128023282932597 -0.00060907873432300007 0 0.017518924993958296 -0.00039773791377530055 0 0.017803117598372355 -0.00074927772406461557 0 0.01904825900945372 -1.3680596389466144e-07 0 0.019573159838993968 3.1072946082633415e-05 0 0.019045247719625482 -1.280233007685911e-06 0 0.017803117598372355 -0.00074927772406461557 0 0.018236486424685488 9.0541396306816586e-05 0 0.019049812099077485 -2.0206316295907094e-06 0 0.021216237758296293 -0.00052469977896714068 0 0.020499098564003514 3.6133416968931314e-07 0 0.021216237758296293 -0.00052469977896714068 0 0.022190457300632151 -0.00015237687358882164 0 0.020499098564003514 3.6133416968931314e-07 0 0.022190457300632151 -0.00015237687358882164 0 0.020499098564003514 3.6133416968931314e-07 0 0.022291998723373178 4.814881394136012e-05 0 0.022431578974787796 1.8542134301801494e-07 0 0.020499098564003514 3.6133416968931314e-07 0 0.022291998723373178 4.814881394136012e-05 0 0.022190457300632151 -0.00015237687358882164 0 0.022291998723373178 4.814881394136012e-05 0 0.022810857382572818 -1.8023996050454654e-05 0 0.023460285999804029 -5.8775610996149229e-05 0 0.022291998723373178 4.814881394136012e-05 0 0.022810857382572818 -1.8023996050454654e-05 0 0.023460285999804029 -5.8775610996149229e-05 0 0.022810857382572818 -1.8023996050454654e-05 0 0.023027160566711908 -7.7253360697280187e-06 0 0.022810857382572818 -1.8023996050454654e-05 0 0.023027160566711908 -7.7253360697280187e-06 0 0.022815451089684999 -0.00010130114994648491 0 0.023027160566711908 -7.7253360697280187e-06 0 0.022976476968812401 -0.00012868713567194503 0 0.022815451089684999 -0.00010130114994648491 0 0.022992020338846689 -7.9794956005147945e-05 0 0.023027160566711908 -7.7253360697280187e-06 0 0.022976476968812401 -0.00012868713567194503 0 0.022660717931276195 -0.00042186901194634025 0 0.022976476968812401 -0.00012868713567194503 0 0.022674751144303326 -0.00034874237451410964 0 0.022976476968812401 -0.00012868713567194503 0 0.022674751144303326 -0.00034874237451410964 0 0.022815451089684999 -0.00010130114994648491 0 0.020217609850629214 0.00040149890521415214 0 0.020884754400832754 0.0005657632031345677 0 0.022190457300632151 -0.00015237687358882164 0 0.022674751144303326 -0.00034874237451410964 0 0.022815451089684999 -0.00010130114994648491 0 0.022631654666487998 -0.00044312560966621871 0 0.022190457300632151 -0.00015237687358882164 0 0.022674751144303326 -0.00034874237451410964 0 0.022190457300632151 -0.00015237687358882164 0 0.022810857382572818 -1.8023996050454654e-05 0 0.022815451089684999 -0.00010130114994648491 0 0.023061413138541459 -0.00026604926864191153 0 0.021990925252907769 -0.00093848107509736096 0 0.024839456004907175 0.00024174509350820684 0 0.024873823053264781 0.001049762114832187 0 0.024442267112802195 0.00039662235155391745 0 0.02495345546380914 -7.4183928746789589e-05 0 0.024968530016755065 -5.6943907347578562e-05 0 0.024972125687418183 -9.6457538677378313e-05 0 0.02495345546380914 -7.4183928746789589e-05 0 0.024949146717367542 -0.0001073712983124155 0 0.024972125687418183 -9.6457538677378313e-05 0 0.02495345546380914 -7.4183928746789589e-05 0 0.024931850556114458 -0.00010523883751688608 0 0.024949146717367542 -0.0001073712983124155 0 0.02495345546380914 -7.4183928746789589e-05 0 0.024956439700271567 -4.0972735661253744e-05 0 0.02496028209937701 -3.8129147827899966e-05 0 0.02495345546380914 -7.4183928746789589e-05 0 0.024956439700271567 -4.0972735661253744e-05 0 0.024968530016755065 -5.6943907347578562e-05 0 0.023061413138541459 -0.00026604926864191153 0 0.023383496672423891 -0.00019285005994668856 0 0.024956439700271567 -4.0972735661253744e-05 0 0.024968530016755065 -5.6943907347578562e-05 0 0.024922950156154158 -4.0227191624143636e-05 0 0.024839456004907175 0.00024174509350820684 0 0.024922950156154158 -4.0227191624143636e-05 0 0.02449121554402791 -3.4793646458089503e-05 0 0.024922950156154158 -4.0227191624143636e-05 0 0.024999927947242769 -8.1220819233985521e-08 0 0.02497047666537535 -2.5448993568467244e-05 0 0.024922950156154158 -4.0227191624143636e-05 0 0.024999927947242769 -8.1220819233985521e-08 0 0.024803567527270073 -4.8861795980674472e-05 0 0.024999927947242769 -8.1220819233985521e-08 0 0.02497047666537535 -2.5448993568467244e-05 0 0.024999950830280084 2.7479806652432046e-09 0 0.024956439700271567 -4.0972735661253744e-05 0 0.024922950156154158 -4.0227191624143636e-05 0 0.02497047666537535 -2.5448993568467244e-05 0 0.024956439700271567 -4.0972735661253744e-05 0 0.02497047666537535 -2.5448993568467244e-05 0 0.02496028209937701 -3.8129147827899966e-05 0 0.02496028209937701 -3.8129147827899966e-05 0 0.02497427939079053 -7.3752145215376954e-06 0 0.02495065066812931 -2.8734920146101674e-05 0 0.02497047666537535 -2.5448993568467244e-05 0 0.02496028209937701 -3.8129147827899966e-05 0 0.02497427939079053 -7.3752145215376954e-06 0 0.024999950830280084 2.7479806652432046e-09 0 0.02497427939079053 -7.3752145215376954e-06 0 0.024999947931975321 -6.8827625635512532e-09 0 0.02497047666537535 -2.5448993568467244e-05 0 0.024999950830280084 2.7479806652432046e-09 0 0.02497427939079053 -7.3752145215376954e-06 0 0.02497427939079053 -7.3752145215376954e-06 0 0.024999947931975321 -6.8827625635512532e-09 0 0.024962456731911883 6.674943629882671e-06 0 0.024962456731911883 6.674943629882671e-06 0 0.02495065066812931 -2.8734920146101674e-05 0 0.024890219276402632 -2.4094370476822441e-05 0 0.02497427939079053 -7.3752145215376954e-06 0 0.024962456731911883 6.674943629882671e-06 0 0.02495065066812931 -2.8734920146101674e-05 0 0.02495065066812931 -2.8734920146101674e-05 0 0.024907987086383282 -6.6240486570807791e-05 0 0.024890219276402632 -2.4094370476822441e-05 0 0.024907987086383282 -6.6240486570807791e-05 0 0.02490446887042206 -0.00010156691087911487 0 0.024870363973990353 -9.8997915069506565e-05 0 0.024907987086383282 -6.6240486570807791e-05 0 0.024940128594287382 -6.8606818503396516e-05 0 0.02490446887042206 -0.00010156691087911487 0 0.02495065066812931 -2.8734920146101674e-05 0 0.024907987086383282 -6.6240486570807791e-05 0 0.024940128594287382 -6.8606818503396516e-05 0 0.02495345546380914 -7.4183928746789589e-05 0 0.02496028209937701 -3.8129147827899966e-05 0 0.024940128594287382 -6.8606818503396516e-05 0 0.02496028209937701 -3.8129147827899966e-05 0 0.02495065066812931 -2.8734920146101674e-05 0 0.024940128594287382 -6.8606818503396516e-05 0 0.02495345546380914 -7.4183928746789589e-05 0 0.024940128594287382 -6.8606818503396516e-05 0 0.024931850556114458 -0.00010523883751688608 0 0.024940128594287382 -6.8606818503396516e-05 0 0.024931850556114458 -0.00010523883751688608 0 0.02490446887042206 -0.00010156691087911487 0 0.024931850556114458 -0.00010523883751688608 0 0.02490446887042206 -0.00010156691087911487 0 0.024896553405887589 -0.00013609493984023476 0 0.02490446887042206 -0.00010156691087911487 0 0.024855492272277555 -0.00013056609053581583 0 0.024896553405887589 -0.00013609493984023476 0 0.02490446887042206 -0.00010156691087911487 0 0.024870363973990353 -9.8997915069506565e-05 0 0.024855492272277555 -0.00013056609053581583 0 0.023405904167231643 -0.00080980764353576966 0 0.023568025379652888 -0.00071416984435940581 0 0.024825425442079562 -0.00015494480914790985 0 0.024779163924593204 -0.00015811274511641011 0 0.024807971222717884 -9.8975066684364431e-05 0 0.024870363973990353 -9.8997915069506565e-05 0 0.024855492272277555 -0.00013056609053581583 0 0.024807971222717884 -9.8975066684364431e-05 0 0.024655440780687904 -0.00062429790135254144 0 0.024600855424594704 -0.00042440319824682061 0 0.02478532496454755 -5.8006496860383925e-05 0 0.023387557158590016 -0.00073522305605653508 0 0.023755900166181846 -0.00072331660766051956 0 0.024655440780687904 -0.00062429790135254144 0 0.024600855424594704 -0.00042440319824682061 0 0.024396599838960788 -0.00040308928175161637 0 0.024600855424594704 -0.00042440319824682061 0 0.02478532496454755 -5.8006496860383925e-05 0 0.024650796214988516 -0.00015009143787450457 0 0.023387557158590016 -0.00073522305605653508 0 0.02387485299908312 -0.00019463982219515246 0 0.024779163924593204 -0.00015811274511641011 0 0.02478532496454755 -5.8006496860383925e-05 0 0.024807971222717884 -9.8975066684364431e-05 0 0.024600855424594704 -0.00042440319824682061 0 0.024568656920747365 -0.00025129260729842245 0 0.02446698006221636 -0.00028222474646850498 0 0.024600855424594704 -0.00042440319824682061 0 0.024568656920747365 -0.00025129260729842245 0 0.024650796214988516 -0.00015009143787450457 0 0.024568656920747365 -0.00025129260729842245 0 0.024529031893950629 -0.000139696189055888 0 0.02446698006221636 -0.00028222474646850498 0 0.024568656920747365 -0.00025129260729842245 0 0.024529031893950629 -0.000139696189055888 0 0.024650796214988516 -0.00015009143787450457 0 0.02478532496454755 -5.8006496860383925e-05 0 0.024856164609765578 -7.2444419855080173e-05 0 0.024890219276402632 -2.4094370476822441e-05 0 0.02478532496454755 -5.8006496860383925e-05 0 0.024807971222717884 -9.8975066684364431e-05 0 0.024856164609765578 -7.2444419855080173e-05 0 0.024907987086383282 -6.6240486570807791e-05 0 0.024870363973990353 -9.8997915069506565e-05 0 0.024856164609765578 -7.2444419855080173e-05 0 0.024870363973990353 -9.8997915069506565e-05 0 0.024807971222717884 -9.8975066684364431e-05 0 0.024856164609765578 -7.2444419855080173e-05 0 0.024907987086383282 -6.6240486570807791e-05 0 0.024856164609765578 -7.2444419855080173e-05 0 0.024890219276402632 -2.4094370476822441e-05 0 0.024962456731911883 6.674943629882671e-06 0 0.024890219276402632 -2.4094370476822441e-05 0 0.02477462299695006 6.3124248141411201e-05 0 0.024862152655611171 2.5891910663729264e-05 0 0.024802379677233699 1.9190949087377605e-05 0 0.024962456731911883 6.674943629882671e-06 0 0.024990544683521 1.5011629691671998e-06 0 0.025000324182247072 7.9618056845335025e-06 0 0.02478532496454755 -5.8006496860383925e-05 0 0.024890219276402632 -2.4094370476822441e-05 0 0.02477462299695006 6.3124248141411201e-05 0 0.024999947931975321 -6.8827625635512532e-09 0 0.025000009250789247 2.6188117579696545e-09 0 0.024997656443402794 8.7370052134393263e-07 0 0.024999947931975321 -6.8827625635512532e-09 0 0.024990544683521 1.5011629691671998e-06 0 0.024997656443402794 8.7370052134393263e-07 0 0.024999947931975321 -6.8827625635512532e-09 0 0.024962456731911883 6.674943629882671e-06 0 0.024990544683521 1.5011629691671998e-06 0 0.024990544683521 1.5011629691671998e-06 0 0.024997656443402794 8.7370052134393263e-07 0 0.025000324182247072 7.9618056845335025e-06 0 0.024997656443402794 8.7370052134393263e-07 0 0.025000324182247072 7.9618056845335025e-06 0 0.025000523852648372 1.9230590510550949e-06 0 0.025000009250789247 2.6188117579696545e-09 0 0.024997656443402794 8.7370052134393263e-07 0 0.025000523852648372 1.9230590510550949e-06 0 0.024802379677233699 1.9190949087377605e-05 0 0.024637125250015018 -7.3689980392106752e-06 0 0.025000324182247072 7.9618056845335025e-06 0 0.024999929365293765 1.8965889431498429e-06 0 0.025000523852648372 1.9230590510550949e-06 0 0.024529031893950629 -0.000139696189055888 0 0.02477462299695006 6.3124248141411201e-05 0 0.024318772356752304 3.0013085562433518e-06 0 0.02478532496454755 -5.8006496860383925e-05 0 0.024650796214988516 -0.00015009143787450457 0 0.02477462299695006 6.3124248141411201e-05 0 0.024529031893950629 -0.000139696189055888 0 0.024650796214988516 -0.00015009143787450457 0 0.02477462299695006 6.3124248141411201e-05 0 0.024999929365293765 1.8965889431498429e-06 0 0.025000523852648372 1.9230590510550949e-06 0 0.024999471140798507 8.9516027725514679e-07 0 0.025000009250789247 2.6188117579696545e-09 0 0.025000523852648372 1.9230590510550949e-06 0 0.024999997869956058 1.3544139625642605e-09 0 0.025000523852648372 1.9230590510550949e-06 0 0.024999997869956058 1.3544139625642605e-09 0 0.024999471140798507 8.9516027725514679e-07 0 0.024998455374282361 5.9164163119799015e-07 0 0.024999929365293765 1.8965889431498429e-06 0 0.024999471140798507 8.9516027725514679e-07 0 0.024410070061742166 -4.7848211878240362e-05 0 0.024637125250015018 -7.3689980392106752e-06 0 0.023918372279469729 -0.00010444068773303752 0 0.023954157995030107 -0.00029617249470457064 0 0.024140285709705892 -0.00018218094028518665 0 0.023918372279469729 -0.00010444068773303752 0 0.024318772356752304 3.0013085562433518e-06 0 0.024140285709705892 -0.00018218094028518665 0 0.023954157995030107 -0.00029617249470457064 0 0.024140285709705892 -0.00018218094028518665 0 0.024114128709252142 -0.00032909954289429789 0 0.024318772356752304 3.0013085562433518e-06 0 0.024140285709705892 -0.00018218094028518665 0 0.024358844073652151 -0.00020335786874388595 0 0.024529031893950629 -0.000139696189055888 0 0.024318772356752304 3.0013085562433518e-06 0 0.024358844073652151 -0.00020335786874388595 0 0.024529031893950629 -0.000139696189055888 0 0.024358844073652151 -0.00020335786874388595 0 0.02446698006221636 -0.00028222474646850498 0 0.024358844073652151 -0.00020335786874388595 0 0.02446698006221636 -0.00028222474646850498 0 0.024396599838960788 -0.00040308928175161637 0 0.024140285709705892 -0.00018218094028518665 0 0.024289315742507738 -0.00034646333487096985 0 0.024114128709252142 -0.00032909954289429789 0 0.024140285709705892 -0.00018218094028518665 0 0.024358844073652151 -0.00020335786874388595 0 0.024396599838960788 -0.00040308928175161637 0 0.023813268872707044 -0.00067177815665306123 0 0.023755900166181846 -0.00072331660766051956 0 0.024289315742507738 -0.00034646333487096985 0 0.024180508312256446 -0.00041687076102107229 0 0.024114128709252142 -0.00032909954289429789 0 0.024600855424594704 -0.00042440319824682061 0 0.02446698006221636 -0.00028222474646850498 0 0.024396599838960788 -0.00040308928175161637 0 0.024289315742507738 -0.00034646333487096985 0 0.02430673633290251 -0.00042929154649677578 0 0.024180508312256446 -0.00041687076102107229 0 0.024442956426708812 -0.00048717579712541587 0 0.024289315742507738 -0.00034646333487096985 0 0.02430673633290251 -0.00042929154649677578 0 0.02430673633290251 -0.00042929154649677578 0 0.024224623443774112 -0.00050404775992379889 0 0.024263033148064651 -0.00059909365487966317 0 0.02430673633290251 -0.00042929154649677578 0 0.024224623443774112 -0.00050404775992379889 0 0.024180508312256446 -0.00041687076102107229 0 0.024224623443774112 -0.00050404775992379889 0 0.024180508312256446 -0.00041687076102107229 0 0.024109829349323823 -0.00058092094603115724 0 0.024180508312256446 -0.00041687076102107229 0 0.024004670520656086 -0.0004614956180418663 0 0.024109829349323823 -0.00058092094603115724 0 0.023954157995030107 -0.00029617249470457064 0 0.024004670520656086 -0.0004614956180418663 0 0.024114128709252142 -0.00032909954289429789 0 0.024180508312256446 -0.00041687076102107229 0 0.024004670520656086 -0.0004614956180418663 0 0.024114128709252142 -0.00032909954289429789 0 0.023903297209767499 -0.00070535455839297839 0 0.024004670520656086 -0.0004614956180418663 0 0.024109829349323823 -0.00058092094603115724 0 0.023903297209767499 -0.00070535455839297839 0 0.024109829349323823 -0.00058092094603115724 0 0.024088110638242906 -0.00076080088989860083 0 0.024109829349323823 -0.00058092094603115724 0 0.024206662607535682 -0.00071620595875959215 0 0.024088110638242906 -0.00076080088989860083 0 0.02430673633290251 -0.00042929154649677578 0 0.024263033148064651 -0.00059909365487966317 0 0.024409011678420547 -0.0006859246895154484 0 0.024224623443774112 -0.00050404775992379889 0 0.024109829349323823 -0.00058092094603115724 0 0.024263033148064651 -0.00059909365487966317 0 0.024263033148064651 -0.00059909365487966317 0 0.024312052916683903 -0.00070874364658137206 0 0.024206662607535682 -0.00071620595875959215 0 0.024263033148064651 -0.00059909365487966317 0 0.024312052916683903 -0.00070874364658137206 0 0.024409011678420547 -0.0006859246895154484 0 0.024109829349323823 -0.00058092094603115724 0 0.024263033148064651 -0.00059909365487966317 0 0.024206662607535682 -0.00071620595875959215 0 0.024206662607535682 -0.00071620595875959215 0 0.024185820300446349 -0.00083997820346416632 0 0.024088110638242906 -0.00076080088989860083 0 0.024185820300446349 -0.00083997820346416632 0 0.024042693527771202 -0.00095154146913802278 0 0.024337671795442956 -0.00095774917047125574 0 0.024206662607535682 -0.00071620595875959215 0 0.024292134477357931 -0.00078064250177616642 0 0.024185820300446349 -0.00083997820346416632 0 0.024312052916683903 -0.00070874364658137206 0 0.024206662607535682 -0.00071620595875959215 0 0.024292134477357931 -0.00078064250177616642 0 0.024312052916683903 -0.00070874364658137206 0 0.024292134477357931 -0.00078064250177616642 0 0.024390646371972545 -0.00076251493193039738 0 0.022828724775695444 -0.0010242049159062394 0 0.022685878998615554 -0.0010501029676881805 0 0.024292134477357931 -0.00078064250177616642 0 0.024185820300446349 -0.00083997820346416632 0 0.024337671795442956 -0.00095774917047125574 0 0.024292134477357931 -0.00078064250177616642 0 0.024337671795442956 -0.00095774917047125574 0 0.024383040032508525 -0.00076389426745086635 0 0.023903297209767499 -0.00070535455839297839 0 0.024088110638242906 -0.00076080088989860083 0 0.024042693527771202 -0.00095154146913802278 0 0.022935323867417777 -0.00052244152330091129 0 0.022320068752027491 -0.00085038381544503498 0 0.024185820300446349 -0.00083997820346416632 0 0.024088110638242906 -0.00076080088989860083 0 0.024042693527771202 -0.00095154146913802278 0 0.022381275253498267 -0.00077637826864242806 0 0.022320068752027491 -0.00085038381544503498 0 0.022624106963353752 0.00016834607799173356 0 0.022474503055365844 0.00016668860854461177 0 0.022548467196738805 0.00030199022259709768 0 0.022320068752027491 -0.00085038381544503498 0 0.021387676441810048 -0.00075579077453543947 0 0.022474503055365844 0.00016668860854461177 0 0.022548467196738805 0.00030199022259709768 0 0.022391124371124688 0.0003069893798903661 0 0.022548467196738805 0.00030199022259709768 0 0.022391124371124688 0.0003069893798903661 0 0.022487351696299254 0.00045129264982445049 0 0.019969801685992754 -0.00073671124450153461 0 0.020406930373938148 -0.0008599947832731345 0 0.022391124371124688 0.0003069893798903661 0 0.022487351696299254 0.00045129264982445049 0 0.022307297551812107 0.00044851989034864977 0 0.021392241228456857 -0.00088922932248289711 0 0.021346972054189263 -0.00082469271595429284 0 0.021320032978194053 -0.00095082458043893744 0 0.020950658146472838 -0.0012550557423759582 0 0.020990784247993409 -0.0010914759465493998 0 0.021028365582960933 -0.0011798574391505955 0 0.020395813482621577 -0.00091104261071490566 0 0.021999032472201644 -0.00096258601633656196 0 0.020357220264420234 -0.00090953598720314806 0 0.020147903823008156 -0.00091242897447751123 0 0.020369224546896478 -0.00085813572888582311 0 0.020395813482621577 -0.00091104261071490566 0 0.020145755079025895 -0.0012113484062126572 0 0.020287512999463315 -0.00085138465913521468 0 0.020198923450303653 -0.00085267399744362224 0 0.020261241051633034 -0.00096410554062535518 0 0.020395813482621577 -0.00091104261071490566 0 0.020406930373938148 -0.0008599947832731345 0 0.021392241228456857 -0.00088922932248289711 0 0.021346972054189263 -0.00082469271595429284 0 0.021354490659291743 -0.00082458097747132057 0 0.021387676441810048 -0.00075579077453543947 0 0.020406930373938148 -0.0008599947832731345 0 0.022320068752027491 -0.00085038381544503498 0 0.021999032472201644 -0.00096258601633656196 0 0.021429793531313027 -0.00095394079753280544 0 0.021392241228456857 -0.00088922932248289711 0 0.021320032978194053 -0.00095082458043893744 0 0.021999032472201644 -0.00096258601633656196 0 0.021681747977706747 -0.0012431388471396761 0 0.021076759704863664 -0.0010941716925536953 0 0.021028365582960933 -0.0011798574391505955 0 0.021122405730609597 -0.0012042979217191385 0 0.020990784247993409 -0.0010914759465493998 0 0.021076759704863664 -0.0010941716925536953 0 0.021028365582960933 -0.0011798574391505955 0 0.020145755079025895 -0.0012113484062126572 0 0.020124697182858829 -0.0019480661243808078 0 0.021028365582960933 -0.0011798574391505955 0 0.021000964228070525 -0.0012544419570568799 0 0.021122405730609597 -0.0012042979217191385 0 0.020145755079025895 -0.0012113484062126572 0 0.020592725092528835 -0.0016405135577424784 0 0.020950658146472838 -0.0012550557423759582 0 0.021028365582960933 -0.0011798574391505955 0 0.021000964228070525 -0.0012544419570568799 0 0.020313672607277764 -0.0016776877905282956 0 0.02025002573931212 -0.0016793840686965783 0 0.020259447301372187 -0.0017010255240348343 0 0.020504691403226367 -0.0022104099748868917 0 0.020537048304279645 -0.0022853302419360674 0 0.020344292412399732 -0.0022838039323140971 0 0.020124697182858829 -0.0019480661243808078 0 0.020592725092528835 -0.0016405135577424784 0 0.021228305106668035 -0.0014935043572450338 0 0.021217617556061667 -0.0014706257992524324 0 0.021191809970214227 -0.001492934709496644 0 0.021681747977706747 -0.0012431388471396761 0 0.020592725092528835 -0.0016405135577424784 0 0.021681747977706747 -0.0012431388471396761 0 0.021567652965570092 -0.0016504939224560959 0 0.022171337796619232 -0.0012964018169833976 0 0.022137868103438953 -0.0013253470906580325 0 0.022086369930163319 -0.0012946003032447465 0 0.022137868103438953 -0.0013253470906580325 0 0.022193044326596943 -0.0013451668156847024 0 0.022132795426893632 -0.0013564518321519763 0 0.022611021975920843 -0.0010891822770596879 0 0.022837567182479732 -0.0011326141614317901 0 0.022137868103438953 -0.0013253470906580325 0 0.022132795426893632 -0.0013564518321519763 0 0.022105764978445214 -0.0013341985212076337 0 0.022136414599316891 -0.0011957656613356866 0 0.022221602696858488 -0.0010059631871394946 0 0.022179307818991214 -0.0010138082472157587 0 0.022136414599316891 -0.0011957656613356866 0 0.022303824888855048 -0.001200392202752826 0 0.022221602696858488 -0.0010059631871394946 0 0.021681747977706747 -0.0012431388471396761 0 0.022611021975920843 -0.0010891822770596879 0 0.022171337796619232 -0.0012964018169833976 0 0.022137868103438953 -0.0013253470906580325 0 0.022193044326596943 -0.0013451668156847024 0 0.021999032472201644 -0.00096258601633656196 0 0.022685878998615554 -0.0010501029676881805 0 0.022685878998615554 -0.0010501029676881805 0 0.022839136200612439 -0.0010141213351790961 0 0.022611021975920843 -0.0010891822770596879 0 0.022839136200612439 -0.0010141213351790961 0 0.022905734743743893 -0.001193676185133444 0 0.022783613849042088 -0.0012164058159349295 0 0.022830152167020924 -0.0010167115113172349 0 0.022611021975920843 -0.0010891822770596879 0 0.022685878998615554 -0.0010501029676881805 0 0.024442956426708812 -0.00048717579712541587 0 0.02430673633290251 -0.00042929154649677578 0 0.024398821066554992 -0.00066236295594919936 0 0.023089443233193164 -0.0010100130099859374 0 0.023116277087786498 -0.00089283606750512252 0 0.022936692163276356 -0.00088167312756141003 0 0.023098428207203259 -0.00085158479495224722 0 0.023116277087786498 -0.00089283606750512252 0 0.022936692163276356 -0.00088167312756141003 0 0.023099860991977934 -0.00097063867375414396 0 0.022839136200612439 -0.0010141213351790961 0 0.024312052916683903 -0.00070874364658137206 0 0.024390646371972545 -0.00076251493193039738 0 0.024409011678420547 -0.0006859246895154484 0 0.023387557158590016 -0.00073522305605653508 0 0.022839136200612439 -0.0010141213351790961 0 0.023387557158590016 -0.00073522305605653508 0 0.022837567182479732 -0.0011326141614317901 0 0.023405904167231643 -0.00080980764353576966 0 0.022860957240161794 -0.0010940119425332986 0 0.024825425442079562 -0.00015494480914790985 0 0.024779163924593204 -0.00015811274511641011 0 0.024828135019250207 -0.00020368632180973957 0 0.024825425442079562 -0.00015494480914790985 0 0.024828135019250207 -0.00020368632180973957 0 0.024840880704370363 -0.00020141555271995949 0 0.022837567182479732 -0.0011326141614317901 0 0.022860957240161794 -0.0010940119425332986 0 0.022860957240161794 -0.0010940119425332986 0 0.022708007296016627 -0.0010046556940065668 0 0.024855492272277555 -0.00013056609053581583 0 0.024874856616987982 -0.00017120042607113368 0 0.024896553405887589 -0.00013609493984023476 0 0.022246334349541048 -0.001209011517147325 0 0.022268678673592005 -0.0012046370222364919 0 0.022251162933856396 -0.0012206332031131839 0 0.024874856616987982 -0.00017120042607113368 0 0.024896553405887589 -0.00013609493984023476 0 0.024926911371868306 -0.00016181929142867528 0 0.024931850556114458 -0.00010523883751688608 0 0.024896553405887589 -0.00013609493984023476 0 0.024926911371868306 -0.00016181929142867528 0 0.022708007296016627 -0.0010046556940065668 0 0.022715725107506742 -0.0009260158737655678 0 0.021607373808461144 -0.0017991116638592019 0 0.021498910193181852 -0.0016968152759666226 0 0.021406959723618484 -0.0018359257924119234 0 0.022901074722151464 -0.00072687803758426472 0 0.022708007296016627 -0.0010046556940065668 0 0.024931850556114458 -0.00010523883751688608 0 0.024927646353064929 -0.00011785031950009871 0 0.024949146717367542 -0.0001073712983124155 0 0.021607373808461144 -0.0017991116638592019 0 0.021498910193181852 -0.0016968152759666226 0 0.021626295724069756 -0.0015899897239656346 0 0.022708007296016627 -0.0010046556940065668 0 0.021833682443291088 -0.0014603609360759988 0 0.021498910193181852 -0.0016968152759666226 0 0.021509898038103926 -0.0015974844700556653 0 0.021626295724069756 -0.0015899897239656346 0 0.021960396193785595 -0.0015611462464641122 0 0.021841367960666245 -0.0013089994410874644 0 0.021755789935059763 -0.0013896427420761269 0 0.022268678673592005 -0.0012046370222364919 0 0.022251162933856396 -0.0012206332031131839 0 0.022264975562383153 -0.0012332777725583338 0 0.022352113289784641 -0.0012829307390716832 0 0.021833682443291088 -0.0014603609360759988 0 0.022137868103438953 -0.0013253470906580325 0 0.022105764978445214 -0.0013341985212076337 0 0.022086369930163319 -0.0012946003032447465 0 0.022352113289784641 -0.0012829307390716832 0 0.021567652965570092 -0.0016504939224560959 0 0.022837567182479732 -0.0011326141614317901 0 0.022352113289784641 -0.0012829307390716832 0 0.022860957240161794 -0.0010940119425332986 0 0.022352113289784641 -0.0012829307390716832 0 0.022606638544741642 -0.0013662838193725865 0 0.022552132385279082 -0.001376378384034864 0 0.022508535528696978 -0.0012836869149464476 0 0.021217617556061667 -0.0014706257992524324 0 0.021191809970214227 -0.001492934709496644 0 0.021187223699570185 -0.001483676037569845 0 0.021841367960666245 -0.0013089994410874644 0 0.021763456532349408 -0.0013069331176882618 0 0.021755789935059763 -0.0013896427420761269 0 0.021567652965570092 -0.0016504939224560959 0 0.02150469561639666 -0.0017379322512741846 0 0.021316761745263819 -0.0017015012527470173 0 0.02132062092838163 -0.0017104697941316988 0 0.021321646408356702 -0.0017016616834209112 0 0.021567652965570092 -0.0016504939224560959 0 0.02121136396409418 -0.0018674315946988046 0 0.02121136396409418 -0.0018674315946988046 0 0.02150469561639666 -0.0017379322512741846 0 0.020124697182858829 -0.0019480661243808078 0 0.020179155669392736 -0.0029738058833623056 0 0.020592725092528835 -0.0016405135577424784 0 0.02121136396409418 -0.0018674315946988046 0 0.020537048304279645 -0.0022853302419360674 0 0.020309213661494234 -0.0023796895954030744 0 0.020344292412399732 -0.0022838039323140971 0 0.020504691403226367 -0.0022104099748868917 0 0.020344292412399732 -0.0022838039323140971 0 0.020324330230935082 -0.0022139809859764259 0 0.020309213661494234 -0.0023796895954030744 0 0.020344292412399732 -0.0022838039323140971 0 0.020321620949081642 -0.0022382131555882777 0 0.02121136396409418 -0.0018674315946988046 0 0.02024683735281374 -0.0029279020027061244 0 0.020239661835165706 -0.0029030692650202999 0 0.02024683735281374 -0.0029279020027061244 0 0.020344292412399732 -0.0022838039323140971 0 0.020322066741458054 -0.0022381759415233595 0 0.020324330230935082 -0.0022139809859764259 0 0.020159280801682458 -0.0032292734167854381 0 0.02018447467869024 -0.0029655660453066675 0 0.020033152416142536 -0.0029677766606216534 0 0.02024683735281374 -0.0029279020027061244 0 0.020177558083651806 -0.0030560812565704975 0 0.02024683735281374 -0.0029279020027061244 0 0.020179155669392736 -0.0029738058833623056 0 0.020179155669392736 -0.0029738058833623056 0 0.020177558083651806 -0.0030560812565704975 0 0.020420274256962283 -0.002777521921859775 0 0.020313891041397143 -0.0028752819667564504 0 0.020247261273414995 -0.0028630815664174615 0 0.020177558083651806 -0.0030560812565704975 0 0.019581086964557935 -0.0041343633248158724 0 0.020420274256962283 -0.002777521921859775 0 0.020247261273414995 -0.0028630815664174615 0 0.020185263454033903 -0.0027825955595203408 0 0.020433305398162786 -0.0028042481885680783 0 0.020420274256962283 -0.002777521921859775 0 0.020370753980723532 -0.0028600933617883065 0 0.020420274256962283 -0.002777521921859775 0 0.020370753980723532 -0.0028600933617883065 0 0.020313891041397143 -0.0028752819667564504 0 0.020420206325066591 -0.0029605394540408846 0 0.020433305398162786 -0.0028042481885680783 0 0.020370753980723532 -0.0028600933617883065 0 0.02121136396409418 -0.0018674315946988046 0 0.021203578393624006 -0.0019779760356369064 0 0.020417594891260292 -0.0029610279480550674 0 0.020370753980723532 -0.0028600933617883065 0 0.020337843449606527 -0.0029380169997731413 0 0.020370753980723532 -0.0028600933617883065 0 0.020313891041397143 -0.0028752819667564504 0 0.020337843449606527 -0.0029380169997731413 0 0.020313891041397143 -0.0028752819667564504 0 0.020277865374733556 -0.0029215707189114283 0 0.020337843449606527 -0.0029380169997731413 0 0.020277865374733556 -0.0029215707189114283 0 0.020218892172813592 -0.0029612979699411069 0 0.020247261273414995 -0.0028630815664174615 0 0.020313891041397143 -0.0028752819667564504 0 0.020277865374733556 -0.0029215707189114283 0 0.020247261273414995 -0.0028630815664174615 0 0.020292055050293419 -0.0029773686644879111 0 0.02041031569151984 -0.0030356865414019147 0 0.020216058777579808 -0.003030141944627212 0 0.020277865374733556 -0.0029215707189114283 0 0.020292055050293419 -0.0029773686644879111 0 0.020218892172813592 -0.0029612979699411069 0 0.02150469561639666 -0.0017379322512741846 0 0.020714072998840243 -0.0022976517611803782 0 0.021630804565247914 -0.0015455893671602351 0 0.021590852826667801 -0.0015605502750368669 0 0.021441186035070527 -0.0015409895815588889 0 0.020277865374733556 -0.0029215707189114283 0 0.020292055050293419 -0.0029773686644879111 0 0.020337843449606527 -0.0029380169997731413 0 0.020292055050293419 -0.0029773686644879111 0 0.020337843449606527 -0.0029380169997731413 0 0.02041031569151984 -0.0030356865414019147 0 0.020417594891260292 -0.0029610279480550674 0 0.020337843449606527 -0.0029380169997731413 0 0.02041031569151984 -0.0030356865414019147 0 0.021509898038103926 -0.0015974844700556653 0 0.021590852826667801 -0.0015605502750368669 0 0.021626295724069756 -0.0015899897239656346 0 0.021630804565247914 -0.0015455893671602351 0 0.021590852826667801 -0.0015605502750368669 0 0.021626885012594521 -0.0015908512119874384 0 0.02150469561639666 -0.0017379322512741846 0 0.021833682443291088 -0.0014603609360759988 0 0.021829787814361176 -0.0014596230233215259 0 0.021833682443291088 -0.0014603609360759988 0 0.021509898038103926 -0.0015974844700556653 0 0.021590852826667801 -0.0015605502750368669 0 0.021441186035070527 -0.0015409895815588889 0 0.020218892172813592 -0.0029612979699411069 0 0.020146010044989882 -0.0028012908145122243 0 0.020035280357333946 -0.003023495594113725 0 0.020216058777579808 -0.003030141944627212 0 0.020218892172813592 -0.0029612979699411069 0 0.020035280357333946 -0.003023495594113725 0 0.020714072998840243 -0.0022976517611803782 0 0.019765232312127397 -0.0028575316026536479 0 0.021441186035070527 -0.0015409895815588889 0 0.02125187869608923 -0.0015368054245691416 0 0.021366757786618784 -0.001662821993904306 0 0.020292055050293419 -0.0029773686644879111 0 0.020216058777579808 -0.003030141944627212 0 0.020218892172813592 -0.0029612979699411069 0 0.020218892172813592 -0.0029612979699411069 0 0.020146010044989882 -0.0028012908145122243 0 0.020186209479488189 -0.0028010456650264409 0 0.019600993832362381 -0.0037213049709253457 0 0.019581086964557935 -0.0041343633248158724 0 0.020218892172813592 -0.0029612979699411069 0 0.020247261273414995 -0.0028630815664174615 0 0.020185263454033903 -0.0027825955595203408 0 0.019456266927558686 -0.0042900384330445346 0 0.019581086964557935 -0.0041343633248158724 0 0.016077657426215444 -0.0057214157072044431 0 0.017083016108511619 -0.0050725319958168777 0 0.016975966665800184 -0.003882383194448591 0 0.019456266927558686 -0.0042900384330445346 0 0.01895541144049032 -0.005027923477196502 0 0.019456266927558686 -0.0042900384330445346 0 0.019765232312127397 -0.0028575316026536479 0 0.016077657426215444 -0.0057214157072044431 0 0.017083016108511619 -0.0050725319958168777 0 0.018123265655106979 -0.0057041751979700879 0 0.017083016108511619 -0.0050725319958168777 0 0.017680610391597854 -0.0044168183288205674 0 0.018123265655106979 -0.0057041751979700879 0 0.017083016108511619 -0.0050725319958168777 0 0.017680610391597854 -0.0044168183288205674 0 0.016975966665800184 -0.003882383194448591 0 0.016794445095581156 -0.0037565370004958082 0 0.017527833333191186 -0.0035389653920272794 0 0.01867460279569437 -0.0037743527516507841 0 0.019765232312127397 -0.0028575316026536479 0 0.019166085372355385 -0.0031368791618783085 0 0.017680610391597854 -0.0044168183288205674 0 0.016975966665800184 -0.003882383194448591 0 0.01840833603335686 -0.0038793466379693628 0 0.016794445095581156 -0.0037565370004958082 0 0.017527833333191186 -0.0035389653920272794 0 0.017443637392941871 -0.0024249753008507612 0 0.019765232312127397 -0.0028575316026536479 0 0.020239768344803628 -0.0020741604561464138 0 0.02125187869608923 -0.0015368054245691416 0 0.021188484327981774 -0.0016674449898730034 0 0.021366757786618784 -0.001662821993904306 0 0.021188484327981774 -0.0016674449898730034 0 0.021366757786618784 -0.001662821993904306 0 0.021292293399273372 -0.0017595151124430843 0 0.017364033387811471 -0.0024752612076329767 0 0.017513998360107575 -0.002149889859364729 0 0.017107715770162495 -0.00019179118458456803 0 0.017527833333191186 -0.0035389653920272794 0 0.017389447679106287 -0.0024512898137385593 0 0.017956797214695577 -0.0029704770781874821 0 0.020117726511279806 -0.0022304334975490189 0 0.020239768344803628 -0.0020741604561464138 0 0.017389447679106287 -0.0024512898137385593 0 0.017513998360107575 -0.002149889859364729 0 0.018072695338379689 -0.0022064257230133802 0 0.020239768344803628 -0.0020741604561464138 0 0.020220487613797328 -0.0020902217815936593 0 0.021498910193181852 -0.0016968152759666226 0 0.021366757786618784 -0.001662821993904306 0 0.021406959723618484 -0.0018359257924119234 0 0.021509898038103926 -0.0015974844700556653 0 0.021441186035070527 -0.0015409895815588889 0 0.021366757786618784 -0.001662821993904306 0 0.021498910193181852 -0.0016968152759666226 0 0.021509898038103926 -0.0015974844700556653 0 0.021366757786618784 -0.001662821993904306 0 0.021366757786618784 -0.001662821993904306 0 0.021406959723618484 -0.0018359257924119234 0 0.021292293399273372 -0.0017595151124430843 0 0.021406959723618484 -0.0018359257924119234 0 0.021292293399273372 -0.0017595151124430843 0 0.021207270216150768 -0.0018717498128098583 0 0.020239768344803628 -0.0020741604561464138 0 0.021990925252907769 -0.00093848107509736096 0 0.022715725107506742 -0.0009260158737655678 0 0.021990925252907769 -0.00093848107509736096 0 0.021188484327981774 -0.0016674449898730034 0 0.021292293399273372 -0.0017595151124430843 0 0.021207270216150768 -0.0018717498128098583 0 0.017513998360107575 -0.002149889859364729 0 0.017107715770162495 -0.00019179118458456803 0 0.017785207137777256 -0.0014286868643109628 0 0.019234358522139627 -0.0064708843586103728 0 0.019061728711344907 -0.0066988695284578388 0 0.01946382551411148 -0.0062199274880048293 0 0.019234358522139627 -0.0064708843586103728 0 0.019081229235741928 -0.006630845378523282 0 0.019083287044657032 -0.0064384914533527019 0 0.019234358522139627 -0.0064708843586103728 0 0.019253607659046698 -0.0063313702026529355 0 0.019083287044657032 -0.0064384914533527019 0 0.019253607659046698 -0.0063313702026529355 0 0.019221534905676903 -0.0061296803336495353 0 0.019083287044657032 -0.0064384914533527019 0 0.019234358522139627 -0.0064708843586103728 0 0.019253607659046698 -0.0063313702026529355 0 0.01946382551411148 -0.0062199274880048293 0 0.020048024111916873 -0.0071210986585733627 0 0.02037688322473517 -0.0066183280658928326 0 0.020040890135076123 -0.0063059347278466311 0 0.01954967492574845 -0.0062247275763877624 0 0.019506601727774409 -0.0062541378756576843 0 0.019654089636899186 -0.0065746114349871168 0 0.01946382551411148 -0.0062199274880048293 0 0.01951505408616129 -0.0060835823537366551 0 0.020048024111916873 -0.0071210986585733627 0 0.020040890135076123 -0.0063059347278466311 0 0.01951505408616129 -0.0060835823537366551 0 0.019624368525820866 -0.0065756389933682956 0 0.019654089636899186 -0.0065746114349871168 0 0.01946382551411148 -0.0062199274880048293 0 0.020096567574643134 -0.004842596551674812 0 0.020175778329437628 -0.0056812123439469895 0 0.019624368525820866 -0.0065756389933682956 0 0.019544199500057837 -0.0067047530616813579 0 0.01946382551411148 -0.0062199274880048293 0 0.019649850049560089 -0.0065718333906221605 0 0.019544199500057837 -0.0067047530616813579 0 0.019733299289754629 -0.0067926220221280979 0 0.020096567574643134 -0.004842596551674812 0 0.019989727997813195 -0.0046286128931989383 0 0.019624368525820866 -0.0065756389933682956 0 0.019649850049560089 -0.0065718333906221605 0 0.019544199500057837 -0.0067047530616813579 0 0.020092319822690535 -0.0048459881044982406 0 0.020096567574643134 -0.004842596551674812 0 0.019061728711344907 -0.0066988695284578388 0 0.019102220987745278 -0.0066338316536780299 0 0.019050689722004948 -0.0066641493117211691 0 0.019234358522139627 -0.0064708843586103728 0 0.019061728711344907 -0.0066988695284578388 0 0.019102220987745278 -0.0066338316536780299 0 0.019234358522139627 -0.0064708843586103728 0 0.019102220987745278 -0.0066338316536780299 0 0.019081229235741928 -0.006630845378523282 0 0.019102220987745278 -0.0066338316536780299 0 0.019081229235741928 -0.006630845378523282 0 0.019050689722004948 -0.0066641493117211691 0 0.019081229235741928 -0.006630845378523282 0 0.019050689722004948 -0.0066641493117211691 0 0.019031318414915663 -0.0067201403722778053 0 0.019061728711344907 -0.0066988695284578388 0 0.019050689722004948 -0.0066641493117211691 0 0.018969532921509116 -0.0065511350551859969 0 0.019050689722004948 -0.0066641493117211691 0 0.019009164837843793 -0.0065519845484449234 0 0.019031318414915663 -0.0067201403722778053 0 0.019050689722004948 -0.0066641493117211691 0 0.018969532921509116 -0.0065511350551859969 0 0.019009164837843793 -0.0065519845484449234 0 0.018839585556121013 -0.0063556991858292498 0 0.018926672316774001 -0.00641792449293015 0 0.01901577648566526 -0.0062113157858842451 0 0.019009164837843793 -0.0065519845484449234 0 0.018926672316774001 -0.00641792449293015 0 0.01901577648566526 -0.0062113157858842451 0 0.018969532921509116 -0.0065511350551859969 0 0.019009164837843793 -0.0065519845484449234 0 0.018926672316774001 -0.00641792449293015 0 0.019558212971414492 -0.0046551280393815203 0 0.019989727997813195 -0.0046286128931989383 0 0.019626634628261166 -0.0042722321756007656 0 0.019863543727367362 -0.004268830110167759 0 0.019799156285816508 -0.0039206049066558019 0 0.019581086964557935 -0.0041343633248158724 0 0.019558212971414492 -0.0046551280393815203 0 0.018839585556121013 -0.0063556991858292498 0 0.018926672316774001 -0.00641792449293015 0 0.018812144242590492 -0.006412190552955211 0 0.019456266927558686 -0.0042900384330445346 0 0.019558212971414492 -0.0046551280393815203 0 0.018969532921509116 -0.0065511350551859969 0 0.018926672316774001 -0.00641792449293015 0 0.018812144242590492 -0.006412190552955211 0 0.019061728711344907 -0.0066988695284578388 0 0.018969532921509116 -0.0065511350551859969 0 0.018812144242590492 -0.006412190552955211 0 0.019544199500057837 -0.0067047530616813579 0 0.019613907431691693 -0.0070233318004114392 0 0.019733299289754629 -0.0067926220221280979 0 0.01954967492574845 -0.0062247275763877624 0 0.019558212971414492 -0.0046551280393815203 0 0.019896266733830541 -0.0039199311490924777 0 0.019702052265690388 -0.0038157513873539593 0 0.019841215900954168 -0.004031712490391891 0 0.019989727997813195 -0.0046286128931989383 0 0.020009904376472633 -0.0045489646963941454 0 0.019961695933311686 -0.0038791973302056519 0 0.020095995153841511 -0.0039152507900084921 0 0.020037315015649121 -0.0040382588823479962 0 0.020177558083651806 -0.0030560812565704975 0 0.019989727997813195 -0.0046286128931989383 0 0.019961695933311686 -0.0038791973302056519 0 0.020089150944126187 -0.0038789505301083569 0 0.020095995153841511 -0.0039152507900084921 0 0.019740975318466931 -0.0035939428420494169 0 0.019896266733830541 -0.0039199311490924777 0 0.019702052265690388 -0.0038157513873539593 0 0.019723274370219972 -0.0035941315149620652 0 0.019740975318466931 -0.0035939428420494169 0 0.019702052265690388 -0.0038157513873539593 0 0.019839627970662688 -0.0025645836813658215 0 0.020029534851458409 -0.0025627727775966477 0 0.019963072540661108 -0.0026484954822744182 0 0.019839627970662688 -0.0025645836813658215 0 0.019963072540661108 -0.0026484954822744182 0 0.01991663569596068 -0.0027468650154021455 0 0.020029534851458409 -0.0025627727775966477 0 0.019963072540661108 -0.0026484954822744182 0 0.020011961103591283 -0.0027458344778169184 0 0.020179155669392736 -0.0029738058833623056 0 0.019818412647302559 -0.0031897226493238181 0 0.019963072540661108 -0.0026484954822744182 0 0.01991663569596068 -0.0027468650154021455 0 0.020011961103591283 -0.0027458344778169184 0 0.019648939875464521 -0.0024154692015807139 0 0.019455227380844053 -0.0032870973355309842 0 0.018599758957657444 -0.0017688399126458859 0 0.018759328235158003 -0.0021360650192446644 0 0.018552747393912553 -0.0020248923681034162 0 0.019702052265690388 -0.0038157513873539593 0 0.019682319628061891 -0.0040355560565620693 0 0.019841215900954168 -0.004031712490391891 0 0.01991663569596068 -0.0027468650154021455 0 0.020011961103591283 -0.0027458344778169184 0 0.019994118263311239 -0.0029304542926964637 0 0.019818412647302559 -0.0031897226493238181 0 0.019455227380844053 -0.0032870973355309842 0 0.018581515324112254 -0.0021936923538080264 0 0.018759328235158003 -0.0021360650192446644 0 0.018552747393912553 -0.0020248923681034162 0 0.018581515324112254 -0.0021936923538080264 0 0.018759328235158003 -0.0021360650192446644 0 0.01873553988164621 -0.0023912449402219605 0 0.018581515324112254 -0.0021936923538080264 0 0.018617133734022486 -0.0024134880385417645 0 0.01873553988164621 -0.0023912449402219605 0 0.019455227380844053 -0.0032870973355309842 0 0.019101933656687799 -0.0035460314873087713 0 0.018976536216261893 -0.0033637479837675894 0 0.019186374150034411 -0.0038539394752863795 0 0.019237994300073287 -0.0033145899648288919 0 0.019463529775163673 -0.0039548690593560146 0 0.019455227380844053 -0.0032870973355309842 0 0.020096567574643134 -0.004842596551674812 0 0.019463529775163673 -0.0039548690593560146 0 0.019989853140923639 -0.0041227306697223806 0 0.019740745850634872 -0.0041691173266946964 0 0.019841215900954168 -0.004031712490391891 0 0.019989853140923639 -0.0041227306697223806 0 0.019893718470488455 -0.0039252244571802777 0 0.019841215900954168 -0.004031712490391891 0 0.019740745850634872 -0.0041691173266946964 0 0.019682319628061891 -0.0040355560565620693 0 0.019841215900954168 -0.004031712490391891 0 0.020905410551038641 -0.0069516095901166692 0 0.02037688322473517 -0.0066183280658928326 0 0.020653195047927377 -0.0063608702294215384 0 0.019463529775163673 -0.0039548690593560146 0 0.019873649720959664 -0.0047399839994888854 0 0.020048024111916873 -0.0071210986585733627 0 0.020905410551038641 -0.0069516095901166692 0 0.02037688322473517 -0.0066183280658928326 0 0.02037688322473517 -0.0066183280658928326 0 0.020653195047927377 -0.0063608702294215384 0 0.020331514331239045 -0.0062036262407480685 0 0.02037688322473517 -0.0066183280658928326 0 0.020331514331239045 -0.0062036262407480685 0 0.020040890135076123 -0.0063059347278466311 0 0.015938416658869324 -0.0026672145198203341 0 0.015924774907928235 -0.0026505917338067505 0 0.015897195344514486 -0.0026842142211355195 0 0.018994754541114354 -0.0036464434114897976 0 0.018476925787697409 -0.0032410141997561283 0 0.018476925787697409 -0.0032410141997561283 0 0.019101933656687799 -0.0035460314873087713 0 0.018938101875498554 -0.0028033720935056968 0 0.019889109990306637 -0.0039122678341796877 0 0.018812737989250452 -0.0041144419864827904 0 0.019622298640528429 -0.0039307715172280074 0 0.019761536913360998 -0.0042529649272059619 0 0.019475678650600851 -0.0041092901884408192 0 0.019463529775163673 -0.0039548690593560146 0 0.019101933656687799 -0.0035460314873087713 0 0.019622298640528429 -0.0039307715172280074 0 0.019475678650600851 -0.0041092901884408192 0 0.019490311312213376 -0.0039554978683359922 0 0.018994754541114354 -0.0036464434114897976 0 0.019101933656687799 -0.0035460314873087713 0 0.015924774907928235 -0.0026505917338067505 0 0.015897195344514486 -0.0026842142211355195 0 0.015860309174843632 -0.0026596614401262161 0 0.018476925787697409 -0.0032410141997561283 0 0.016630525635372026 -0.002607905969349622 0 0.016630525635372026 -0.002607905969349622 0 0.013957767823704233 -0.0021189573375620181 0 0.01817732662477177 -0.0024617309867324419 0 0.017907888089447741 -0.0020238321601204015 0 0.017752965803004058 -0.0025395441108823718 0 0.01817732662477177 -0.0024617309867324419 0 0.018270721686491253 -0.0020014554568531743 0 0.017907888089447741 -0.0020238321601204015 0 0.018581515324112254 -0.0021936923538080264 0 0.018617133734022486 -0.0024134880385417645 0 0.018270721686491253 -0.0020014554568531743 0 0.018476925787697409 -0.0032410141997561283 0 0.01821546156043357 -0.0026992013188015256 0 0.018592774146249821 -0.0023844533488001662 0 0.01817732662477177 -0.0024617309867324419 0 0.018270721686491253 -0.0020014554568531743 0 0.018581515324112254 -0.0021936923538080264 0 0.018552747393912553 -0.0020248923681034162 0 0.018270721686491253 -0.0020014554568531743 0 0.018599758957657444 -0.0017688399126458859 0 0.018552747393912553 -0.0020248923681034162 0 0.018270721686491253 -0.0020014554568531743 0 0.018599758957657444 -0.0017688399126458859 0 0.018270721686491253 -0.0020014554568531743 0 0.01815435149420512 -0.0018076855183615035 0 0.020124697182858829 -0.0019480661243808078 0 0.019648939875464521 -0.0024154692015807139 0 0.018446737820257998 -0.0014110146661343726 0 0.018599758957657444 -0.0017688399126458859 0 0.018218802224974167 -0.00158985396294174 0 0.018599758957657444 -0.0017688399126458859 0 0.018218802224974167 -0.00158985396294174 0 0.01815435149420512 -0.0018076855183615035 0 0.017990403261439369 -0.0014183858005221827 0 0.018446737820257998 -0.0014110146661343726 0 0.018218802224974167 -0.00158985396294174 0 0.017990403261439369 -0.0014183858005221827 0 0.017967702737373279 -0.0015572160527582578 0 0.018218802224974167 -0.00158985396294174 0 0.018218802224974167 -0.00158985396294174 0 0.017954907609506802 -0.0017057642826791405 0 0.01815435149420512 -0.0018076855183615035 0 0.017967702737373279 -0.0015572160527582578 0 0.018218802224974167 -0.00158985396294174 0 0.017954907609506802 -0.0017057642826791405 0 0.018270721686491253 -0.0020014554568531743 0 0.01815435149420512 -0.0018076855183615035 0 0.017907888089447741 -0.0020238321601204015 0 0.017954907609506802 -0.0017057642826791405 0 0.01815435149420512 -0.0018076855183615035 0 0.017907888089447741 -0.0020238321601204015 0 0.017954907609506802 -0.0017057642826791405 0 0.017907888089447741 -0.0020238321601204015 0 0.01780479244346661 -0.0017427521425082716 0 0.017907888089447741 -0.0020238321601204015 0 0.017651035602629574 -0.0018285124128721584 0 0.017519514373503492 -0.0021255407059176984 0 0.017907888089447741 -0.0020238321601204015 0 0.017651035602629574 -0.0018285124128721584 0 0.01780479244346661 -0.0017427521425082716 0 0.019863671494437674 -0.00093870318104959365 0 0.020077824983154139 -0.00099229484695347362 0 0.017954907609506802 -0.0017057642826791405 0 0.01780479244346661 -0.0017427521425082716 0 0.01779971685242614 -0.0015368986643489629 0 0.01863471767997851 -0.00048712588165627911 0 0.019245805311484794 -0.00047719659768367245 0 0.019271970766559069 -0.00060684145190297131 0 0.017651035602629574 -0.0018285124128721584 0 0.01780479244346661 -0.0017427521425082716 0 0.01779971685242614 -0.0015368986643489629 0 0.017990403261439369 -0.0014183858005221827 0 0.017967702737373279 -0.0015572160527582578 0 0.017815803655925552 -0.0014918629623978175 0 0.020145755079025895 -0.0012113484062126572 0 0.020077824983154139 -0.00099229484695347362 0 0.020147903823008156 -0.00091242897447751123 0 0.020369224546896478 -0.00085813572888582311 0 0.020378892841624672 -0.00081670583295867126 0 0.019245805311484794 -0.00047719659768367245 0 0.019285645466388123 -0.00054863514946305457 0 0.019271970766559069 -0.00060684145190297131 0 0.017967702737373279 -0.0015572160527582578 0 0.017954907609506802 -0.0017057642826791405 0 0.017815803655925552 -0.0014918629623978175 0 0.020406930373938148 -0.0008599947832731345 0 0.020280393631373846 -0.00089604074840778059 0 0.017954907609506802 -0.0017057642826791405 0 0.01779971685242614 -0.0015368986643489629 0 0.017811128646962129 -0.0014901274311866024 0 0.020395813482621577 -0.00091104261071490566 0 0.020280393631373846 -0.00089604074840778059 0 0.020280393631373846 -0.00089604074840778059 0 0.020077824983154139 -0.00099229484695347362 0 0.02007063120391181 -0.0010008229153924072 0 0.020077824983154139 -0.00099229484695347362 0 0.01863471767997851 -0.00048712588165627911 0 0.019271970766559069 -0.00060684145190297131 0 0.018313250203482664 -0.0010048852728208721 0 0.017651035602629574 -0.0018285124128721584 0 0.01779971685242614 -0.0015368986643489629 0 0.017282472541487938 -0.0017081923052783058 0 0.01779971685242614 -0.0015368986643489629 0 0.017811033199444215 -0.0014904760628662995 0 0.017282472541487938 -0.0017081923052783058 0 0.020077824983154139 -0.00099229484695347362 0 0.016683872380975115 -0.00086519300434200624 0 0.014953232325177151 -0.0015320215057257841 0 0.016683872380975115 -0.00086519300434200624 0 0.017651035602629574 -0.0018285124128721584 0 0.017519514373503492 -0.0021255407059176984 0 0.017282472541487938 -0.0017081923052783058 0 0.014953232325177151 -0.0015320215057257841 0 0.013957767823704233 -0.0021189573375620181 0 0.010106060204829861 -0.0020069613440866886 0 0.0098994639867512457 -0.0016293136921661261 0 0.010249926378291649 -0.0018071376829958635 0 0.017907888089447741 -0.0020238321601204015 0 0.017519514373503492 -0.0021255407059176984 0 0.017752965803004058 -0.0025395441108823718 0 0.013957767823704233 -0.0021189573375620181 0 0.01138714388649663 -0.0020303757768683917 0 0.0098994639867512457 -0.0016293136921661261 0 0.010248440009202126 -0.0015583495551562518 0 0.010249926378291649 -0.0018071376829958635 0 0.010102767597824608 -0.001411396184065905 0 0.0098993501422003083 -0.0011531189650977399 0 0.010222857257252024 -0.001045501520057039 0 0.0097814230459497623 -0.0014564057316528037 0 0.010102767597824608 -0.001411396184065905 0 0.0098993501422003083 -0.0011531189650977399 0 0.0097814230459497623 -0.0014564057316528037 0 0.0098993501422003083 -0.0011531189650977399 0 0.0095738960833905359 -0.0010542671997517696 0 0.013957767823704233 -0.0021189573375620181 0 0.013390353085661413 -0.0016795186072808238 0 0.0098993501422003083 -0.0011531189650977399 0 0.009973582620926345 -0.00079541724881913639 0 0.0095738960833905359 -0.0010542671997517696 0 0.0098993501422003083 -0.0011531189650977399 0 0.009973582620926345 -0.00079541724881913639 0 0.010222857257252024 -0.001045501520057039 0 0.009973582620926345 -0.00079541724881913639 0 0.0099426280441424347 -0.00050976212409049458 0 0.0097194693980906296 -0.00063599790197610179 0 0.009973582620926345 -0.00079541724881913639 0 0.0099426280441424347 -0.00050976212409049458 0 0.010080982097219143 -0.00050549540303216451 0 0.0099426280441424347 -0.00050976212409049458 0 0.010034662082649273 -0.00038505523389366142 0 0.0099681919957745942 -0.00035711290740186651 0 0.0099426280441424347 -0.00050976212409049458 0 0.010080982097219143 -0.00050549540303216451 0 0.010034662082649273 -0.00038505523389366142 0 0.0099426280441424347 -0.00050976212409049458 0 0.0097194693980906296 -0.00063599790197610179 0 0.0098670757321441937 -0.00036607884531882664 0 0.0097194693980906296 -0.00063599790197610179 0 0.0098670757321441937 -0.00036607884531882664 0 0.0095786853105324053 -0.0003973949017723389 0 0.009973582620926345 -0.00079541724881913639 0 0.0097194693980906296 -0.00063599790197610179 0 0.0095738960833905359 -0.0010542671997517696 0 0.015875384403060327 -0.0027976556114415654 0 0.01589079532379159 -0.0027791340292242354 0 0.015836665187398676 -0.0027361591778601643 0 0.0097194693980906296 -0.00063599790197610179 0 0.0093791073673697191 -0.00067619959990464283 0 0.0095738960833905359 -0.0010542671997517696 0 0.013613675842642338 -0.0015804630572941348 0 0.013390353085661413 -0.0016795186072808238 0 0.013613675842642338 -0.0015804630572941348 0 0.011610329811568761 -0.0015558800136371586 0 0.0097194693980906296 -0.00063599790197610179 0 0.0093791073673697191 -0.00067619959990464283 0 0.0095786853105324053 -0.0003973949017723389 0 0.012739447940618027 -0.0013592294111736507 0 0.012498483343439989 -0.0017010283722784893 0 0.012763145644325119 -0.0017860034605685139 0 0.013613675842642338 -0.0015804630572941348 0 0.015910633384600772 -0.0028920950663823934 0 0.015880277232840589 -0.0027949106228652735 0 0.015917099393246491 -0.0027927298011846697 0 0.015913814589251007 -0.0028455992593903034 0 0.012739447940618027 -0.0013592294111736507 0 0.012763145644325119 -0.0017860034605685139 0 0.012981096481886821 -0.001779516167438497 0 0.015880277232840589 -0.0027949106228652735 0 0.01589079532379159 -0.0027791340292242354 0 0.015917099393246491 -0.0027927298011846697 0 0.013613675842642338 -0.0015804630572941348 0 0.013703868130611727 -0.0015972572793261542 0 0.01589079532379159 -0.0027791340292242354 0 0.015888119163217605 -0.0027336259507450547 0 0.015927341982859621 -0.0027330983598023721 0 0.01589079532379159 -0.0027791340292242354 0 0.015888119163217605 -0.0027336259507450547 0 0.015836665187398676 -0.0027361591778601643 0 0.015897195344514486 -0.0026842142211355195 0 0.015860309174843632 -0.0026596614401262161 0 0.015836665187398676 -0.0027361591778601643 0 0.015860309174843632 -0.0026596614401262161 0 0.01579452585680334 -0.0026696263503978865 0 0.015836665187398676 -0.0027361591778601643 0 0.015897195344514486 -0.0026842142211355195 0 0.015888119163217605 -0.0027336259507450547 0 0.015836665187398676 -0.0027361591778601643 0 0.015897195344514486 -0.0026842142211355195 0 0.015888119163217605 -0.0027336259507450547 0 0.015927341982859621 -0.0027330983598023721 0 0.018994754541114354 -0.0036464434114897976 0 0.018324375385289516 -0.0038468123809293352 0 0.015938416658869324 -0.0026672145198203341 0 0.015897195344514486 -0.0026842142211355195 0 0.015927341982859621 -0.0027330983598023721 0 0.021398337051996487 -0.0064805535922808112 0 0.021114564017644544 -0.0059458849980873934 0 0.021510523674036983 -0.0054469026801606882 0 0.021114564017644544 -0.0059458849980873934 0 0.021017729346509747 -0.0055859367789578285 0 0.021510523674036983 -0.0054469026801606882 0 0.018994754541114354 -0.0036464434114897976 0 0.020017508148647424 -0.0049488351135329595 0 0.021398337051996487 -0.0064805535922808112 0 0.021114564017644544 -0.0059458849980873934 0 0.020591972058641633 -0.0056030072466145622 0 0.019761536913360998 -0.0042529649272059619 0 0.019475678650600851 -0.0041092901884408192 0 0.019900808378159728 -0.0045756196640153396 0 0.020653195047927377 -0.0063608702294215384 0 0.020331514331239045 -0.0062036262407480685 0 0.020399807629509031 -0.0057689695913537807 0 0.019873649720959664 -0.0047399839994888854 0 0.020017508148647424 -0.0049488351135329595 0 0.020331514331239045 -0.0062036262407480685 0 0.020399807629509031 -0.0057689695913537807 0 0.020183813773315577 -0.0059673969512726421 0 0.021114564017644544 -0.0059458849980873934 0 0.020895556860611723 -0.005643856759286134 0 0.021017729346509747 -0.0055859367789578285 0 0.021114564017644544 -0.0059458849980873934 0 0.020591972058641633 -0.0056030072466145622 0 0.020895556860611723 -0.005643856759286134 0 0.020895556860611723 -0.005643856759286134 0 0.021017729346509747 -0.0055859367789578285 0 0.020826500042892385 -0.0054560792886503571 0 0.020591972058641633 -0.0056030072466145622 0 0.020895556860611723 -0.005643856759286134 0 0.020826500042892385 -0.0054560792886503571 0 0.020826500042892385 -0.0054560792886503571 0 0.020990351378962838 -0.0053078455220308511 0 0.020613934709830847 -0.0050724479286544319 0 0.021017729346509747 -0.0055859367789578285 0 0.020826500042892385 -0.0054560792886503571 0 0.020990351378962838 -0.0053078455220308511 0 0.020591972058641633 -0.0056030072466145622 0 0.020826500042892385 -0.0054560792886503571 0 0.020613934709830847 -0.0050724479286544319 0 0.020990351378962838 -0.0053078455220308511 0 0.020613934709830847 -0.0050724479286544319 0 0.021016390249122208 -0.0048129512141929752 0 0.020990351378962838 -0.0053078455220308511 0 0.021510523674036983 -0.0054469026801606882 0 0.021016390249122208 -0.0048129512141929752 0 0.021510523674036983 -0.0054469026801606882 0 0.021645672518199811 -0.0043705988851831619 0 0.021016390249122208 -0.0048129512141929752 0 0.018324375385289516 -0.0038468123809293352 0 0.017479090914117177 -0.0034289650395035428 0 0.021017729346509747 -0.0055859367789578285 0 0.020990351378962838 -0.0053078455220308511 0 0.021510523674036983 -0.0054469026801606882 0 0.01589079532379159 -0.0027791340292242354 0 0.015927341982859621 -0.0027330983598023721 0 0.015917099393246491 -0.0027927298011846697 0 0.021645672518199811 -0.0043705988851831619 0 0.020953985278586728 -0.0039730200798005254 0 0.021016390249122208 -0.0048129512141929752 0 0.017479090914117177 -0.0034289650395035428 0 0.015910633384600772 -0.0028920950663823934 0 0.021645672518199811 -0.0043705988851831619 0 0.020953985278586728 -0.0039730200798005254 0 0.021779815475624319 -0.003246778970001358 0 0.020953985278586728 -0.0039730200798005254 0 0.020507138576016836 -0.0044383199614659169 0 0.020150027664498523 -0.0036506586317369381 0 0.020953985278586728 -0.0039730200798005254 0 0.020150027664498523 -0.0036506586317369381 0 0.021030550869785478 -0.0032017692266338737 0 0.020953985278586728 -0.0039730200798005254 0 0.020507138576016836 -0.0044383199614659169 0 0.021016390249122208 -0.0048129512141929752 0 0.020613934709830847 -0.0050724479286544319 0 0.020507138576016836 -0.0044383199614659169 0 0.021016390249122208 -0.0048129512141929752 0 0.020507138576016836 -0.0044383199614659169 0 0.019797956746046331 -0.0046706425488626871 0 0.020150027664498523 -0.0036506586317369381 0 0.020613934709830847 -0.0050724479286544319 0 0.020507138576016836 -0.0044383199614659169 0 0.019797956746046331 -0.0046706425488626871 0 0.019746424727834062 -0.0046797920385597529 0 0.019370220110944036 -0.0042504953260994044 0 0.019797956746046331 -0.0046706425488626871 0 0.020150027664498523 -0.0036506586317369381 0 0.018946710746931078 -0.003773061928913786 0 0.019760455989404922 -0.0048666893484756949 0 0.018699349618607218 -0.0047100492214906444 0 0.018946710746931078 -0.003773061928913786 0 0.019760455989404922 -0.0048666893484756949 0 0.019146444098611964 -0.0054673154757635877 0 0.018699349618607218 -0.0047100492214906444 0 0.019760455989404922 -0.0048666893484756949 0 0.019146444098611964 -0.0054673154757635877 0 0.019542909859183475 -0.0056246152824129996 0 0.020591972058641633 -0.0056030072466145622 0 0.020613934709830847 -0.0050724479286544319 0 0.019797956746046331 -0.0046706425488626871 0 0.020017508148647424 -0.0049488351135329595 0 0.019746424727834062 -0.0046797920385597529 0 0.019760455989404922 -0.0048666893484756949 0 0.019542909859183475 -0.0056246152824129996 0 0.019942404876157172 -0.0058085034829767901 0 0.020399807629509031 -0.0057689695913537807 0 0.019760455989404922 -0.0048666893484756949 0 0.019942404876157172 -0.0058085034829767901 0 0.019542909859183475 -0.0056246152824129996 0 0.019942404876157172 -0.0058085034829767901 0 0.019703840259569689 -0.0058924476661717405 0 0.019703840259569689 -0.0058924476661717405 0 0.019982034275148129 -0.0059898658243177005 0 0.019814865535969013 -0.0060651602251027732 0 0.019942404876157172 -0.0058085034829767901 0 0.019703840259569689 -0.0058924476661717405 0 0.019982034275148129 -0.0059898658243177005 0 0.019703840259569689 -0.0058924476661717405 0 0.019814865535969013 -0.0060651602251027732 0 0.01951505408616129 -0.0060835823537366551 0 0.020399807629509031 -0.0057689695913537807 0 0.019942404876157172 -0.0058085034829767901 0 0.020183813773315577 -0.0059673969512726421 0 0.019942404876157172 -0.0058085034829767901 0 0.019982034275148129 -0.0059898658243177005 0 0.020183813773315577 -0.0059673969512726421 0 0.020331514331239045 -0.0062036262407480685 0 0.020183813773315577 -0.0059673969512726421 0 0.020040890135076123 -0.0063059347278466311 0 0.019982034275148129 -0.0059898658243177005 0 0.020183813773315577 -0.0059673969512726421 0 0.020040890135076123 -0.0063059347278466311 0 0.019982034275148129 -0.0059898658243177005 0 0.020040890135076123 -0.0063059347278466311 0 0.019814865535969013 -0.0060651602251027732 0 0.020040890135076123 -0.0063059347278466311 0 0.019814865535969013 -0.0060651602251027732 0 0.01951505408616129 -0.0060835823537366551 0 0.019253607659046698 -0.0063313702026529355 0 0.01946382551411148 -0.0062199274880048293 0 0.019221534905676903 -0.0061296803336495353 0 0.019146444098611964 -0.0054673154757635877 0 0.019542909859183475 -0.0056246152824129996 0 0.019221534905676903 -0.0061296803336495353 0 0.01946382551411148 -0.0062199274880048293 0 0.01951505408616129 -0.0060835823537366551 0 0.019221534905676903 -0.0061296803336495353 0 0.019542909859183475 -0.0056246152824129996 0 0.019703840259569689 -0.0058924476661717405 0 0.01951505408616129 -0.0060835823537366551 0 0.019542909859183475 -0.0056246152824129996 0 0.01951505408616129 -0.0060835823537366551 0 0.019221534905676903 -0.0061296803336495353 0 0.017333305248601674 0.00012316191686998542 0 0.017530253907694842 3.1666320238998525e-05 0 0.017562990816448378 0.00032859859553617451 0 0.017333305248601674 0.00012316191686998542 0 0.017530253907694842 3.1666320238998525e-05 0 0.017176272029316608 -0.00019788601350210399 0 0.014896769256154798 -0.00085750053448602627 0 0.015004087309533896 -0.0010124176142394675 0 0.017530253907694842 3.1666320238998525e-05 0 0.017562990816448378 0.00032859859553617451 0 0.017833873221140925 0.00017090549549073929 0 0.011955768439693667 -0.0019680716308456466 0 0.011881141618999995 -0.0015667357179615907 0 0.011353882114644422 -0.0016248048337838862 0 0.011955768439693667 -0.0019680716308456466 0 0.011881141618999995 -0.0015667357179615907 0 0.012317430871141066 -0.0013205562877568891 0 0.011881141618999995 -0.0015667357179615907 0 0.012317430871141066 -0.0013205562877568891 0 0.012026547778798425 -0.00097926138814667402 0 0.014896769256154798 -0.00085750053448602627 0 0.015178100822592761 -0.00051149557755660394 0 0.011955768439693667 -0.0019680716308456466 0 0.012317430871141066 -0.0013205562877568891 0 0.013283238912140722 -0.0015057271242279958 0 0.017176272029316608 -0.00019788601350210399 0 0.016720905710327569 2.995703100869629e-05 0 0.017114414264203241 2.0570967496755032e-05 0 0.015178100822592761 -0.00051149557755660394 0 0.015517034764522607 -8.1604943986841225e-07 0 0.016720905710327569 2.995703100869629e-05 0 0.016693635100909397 3.6094782874485819e-07 0 0.015519165336005326 -9.5626038613373839e-07 0 0.017176272029316608 -0.00019788601350210399 0 0.016720905710327569 2.995703100869629e-05 0 0.015519165336005326 -9.5626038613373839e-07 0 0.016720905710327569 2.995703100869629e-05 0 0.017261823321575307 0.00013603128715968928 0 0.016693635100909397 3.6094782874485819e-07 0 0.017333305248601674 0.00012316191686998542 0 0.017114414264203241 2.0570967496755032e-05 0 0.017245705543750846 0.00031968978206870505 0 0.017261823321575307 0.00013603128715968928 0 0.017114414264203241 2.0570967496755032e-05 0 0.017544515066938892 0.00018871086047794367 0 0.016720905710327569 2.995703100869629e-05 0 0.017261823321575307 0.00013603128715968928 0 0.017114414264203241 2.0570967496755032e-05 0 0.017333305248601674 0.00012316191686998542 0 0.017176272029316608 -0.00019788601350210399 0 0.017114414264203241 2.0570967496755032e-05 0 0.018187941611071373 -6.3147640785182508e-05 0 0.018415448542827496 -0.00010694717959683418 0 0.017261823321575307 0.00013603128715968928 0 0.017544515066938892 0.00018871086047794367 0 0.017751340541671969 0.00013345007556825458 0 0.017261823321575307 0.00013603128715968928 0 0.017870951289817014 7.49590692171485e-07 0 0.017751340541671969 0.00013345007556825458 0 0.017261823321575307 0.00013603128715968928 0 0.016693635100909397 3.6094782874485819e-07 0 0.017870951289817014 7.49590692171485e-07 0 0.019045247719625482 -1.280233007685911e-06 0 0.017870951289817014 7.49590692171485e-07 0 0.018236486424685488 9.0541396306816586e-05 0 0.017870951289817014 7.49590692171485e-07 0 0.017751340541671969 0.00013345007556825458 0 0.018236486424685488 9.0541396306816586e-05 0 0.017544515066938892 0.00018871086047794367 0 0.017751340541671969 0.00013345007556825458 0 0.017742825059710001 -5.4710669872369869e-06 0 0.017544515066938892 0.00018871086047794367 0 0.017742825059710001 -5.4710669872369869e-06 0 0.017607514423173685 -1.1675088187600911e-05 0 0.017751340541671969 0.00013345007556825458 0 0.018236486424685488 9.0541396306816586e-05 0 0.017742825059710001 -5.4710669872369869e-06 0 0.018802865758919828 -0.00049345666970512867 0 0.019078236690288759 -0.00051773507372728173 0 0.017245705543750846 0.00031968978206870505 0 0.017334426345393127 0.00060328447667525888 0 0.017562990816448378 0.00032859859553617451 0 0.018415448542827496 -0.00010694717959683418 0 0.019078236690288759 -0.00051773507372728173 0 0.017333305248601674 0.00012316191686998542 0 0.017245705543750846 0.00031968978206870505 0 0.017562990816448378 0.00032859859553617451 0 0.017334426345393127 0.00060328447667525888 0 0.017562990816448378 0.00032859859553617451 0 0.017723519401044052 0.00060208443483009241 0 0.019078236690288759 -0.00051773507372728173 0 0.019984498344644486 -0.00021363538142826885 0 0.017562990816448378 0.00032859859553617451 0 0.017723519401044052 0.00060208443483009241 0 0.01791387092731225 0.00042319712000998854 0 0.018101517171162533 0.00060274343208809066 0 0.017723519401044052 0.00060208443483009241 0 0.01791387092731225 0.00042319712000998854 0 0.018101517171162533 0.00060274343208809066 0 0.01791387092731225 0.00042319712000998854 0 0.018141331913540979 0.00030080060284796821 0 0.018857368226296106 -0.00030533868356411313 0 0.019984498344644486 -0.00021363538142826885 0 0.01791387092731225 0.00042319712000998854 0 0.018141331913540979 0.00030080060284796821 0 0.017833873221140925 0.00017090549549073929 0 0.010718842886993228 -0.00218427808023436 0 0.010728296346472542 -0.0022412158198314974 0 0.011224158924755624 -0.0021186961512286158 0 0.016435221921833734 -0.00075966835600603749 0 0.015004087309533896 -0.0010124176142394675 0 0.017562990816448378 0.00032859859553617451 0 0.01791387092731225 0.00042319712000998854 0 0.017833873221140925 0.00017090549549073929 0 0.017832022909206848 -0.00055328852794236483 0 0.017874136180065871 -0.00063022652783355367 0 0.017747189611324526 -0.00068273433586813316 0 0.018025046677404972 -0.00049770741232099246 0 0.01863471767997851 -0.00048712588165627911 0 0.018313250203482664 -0.0010048852728208721 0 0.01885369748322183 -0.00079950483333569194 0 0.016683872380975115 -0.00086519300434200624 0 0.017731515793318733 -0.00055464174358251796 0 0.017832022909206848 -0.00055328852794236483 0 0.017747189611324526 -0.00068273433586813316 0 0.018857368226296106 -0.00030533868356411313 0 0.016435221921833734 -0.00075966835600603749 0 0.010729413217312073 -0.0022320785115399204 0 0.010440547800316613 -0.0021375716715847002 0 0.010585295630613318 -0.0020845494181059351 0 0.010718842886993228 -0.00218427808023436 0 0.010729413217312073 -0.0022320785115399204 0 0.010585295630613318 -0.0020845494181059351 0 0.016415132879070392 -0.00077168309985673074 0 0.016435221921833734 -0.00075966835600603749 0 0.010106060204829861 -0.0020069613440866886 0 0.010325529960347699 -0.0023852511686530309 0 0.010440547800316613 -0.0021375716715847002 0 0.016683872380975115 -0.00086519300434200624 0 0.016435221921833734 -0.00075966835600603749 0 0.010325529960347699 -0.0023852511686530309 0 0.010729413217312073 -0.0022320785115399204 0 0.010440547800316613 -0.0021375716715847002 0 0.010106060204829861 -0.0020069613440866886 0 0.010249926378291649 -0.0018071376829958635 0 0.010440547800316613 -0.0021375716715847002 0 0.010249926378291649 -0.0018071376829958635 0 0.010440547800316613 -0.0021375716715847002 0 0.0104894051260256 -0.0018287864309685412 0 0.010440547800316613 -0.0021375716715847002 0 0.0104894051260256 -0.0018287864309685412 0 0.010585295630613318 -0.0020845494181059351 0 0.010718842886993228 -0.00218427808023436 0 0.010668301752392279 -0.0019338094459429595 0 0.010904083336410672 -0.0018370560416999056 0 0.0104894051260256 -0.0018287864309685412 0 0.010585295630613318 -0.0020845494181059351 0 0.010668301752392279 -0.0019338094459429595 0 0.0104894051260256 -0.0018287864309685412 0 0.010668301752392279 -0.0019338094459429595 0 0.010670241822754603 -0.0017204950254631009 0 0.010718842886993228 -0.00218427808023436 0 0.010585295630613318 -0.0020845494181059351 0 0.010668301752392279 -0.0019338094459429595 0 0.010668301752392279 -0.0019338094459429595 0 0.010670241822754603 -0.0017204950254631009 0 0.010904083336410672 -0.0018370560416999056 0 0.0104894051260256 -0.0018287864309685412 0 0.010670241822754603 -0.0017204950254631009 0 0.010598250576801674 -0.0014688692887297988 0 0.010670241822754603 -0.0017204950254631009 0 0.010947116096949325 -0.001335958005736276 0 0.010598250576801674 -0.0014688692887297988 0 0.010248440009202126 -0.0015583495551562518 0 0.0104894051260256 -0.0018287864309685412 0 0.010598250576801674 -0.0014688692887297988 0 0.010248440009202126 -0.0015583495551562518 0 0.010249926378291649 -0.0018071376829958635 0 0.0104894051260256 -0.0018287864309685412 0 0.011224158924755624 -0.0021186961512286158 0 0.010904083336410672 -0.0018370560416999056 0 0.011353882114644422 -0.0016248048337838862 0 0.011955768439693667 -0.0019680716308456466 0 0.011224158924755624 -0.0021186961512286158 0 0.011353882114644422 -0.0016248048337838862 0 0.010718842886993228 -0.00218427808023436 0 0.011224158924755624 -0.0021186961512286158 0 0.010904083336410672 -0.0018370560416999056 0 0.010904083336410672 -0.0018370560416999056 0 0.011353882114644422 -0.0016248048337838862 0 0.010947116096949325 -0.001335958005736276 0 0.010670241822754603 -0.0017204950254631009 0 0.010904083336410672 -0.0018370560416999056 0 0.010947116096949325 -0.001335958005736276 0 0.011353882114644422 -0.0016248048337838862 0 0.010947116096949325 -0.001335958005736276 0 0.011409233398908064 -0.0010890873598729208 0 0.010947116096949325 -0.001335958005736276 0 0.010848269051029768 -0.00094592982483711308 0 0.010570862404467951 -0.0011045024388067258 0 0.010947116096949325 -0.001335958005736276 0 0.010848269051029768 -0.00094592982483711308 0 0.011409233398908064 -0.0010890873598729208 0 0.010848269051029768 -0.00094592982483711308 0 0.011409233398908064 -0.0010890873598729208 0 0.011047470007111858 -0.00066772515095681506 0 0.011447298647945454 -0.00092969456135253044 0 0.01117761976137573 -0.00049465538530469872 0 0.011571136370710489 -0.00059669209588601789 0 0.011260003912031401 -0.00023845542975672822 0 0.011799171312334133 -0.00023700780409597005 0 0.01138714388649663 -0.0020303757768683917 0 0.010894621939715561 -0.0018503432864765408 0 0.010102767597824608 -0.001411396184065905 0 0.010460281972461257 -0.0013853602303763491 0 0.010222857257252024 -0.001045501520057039 0 0.010897004537800523 -0.001768884004389962 0 0.010894621939715561 -0.0018503432864765408 0 0.010947116096949325 -0.001335958005736276 0 0.010460281972461257 -0.0013853602303763491 0 0.010570862404467951 -0.0011045024388067258 0 0.010460281972461257 -0.0013853602303763491 0 0.010570862404467951 -0.0011045024388067258 0 0.010222857257252024 -0.001045501520057039 0 0.010848269051029768 -0.00094592982483711308 0 0.010570862404467951 -0.0011045024388067258 0 0.010451259839809277 -0.00084824277996567487 0 0.010570862404467951 -0.0011045024388067258 0 0.010222857257252024 -0.001045501520057039 0 0.010451259839809277 -0.00084824277996567487 0 0.009973582620926345 -0.00079541724881913639 0 0.010222857257252024 -0.001045501520057039 0 0.010202248319212924 -0.00066708386768069082 0 0.010222857257252024 -0.001045501520057039 0 0.010202248319212924 -0.00066708386768069082 0 0.010451259839809277 -0.00084824277996567487 0 0.009973582620926345 -0.00079541724881913639 0 0.010202248319212924 -0.00066708386768069082 0 0.010080982097219143 -0.00050549540303216451 0 0.010848269051029768 -0.00094592982483711308 0 0.010451259839809277 -0.00084824277996567487 0 0.010505506446609516 -0.00055638568677604983 0 0.010202248319212924 -0.00066708386768069082 0 0.010451259839809277 -0.00084824277996567487 0 0.010505506446609516 -0.00055638568677604983 0 0.010505506446609516 -0.00055638568677604983 0 0.010158919662174309 -0.00038906386178067063 0 0.010304658458950778 -0.00028013977358762229 0 0.010505506446609516 -0.00055638568677604983 0 0.010737187551224322 -0.00023309786411732542 0 0.010304658458950778 -0.00028013977358762229 0 0.010202248319212924 -0.00066708386768069082 0 0.010505506446609516 -0.00055638568677604983 0 0.010158919662174309 -0.00038906386178067063 0 0.010202248319212924 -0.00066708386768069082 0 0.010158919662174309 -0.00038906386178067063 0 0.010080982097219143 -0.00050549540303216451 0 0.010158919662174309 -0.00038906386178067063 0 0.010080982097219143 -0.00050549540303216451 0 0.010034662082649273 -0.00038505523389366142 0 0.010848269051029768 -0.00094592982483711308 0 0.010505506446609516 -0.00055638568677604983 0 0.011047470007111858 -0.00066772515095681506 0 0.01117761976137573 -0.00049465538530469872 0 0.011030916192238571 -0.00028683786697926764 0 0.010505506446609516 -0.00055638568677604983 0 0.011047470007111858 -0.00066772515095681506 0 0.010737187551224322 -0.00023309786411732542 0 0.011260003912031401 -0.00023845542975672822 0 0.011599372214058582 -9.4430537971289839e-06 0 0.010737187551224322 -0.00023309786411732542 0 0.011599372214058582 -9.4430537971289839e-06 0 0.012451093001294843 -3.420399175587319e-05 0 0.012178551568128332 0.00012260348063313279 0 0.011599372214058582 -9.4430537971289839e-06 0 0.012451093001294843 -3.420399175587319e-05 0 0.011799171312334133 -0.00023700780409597005 0 0.011260003912031401 -0.00023845542975672822 0 0.011599372214058582 -9.4430537971289839e-06 0 0.011799171312334133 -0.00023700780409597005 0 0.011571136370710489 -0.00059669209588601789 0 0.011799171312334133 -0.00023700780409597005 0 0.012471717903161088 -0.00060536188819699437 0 0.012451093001294843 -3.420399175587319e-05 0 0.011799171312334133 -0.00023700780409597005 0 0.012471717903161088 -0.00060536188819699437 0 0.012317430871141066 -0.0013205562877568891 0 0.012471717903161088 -0.00060536188819699437 0 0.012026547778798425 -0.00097926138814667402 0 0.012317430871141066 -0.0013205562877568891 0 0.013283238912140722 -0.0015057271242279958 0 0.012471717903161088 -0.00060536188819699437 0 0.011625419848105174 -0.0012562558582576767 0 0.011447298647945454 -0.00092969456135253044 0 0.011881141618999995 -0.0015667357179615907 0 0.011353882114644422 -0.0016248048337838862 0 0.011409233398908064 -0.0010890873598729208 0 0.011881141618999995 -0.0015667357179615907 0 0.011571136370710489 -0.00059669209588601789 0 0.012026547778798425 -0.00097926138814667402 0 0.011571136370710489 -0.00059669209588601789 0 0.012471717903161088 -0.00060536188819699437 0 0.012026547778798425 -0.00097926138814667402 0 0.013283238912140722 -0.0015057271242279958 0 0.015514111417212199 -3.4184660630363638e-06 0 0.013599915816852333 -0.00012094833603933615 0 0.013283238912140722 -0.0015057271242279958 0 0.012471717903161088 -0.00060536188819699437 0 0.013599915816852333 -0.00012094833603933615 0 0.012451093001294843 -3.420399175587319e-05 0 0.012471717903161088 -0.00060536188819699437 0 0.013599915816852333 -0.00012094833603933615 0 0.013599915816852333 -0.00012094833603933615 0 0.014124097274010572 9.3827989599815718e-07 0 0.012992856674560785 7.0009321181996025e-05 0 0.015514111417212199 -3.4184660630363638e-06 0 0.013599915816852333 -0.00012094833603933615 0 0.014124097274010572 9.3827989599815718e-07 0 0.014124097274010572 9.3827989599815718e-07 0 0.012992856674560785 7.0009321181996025e-05 0 0.012730614561582079 1.3803596216464624e-07 0 0.012451093001294843 -3.420399175587319e-05 0 0.013599915816852333 -0.00012094833603933615 0 0.012992856674560785 7.0009321181996025e-05 0 0.012451093001294843 -3.420399175587319e-05 0 0.012992856674560785 7.0009321181996025e-05 0 0.012178551568128332 0.00012260348063313279 0 0.012992856674560785 7.0009321181996025e-05 0 0.012178551568128332 0.00012260348063313279 0 0.012730614561582079 1.3803596216464624e-07 0 0.012730614561582079 1.3803596216464624e-07 0 0.011590938515599615 0.00018110469149885453 0 0.011338152257058998 3.2216594170409108e-07 0 0.012178551568128332 0.00012260348063313279 0 0.012730614561582079 1.3803596216464624e-07 0 0.011590938515599615 0.00018110469149885453 0 0.012178551568128332 0.00012260348063313279 0 0.011590938515599615 0.00018110469149885453 0 0.01156487713659874 0.00021377449808855089 0 0.011590938515599615 0.00018110469149885453 0 0.01156487713659874 0.00021377449808855089 0 0.010965257272646661 0.00026694225729493416 0 0.011590938515599615 0.00018110469149885453 0 0.011338152257058998 3.2216594170409108e-07 0 0.010965257272646661 0.00026694225729493416 0 0.011599372214058582 -9.4430537971289839e-06 0 0.01156487713659874 0.00021377449808855089 0 0.011180186302586537 8.270144133742294e-05 0 0.011599372214058582 -9.4430537971289839e-06 0 0.012178551568128332 0.00012260348063313279 0 0.01156487713659874 0.00021377449808855089 0 0.01156487713659874 0.00021377449808855089 0 0.011290962789234081 0.00028230555030859839 0 0.010965257272646661 0.00026694225729493416 0 0.01156487713659874 0.00021377449808855089 0 0.011290962789234081 0.00028230555030859839 0 0.011180186302586537 8.270144133742294e-05 0 0.011290962789234081 0.00028230555030859839 0 0.011225510652390271 0.00019744676344960312 0 0.010972532504887887 0.00040253218546073161 0 0.011290962789234081 0.00028230555030859839 0 0.011225510652390271 0.00019744676344960312 0 0.010965257272646661 0.00026694225729493416 0 0.011225510652390271 0.00019744676344960312 0 0.010965257272646661 0.00026694225729493416 0 0.010717748024389217 -0.00014897399931095348 0 0.011338152257058998 3.2216594170409108e-07 0 0.010965257272646661 0.00026694225729493416 0 0.0099452262177936422 8.7072885419496712e-07 0 0.010965257272646661 0.00026694225729493416 0 0.0098963382086332714 -1.7307605981206768e-05 0 0.010717748024389217 -0.00014897399931095348 0 0.010965257272646661 0.00026694225729493416 0 0.0099452262177936422 8.7072885419496712e-07 0 0.0098963382086332714 -1.7307605981206768e-05 0 0.0099452262177936422 8.7072885419496712e-07 0 0.0098963382086332714 -1.7307605981206768e-05 0 0.0085542132113640562 -1.9253330843536e-06 0 0.0098963382086332714 -1.7307605981206768e-05 0 0.0085542132113640562 -1.9253330843536e-06 0 0.0094095592687807959 -0.00064998382907224914 0 0.0085517307777789493 -2.2383737674473427e-07 0 0.0084850068563990921 -3.334796434968787e-05 0 0.0085506367764488639 -1.5029667718167484e-10 0 0.0082475994175151418 2.6017339434328669e-07 0 0.0079538869297749049 8.7172223994024552e-10 0 0.007124630073439513 -0.00053996159611530202 0 0.0079504561330356726 -1.0331158591440929e-06 0 0.0070565903493057707 -9.5956024161934376e-05 0 0.0084850068563990921 -3.334796434968787e-05 0 0.0079541873419065132 -7.3349333566049682e-07 0 0.010450419070490709 -0.00052082390341587218 0 0.010202019888867696 -0.00052542465982435642 0 0.01016197204361733 -0.00070518105545077725 0 0.010450419070490709 -0.00052082390341587218 0 0.010202019888867696 -0.00052542465982435642 0 0.010204686649661728 -0.0003334300640871791 0 0.007124630073439513 -0.00053996159611530202 0 0.0070565903493057707 -9.5956024161934376e-05 0 0.0063434278109954206 -2.4763831710440448e-05 0 0.0084850068563990921 -3.334796434968787e-05 0 0.0083017065019910484 -0.00017552483779962377 0 0.0084850068563990921 -3.334796434968787e-05 0 0.009818170264986964 2.1901247764423818e-05 0 0.0098963382086332714 -1.7307605981206768e-05 0 0.0094095592687807959 -0.00064998382907224914 0 0.010717748024389217 -0.00014897399931095348 0 0.010190346787359703 -5.9122752673014424e-05 0 0.009818170264986964 2.1901247764423818e-05 0 0.0097910569656290102 -0.00085854330496207255 0 0.01016197204361733 -0.00070518105545077725 0 0.009990270149967612 -0.00053971932104041661 0 0.0097910569656290102 -0.00085854330496207255 0 0.009990270149967612 -0.00053971932104041661 0 0.009712818397806508 -0.0006927650226246126 0 0.009990270149967612 -0.00053971932104041661 0 0.0097798966509540144 -0.00044991141735836775 0 0.009712818397806508 -0.0006927650226246126 0 0.010202019888867696 -0.00052542465982435642 0 0.009990270149967612 -0.00053971932104041661 0 0.010204686649661728 -0.0003334300640871791 0 0.010202019888867696 -0.00052542465982435642 0 0.01016197204361733 -0.00070518105545077725 0 0.009990270149967612 -0.00053971932104041661 0 0.0079706347048748606 -0.00021167198398694634 0 0.0083017065019910484 -0.00017552483779962377 0 0.006440982445843917 7.4231165376118435e-06 0 0.0063049966944537239 3.9719776344182683e-05 0 0.0063434278109954206 -2.4763831710440448e-05 0 0.009990270149967612 -0.00053971932104041661 0 0.010012196693759677 -0.00011805427482212924 0 0.010204686649661728 -0.0003334300640871791 0 0.010012196693759677 -0.00011805427482212924 0 0.0097791737442821606 -0.00010030376802667097 0 0.0097798966509540144 -0.00044991141735836775 0 0.009990270149967612 -0.00053971932104041661 0 0.010012196693759677 -0.00011805427482212924 0 0.0097798966509540144 -0.00044991141735836775 0 0.010012196693759677 -0.00011805427482212924 0 0.0097791737442821606 -0.00010030376802667097 0 0.009788105986052462 0.00026240899191249366 0 0.0079706347048748606 -0.00021167198398694634 0 0.0073206147060239776 -0.00020751859778069757 0 0.006440982445843917 7.4231165376118435e-06 0 0.0063049966944537239 3.9719776344182683e-05 0 0.0064054156537265263 -0.00011754700239009916 0 0.0063049966944537239 3.9719776344182683e-05 0 0.0059372631216522351 -9.4771977597039688e-05 0 0.0067106918281605041 4.4177953965692974e-05 0 0.0063049966944537239 3.9719776344182683e-05 0 0.0059372631216522351 -9.4771977597039688e-05 0 0.0064054156537265263 -0.00011754700239009916 0 0.0064767974533658651 1.6665482892114634e-07 0 0.0059372631216522351 -9.4771977597039688e-05 0 0.0067106918281605041 4.4177953965692974e-05 0 0.0079504561330356726 -1.0331158591440929e-06 0 0.0064767974533658651 1.6665482892114634e-07 0 0.0067106918281605041 4.4177953965692974e-05 0 0.0079504561330356726 -1.0331158591440929e-06 0 0.0067106918281605041 4.4177953965692974e-05 0 0.0070565903493057707 -9.5956024161934376e-05 0 0.0067106918281605041 4.4177953965692974e-05 0 0.0070565903493057707 -9.5956024161934376e-05 0 0.0063434278109954206 -2.4763831710440448e-05 0 0.0063049966944537239 3.9719776344182683e-05 0 0.0067106918281605041 4.4177953965692974e-05 0 0.0063434278109954206 -2.4763831710440448e-05 0 0.0093117218097024997 -0.00049331685986431586 0 0.0089391307974901624 -0.0005326580500459371 0 0.0091256513227328424 -0.00012541662510415276 0 0.0089391307974901624 -0.0005326580500459371 0 0.0087510789053241011 -1.0352821305370379e-05 0 0.0091256513227328424 -0.00012541662510415276 0 0.0093117218097024997 -0.00049331685986431586 0 0.0091256513227328424 -0.00012541662510415276 0 0.0093913586377735499 -0.00012163402506233899 0 0.0089391307974901624 -0.0005326580500459371 0 0.0087510789053241011 -1.0352821305370379e-05 0 0.0080937452741475999 -0.00013372801394322012 0 0.0089391307974901624 -0.0005326580500459371 0 0.008620715040874017 -0.00090632434306197707 0 0.0080937452741475999 -0.00013372801394322012 0 0.0087510789053241011 -1.0352821305370379e-05 0 0.0084765354576639886 0.0004278511480961254 0 0.0080937452741475999 -0.00013372801394322012 0 0.0087510789053241011 -1.0352821305370379e-05 0 0.0084765354576639886 0.0004278511480961254 0 0.0089822466231513562 0.00030798499948336849 0 0.0087510789053241011 -1.0352821305370379e-05 0 0.0089822466231513562 0.00030798499948336849 0 0.0091256513227328424 -0.00012541662510415276 0 0.0091256513227328424 -0.00012541662510415276 0 0.0092340235312573307 0.00019513529329843465 0 0.0093913586377735499 -0.00012163402506233899 0 0.0089822466231513562 0.00030798499948336849 0 0.0091256513227328424 -0.00012541662510415276 0 0.0092340235312573307 0.00019513529329843465 0 0.0089822466231513562 0.00030798499948336849 0 0.0092340235312573307 0.00019513529329843465 0 0.0092053758789152305 0.00044249187760081314 0 0.0092340235312573307 0.00019513529329843465 0 0.0094563212127122265 0.00015939684066506275 0 0.0093548392071911256 0.00038896337316437384 0 0.0094563212127122265 0.00015939684066506275 0 0.0095244389944301611 0.000330263176398569 0 0.0093548392071911256 0.00038896337316437384 0 0.0094563212127122265 0.00015939684066506275 0 0.0095798308376224307 -5.8139090569932447e-05 0 0.0096274207263421663 0.00013959448417734393 0 0.0094563212127122265 0.00015939684066506275 0 0.0096274207263421663 0.00013959448417734393 0 0.0095244389944301611 0.000330263176398569 0 0.0094563212127122265 0.00015939684066506275 0 0.0095798308376224307 -5.8139090569932447e-05 0 0.0093913586377735499 -0.00012163402506233899 0 0.0092340235312573307 0.00019513529329843465 0 0.0094563212127122265 0.00015939684066506275 0 0.0093913586377735499 -0.00012163402506233899 0 0.0096274207263421663 0.00013959448417734393 0 0.0097791737442821606 -0.00010030376802667097 0 0.009788105986052462 0.00026240899191249366 0 0.0095798308376224307 -5.8139090569932447e-05 0 0.0096274207263421663 0.00013959448417734393 0 0.0097791737442821606 -0.00010030376802667097 0 0.0097791737442821606 -0.00010030376802667097 0 0.0095698832138952257 -0.00033928854950875803 0 0.0097798966509540144 -0.00044991141735836775 0 0.0095798308376224307 -5.8139090569932447e-05 0 0.0097791737442821606 -0.00010030376802667097 0 0.0095698832138952257 -0.00033928854950875803 0 0.0093117218097024997 -0.00049331685986431586 0 0.0093913586377735499 -0.00012163402506233899 0 0.0095698832138952257 -0.00033928854950875803 0 0.0095798308376224307 -5.8139090569932447e-05 0 0.0093913586377735499 -0.00012163402506233899 0 0.0095698832138952257 -0.00033928854950875803 0 0.0093117218097024997 -0.00049331685986431586 0 0.0095698832138952257 -0.00033928854950875803 0 0.0095124121275745391 -0.00072493719284332588 0 0.0095698832138952257 -0.00033928854950875803 0 0.0095124121275745391 -0.00072493719284332588 0 0.0097798966509540144 -0.00044991141735836775 0 0.0095124121275745391 -0.00072493719284332588 0 0.0097798966509540144 -0.00044991141735836775 0 0.009712818397806508 -0.0006927650226246126 0 0.0097910569656290102 -0.00085854330496207255 0 0.009712818397806508 -0.0006927650226246126 0 0.0095623062838113837 -0.00081824867352640125 0 0.0095124121275745391 -0.00072493719284332588 0 0.009712818397806508 -0.0006927650226246126 0 0.0095623062838113837 -0.00081824867352640125 0 0.0095124121275745391 -0.00072493719284332588 0 0.0094467936218166956 -0.00090524958324676144 0 0.0095623062838113837 -0.00081824867352640125 0 0.0094467936218166956 -0.00090524958324676144 0 0.0091814577300379681 -0.00087557020621696006 0 0.0092860748230736371 -0.0010081940672936611 0 0.0095124121275745391 -0.00072493719284332588 0 0.0094467936218166956 -0.00090524958324676144 0 0.0091814577300379681 -0.00087557020621696006 0 0.0094467936218166956 -0.00090524958324676144 0 0.0092860748230736371 -0.0010081940672936611 0 0.0094994180397109575 -0.00087964313369989398 0 0.0093117218097024997 -0.00049331685986431586 0 0.0095124121275745391 -0.00072493719284332588 0 0.0091814577300379681 -0.00087557020621696006 0 0.0093117218097024997 -0.00049331685986431586 0 0.0089391307974901624 -0.0005326580500459371 0 0.0091814577300379681 -0.00087557020621696006 0 0.008620715040874017 -0.00090632434306197707 0 0.0089967920747469898 -0.0010783859203652723 0 0.0083669654060547476 -0.0012888958526547322 0 0.0091814577300379681 -0.00087557020621696006 0 0.008620715040874017 -0.00090632434306197707 0 0.0089967920747469898 -0.0010783859203652723 0 0.0089391307974901624 -0.0005326580500459371 0 0.0091814577300379681 -0.00087557020621696006 0 0.008620715040874017 -0.00090632434306197707 0 0.0089967920747469898 -0.0010783859203652723 0 0.0083669654060547476 -0.0012888958526547322 0 0.0090411788879429852 -0.0010472408863580298 0 0.0091814577300379681 -0.00087557020621696006 0 0.0089967920747469898 -0.0010783859203652723 0 0.0092860748230736371 -0.0010081940672936611 0 0.0089967920747469898 -0.0010783859203652723 0 0.0092860748230736371 -0.0010081940672936611 0 0.0093516911444986844 -0.0010738375669183985 0 0.0089967920747469898 -0.0010783859203652723 0 0.0093516911444986844 -0.0010738375669183985 0 0.0090411788879429852 -0.0010472408863580298 0 0.0093523207536798259 -0.0013879811507022416 0 0.0092694614545961417 -0.0015309218144034526 0 0.0093516911444986844 -0.0010738375669183985 0 0.0089444484848789137 -0.001660749124498896 0 0.0090411788879429852 -0.0010472408863580298 0 0.0093516911444986844 -0.0010738375669183985 0 0.0096294963409831926 -0.00077348219702887545 0 0.0099757406831915921 -0.00067837861036068212 0 0.0096294963409831926 -0.00077348219702887545 0 0.0098032125012086514 -0.000562874615026352 0 0.0099757406831915921 -0.00067837861036068212 0 0.0096294963409831926 -0.00077348219702887545 0 0.0094994180397109575 -0.00087964313369989398 0 0.0097460431661024662 -0.00060377507117945607 0 0.0093516911444986844 -0.0010738375669183985 0 0.0096294963409831926 -0.00077348219702887545 0 0.0094994180397109575 -0.00087964313369989398 0 0.0092860748230736371 -0.0010081940672936611 0 0.0093516911444986844 -0.0010738375669183985 0 0.0094994180397109575 -0.00087964313369989398 0 0.0094467936218166956 -0.00090524958324676144 0 0.0094994180397109575 -0.00087964313369989398 0 0.0096449748136112675 -0.00074301060430322216 0 0.0094994180397109575 -0.00087964313369989398 0 0.0097460431661024662 -0.00060377507117945607 0 0.0096449748136112675 -0.00074301060430322216 0 0.0097460431661024662 -0.00060377507117945607 0 0.0098924028695633846 -0.00040647796319020032 0 0.010094350661232836 -0.00013221230820062565 0 0.0097460431661024662 -0.00060377507117945607 0 0.0096449748136112675 -0.00074301060430322216 0 0.010094350661232836 -0.00013221230820062565 0 0.0098924028695633846 -0.00040647796319020032 0 0.0098032125012086514 -0.000562874615026352 0 0.0099523151817181663 -0.00042701144318946796 0 0.0098924028695633846 -0.00040647796319020032 0 0.0099814040918563621 -0.00030319481694638864 0 0.0099523151817181663 -0.00042701144318946796 0 0.0098032125012086514 -0.000562874615026352 0 0.0099757406831915921 -0.00067837861036068212 0 0.0099523151817181663 -0.00042701144318946796 0 0.0097460431661024662 -0.00060377507117945607 0 0.0098924028695633846 -0.00040647796319020032 0 0.0098032125012086514 -0.000562874615026352 0 0.0096294963409831926 -0.00077348219702887545 0 0.0097460431661024662 -0.00060377507117945607 0 0.0098032125012086514 -0.000562874615026352 0 0.010190346787359703 -5.9122752673014424e-05 0 0.010211963161981601 -0.00010802993124453692 0 0.0097910569656290102 -0.00085854330496207255 0 0.0095623062838113837 -0.00081824867352640125 0 0.0095046853511984355 -0.00072372596546981546 0 0.0095623062838113837 -0.00081824867352640125 0 0.0096449748136112675 -0.00074301060430322216 0 0.0095046853511984355 -0.00072372596546981546 0 0.0094467936218166956 -0.00090524958324676144 0 0.0095623062838113837 -0.00081824867352640125 0 0.0096449748136112675 -0.00074301060430322216 0 0.0096449748136112675 -0.00074301060430322216 0 0.0095046853511984355 -0.00072372596546981546 0 0.010094350661232836 -0.00013221230820062565 0 0.010211963161981601 -0.00010802993124453692 0 0.010184620961170612 -0.00012332024397098811 0 0.011290962789234081 0.00028230555030859839 0 0.010972532504887887 0.00040253218546073161 0 0.011180186302586537 8.270144133742294e-05 0 0.010972532504887887 0.00040253218546073161 0 0.011180186302586537 8.270144133742294e-05 0 0.010094350661232836 -0.00013221230820062565 0 0.011180186302586537 8.270144133742294e-05 0 0.010737187551224322 -0.00023309786411732542 0 0.010094350661232836 -0.00013221230820062565 0 0.011599372214058582 -9.4430537971289839e-06 0 0.011180186302586537 8.270144133742294e-05 0 0.010737187551224322 -0.00023309786411732542 0 0.0099814040918563621 -0.00030319481694638864 0 0.010085273424315835 -0.00026331396289359222 0 0.010003738218329328 -0.00029999206074471206 0 0.0099814040918563621 -0.00030319481694638864 0 0.010005232453025707 -0.00034142184612136759 0 0.0099523151817181663 -0.00042701144318946796 0 0.0099814040918563621 -0.00030319481694638864 0 0.010003738218329328 -0.00029999206074471206 0 0.010005232453025707 -0.00034142184612136759 0 0.010094350661232836 -0.00013221230820062565 0 0.010304658458950778 -0.00028013977358762229 0 0.010085273424315835 -0.00026331396289359222 0 0.0098924028695633846 -0.00040647796319020032 0 0.0099814040918563621 -0.00030319481694638864 0 0.010094350661232836 -0.00013221230820062565 0 0.0099814040918563621 -0.00030319481694638864 0 0.010094350661232836 -0.00013221230820062565 0 0.010085273424315835 -0.00026331396289359222 0 0.010737187551224322 -0.00023309786411732542 0 0.010094350661232836 -0.00013221230820062565 0 0.010304658458950778 -0.00028013977358762229 0 0.010158919662174309 -0.00038906386178067063 0 0.010304658458950778 -0.00028013977358762229 0 0.010085273424315835 -0.00026331396289359222 0 0.010158919662174309 -0.00038906386178067063 0 0.010085273424315835 -0.00026331396289359222 0 0.010052461779553053 -0.00031324872503858431 0 0.010085273424315835 -0.00026331396289359222 0 0.010052461779553053 -0.00031324872503858431 0 0.010003738218329328 -0.00029999206074471206 0 0.010158919662174309 -0.00038906386178067063 0 0.010052461779553053 -0.00031324872503858431 0 0.010034662082649273 -0.00038505523389366142 0 0.010034662082649273 -0.00038505523389366142 0 0.0099681919957745942 -0.00035711290740186651 0 0.010002972344900133 -0.00031022086334286367 0 0.010052461779553053 -0.00031324872503858431 0 0.010034662082649273 -0.00038505523389366142 0 0.010002972344900133 -0.00031022086334286367 0 0.0099426280441424347 -0.00050976212409049458 0 0.0099681919957745942 -0.00035711290740186651 0 0.0098670757321441937 -0.00036607884531882664 0 0.0099681919957745942 -0.00035711290740186651 0 0.009945465756465318 -0.00033005057097597844 0 0.0098670757321441937 -0.00036607884531882664 0 0.0099681919957745942 -0.00035711290740186651 0 0.009945465756465318 -0.00033005057097597844 0 0.0099756840744283388 -0.00031235235056495554 0 0.009945465756465318 -0.00033005057097597844 0 0.0099756840744283388 -0.00031235235056495554 0 0.0099678952310118078 -0.0002904958141339336 0 0.0099681919957745942 -0.00035711290740186651 0 0.0099756840744283388 -0.00031235235056495554 0 0.010002972344900133 -0.00031022086334286367 0 0.0099756840744283388 -0.00031235235056495554 0 0.010002972344900133 -0.00031022086334286367 0 0.0099875038326195584 -0.00030079518632864709 0 0.0099756840744283388 -0.00031235235056495554 0 0.0099875038326195584 -0.00030079518632864709 0 0.0099678952310118078 -0.0002904958141339336 0 0.010052461779553053 -0.00031324872503858431 0 0.010002972344900133 -0.00031022086334286367 0 0.010003738218329328 -0.00029999206074471206 0 0.0099875038326195584 -0.00030079518632864709 0 0.010005232453025707 -0.00034142184612136759 0 0.01008203583570298 -0.00040269055958040641 0 0.010003738218329328 -0.00029999206074471206 0 0.0099875038326195584 -0.00030079518632864709 0 0.010005232453025707 -0.00034142184612136759 0 0.0094158053096999074 -0.0014142782211097711 0 0.0092384429626198548 -0.001682583467570145 0 0.010002972344900133 -0.00031022086334286367 0 0.010003738218329328 -0.00029999206074471206 0 0.0099875038326195584 -0.00030079518632864709 0 0.0099875038326195584 -0.00030079518632864709 0 0.0099678952310118078 -0.0002904958141339336 0 0.01008203583570298 -0.00040269055958040641 0 0.0096980217421887803 -0.001950185756929967 0 0.0086574130280799542 -0.0022522017086857361 0 0.0092431712449148658 -0.0018283923226093313 0 0.0093459027559757903 -0.001951389210819486 0 0.0094055949333555922 -0.0015942554111319589 0 0.0096980217421887803 -0.001950185756929967 0 0.0099849251469965108 -0.0022046070427994995 0 0.0096980217421887803 -0.001950185756929967 0 0.0092384429626198548 -0.001682583467570145 0 0.0096980217421887803 -0.001950185756929967 0 0.0094158053096999074 -0.0014142782211097711 0 0.0096980217421887803 -0.001950185756929967 0 0.011610329811568761 -0.0015558800136371586 0 0.0097904579686039998 -0.00010154689259208468 0 0.0098908016457915759 -0.00022116259794106023 0 0.0098670757321441937 -0.00036607884531882664 0 0.0097904579686039998 -0.00010154689259208468 0 0.0098670757321441937 -0.00036607884531882664 0 0.0095786853105324053 -0.0003973949017723389 0 0.0094158053096999074 -0.0014142782211097711 0 0.0094504027812013468 -0.0012697781533923891 0 0.009945465756465318 -0.00033005057097597844 0 0.0099678952310118078 -0.0002904958141339336 0 0.0098670757321441937 -0.00036607884531882664 0 0.012245946292869401 -0.0020559066262934365 0 0.012498483343439989 -0.0017010283722784893 0 0.012566408699014237 -0.0019939837356441545 0 0.012498483343439989 -0.0017010283722784893 0 0.012763145644325119 -0.0017860034605685139 0 0.012566408699014237 -0.0019939837356441545 0 0.012852083764594202 -0.0019293923476562818 0 0.012950811652300892 -0.0020770177239135806 0 0.012981096481886821 -0.001779516167438497 0 0.012763145644325119 -0.0017860034605685139 0 0.012733890449300662 -0.0019501810706466763 0 0.012852083764594202 -0.0019293923476562818 0 0.012763145644325119 -0.0017860034605685139 0 0.012733890449300662 -0.0019501810706466763 0 0.012566408699014237 -0.0019939837356441545 0 0.012763145644325119 -0.0017860034605685139 0 0.012852083764594202 -0.0019293923476562818 0 0.012981096481886821 -0.001779516167438497 0 0.012950811652300892 -0.0020770177239135806 0 0.01283533406853418 -0.0022319520388274909 0 0.013004601626056142 -0.0023764986147189584 0 0.012852083764594202 -0.0019293923476562818 0 0.012950811652300892 -0.0020770177239135806 0 0.012777807189469042 -0.00207049441519223 0 0.012733890449300662 -0.0019501810706466763 0 0.012777807189469042 -0.00207049441519223 0 0.012566408699014237 -0.0019939837356441545 0 0.012733890449300662 -0.0019501810706466763 0 0.012852083764594202 -0.0019293923476562818 0 0.012777807189469042 -0.00207049441519223 0 0.012777807189469042 -0.00207049441519223 0 0.01283533406853418 -0.0022319520388274909 0 0.012668305646040266 -0.0021827946447546642 0 0.012950811652300892 -0.0020770177239135806 0 0.012777807189469042 -0.00207049441519223 0 0.01283533406853418 -0.0022319520388274909 0 0.012245946292869401 -0.0020559066262934365 0 0.012566408699014237 -0.0019939837356441545 0 0.012472162137159239 -0.0022212735001726101 0 0.0096807185624731822 -0.0022227392410922712 0 0.0094067385439216868 -0.0020184962541301699 0 0.0093237943544831076 -0.001790560088225064 0 0.012777807189469042 -0.00207049441519223 0 0.012566408699014237 -0.0019939837356441545 0 0.012668305646040266 -0.0021827946447546642 0 0.012566408699014237 -0.0019939837356441545 0 0.012668305646040266 -0.0021827946447546642 0 0.012472162137159239 -0.0022212735001726101 0 0.0099849251469965108 -0.0022046070427994995 0 0.0097336472086040869 -0.002224567397853091 0 0.012668305646040266 -0.0021827946447546642 0 0.012472162137159239 -0.0022212735001726101 0 0.012690265791007174 -0.0023966466663812832 0 0.0094067385439216868 -0.0020184962541301699 0 0.0093237943544831076 -0.001790560088225064 0 0.0091417036181085203 -0.0018014311236949506 0 0.0086574130280799542 -0.0022522017086857361 0 0.0097336472086040869 -0.002224567397853091 0 0.011718636063946799 -0.0026900216004649229 0 0.011300829790070143 -0.0027144790714846664 0 0.01118217330110478 -0.0022436218782150661 0 0.0097336472086040869 -0.002224567397853091 0 0.012438862485369191 -0.0022008482569008179 0 0.0062628829424914755 -0.0042882033736192206 0 0.0057275187220363474 -0.0043230222630472265 0 0.0052286340840724983 -0.0031857043856452173 0 0.01283533406853418 -0.0022319520388274909 0 0.012690265791007174 -0.0023966466663812832 0 0.013004601626056142 -0.0023764986147189584 0 0.01283533406853418 -0.0022319520388274909 0 0.012668305646040266 -0.0021827946447546642 0 0.012690265791007174 -0.0023966466663812832 0 0.0078519657486503143 -0.0023430005782440907 0 0.0075309156657627271 -0.0019817420809499294 0 0.0074568252632849774 -0.0019394655624581998 0 0.0097336472086040869 -0.002224567397853091 0 0.0084268398133050242 -0.0019934496467520833 0 0.0057275187220363474 -0.0043230222630472265 0 0.0052286340840724983 -0.0031857043856452173 0 0.0043216440813574741 -0.0031949667672528017 0 0.0086574130280799542 -0.0022522017086857361 0 0.0068914704038506892 -0.0020228946109192777 0 0.0075201979306232054 -0.0019777499716009347 0 0.0076981481938217878 -0.0018164954769127857 0 0.0075020645657288016 -0.0017566675484573945 0 0.0075309156657627271 -0.0019817420809499294 0 0.0074568252632849774 -0.0019394655624581998 0 0.0072161033459717605 -0.0016208103285010806 0 0.0078162016339812894 -0.0023266940373824359 0 0.0078701065076872811 -0.0019835849682249382 0 0.0081665566036538215 -0.0020057762699464158 0 0.0078162016339812894 -0.0023266940373824359 0 0.0075201979306232054 -0.0019777499716009347 0 0.0078701065076872811 -0.0019835849682249382 0 0.0086574130280799542 -0.0022522017086857361 0 0.0080495583221445229 -0.0018784700671146196 0 0.0075201979306232054 -0.0019777499716009347 0 0.0078701065076872811 -0.0019835849682249382 0 0.0076981481938217878 -0.0018164954769127857 0 0.0078701065076872811 -0.0019835849682249382 0 0.0080513920830728135 -0.0016873383934729713 0 0.0076981481938217878 -0.0018164954769127857 0 0.0078701065076872811 -0.0019835849682249382 0 0.0081665566036538215 -0.0020057762699464158 0 0.0080513920830728135 -0.0016873383934729713 0 0.0090427176371700585 -0.0017790319622885732 0 0.0083280888083436203 -0.00180450792190602 0 0.0081665566036538215 -0.0020057762699464158 0 0.0084420653698946725 -0.0022856530400629177 0 0.0085281699124359796 -0.0017598306572820393 0 0.0089444484848789137 -0.001660749124498896 0 0.008783530663585443 -0.0010087001935994947 0 0.0090411788879429852 -0.0010472408863580298 0 0.0089444484848789137 -0.001660749124498896 0 0.0086373378028853989 -0.0019190473791705237 0 0.008783530663585443 -0.0010087001935994947 0 0.0089444484848789137 -0.001660749124498896 0 0.0086373378028853989 -0.0019190473791705237 0 0.0087651402019442697 -0.0019201949793977078 0 0.0091318860578913068 -0.0019042443937060851 0 0.009042418485090839 -0.0019033359203018149 0 0.0091602607321662512 -0.0017327778448396197 0 0.0090427176371700585 -0.0017790319622885732 0 0.0091518576237842927 -0.0017235599479078639 0 0.0099757406831915921 -0.00067837861036068212 0 0.010056469773648368 -0.00052040202356621235 0 0.0099523151817181663 -0.00042701144318946796 0 0.0092694614545961417 -0.0015309218144034526 0 0.0091518576237842927 -0.0017235599479078639 0 0.010056469773648368 -0.00052040202356621235 0 0.0099523151817181663 -0.00042701144318946796 0 0.01008203583570298 -0.00040269055958040641 0 0.010005232453025707 -0.00034142184612136759 0 0.0099523151817181663 -0.00042701144318946796 0 0.01008203583570298 -0.00040269055958040641 0 0.0090427176371700585 -0.0017790319622885732 0 0.0092384429626198548 -0.001682583467570145 0 0.0091518576237842927 -0.0017235599479078639 0 0.0092384429626198548 -0.001682583467570145 0 0.0078162016339812894 -0.0023266940373824359 0 0.0081665566036538215 -0.0020057762699464158 0 0.0084420653698946725 -0.0022856530400629177 0 0.0086574130280799542 -0.0022522017086857361 0 0.0090427176371700585 -0.0017790319622885732 0 0.0091828337757942219 -0.0019709520355616688 0 0.0092476769203518622 -0.0019664975360554125 0 0.0092453845213297751 -0.0019810519363156151 0 0.0092216943077407364 -0.0020157419072402804 0 0.0091828337757942219 -0.0019709520355616688 0 0.0092453845213297751 -0.0019810519363156151 0 0.019497375109520768 -0.0027418806974495507 0 0.019304392404133446 -0.0017870345103500216 0 0.01834889454252199 -0.0024800674277231892 0 0.019497375109520768 -0.0027418806974495507 0 0.020159238259874718 -0.0017889592214030117 0 0.019304392404133446 -0.0017870345103500216 0 0.020150027664498523 -0.0036506586317369381 0 0.019497375109520768 -0.0027418806974495507 0 0.018946710746931078 -0.003773061928913786 0 0.020150027664498523 -0.0036506586317369381 0 0.019497375109520768 -0.0027418806974495507 0 0.020521371968851433 -0.0026177581820703614 0 0.019497375109520768 -0.0027418806974495507 0 0.020521371968851433 -0.0026177581820703614 0 0.020159238259874718 -0.0017889592214030117 0 0.020521371968851433 -0.0026177581820703614 0 0.020978378352539295 -0.001758178817305693 0 0.020159238259874718 -0.0017889592214030117 0 0.020521371968851433 -0.0026177581820703614 0 0.021030550869785478 -0.0032017692266338737 0 0.021385559917438825 -0.002509018725231702 0 0.020521371968851433 -0.0026177581820703614 0 0.021385559917438825 -0.002509018725231702 0 0.020978378352539295 -0.001758178817305693 0 0.020150027664498523 -0.0036506586317369381 0 0.020521371968851433 -0.0026177581820703614 0 0.021030550869785478 -0.0032017692266338737 0 0.015910633384600772 -0.0028920950663823934 0 0.015971842565584409 -0.0026030082977223775 0 0.021030550869785478 -0.0032017692266338737 0 0.021779815475624319 -0.003246778970001358 0 0.021385559917438825 -0.002509018725231702 0 0.020953985278586728 -0.0039730200798005254 0 0.021030550869785478 -0.0032017692266338737 0 0.021779815475624319 -0.003246778970001358 0 0.012950811652300892 -0.0020770177239135806 0 0.012981096481886821 -0.001779516167438497 0 0.013150179028590305 -0.002066525906800413 0 0.015971842565584409 -0.0026030082977223775 0 0.015476923266567121 -0.0020770467869036576 0 0.012950811652300892 -0.0020770177239135806 0 0.013150179028590305 -0.002066525906800413 0 0.013004601626056142 -0.0023764986147189584 0 0.013150179028590305 -0.002066525906800413 0 0.013004601626056142 -0.0023764986147189584 0 0.013320286512598303 -0.0023560382810566944 0 0.011300829790070143 -0.0027144790714846664 0 0.01118217330110478 -0.0022436218782150661 0 0.010877930934545418 -0.0027426943423044924 0 0.012438862485369191 -0.0022008482569008179 0 0.015476923266567121 -0.0020770467869036576 0 0.01118217330110478 -0.0022436218782150661 0 0.010608758846978089 -0.0022768031850078758 0 0.010877930934545418 -0.0027426943423044924 0 0.020692596647419619 -0.00064771606542516225 0 0.021244933178526586 -0.0016449110895565208 0 0.020276537051510661 -0.0017092148891162051 0 0.014218266708483014 -0.0019784282241846252 0 0.015476923266567121 -0.0020770467869036576 0 0.015476923266567121 -0.0020770467869036576 0 0.018344171532566844 -0.0018860882954281405 0 0.018344171532566844 -0.0018860882954281405 0 0.018829535885050371 -0.0018515153074722163 0 0.020692596647419619 -0.00064771606542516225 0 0.020276537051510661 -0.0017092148891162051 0 0.019555597108864394 -0.00077834686420493013 0 0.020692596647419619 -0.00064771606542516225 0 0.019555597108864394 -0.00077834686420493013 0 0.020126364671962323 0.00037186090588403191 0 0.019555597108864394 -0.00077834686420493013 0 0.018566189143298557 -0.0012792342016903185 0 0.01875529253488031 -0.0003334514764203066 0 0.019555597108864394 -0.00077834686420493013 0 0.019241789550731452 -4.5365365680393996e-05 0 0.01875529253488031 -0.0003334514764203066 0 0.019555597108864394 -0.00077834686420493013 0 0.019304392404133446 -0.0017870345103500216 0 0.018566189143298557 -0.0012792342016903185 0 0.020276537051510661 -0.0017092148891162051 0 0.019555597108864394 -0.00077834686420493013 0 0.019304392404133446 -0.0017870345103500216 0 0.019535841132782717 0.0014036765765162316 0 0.019383091186112738 0.0010699560863551855 0 0.020126364671962323 0.00037186090588403191 0 0.019018253832150538 0.0013034177604591345 0 0.019383091186112738 0.0010699560863551855 0 0.019262122266169374 0.0016374268362835558 0 0.019018253832150538 0.0013034177604591345 0 0.019383091186112738 0.0010699560863551855 0 0.018976171287789639 0.00087110457705467286 0 0.019018253832150538 0.0013034177604591345 0 0.018976171287789639 0.00087110457705467286 0 0.01861629128427849 0.0012632334891182668 0 0.019535841132782717 0.0014036765765162316 0 0.019383091186112738 0.0010699560863551855 0 0.019243462725721427 0.0016300832238076474 0 0.0089348679846983463 -0.00094638889154681765 0 0.008493620612331618 -0.0010409780784716635 0 0.019383091186112738 0.0010699560863551855 0 0.019424344488918697 0.00049083243765085747 0 0.020126364671962323 0.00037186090588403191 0 0.019383091186112738 0.0010699560863551855 0 0.018976171287789639 0.00087110457705467286 0 0.019424344488918697 0.00049083243765085747 0 0.018976171287789639 0.00087110457705467286 0 0.018909228960597942 0.00032814093740556689 0 0.019424344488918697 0.00049083243765085747 0 0.019555597108864394 -0.00077834686420493013 0 0.019241789550731452 -4.5365365680393996e-05 0 0.020126364671962323 0.00037186090588403191 0 0.018909228960597942 0.00032814093740556689 0 0.019241789550731452 -4.5365365680393996e-05 0 0.019424344488918697 0.00049083243765085747 0 0.019241789550731452 -4.5365365680393996e-05 0 0.019424344488918697 0.00049083243765085747 0 0.020126364671962323 0.00037186090588403191 0 0.018909228960597942 0.00032814093740556689 0 0.019241789550731452 -4.5365365680393996e-05 0 0.01875529253488031 -0.0003334514764203066 0 0.010608758846978089 -0.0022768031850078758 0 0.010332468465266729 -0.0017988730634396679 0 0.010628839865782646 -0.0017820506884457714 0 0.014218266708483014 -0.0019784282241846252 0 0.012234296114522501 -0.0017517812774971307 0 0.0086956644026230882 -0.0011747969464997263 0 0.007761181604468933 -0.0013931385310081363 0 0.0086956644026230882 -0.0011747969464997263 0 0.012234296114522501 -0.0017517812774971307 0 0.01005695828598922 -0.0013080630264554634 0 0.010332468465266729 -0.0017988730634396679 0 0.010628839865782646 -0.0017820506884457714 0 0.0020465080023294897 -0.0012118700019468254 0 0.0027471912712601562 -0.0013341002445646784 0 0.0030170709218571359 -0.0021001588091907166 0 0.0027471912712601562 -0.0013341002445646784 0 0.0034768686610728034 -0.0014485320484167081 0 0.0028184448138762058 -0.00087282218476860134 0 0.0032321545065225128 -0.0014922459234149577 0 0.0038173285796369145 -0.0013836817314328283 0 0.0032538282555835017 -0.00096123434058268851 0 0.0034768686610728034 -0.0014485320484167081 0 0.0030170709218571359 -0.0021001588091907166 0 0.003642821325148407 -0.0020488288870463447 0 0.0027471912712601562 -0.0013341002445646784 0 0.0034768686610728034 -0.0014485320484167081 0 0.0030170709218571359 -0.0021001588091907166 0 0.01118217330110478 -0.0022436218782150661 0 0.010608758846978089 -0.0022768031850078758 0 0.010628839865782646 -0.0017820506884457714 0 0.0043216440813574741 -0.0031949667672528017 0 0.0030170709218571359 -0.0021001588091907166 0 0.003642821325148407 -0.0020488288870463447 0 0.0084268398133050242 -0.0019934496467520833 0 0.007761181604468933 -0.0013931385310081363 0 0.0051667808143388673 -0.0014904943316887953 0 0.005355482882311185 -0.0014903708635012071 0 0.0052286340840724983 -0.0031857043856452173 0 0.0043216440813574741 -0.0031949667672528017 0 0.0042241622218335637 -0.0021266105053372227 0 0.0043216440813574741 -0.0031949667672528017 0 0.003642821325148407 -0.0020488288870463447 0 0.0042241622218335637 -0.0021266105053372227 0 0.0074568252632849774 -0.0019394655624581998 0 0.0070757585483750482 -0.0015349158316026487 0 0.0072161033459717605 -0.0016208103285010806 0 0.0068914704038506892 -0.0020228946109192777 0 0.005355482882311185 -0.0014903708635012071 0 0.0037715034539965355 -0.0022123880823413542 0 0.0038173285796369145 -0.0013836817314328283 0 0.0044215622129539413 -0.001721313172267066 0 0.0032321545065225128 -0.0014922459234149577 0 0.0037715034539965355 -0.0022123880823413542 0 0.0038173285796369145 -0.0013836817314328283 0 0.0044877047829863697 -0.0011239138617750004 0 0.005355482882311185 -0.0014903708635012071 0 0.0034768686610728034 -0.0014485320484167081 0 0.003642821325148407 -0.0020488288870463447 0 0.0041505793626714508 -0.0021209625185689973 0 0.0036736128344010978 -0.00066858130838292154 0 0.0044185160860165948 -0.0010230678075210879 0 0.0041977952561451336 -0.00012267927560010979 0 0.0038173285796369145 -0.0013836817314328283 0 0.0036736128344010978 -0.00066858130838292154 0 0.0044185160860165948 -0.0010230678075210879 0 0.0038173285796369145 -0.0013836817314328283 0 0.0036736128344010978 -0.00066858130838292154 0 0.0032538282555835017 -0.00096123434058268851 0 0.0036736128344010978 -0.00066858130838292154 0 0.0035337710902654971 -9.8946453306668878e-05 0 0.0041977952561451336 -0.00012267927560010979 0 0.0035337710902654971 -9.8946453306668878e-05 0 0.0041977952561451336 -0.00012267927560010979 0 0.0037476042255911806 0.00038884525806247208 0 0.0035337710902654971 -9.8946453306668878e-05 0 0.0029989932272845971 -0.0003545272410617882 0 0.0031395179525351051 0.00032008925120870175 0 0.0036736128344010978 -0.00066858130838292154 0 0.0035337710902654971 -9.8946453306668878e-05 0 0.0029989932272845971 -0.0003545272410617882 0 0.0029989932272845971 -0.0003545272410617882 0 0.0032538282555835017 -0.00096123434058268851 0 0.0028184448138762058 -0.00087282218476860134 0 0.0036736128344010978 -0.00066858130838292154 0 0.0029989932272845971 -0.0003545272410617882 0 0.0032538282555835017 -0.00096123434058268851 0 0.0032321545065225128 -0.0014922459234149577 0 0.0032538282555835017 -0.00096123434058268851 0 0.0028184448138762058 -0.00087282218476860134 0 0.0044877047829863697 -0.0011239138617750004 0 0.0041580723850823172 -0.00094140755358024112 0 0.0020465080023294897 -0.0012118700019468254 0 0.0027471912712601562 -0.0013341002445646784 0 0.0024575986134438613 -0.00091334575573524183 0 0.0027471912712601562 -0.0013341002445646784 0 0.0028184448138762058 -0.00087282218476860134 0 0.0024575986134438613 -0.00091334575573524183 0 0.0020465080023294897 -0.0012118700019468254 0 0.0024575986134438613 -0.00091334575573524183 0 0.0021277526602642397 -0.00077505336606941062 0 0.0024575986134438613 -0.00091334575573524183 0 0.0023276480668497877 -0.00048340414285928841 0 0.0021277526602642397 -0.00077505336606941062 0 0.0024575986134438613 -0.00091334575573524183 0 0.0026321367448511072 -0.00055074061137167863 0 0.0023276480668497877 -0.00048340414285928841 0 0.0028184448138762058 -0.00087282218476860134 0 0.0024575986134438613 -0.00091334575573524183 0 0.0026321367448511072 -0.00055074061137167863 0 0.0029989932272845971 -0.0003545272410617882 0 0.0028184448138762058 -0.00087282218476860134 0 0.0026321367448511072 -0.00055074061137167863 0 0.0029989932272845971 -0.0003545272410617882 0 0.0026321367448511072 -0.00055074061137167863 0 0.0024278293705317072 -0.00020029138455399809 0 0.0024446118174194045 -0.00017922873808382978 0 0.0021940898150792426 2.1484776685505664e-05 0 0.0029989932272845971 -0.0003545272410617882 0 0.0024278293705317072 -0.00020029138455399809 0 0.0024477028666148649 0.00032379942803983111 0 0.0024278293705317072 -0.00020029138455399809 0 0.0021550312913199941 -0.00024507844794452471 0 0.002130681439573799 1.8771309946397101e-05 0 0.0024278293705317072 -0.00020029138455399809 0 0.002130681439573799 1.8771309946397101e-05 0 0.0024477028666148649 0.00032379942803983111 0 0.0024278293705317072 -0.00020029138455399809 0 0.0023276480668497877 -0.00048340414285928841 0 0.0021550312913199941 -0.00024507844794452471 0 0.0026321367448511072 -0.00055074061137167863 0 0.0024278293705317072 -0.00020029138455399809 0 0.0023276480668497877 -0.00048340414285928841 0 0.0023276480668497877 -0.00048340414285928841 0 0.0020004885706171906 -0.00042637306565765837 0 0.0021550312913199941 -0.00024507844794452471 0 0.0020004885706171906 -0.00042637306565765837 0 0.0021550312913199941 -0.00024507844794452471 0 0.0018946939421474135 -0.00014544637106614488 0 0.002130681439573799 1.8771309946397101e-05 0 0.0018946939421474135 -0.00014544637106614488 0 0.00196565996062993 0.00026581063208211544 0 0.0021550312913199941 -0.00024507844794452471 0 0.002130681439573799 1.8771309946397101e-05 0 0.0018946939421474135 -0.00014544637106614488 0 0.0018946939421474135 -0.00014544637106614488 0 0.0017700846444588503 -0.00019455057150943042 0 0.00196565996062993 0.00026581063208211544 0 0.0052109770852449642 -0.0010519844936730637 0 0.0052847965084607167 -0.0010375857049179965 0 0.0063339469094359927 -0.00067968387873185046 0 0.0063901589899275444 -0.00093261685645497773 0 0.0062601076194716719 -0.0007084411553205253 0 0.0052847965084607167 -0.0010375857049179965 0 0.0071449672787481291 -0.00092059444904515875 0 0.0052847965084607167 -0.0010375857049179965 0 0.0053402842070006682 -0.0010011014193909702 0 0.0071449672787481291 -0.00092059444904515875 0 0.0053402842070006682 -0.0010011014193909702 0 0.0020004885706171906 -0.00042637306565765837 0 0.0017471423801884943 -0.00020154210159707871 0 0.0018286259770839402 -0.00073004152036863833 0 0.0020004885706171906 -0.00042637306565765837 0 0.0018946939421474135 -0.00014544637106614488 0 0.0017471423801884943 -0.00020154210159707871 0 0.0074905810314752682 -0.00052319052615951568 0 0.0076088739112164646 -0.0010769220074304711 0 0.0062041893439092116 6.6466759043765271e-05 0 0.0023276480668497877 -0.00048340414285928841 0 0.0020004885706171906 -0.00042637306565765837 0 0.0021277526602642397 -0.00077505336606941062 0 0.0020004885706171906 -0.00042637306565765837 0 0.0018286259770839402 -0.00073004152036863833 0 0.0021277526602642397 -0.00077505336606941062 0 0.0079058131670057281 -0.0013588650032884616 0 0.0077404025421506676 -0.0010708400622796758 0 0.0077812217692117165 -0.0012583979100524217 0 0.0020465080023294897 -0.0012118700019468254 0 0.0018286259770839402 -0.00073004152036863833 0 0.0021277526602642397 -0.00077505336606941062 0 0.0086956644026230882 -0.0011747969464997263 0 0.0071449672787481291 -0.00092059444904515875 0 0.0086956644026230882 -0.0011747969464997263 0 0.008493620612331618 -0.0010409780784716635 0 0.019018253832150538 0.0013034177604591345 0 0.019262122266169374 0.0016374268362835558 0 0.018682096434139879 0.0016711412011523521 0 0.0071449672787481291 -0.00092059444904515875 0 0.008493620612331618 -0.0010409780784716635 0 0.0072724888960685697 -0.0019185893214531287 0 0.0063796743823874968 -0.0011805820283743601 0 0.0075694852362704155 -0.00084916237891493652 0 0.0072724888960685697 -0.0019185893214531287 0 0.0063796743823874968 -0.0011805820283743601 0 0.0063142210267080733 -0.0027168930542269209 0 0.0072724888960685697 -0.0019185893214531287 0 0.0083669654060547476 -0.0012888958526547322 0 0.0075694852362704155 -0.00084916237891493652 0 0.008620715040874017 -0.00090632434306197707 0 0.0083669654060547476 -0.0012888958526547322 0 0.0075694852362704155 -0.00084916237891493652 0 0.0072724888960685697 -0.0019185893214531287 0 0.0083669654060547476 -0.0012888958526547322 0 0.0080399726226458735 -0.0030602931753978646 0 0.0083658492970200421 -0.001613603773067972 0 0.0083280888083436203 -0.00180450792190602 0 0.0083669654060547476 -0.0012888958526547322 0 0.0090036903051247587 -0.0010673932798748369 0 0.0090411788879429852 -0.0010472408863580298 0 0.0083280888083436203 -0.00180450792190602 0 0.0083653023001656508 -0.0017949539320982891 0 0.0083280888083436203 -0.00180450792190602 0 0.0073000407927868126 -0.0018353073810652109 0 0.0081665566036538215 -0.0020057762699464158 0 0.0085281699124359796 -0.0017598306572820393 0 0.0080513920830728135 -0.0016873383934729713 0 0.0072724888960685697 -0.0019185893214531287 0 0.0080399726226458735 -0.0030602931753978646 0 0.0063142210267080733 -0.0027168930542269209 0 0.0063142210267080733 -0.0027168930542269209 0 0.0049301471577906436 -0.002482837094709753 0 0.005252689892275079 -0.0015477683337182546 0 0.0073000407927868126 -0.0018353073810652109 0 0.0063256148282010332 -0.0017252013719313067 0 0.0080513920830728135 -0.0016873383934729713 0 0.0076981481938217878 -0.0018164954769127857 0 0.0075711260230238884 -0.0016110188333307875 0 0.005355482882311185 -0.0014903708635012071 0 0.0063256148282010332 -0.0017252013719313067 0 0.0070757585483750482 -0.0015349158316026487 0 0.0072161033459717605 -0.0016208103285010806 0 0.0075711260230238884 -0.0016110188333307875 0 0.0037715034539965355 -0.0022123880823413542 0 0.0049301471577906436 -0.002482837094709753 0 0.0044215622129539413 -0.001721313172267066 0 0.0075201979306232054 -0.0019777499716009347 0 0.0072161033459717605 -0.0016208103285010806 0 0.0075020645657288016 -0.0017566675484573945 0 0.0072161033459717605 -0.0016208103285010806 0 0.0075020645657288016 -0.0017566675484573945 0 0.0075711260230238884 -0.0016110188333307875 0 0.0080495583221445229 -0.0018784700671146196 0 0.00783191658090358 -0.0017247258437805993 0 0.0076981481938217878 -0.0018164954769127857 0 0.0075020645657288016 -0.0017566675484573945 0 0.0075711260230238884 -0.0016110188333307875 0 0.0049301471577906436 -0.002482837094709753 0 0.0044215622129539413 -0.001721313172267066 0 0.005252689892275079 -0.0015477683337182546 0 0.0044215622129539413 -0.001721313172267066 0 0.005252689892275079 -0.0015477683337182546 0 0.0044185160860165948 -0.0010230678075210879 0 0.0038173285796369145 -0.0013836817314328283 0 0.0044215622129539413 -0.001721313172267066 0 0.0044185160860165948 -0.0010230678075210879 0 0.0063796743823874968 -0.0011805820283743601 0 0.0063142210267080733 -0.0027168930542269209 0 0.005252689892275079 -0.0015477683337182546 0 0.0063796743823874968 -0.0011805820283743601 0 0.005252689892275079 -0.0015477683337182546 0 0.0053051095593007981 -0.00061704537812130053 0 0.0053051095593007981 -0.00061704537812130053 0 0.0044185160860165948 -0.0010230678075210879 0 0.0041977952561451336 -0.00012267927560010979 0 0.005252689892275079 -0.0015477683337182546 0 0.0053051095593007981 -0.00061704537812130053 0 0.0044185160860165948 -0.0010230678075210879 0 0.0053051095593007981 -0.00061704537812130053 0 0.0041977952561451336 -0.00012267927560010979 0 0.0052919244489330747 0.00031204770790716987 0 0.0053051095593007981 -0.00061704537812130053 0 0.0052919244489330747 0.00031204770790716987 0 0.0066687177839183463 -0.0002710847589737184 0 0.0052919244489330747 0.00031204770790716987 0 0.0066687177839183463 -0.0002710847589737184 0 0.0072250401653989015 0.00090740598642082308 0 0.0063796743823874968 -0.0011805820283743601 0 0.0066687177839183463 -0.0002710847589737184 0 0.0075694852362704155 -0.00084916237891493652 0 0.0063796743823874968 -0.0011805820283743601 0 0.0053051095593007981 -0.00061704537812130053 0 0.0066687177839183463 -0.0002710847589737184 0 0.0066687177839183463 -0.0002710847589737184 0 0.0075694852362704155 -0.00084916237891493652 0 0.0080937452741475999 -0.00013372801394322012 0 0.008620715040874017 -0.00090632434306197707 0 0.0075694852362704155 -0.00084916237891493652 0 0.0080937452741475999 -0.00013372801394322012 0 0.0084765354576639886 0.0004278511480961254 0 0.0080937452741475999 -0.00013372801394322012 0 0.0072250401653989015 0.00090740598642082308 0 0.0066687177839183463 -0.0002710847589737184 0 0.0080937452741475999 -0.00013372801394322012 0 0.0072250401653989015 0.00090740598642082308 0 0.006309110408157223 0.00061836279486423662 0 0.0065508087459793512 0.00069255021067084373 0 0.0056448718236715417 0.00044962464209345125 0 0.0057800942204560947 0.00074278433522625466 0 0.0062113899660805761 0.00061426906223620444 0 0.0084765354576639886 0.0004278511480961254 0 0.0072250401653989015 0.00090740598642082308 0 0.0084754078758865776 0.00093454897583523499 0 0.0057800942204560947 0.00074278433522625466 0 0.0055722286769491151 0.0010801783276095048 0 0.0061626606078329935 0.00090039269470286963 0 0.0038744981077968206 0.00086596225427034465 0 0.0042116278145185853 0.00070353994808372436 0 0.0020615756505372152 0.00076769721823578157 0 0.0018529631886872986 0.0006673190792780702 0 0.0018930364982061511 0.00047308450362601575 0 0.0055722286769491151 0.0010801783276095048 0 0.0052932929749383824 0.00067376204127152619 0 0.0046502133898719857 0.0012896412378105909 0 0.0057800942204560947 0.00074278433522625466 0 0.0055722286769491151 0.0010801783276095048 0 0.0052932929749383824 0.00067376204127152619 0 0.0056448718236715417 0.00044962464209345125 0 0.0057800942204560947 0.00074278433522625466 0 0.0052932929749383824 0.00067376204127152619 0 0.0052919244489330747 0.00031204770790716987 0 0.0056448718236715417 0.00044962464209345125 0 0.0052932929749383824 0.00067376204127152619 0 0.0059550591825954721 0.00051673174594836209 0 0.006309110408157223 0.00061836279486423662 0 0.0052919244489330747 0.00031204770790716987 0 0.0052932929749383824 0.00067376204127152619 0 0.0045499434899685378 0.00059288671585555955 0 0.0041977952561451336 -0.00012267927560010979 0 0.0052919244489330747 0.00031204770790716987 0 0.0045499434899685378 0.00059288671585555955 0 0.0041977952561451336 -0.00012267927560010979 0 0.0045499434899685378 0.00059288671585555955 0 0.0037476042255911806 0.00038884525806247208 0 0.0045499434899685378 0.00059288671585555955 0 0.003815916058829397 0.00079071391203849547 0 0.0037476042255911806 0.00038884525806247208 0 0.0045499434899685378 0.00059288671585555955 0 0.003815916058829397 0.00079071391203849547 0 0.0046502133898719857 0.0012896412378105909 0 0.0052932929749383824 0.00067376204127152619 0 0.0045499434899685378 0.00059288671585555955 0 0.0046502133898719857 0.0012896412378105909 0 0.0038744981077968206 0.00086596225427034465 0 0.0036478932774402948 0.00097257484280067748 0 0.0020615756505372152 0.00076769721823578157 0 0.0024000273385466364 0.0010029008539513041 0 0.0022561105272219583 0.00071410832524810815 0 0.0036478932774402948 0.00097257484280067748 0 0.0035142284006784924 0.0010080754841185267 0 0.0024000273385466364 0.0010029008539513041 0 0.0022561105272219583 0.00071410832524810815 0 0.0031038803399859333 0.0010584515523418276 0 0.003815916058829397 0.00079071391203849547 0 0.0046502133898719857 0.0012896412378105909 0 0.0031038803399859333 0.0010584515523418276 0 0.0022561105272219583 0.00071410832524810815 0 0.0031038803399859333 0.0010584515523418276 0 0.0024818355116570045 0.00064329095700117224 0 0.0022561105272219583 0.00071410832524810815 0 0.0020072906801248233 0.00057279501531202516 0 0.0020251902212038036 0.00052211788084862278 0 0.0020072906801248233 0.00057279501531202516 0 0.0020251902212038036 0.00052211788084862278 0 0.0019245567992034712 0.00042683364996566381 0 0.0020072906801248233 0.00057279501531202516 0 0.0019245567992034712 0.00042683364996566381 0 0.0018930364982061511 0.00047308450362601575 0 0.0020615756505372152 0.00076769721823578157 0 0.0020072906801248233 0.00057279501531202516 0 0.0018930364982061511 0.00047308450362601575 0 0.0020615756505372152 0.00076769721823578157 0 0.0022561105272219583 0.00071410832524810815 0 0.0020072906801248233 0.00057279501531202516 0 0.0017163757107346226 0.00014497229544994933 0 0.0021940898150792426 2.1484776685505664e-05 0 0.0019698854739964959 0.00095938025949115298 0 0.00196565996062993 0.00026581063208211544 0 0.0016333036481361049 0.00056094626832439644 0 0.0017700846444588503 -0.00019455057150943042 0 0.00196565996062993 0.00026581063208211544 0 0.0016333036481361049 0.00056094626832439644 0 0.0019698854739964959 0.00095938025949115298 0 0.00196565996062993 0.00026581063208211544 0 0.0024477028666148649 0.00032379942803983111 0 0.0052847965084607167 -0.0010375857049179965 0 0.0029496151746826764 -0.00025293590927555679 0 0.002130681439573799 1.8771309946397101e-05 0 0.00196565996062993 0.00026581063208211544 0 0.0024477028666148649 0.00032379942803983111 0 0.0024832039384158509 0.00065286446381992752 0 0.0026407584252601027 0.00032388573524662622 0 0.0026486089635513691 0.00075387211880423516 0 0.0026407584252601027 0.00032388573524662622 0 0.0028860698536574752 0.00073714089310138284 0 0.0026486089635513691 0.00075387211880423516 0 0.0028860698536574752 0.00073714089310138284 0 0.0032745982075254006 0.00068372544869252253 0 0.0031038803399859333 0.0010584515523418276 0 0.0028860698536574752 0.00073714089310138284 0 0.0031395179525351051 0.00032008925120870175 0 0.0032745982075254006 0.00068372544869252253 0 0.0029989932272845971 -0.0003545272410617882 0 0.0026407584252601027 0.00032388573524662622 0 0.0031395179525351051 0.00032008925120870175 0 0.0026407584252601027 0.00032388573524662622 0 0.0028860698536574752 0.00073714089310138284 0 0.0031395179525351051 0.00032008925120870175 0 0.0031395179525351051 0.00032008925120870175 0 0.0037476042255911806 0.00038884525806247208 0 0.0032745982075254006 0.00068372544869252253 0 0.0035337710902654971 -9.8946453306668878e-05 0 0.0031395179525351051 0.00032008925120870175 0 0.0037476042255911806 0.00038884525806247208 0 0.003815916058829397 0.00079071391203849547 0 0.0032745982075254006 0.00068372544869252253 0 0.0031038803399859333 0.0010584515523418276 0 0.003815916058829397 0.00079071391203849547 0 0.0037476042255911806 0.00038884525806247208 0 0.0032745982075254006 0.00068372544869252253 0 0.0031038803399859333 0.0010584515523418276 0 0.0028362883231115763 0.00080703688717961364 0 0.0028416217192685522 0.00087589186965266212 0 0.0031038803399859333 0.0010584515523418276 0 0.0028362883231115763 0.00080703688717961364 0 0.0024818355116570045 0.00064329095700117224 0 0.0028362883231115763 0.00080703688717961364 0 0.0028416217192685522 0.00087589186965266212 0 0.0026993322059276426 0.00075714137869230497 0 0.0028416217192685522 0.00087589186965266212 0 0.0026221593153061503 0.00082032612019459551 0 0.0026993322059276426 0.00075714137869230497 0 0.0028860698536574752 0.00073714089310138284 0 0.0031038803399859333 0.0010584515523418276 0 0.0028416217192685522 0.00087589186965266212 0 0.0028860698536574752 0.00073714089310138284 0 0.0028416217192685522 0.00087589186965266212 0 0.0026486089635513691 0.00075387211880423516 0 0.0028416217192685522 0.00087589186965266212 0 0.0026486089635513691 0.00075387211880423516 0 0.0026221593153061503 0.00082032612019459551 0 0.0026486089635513691 0.00075387211880423516 0 0.0026221593153061503 0.00082032612019459551 0 0.0025200326096725166 0.00077843822118166912 0 0.0026221593153061503 0.00082032612019459551 0 0.0024639106451412067 0.00081731923850843582 0 0.0024568560674027022 0.00078846656928679255 0 0.0026221593153061503 0.00082032612019459551 0 0.0024639106451412067 0.00081731923850843582 0 0.0025200326096725166 0.00077843822118166912 0 0.0024639106451412067 0.00081731923850843582 0 0.0025200326096725166 0.00077843822118166912 0 0.0024146813897974388 0.00078814352617484463 0 0.0024639106451412067 0.00081731923850843582 0 0.0024060168344018753 0.00083412305209149755 0 0.0024146813897974388 0.00078814352617484463 0 0.0024832039384158509 0.00065286446381992752 0 0.0025200326096725166 0.00077843822118166912 0 0.0024146813897974388 0.00078814352617484463 0 0.0024832039384158509 0.00065286446381992752 0 0.0026486089635513691 0.00075387211880423516 0 0.0025200326096725166 0.00077843822118166912 0 0.0017163757107346226 0.00014497229544994933 0 0.001238631983973697 -0.000424926483911635 0 0.00014264847195929312 -0.0018290502571515464 0 0.00056433238814555169 -0.001302533585366901 0 0.00069907952081642831 -0.00096157934229434007 0 0.00077888844800293622 -0.0010085500750554581 0 -0.00075334310304034195 -0.00296533204921378 0 -0.00098113386768800318 -0.0032657839741701078 0 -0.0011100700180405904 -0.0039062548560502997 0 0.0004832385092234235 -0.0015339844231477724 0 0.00039235682439932816 -0.0019625356063065159 0 0.00057784366226930881 -0.001291470099398254 0 0.0021828270067468219 0.00076353140195753878 0 0.0022971501444046779 0.00081848924807384872 0 0.0024060168344018753 0.00083412305209149755 0 -0.00075334310304034195 -0.00296533204921378 0 -0.00098113386768800318 -0.0032657839741701078 0 -0.00085772997035511625 -0.0025843942676939792 0 0.00034542358880771393 -0.0017506709772354707 0 0.00014264847195929312 -0.0018290502571515464 0 0.0021828270067468219 0.00076353140195753878 0 0.0020904126895106155 0.00084869796938499744 0 0.0016170663319211383 0.00042094526747742735 0 0.0020904126895106155 0.00084869796938499744 0 0.0022971501444046779 0.00081848924807384872 0 0.0023221325573796921 0.00079179536074123124 0 0.0021828270067468219 0.00076353140195753878 0 0.0020904126895106155 0.00084869796938499744 0 0.0022971501444046779 0.00081848924807384872 0 0.0023948449938699275 0.00081244366473363276 0 0.0022971501444046779 0.00081848924807384872 0 0.0024060168344018753 0.00083412305209149755 0 0.00034542358880771393 -0.0017506709772354707 0 0.00077888844800293622 -0.0010085500750554581 0 0.0024639106451412067 0.00081731923850843582 0 0.0023948449938699275 0.00081244366473363276 0 0.0024060168344018753 0.00083412305209149755 0 0.0024639106451412067 0.00081731923850843582 0 0.0023948449938699275 0.00081244366473363276 0 0.0024568560674027022 0.00078846656928679255 0 0.0023948449938699275 0.00081244366473363276 0 0.0022971501444046779 0.00081848924807384872 0 0.0024568560674027022 0.00078846656928679255 0 0.0022971501444046779 0.00081848924807384872 0 0.0024568560674027022 0.00078846656928679255 0 0.0023221325573796921 0.00079179536074123124 0 0.0024568560674027022 0.00078846656928679255 0 0.0024697833530516831 0.00076025123350515595 0 0.0023221325573796921 0.00079179536074123124 0 0.0024568560674027022 0.00078846656928679255 0 0.0024697833530516831 0.00076025123350515595 0 0.0026993322059276426 0.00075714137869230497 0 0.0026221593153061503 0.00082032612019459551 0 0.0024568560674027022 0.00078846656928679255 0 0.0026993322059276426 0.00075714137869230497 0 0.001981343460080416 0.00057744505873035662 0 0.0018754086076793435 0.00050381187836509025 0 0.0020904126895106155 0.00084869796938499744 0 0.00087152119138338721 0.00043804074696544984 0 0.0016170663319211383 0.00042094526747742735 0 0.0020904126895106155 0.00084869796938499744 0 0.0024697833530516831 0.00076025123350515595 0 0.0027128616177812185 0.00074365344408178213 0 0.0020904126895106155 0.00084869796938499744 0 0.0024697833530516831 0.00076025123350515595 0 0.0023221325573796921 0.00079179536074123124 0 0.0024697833530516831 0.00076025123350515595 0 0.0027128616177812185 0.00074365344408178213 0 0.0026993322059276426 0.00075714137869230497 0 0.0027128616177812185 0.00074365344408178213 0 0.0026993322059276426 0.00075714137869230497 0 0.0027010995934061885 0.0006534795643839906 0 0.0028362883231115763 0.00080703688717961364 0 0.0027010995934061885 0.0006534795643839906 0 0.0024818355116570045 0.00064329095700117224 0 0.0028362883231115763 0.00080703688717961364 0 0.0026993322059276426 0.00075714137869230497 0 0.0027010995934061885 0.0006534795643839906 0 0.0027128616177812185 0.00074365344408178213 0 0.0027010995934061885 0.0006534795643839906 0 0.0025220460548197924 0.00037363958405773782 0 0.0018754086076793435 0.00050381187836509025 0 0.0018008841266743748 0.00038433701507408532 0 0.00087152119138338721 0.00043804074696544984 0 0.00087806960626106738 0.00023099758198150583 0 0.0010957825495005883 7.5024265536339585e-05 0 0.00087806960626106738 0.00023099758198150583 0 0.001003213650207948 0.00025798999641656918 0 0.0010957825495005883 7.5024265536339585e-05 0 0.00087806960626106738 0.00023099758198150583 0 0.001003213650207948 0.00025798999641656918 0 0.00082964808021672898 0.00013488507614912551 0 0.001003213650207948 0.00025798999641656918 0 0.00082964808021672898 0.00013488507614912551 0 0.00085234461357540966 0.00023524130899652695 0 0.00087806960626106738 0.00023099758198150583 0 0.00082964808021672898 0.00013488507614912551 0 0.0010363210619095124 0.00017317980447256783 0 0.00082964808021672898 0.00013488507614912551 0 0.00080103749635213246 4.9580768824249918e-06 0 0.00063311520650636405 8.5555136812380655e-05 0 0.00082964808021672898 0.00013488507614912551 0 0.0010363210619095124 0.00017317980447256783 0 0.00080103749635213246 4.9580768824249918e-06 0 0.00087152119138338721 0.00043804074696544984 0 0.00087806960626106738 0.00023099758198150583 0 0.0010363210619095124 0.00017317980447256783 0 0.00087152119138338721 0.00043804074696544984 0 0.0016170663319211383 0.00042094526747742735 0 0.0010363210619095124 0.00017317980447256783 0 0.0016170663319211383 0.00042094526747742735 0 0.0012679532491669723 0.00016888226369460128 0 0.0013808959781965095 3.2642395041393908e-05 0 0.0016170663319211383 0.00042094526747742735 0 0.0012679532491669723 0.00016888226369460128 0 0.0010363210619095124 0.00017317980447256783 0 0.0010363210619095124 0.00017317980447256783 0 0.0011143519829992031 9.530227677323766e-05 0 0.00080103749635213246 4.9580768824249918e-06 0 0.00068085135723494172 -0.00068840140943147706 0 0.00069495957411485211 -0.00044527546620769807 0 0.00080103749635213246 4.9580768824249918e-06 0 0.0013808959781965095 3.2642395041393908e-05 0 0.00033878676073154692 -0.0001278423514797029 0 0.0012679532491669723 0.00016888226369460128 0 0.0010363210619095124 0.00017317980447256783 0 0.0011143519829992031 9.530227677323766e-05 0 0.0011143519829992031 9.530227677323766e-05 0 0.00080103749635213246 4.9580768824249918e-06 0 0.0013808959781965095 3.2642395041393908e-05 0 0.0012679532491669723 0.00016888226369460128 0 0.0011143519829992031 9.530227677323766e-05 0 0.0013808959781965095 3.2642395041393908e-05 0 -0.00074913525014405494 -0.0021993708173880236 0 -0.0008826043251792757 -0.0016023459018328712 0 -0.00047116111994249934 -0.00069150142659934945 0 -0.00027659086047469498 -0.0018953459080376608 0 -0.00070599190443486803 -0.0019529903637389759 0 -0.00047116111994249934 -0.00069150142659934945 0 -0.00019070906113529432 -0.0019532813392996794 0 -0.00019009358779595426 -0.0016620867685840273 0 -0.0010352177986379049 -0.0012966622387984462 0 -0.0008826043251792757 -0.0016023459018328712 0 -0.00047116111994249934 -0.00069150142659934945 0 -0.0011659819189471237 -0.0017803251393133928 0 -0.0014382967641319916 -0.0020593794342993773 0 -0.001463714363664986 -0.0014886045098523872 0 -0.0010352177986379049 -0.0012966622387984462 0 -0.0011659819189471237 -0.0017803251393133928 0 -0.001463714363664986 -0.0014886045098523872 0 -0.0010352177986379049 -0.0012966622387984462 0 -0.0008826043251792757 -0.0016023459018328712 0 -0.0011659819189471237 -0.0017803251393133928 0 -0.0008826043251792757 -0.0016023459018328712 0 -0.0011659819189471237 -0.0017803251393133928 0 -0.0010365004687431451 -0.0019463704791276102 0 -0.0011659819189471237 -0.0017803251393133928 0 -0.0010365004687431451 -0.0019463704791276102 0 -0.0014382967641319916 -0.0020593794342993773 0 -0.00074913525014405494 -0.0021993708173880236 0 -0.0010365004687431451 -0.0019463704791276102 0 -0.0014382967641319916 -0.0020593794342993773 0 -0.00074913525014405494 -0.0021993708173880236 0 -0.0008826043251792757 -0.0016023459018328712 0 -0.0010365004687431451 -0.0019463704791276102 0 -0.00019070906113529432 -0.0019532813392996794 0 0.00014264847195929312 -0.0018290502571515464 0 -0.00075334310304034195 -0.00296533204921378 0 -0.00027659086047469498 -0.0018953459080376608 0 -0.00085772997035511625 -0.0025843942676939792 0 0.00035451855650131764 -0.0017349410919476494 0 0.00038796459885861941 -0.0016087413820446929 0 0.00054321940324545033 -0.0016281999302308933 0 0.0021828270067468219 0.00076353140195753878 0 0.0016170663319211383 0.00042094526747742735 0 0.0013808959781965095 3.2642395041393908e-05 0 0.00069907952081642831 -0.00096157934229434007 0 0.00068085135723494172 -0.00068840140943147706 0 -0.00027659086047469498 -0.0018953459080376608 0 -0.00070599190443486803 -0.0019529903637389759 0 -0.00085772997035511625 -0.0025843942676939792 0 0.0019100725291775122 0.00038437164351449359 0 0.0021196652934229346 0.00048639404729683417 0 0.001824514991536938 0.00021441262887588041 0 0.0019100725291775122 0.00038437164351449359 0 0.001824514991536938 0.00021441262887588041 0 0.0018593817571195591 0.00035183731519548839 0 0.0019100725291775122 0.00038437164351449359 0 0.0018593817571195591 0.00035183731519548839 0 0.0019212714933892461 0.00037546145381466288 0 0.0019245567992034712 0.00042683364996566381 0 0.0019100725291775122 0.00038437164351449359 0 0.0019212714933892461 0.00037546145381466288 0 0.0020251902212038036 0.00052211788084862278 0 0.0019245567992034712 0.00042683364996566381 0 0.0019100725291775122 0.00038437164351449359 0 0.0020251902212038036 0.00052211788084862278 0 0.0019100725291775122 0.00038437164351449359 0 0.0021196652934229346 0.00048639404729683417 0 0.0022561105272219583 0.00071410832524810815 0 0.0020251902212038036 0.00052211788084862278 0 0.0021196652934229346 0.00048639404729683417 0 0.0022561105272219583 0.00071410832524810815 0 0.0021196652934229346 0.00048639404729683417 0 0.0024818355116570045 0.00064329095700117224 0 0.0021196652934229346 0.00048639404729683417 0 0.0024818355116570045 0.00064329095700117224 0 0.0025220460548197924 0.00037363958405773782 0 0.0027010995934061885 0.0006534795643839906 0 0.0024818355116570045 0.00064329095700117224 0 0.0025220460548197924 0.00037363958405773782 0 0.0021196652934229346 0.00048639404729683417 0 0.0025220460548197924 0.00037363958405773782 0 0.001824514991536938 0.00021441262887588041 0 0.0018008841266743748 0.00038433701507408532 0 0.0017832101657446859 0.00033972579329348058 0 0.0010957825495005883 7.5024265536339585e-05 0 0.0014333667531602565 0.00042990187088421777 0 0.001824514991536938 0.00021441262887588041 0 0.001003213650207948 0.00025798999641656918 0 0.0010957825495005883 7.5024265536339585e-05 0 0.0014333667531602565 0.00042990187088421777 0 0.001003213650207948 0.00025798999641656918 0 0.0014333667531602565 0.00042990187088421777 0 0.0010089406617394634 0.00043933780164694011 0 0.0014333667531602565 0.00042990187088421777 0 0.0017302221373782908 0.00047182106598795841 0 0.001824514991536938 0.00021441262887588041 0 0.0017302221373782908 0.00047182106598795841 0 0.001824514991536938 0.00021441262887588041 0 0.0018593817571195591 0.00035183731519548839 0 0.0017302221373782908 0.00047182106598795841 0 0.0018593817571195591 0.00035183731519548839 0 0.0018497779492462191 0.00048356815521376001 0 0.0018497779492462191 0.00048356815521376001 0 0.0020446220223025117 0.00045318378127924894 0 0.0019710773994828837 0.00039297118308646248 0 0.0018497779492462191 0.00048356815521376001 0 0.0020446220223025117 0.00045318378127924894 0 0.0018511606296776929 0.00061413767792456724 0 0.0020446220223025117 0.00045318378127924894 0 0.0019710773994828837 0.00039297118308646248 0 0.0021177860592322835 0.00039592964352296121 0 0.0018593817571195591 0.00035183731519548839 0 0.0018497779492462191 0.00048356815521376001 0 0.0019710773994828837 0.00039297118308646248 0 0.0019710773994828837 0.00039297118308646248 0 0.002019334797902549 0.00036686062788966067 0 0.0019212714933892461 0.00037546145381466288 0 0.0018593817571195591 0.00035183731519548839 0 0.0019710773994828837 0.00039297118308646248 0 0.0019212714933892461 0.00037546145381466288 0 0.0019710773994828837 0.00039297118308646248 0 0.002019334797902549 0.00036686062788966067 0 0.0021177860592322835 0.00039592964352296121 0 0.002019334797902549 0.00036686062788966067 0 0.0019716811608603349 0.00036210901960722247 0 0.0020859402276479293 0.00030673790079288225 0 0.002019334797902549 0.00036686062788966067 0 0.0019212714933892461 0.00037546145381466288 0 0.0019716811608603349 0.00036210901960722247 0 0.0019245567992034712 0.00042683364996566381 0 0.0019212714933892461 0.00037546145381466288 0 0.0019716811608603349 0.00036210901960722247 0 0.0023022071525211976 0.00034110490504208935 0 0.0022999541979100559 0.00038486086380622701 0 0.0025002680023176785 0.00032701575852835775 0 0.0023022071525211976 0.00034110490504208935 0 0.0021776818591770471 0.0003585273521900282 0 0.002234919107016869 0.00026379359590676676 0 0.0023022071525211976 0.00034110490504208935 0 0.0025002680023176785 0.00032701575852835775 0 0.0024413660945959651 0.00013092556662305704 0 0.0021776818591770471 0.0003585273521900282 0 0.0020859402276479293 0.00030673790079288225 0 0.002234919107016869 0.00026379359590676676 0 0.002019334797902549 0.00036686062788966067 0 0.0021776818591770471 0.0003585273521900282 0 0.0020859402276479293 0.00030673790079288225 0 0.002019334797902549 0.00036686062788966067 0 0.0021776818591770471 0.0003585273521900282 0 0.0021177860592322835 0.00039592964352296121 0 0.0021776818591770471 0.0003585273521900282 0 0.0022999541979100559 0.00038486086380622701 0 0.0021177860592322835 0.00039592964352296121 0 0.0023022071525211976 0.00034110490504208935 0 0.0021776818591770471 0.0003585273521900282 0 0.0022999541979100559 0.00038486086380622701 0 0.0022999541979100559 0.00038486086380622701 0 0.0021994579481841568 0.00041217730400149922 0 0.0022623549766494777 0.00038327220016170599 0 0.0022999541979100559 0.00038486086380622701 0 0.0021994579481841568 0.00041217730400149922 0 0.0021177860592322835 0.00039592964352296121 0 0.0020446220223025117 0.00045318378127924894 0 0.0021994579481841568 0.00041217730400149922 0 0.0021177860592322835 0.00039592964352296121 0 0.0020446220223025117 0.00045318378127924894 0 0.0021994579481841568 0.00041217730400149922 0 0.0021768482811111343 0.00048260653068371351 0 0.0021994579481841568 0.00041217730400149922 0 0.0022164058867028468 0.00037616526858243947 0 0.0021768482811111343 0.00048260653068371351 0 0.0022164058867028468 0.00037616526858243947 0 0.0019960034538808544 0.00032785720274521393 0 0.0021710514475891253 0.00031671154095648746 0 0.0019960034538808544 0.00032785720274521393 0 0.0021710514475891253 0.00031671154095648746 0 0.0020437836238467052 0.00024915153059030853 0 0.0022164058867028468 0.00037616526858243947 0 0.0021710514475891253 0.00031671154095648746 0 0.0023370712195124751 0.00035435695343470272 0 0.0021710514475891253 0.00031671154095648746 0 0.0023498076445175784 0.00029221880080528354 0 0.0022177521390336751 0.00021141985809580531 0 0.0021710514475891253 0.00031671154095648746 0 0.0023498076445175784 0.00029221880080528354 0 0.0023370712195124751 0.00035435695343470272 0 0.0022999541979100559 0.00038486086380622701 0 0.0023370712195124751 0.00035435695343470272 0 0.0022623549766494777 0.00038327220016170599 0 0.0021994579481841568 0.00041217730400149922 0 0.0022164058867028468 0.00037616526858243947 0 0.0022623549766494777 0.00038327220016170599 0 0.0022164058867028468 0.00037616526858243947 0 0.0023370712195124751 0.00035435695343470272 0 0.0022623549766494777 0.00038327220016170599 0 0.00057436067801163392 -3.7904307594801052e-07 0 0.00034920165715682699 -1.034867352795574e-05 0 -0.00079982264921485218 4.4941196411112555e-05 0 0.0020447137401832355 0.00022692797760851322 0 0.001865138662192315 0.00027548157581892141 0 0.0020437836238467052 0.00024915153059030853 0 0.0020447137401832355 0.00022692797760851322 0 0.0020437836238467052 0.00024915153059030853 0 0.0020961468920739921 0.00014349583578575795 0 0.0019960034538808544 0.00032785720274521393 0 0.001865138662192315 0.00027548157581892141 0 0.0020437836238467052 0.00024915153059030853 0 0.0021710514475891253 0.00031671154095648746 0 0.0020437836238467052 0.00024915153059030853 0 0.0022177521390336751 0.00021141985809580531 0 0.0022177521390336751 0.00021141985809580531 0 0.0020961468920739921 0.00014349583578575795 0 0.0022234496892923248 0.00014942881520331168 0 0.0020437836238467052 0.00024915153059030853 0 0.0022177521390336751 0.00021141985809580531 0 0.0020961468920739921 0.00014349583578575795 0 0.00057436067801163392 -3.7904307594801052e-07 0 0.00034920165715682699 -1.034867352795574e-05 0 0.001862201078989557 2.1871270228725225e-05 0 0.0020447137401832355 0.00022692797760851322 0 0.0020961468920739921 0.00014349583578575795 0 0.001862201078989557 2.1871270228725225e-05 0 0.00057436067801163392 -3.7904307594801052e-07 0 0.0020506380603095777 4.8252485917901163e-07 0 0.001862201078989557 2.1871270228725225e-05 0 0.00052729424955898316 0.0002864003038334293 0 0.00072069401568804214 0.00033438207823136896 0 0.0020961468920739921 0.00014349583578575795 0 0.001862201078989557 2.1871270228725225e-05 0 0.0022234496892923248 0.00014942881520331168 0 0.0020506380603095777 4.8252485917901163e-07 0 0.0023137501836156139 0.00012790333901243486 0 0.0028646009456354256 0.00014427604476551975 0 0.0020506380603095777 4.8252485917901163e-07 0 0.001862201078989557 2.1871270228725225e-05 0 0.0023137501836156139 0.00012790333901243486 0 0.001862201078989557 2.1871270228725225e-05 0 0.0023137501836156139 0.00012790333901243486 0 0.0022234496892923248 0.00014942881520331168 0 0.0023137501836156139 0.00012790333901243486 0 0.0024771383760662908 0.0002356027501279371 0 0.0028646009456354256 0.00014427604476551975 0 0.0023137501836156139 0.00012790333901243486 0 0.0024771383760662908 0.0002356027501279371 0 0.0022234496892923248 0.00014942881520331168 0 0.0022177521390336751 0.00021141985809580531 0 0.0024771383760662908 0.0002356027501279371 0 0.0022234496892923248 0.00014942881520331168 0 0.0023498076445175784 0.00029221880080528354 0 0.0022177521390336751 0.00021141985809580531 0 0.0024771383760662908 0.0002356027501279371 0 0.0024771383760662908 0.0002356027501279371 0 0.0028434014511694557 0.00026574397681896472 0 0.002521060917645414 0.00031742189805487235 0 0.0024771383760662908 0.0002356027501279371 0 0.0028434014511694557 0.00026574397681896472 0 0.0028646009456354256 0.00014427604476551975 0 0.0028434014511694557 0.00026574397681896472 0 0.0028646009456354256 0.00014427604476551975 0 0.0032776851490128396 0.00015127053377429037 0 0.0020506380603095777 4.8252485917901163e-07 0 0.0028646009456354256 0.00014427604476551975 0 0.0035258006357824076 3.6992652897175869e-07 0 0.0022999541979100559 0.00038486086380622701 0 0.0023370712195124751 0.00035435695343470272 0 0.0024450449023957141 0.00035033197769586053 0 0.0022999541979100559 0.00038486086380622701 0 0.0024450449023957141 0.00035033197769586053 0 0.0025002680023176785 0.00032701575852835775 0 0.0023370712195124751 0.00035435695343470272 0 0.0024450449023957141 0.00035033197769586053 0 0.002521060917645414 0.00031742189805487235 0 0.0023498076445175784 0.00029221880080528354 0 0.0023370712195124751 0.00035435695343470272 0 0.002521060917645414 0.00031742189805487235 0 0.0023498076445175784 0.00029221880080528354 0 0.0024771383760662908 0.0002356027501279371 0 0.002521060917645414 0.00031742189805487235 0 0.0024450449023957141 0.00035033197769586053 0 0.002521060917645414 0.00031742189805487235 0 0.0026581802748586324 0.00030437757136813032 0 0.0028434014511694557 0.00026574397681896472 0 0.0026581802748586324 0.00030437757136813032 0 0.0028970756586609993 0.00023076183648567804 0 0.0028434014511694557 0.00026574397681896472 0 0.002521060917645414 0.00031742189805487235 0 0.0026581802748586324 0.00030437757136813032 0 0.0026581802748586324 0.00030437757136813032 0 0.0025002680023176785 0.00032701575852835775 0 0.0028970756586609993 0.00023076183648567804 0 0.0024450449023957141 0.00035033197769586053 0 0.0026581802748586324 0.00030437757136813032 0 0.0025002680023176785 0.00032701575852835775 0 0.0025002680023176785 0.00032701575852835775 0 0.0028970756586609993 0.00023076183648567804 0 0.0024413660945959651 0.00013092556662305704 0 0.0028970756586609993 0.00023076183648567804 0 0.0039309884430667325 6.9695033522714125e-06 0 0.0028168275025042115 -0.00024661449625467606 0 0.0037806365507990622 -1.1798740193684372e-05 0 0.0036979002104355566 -2.8834003704647255e-05 0 0.0028970756586609993 0.00023076183648567804 0 0.0028168275025042115 -0.00024661449625467606 0 0.0024413660945959651 0.00013092556662305704 0 0.0028168275025042115 -0.00024661449625467606 0 0.0023809020877493424 -0.00016071348616978365 0 0.0024413660945959651 0.00013092556662305704 0 0.0028646009456354256 0.00014427604476551975 0 0.0035258006357824076 3.6992652897175869e-07 0 0.0032776851490128396 0.00015127053377429037 0 0.0028434014511694557 0.00026574397681896472 0 0.0028970756586609993 0.00023076183648567804 0 0.0032776851490128396 0.00015127053377429037 0 0.0028970756586609993 0.00023076183648567804 0 0.0032776851490128396 0.00015127053377429037 0 0.0039309884430667325 6.9695033522714125e-06 0 0.0035258006357824076 3.6992652897175869e-07 0 0.0032776851490128396 0.00015127053377429037 0 0.0039309884430667325 6.9695033522714125e-06 0 0.0035258006357824076 3.6992652897175869e-07 0 0.0039309884430667325 6.9695033522714125e-06 0 0.0050008658132190027 -3.4894083144345727e-09 0 0.0039309884430667325 6.9695033522714125e-06 0 0.0050008658132190027 -3.4894083144345727e-09 0 0.004826501909945242 4.9148240875173666e-05 0 0.0039309884430667325 6.9695033522714125e-06 0 0.004826501909945242 4.9148240875173666e-05 0 0.0043637695885186401 7.4282043364196028e-05 0 0.0059372631216522351 -9.4771977597039688e-05 0 0.004826501909945242 4.9148240875173666e-05 0 0.0043958673709603643 -0.00022239248424851137 0 0.0055731445824544956 -6.437397220871268e-05 0 0.0054631416691988521 -3.5251584411809885e-05 0 0.0059372631216522351 -9.4771977597039688e-05 0 0.0050008658132190027 -3.4894083144345727e-09 0 0.004826501909945242 4.9148240875173666e-05 0 0.0064767974533658651 1.6665482892114634e-07 0 0.0059372631216522351 -9.4771977597039688e-05 0 0.0050008658132190027 -3.4894083144345727e-09 0 0.0036979002104355566 -2.8834003704647255e-05 0 0.0037837841309049476 1.2069595599466205e-05 0 0.0042962474327564457 -2.1035878141345949e-05 0 0.0041924460790167088 -8.4177752674948779e-05 0 0.0041569495860202914 1.5744445878471504e-05 0 0.0042962474327564457 -2.1035878141345949e-05 0 0.0043579356171228479 3.8763384340332707e-05 0 0.0041569495860202914 1.5744445878471504e-05 0 0.0039309884430667325 6.9695033522714125e-06 0 0.0043579356171228479 3.8763384340332707e-05 0 0.0043637695885186401 7.4282043364196028e-05 0 0.0042962474327564457 -2.1035878141345949e-05 0 0.0043579356171228479 3.8763384340332707e-05 0 0.0043637695885186401 7.4282043364196028e-05 0 0.004826501909945242 4.9148240875173666e-05 0 0.0043637695885186401 7.4282043364196028e-05 0 0.0043958673709603643 -0.00022239248424851137 0 0.0042962474327564457 -2.1035878141345949e-05 0 0.0043637695885186401 7.4282043364196028e-05 0 0.0043958673709603643 -0.00022239248424851137 0 0.006440982445843917 7.4231165376118435e-06 0 0.0064054156537265263 -0.00011754700239009916 0 0.006536244487605025 -0.00013036039773023418 0 0.0042962474327564457 -2.1035878141345949e-05 0 0.0043958673709603643 -0.00022239248424851137 0 0.0041924460790167088 -8.4177752674948779e-05 0 0.006440982445843917 7.4231165376118435e-06 0 0.0065670876912486556 -8.1951764210738584e-05 0 0.006536244487605025 -0.00013036039773023418 0 0.0054631416691988521 -3.5251584411809885e-05 0 0.0054053578179080247 4.8096336793186067e-05 0 0.0065670876912486556 -8.1951764210738584e-05 0 0.006536244487605025 -0.00013036039773023418 0 0.0066705806496473305 -0.00015208667890676851 0 0.0054053578179080247 4.8096336793186067e-05 0 0.0053391087132888424 0.00023960650950045364 0 0.0096274207263421663 0.00013959448417734393 0 0.009788105986052462 0.00026240899191249366 0 0.0095244389944301611 0.000330263176398569 0 0.0041924460790167088 -8.4177752674948779e-05 0 0.0041569495860202914 1.5744445878471504e-05 0 0.0040311730809149595 -3.5122576091885168e-05 0 0.0023809020877493424 -0.00016071348616978365 0 0.002211243474183393 2.9212673933742209e-06 0 0.0021210851805554829 -9.9481824574096915e-05 0 0.0041569495860202914 1.5744445878471504e-05 0 0.0040151491419611633 -2.3572238288839931e-05 0 0.0040311730809149595 -3.5122576091885168e-05 0 0.0037837841309049476 1.2069595599466205e-05 0 0.0049480081894626785 0.00033622807367423365 0 0.002211243474183393 2.9212673933742209e-06 0 0.0021210851805554829 -9.9481824574096915e-05 0 0.002098950676081306 6.9339858525240802e-05 0 0.009361988271079192 0.0008177074070979815 0 0.0092784924649419002 0.0007712447545704141 0 0.0092354970057428737 0.00086769713695851675 0 0.0053391087132888424 0.00023960650950045364 0 0.0051748932382271653 0.00037210677707403525 0 0.0048968073466638395 0.00044560009203024951 0 0.0048740602226707971 0.00046067998630036557 0 0.0049175359508522318 0.00045204413033746236 0 0.0049480081894626785 0.00033622807367423365 0 0.0053391087132888424 0.00023960650950045364 0 0.009788105986052462 0.00026240899191249366 0 0.0094390920856453463 0.00055719572391708461 0 0.0095244389944301611 0.000330263176398569 0 0.009361988271079192 0.0008177074070979815 0 0.0093325835579087715 0.0006990307974795144 0 0.0094390920856453463 0.00055719572391708461 0 0.0093325835579087715 0.0006990307974795144 0 0.0092784924649419002 0.0007712447545704141 0 0.0092505471030344157 0.00065279036393462938 0 0.009788105986052462 0.00026240899191249366 0 0.009361988271079192 0.0008177074070979815 0 0.0094390920856453463 0.00055719572391708461 0 0.009361988271079192 0.0008177074070979815 0 0.0093325835579087715 0.0006990307974795144 0 0.0092784924649419002 0.0007712447545704141 0 0.0073206147060239776 -0.00020751859778069757 0 0.0053391087132888424 0.00023960650950045364 0 0.0093325835579087715 0.0006990307974795144 0 0.0094390920856453463 0.00055719572391708461 0 0.0092505471030344157 0.00065279036393462938 0 0.0093548392071911256 0.00038896337316437384 0 0.0092053758789152305 0.00044249187760081314 0 0.0092505471030344157 0.00065279036393462938 0 0.0094390920856453463 0.00055719572391708461 0 0.0093548392071911256 0.00038896337316437384 0 0.0092505471030344157 0.00065279036393462938 0 0.0094390920856453463 0.00055719572391708461 0 0.0095244389944301611 0.000330263176398569 0 0.0093548392071911256 0.00038896337316437384 0 0.0089822466231513562 0.00030798499948336849 0 0.0092053758789152305 0.00044249187760081314 0 0.0090678982641184958 0.00056831137197993606 0 0.0090457284656476414 0.00076179360248807807 0 0.0084754078758865776 0.00093454897583523499 0 0.0092354970057428737 0.00086769713695851675 0 0.0092340235312573307 0.00019513529329843465 0 0.0093548392071911256 0.00038896337316437384 0 0.0092053758789152305 0.00044249187760081314 0 0.0088409367696126624 0.00065860608532096649 0 0.0090457284656476414 0.00076179360248807807 0 0.0084754078758865776 0.00093454897583523499 0 0.0065508087459793512 0.00069255021067084373 0 0.0051748932382271653 0.00037210677707403525 0 0.0092053758789152305 0.00044249187760081314 0 0.0090678982641184958 0.00056831137197993606 0 0.0092505471030344157 0.00065279036393462938 0 0.0089822466231513562 0.00030798499948336849 0 0.0090678982641184958 0.00056831137197993606 0 0.0088409367696126624 0.00065860608532096649 0 0.0090678982641184958 0.00056831137197993606 0 0.0088409367696126624 0.00065860608532096649 0 0.0090457284656476414 0.00076179360248807807 0 0.0092784924649419002 0.0007712447545704141 0 0.0092029290874928379 0.00076494426724879269 0 0.0092354970057428737 0.00086769713695851675 0 0.0092784924649419002 0.0007712447545704141 0 0.0092029290874928379 0.00076494426724879269 0 0.0092505471030344157 0.00065279036393462938 0 0.0090457284656476414 0.00076179360248807807 0 0.0092029290874928379 0.00076494426724879269 0 0.0092505471030344157 0.00065279036393462938 0 0.0090457284656476414 0.00076179360248807807 0 0.0092029290874928379 0.00076494426724879269 0 0.0092354970057428737 0.00086769713695851675 0 0.0090678982641184958 0.00056831137197993606 0 0.0090457284656476414 0.00076179360248807807 0 0.0092505471030344157 0.00065279036393462938 0 0.0084765354576639886 0.0004278511480961254 0 0.0088409367696126624 0.00065860608532096649 0 0.0084754078758865776 0.00093454897583523499 0 0.0084765354576639886 0.0004278511480961254 0 0.0089822466231513562 0.00030798499948336849 0 0.0088409367696126624 0.00065860608532096649 0 0.0062113899660805761 0.00061426906223620444 0 0.0061626606078329935 0.00090039269470286963 0 0.006728774337322962 0.00076058906287472278 0 0.0018529631886872986 0.0006673190792780702 0 0.0017518043253445725 0.00060809886341352422 0 0.0018930364982061511 0.00047308450362601575 0 0.0057800942204560947 0.00074278433522625466 0 0.0062113899660805761 0.00061426906223620444 0 0.0061626606078329935 0.00090039269470286963 0 0.0018529631886872986 0.0006673190792780702 0 0.0016512972451517484 0.00069594276982915166 0 0.0017518043253445725 0.00060809886341352422 0 0.0042116278145185853 0.00070353994808372436 0 0.0051748932382271653 0.00037210677707403525 0 0.0016340882890532086 0.00069066211079469653 0 0.0016512972451517484 0.00069594276982915166 0 0.0017518043253445725 0.00060809886341352422 0 0.0049480081894626785 0.00033622807367423365 0 0.0051748932382271653 0.00037210677707403525 0 0.0049480081894626785 0.00033622807367423365 0 0.0033409118229525336 0.0008283637532958938 0 0.0021210851805554829 -9.9481824574096915e-05 0 0.0019754024170597342 0.00011621587326007826 0 0.002098950676081306 6.9339858525240802e-05 0 0.002098950676081306 6.9339858525240802e-05 0 0.0020092934264003973 0.00026090533122563614 0 0.002159891167585826 0.00015616523455145366 0 0.0019754024170597342 0.00011621587326007826 0 0.002098950676081306 6.9339858525240802e-05 0 0.0020092934264003973 0.00026090533122563614 0 0.0019754024170597342 0.00011621587326007826 0 0.0020092934264003973 0.00026090533122563614 0 0.0018930364982061511 0.00047308450362601575 0 0.0020092934264003973 0.00026090533122563614 0 0.0018930364982061511 0.00047308450362601575 0 0.001936938718769421 0.00038488825518289826 0 0.0033409118229525336 0.0008283637532958938 0 0.0029572722740043582 0.00091253872998526869 0 0.0020092934264003973 0.00026090533122563614 0 0.0019716811608603349 0.00036210901960722247 0 0.001936938718769421 0.00038488825518289826 0 0.0019245567992034712 0.00042683364996566381 0 0.0018930364982061511 0.00047308450362601575 0 0.001936938718769421 0.00038488825518289826 0 0.0019245567992034712 0.00042683364996566381 0 0.0019716811608603349 0.00036210901960722247 0 0.001936938718769421 0.00038488825518289826 0 0.0020092934264003973 0.00026090533122563614 0 0.0020859402276479293 0.00030673790079288225 0 0.002159891167585826 0.00015616523455145366 0 0.0020092934264003973 0.00026090533122563614 0 0.0019716811608603349 0.00036210901960722247 0 0.0020859402276479293 0.00030673790079288225 0 0.002234919107016869 0.00026379359590676676 0 0.002290377160467056 7.8886760847566282e-05 0 0.002159891167585826 0.00015616523455145366 0 0.0020859402276479293 0.00030673790079288225 0 0.002234919107016869 0.00026379359590676676 0 0.002159891167585826 0.00015616523455145366 0 0.002234919107016869 0.00026379359590676676 0 0.0024413660945959651 0.00013092556662305704 0 0.002290377160467056 7.8886760847566282e-05 0 0.0023022071525211976 0.00034110490504208935 0 0.002234919107016869 0.00026379359590676676 0 0.0024413660945959651 0.00013092556662305704 0 0.0023809020877493424 -0.00016071348616978365 0 0.0024413660945959651 0.00013092556662305704 0 0.002290377160467056 7.8886760847566282e-05 0 0.0023809020877493424 -0.00016071348616978365 0 0.002211243474183393 2.9212673933742209e-06 0 0.002290377160467056 7.8886760847566282e-05 0 0.002211243474183393 2.9212673933742209e-06 0 0.002290377160467056 7.8886760847566282e-05 0 0.002159891167585826 0.00015616523455145366 0 0.002211243474183393 2.9212673933742209e-06 0 0.002098950676081306 6.9339858525240802e-05 0 0.002159891167585826 0.00015616523455145366 0 0.0027091341749788649 -0.0017182279373919094 0 0.0024404290419965872 -0.00096144212270138482 0 0.0033820960384559548 -0.00077670403974336184 0 0.0027091341749788649 -0.0017182279373919094 0 0.0016808157782461067 -0.0011573258621991355 0 0.0024404290419965872 -0.00096144212270138482 0 0.0054823554910838641 -0.001270003626426105 0 0.0058458785602956559 -0.0015250600778253087 0 0.0027091341749788649 -0.0017182279373919094 0 0.0038479337639759962 -0.001826577484829249 0 0.0033820960384559548 -0.00077670403974336184 0 0.0038479337639759962 -0.001826577484829249 0 0.0033820960384559548 -0.00077670403974336184 0 0.0046988068171511486 -0.0016329056081020789 0 0.0027091341749788649 -0.0017182279373919094 0 0.0033295341468052787 -0.0022171349994592202 0 0.0038479337639759962 -0.001826577484829249 0 0.0033295341468052787 -0.0022171349994592202 0 0.0038479337639759962 -0.001826577484829249 0 0.0037879402273434436 -0.0025911240549298144 0 0.0038479337639759962 -0.001826577484829249 0 0.0037879402273434436 -0.0025911240549298144 0 0.0047017313611770646 -0.0022821551620094615 0 0.0038479337639759962 -0.001826577484829249 0 0.0046988068171511486 -0.0016329056081020789 0 0.0047017313611770646 -0.0022821551620094615 0 0.0037879402273434436 -0.0025911240549298144 0 0.0047017313611770646 -0.0022821551620094615 0 0.0043283615873921568 -0.0030627210547200501 0 0.0033295341468052787 -0.0022171349994592202 0 0.0037879402273434436 -0.0025911240549298144 0 0.002996117476322183 -0.0028670170591609985 0 0.0037879402273434436 -0.0025911240549298144 0 0.002996117476322183 -0.0028670170591609985 0 0.0035874096336959843 -0.0033025547761990209 0 0.0027091341749788649 -0.0017182279373919094 0 0.002996117476322183 -0.0028670170591609985 0 0.0016973442253516416 -0.0026724875899100508 0 0.0027091341749788649 -0.0017182279373919094 0 0.0033295341468052787 -0.0022171349994592202 0 0.002996117476322183 -0.0028670170591609985 0 0.0020616175013139825 -0.0030676736363357661 0 0.0012040028351605013 -0.0028177434920953616 0 0.0016808157782461067 -0.0011573258621991355 0 0.0020616175013139825 -0.0030676736363357661 0 0.0012040028351605013 -0.0028177434920953616 0 0.001331118420709213 -0.0038263091068135866 0 0.00063347334592540037 -0.0023055411240895402 0 0.0012040028351605013 -0.0028177434920953616 0 0.00031703977395467435 -0.0033700868551831704 0 0.00063347334592540037 -0.0023055411240895402 0 0.00072678284814185062 -0.0013697520619029996 0 0.0016808157782461067 -0.0011573258621991355 0 0.00063347334592540037 -0.0023055411240895402 0 0.0012040028351605013 -0.0028177434920953616 0 0.0016808157782461067 -0.0011573258621991355 0 0.0017552214656328361 -0.0031126709819634746 0 0.0016489661420744266 -0.0021973715471377592 0 0.0027091341749788649 -0.0017182279373919094 0 0.0016973442253516416 -0.0026724875899100508 0 0.0016808157782461067 -0.0011573258621991355 0 0.0016808157782461067 -0.0011573258621991355 0 0.00067695569124772293 -0.00065018301799248611 0 0.002031062005877415 -0.00025596210804038815 0 0.0016808157782461067 -0.0011573258621991355 0 0.002031062005877415 -0.00025596210804038815 0 0.0024404290419965872 -0.00096144212270138482 0 0.00072678284814185062 -0.0013697520619029996 0 0.0016808157782461067 -0.0011573258621991355 0 0.00067695569124772293 -0.00065018301799248611 0 0.00067695569124772293 -0.00065018301799248611 0 0.002031062005877415 -0.00025596210804038815 0 0.00084438831617308528 0.00049583997610947871 0 0.0049009351648650222 -0.00090901515755967169 0 0.0042355423318739 -0.00046772516420269788 0 0.0081689817012346039 -0.0015699508297112813 0 0.0083804218466762958 -0.0015697003789178661 0 0.0077672370930627404 -0.0016464045518601257 0 0.0075466414373140953 -0.0016516195518509556 0 0.0077540781468472967 -0.0017130357963554897 0 0.0077672370930627404 -0.0016464045518601257 0 0.0073156405734878501 -0.0012920973276933773 0 0.0075466414373140953 -0.0016516195518509556 0 0.0049009351648650222 -0.00090901515755967169 0 0.0054823554910838641 -0.001270003626426105 0 0.002031062005877415 -0.00025596210804038815 0 0.0024404290419965872 -0.00096144212270138482 0 0.0033820960384559548 -0.00077670403974336184 0 0.0073156405734878501 -0.0012920973276933773 0 0.0069635740321016531 -0.0015195762420410971 0 0.0075466414373140953 -0.0016516195518509556 0 0.0073156405734878501 -0.0012920973276933773 0 0.0069635740321016531 -0.0015195762420410971 0 0.0065402226033021097 -0.0014062861843814093 0 0.0069635740321016531 -0.0015195762420410971 0 0.0075466414373140953 -0.0016516195518509556 0 0.0069091935752713879 -0.0018381276637462235 0 0.0075466414373140953 -0.0016516195518509556 0 0.0069091935752713879 -0.0018381276637462235 0 0.0081567476931755575 -0.0020750966334057955 0 0.0076016010391294943 -0.0016673242388813899 0 0.0071780273228889049 -0.0016985743527378353 0 0.0070203764754451616 -0.0015400256936779144 0 0.0076016010391294943 -0.0016673242388813899 0 0.0071780273228889049 -0.0016985743527378353 0 0.0072993896410696773 -0.0019760849734364763 0 0.0068187222780206171 -0.0017472265064111406 0 0.0068045980594038076 -0.0019609260006149191 0 0.0070939544143895214 -0.0020191296179708201 0 0.0068160681961484211 -0.0016284542818767015 0 0.0071780273228889049 -0.0016985743527378353 0 0.0072993896410696773 -0.0019760849734364763 0 0.0068160681961484211 -0.0016284542818767015 0 0.0068187222780206171 -0.0017472265064111406 0 0.0070939544143895214 -0.0020191296179708201 0 0.0072155711150674864 -0.0017259011251763523 0 0.0074079913325539922 -0.0018795473877807546 0 0.0068187222780206171 -0.0017472265064111406 0 0.0065756912275823313 -0.0018861848340805459 0 0.0068045980594038076 -0.0019609260006149191 0 0.0068160681961484211 -0.0016284542818767015 0 0.0071780273228889049 -0.0016985743527378353 0 0.0070203764754451616 -0.0015400256936779144 0 0.0068160681961484211 -0.0016284542818767015 0 0.0068187222780206171 -0.0017472265064111406 0 0.0067490065200497603 -0.0014001010261284919 0 0.0068160681961484211 -0.0016284542818767015 0 0.0070203764754451616 -0.0015400256936779144 0 0.0067490065200497603 -0.0014001010261284919 0 0.0070203764754451616 -0.0015400256936779144 0 0.0069630737464342488 -0.0013519089538412295 0 0.0067490065200497603 -0.0014001010261284919 0 0.0076016010391294943 -0.0016673242388813899 0 0.0070203764754451616 -0.0015400256936779144 0 0.0069630737464342488 -0.0013519089538412295 0 0.0069635740321016531 -0.0015195762420410971 0 0.0069091935752713879 -0.0018381276637462235 0 0.0065679902090820461 -0.0014918076437317219 0 0.0069091935752713879 -0.0018381276637462235 0 0.0061836993773490721 -0.0014213516413801536 0 0.0065679902090820461 -0.0014918076437317219 0 0.0061836993773490721 -0.0014213516413801536 0 0.0065679902090820461 -0.0014918076437317219 0 0.0062660429664582653 -0.0014070542256113244 0 0.0071965758413576816 -0.0017134088736755965 0 0.0068708665369766287 -0.0015146189457481431 0 0.0069635740321016531 -0.0015195762420410971 0 0.0065679902090820461 -0.0014918076437317219 0 0.0065402226033021097 -0.0014062861843814093 0 -0.0017241089179807823 -0.0031469769671115134 0 -0.0018691739661227389 -0.0034480529885878171 0 0.0062591261683292701 -0.0019185431317085499 0 0.0064345818940089701 -0.0016070191310118517 0 0.0061207240911044522 -0.0014054337699561659 0 0.0062591261683292701 -0.0019185431317085499 0 0.0061207240911044522 -0.0014054337699561659 0 0.0058064335032400145 -0.0020065163149194029 0 0.0062591261683292701 -0.0019185431317085499 0 0.0064345818940089701 -0.0016070191310118517 0 0.0065756912275823313 -0.0018861848340805459 0 0.0068187222780206171 -0.0017472265064111406 0 0.0065756912275823313 -0.0018861848340805459 0 0.0066078832019645347 -0.0016265409819473725 0 0.0064345818940089701 -0.0016070191310118517 0 0.0065756912275823313 -0.0018861848340805459 0 0.0066078832019645347 -0.0016265409819473725 0 0.0021893548967223684 -0.0029297405327694333 0 0.0013441193419800397 -0.0029621368013411369 0 0.0064345818940089701 -0.0016070191310118517 0 0.0065971740765762886 -0.0012650749586977674 0 0.0061207240911044522 -0.0014054337699561659 0 0.0068187222780206171 -0.0017472265064111406 0 0.0066078832019645347 -0.0016265409819473725 0 0.0065971740765762886 -0.0012650749586977674 0 0.0064345818940089701 -0.0016070191310118517 0 0.0066078832019645347 -0.0016265409819473725 0 0.0065971740765762886 -0.0012650749586977674 0 -0.01034147712895817 -0.0044018557215049388 0 -0.010340232836228562 -0.0042700164513870412 0 -0.010160256739817132 -0.0042051817726866288 0 -0.0017241089179807823 -0.0031469769671115134 0 -0.0014239796597813709 -0.0032124715171582513 0 -0.01034147712895817 -0.0044018557215049388 0 -0.010340232836228562 -0.0042700164513870412 0 -0.010470891238820008 -0.0043205545747880356 0 -0.010340232836228562 -0.0042700164513870412 0 -0.010297756685044766 -0.0041569470208601272 0 -0.010408133922497186 -0.0042092747064120545 0 -0.010340232836228562 -0.0042700164513870412 0 -0.010160256739817132 -0.0042051817726866288 0 -0.010297756685044766 -0.0041569470208601272 0 0.0013441193419800397 -0.0029621368013411369 0 -0.0014239796597813709 -0.0032124715171582513 0 0.0067490065200497603 -0.0014001010261284919 0 0.0066321693116679859 -0.0014727405171691135 0 0.0065832139235515045 -0.001491280613232022 0 0.0065971740765762886 -0.0012650749586977674 0 0.0061207240911044522 -0.0014054337699561659 0 0.0064157114095808009 -0.00081001684685124515 0 -0.0095472479916466381 -0.0052582248694891479 0 -0.0090755144001341964 -0.0043169947956640288 0 -0.0098598498994702001 -0.0044398980618423648 0 -0.0014239796597813709 -0.0032124715171582513 0 -0.00097063435403000177 -0.0050696734805689035 0 0.0065832139235515045 -0.001491280613232022 0 0.0063944085438871843 -0.0015861602343398185 0 0.0063959370875820917 -0.0020902609568229764 0 0.0066321693116679859 -0.0014727405171691135 0 0.0065832139235515045 -0.001491280613232022 0 0.0063959370875820917 -0.0020902609568229764 0 -0.0014239796597813709 -0.0032124715171582513 0 -0.004756279346874526 -0.0028490176253929771 0 -0.010160256739817132 -0.0042051817726866288 0 -0.010297756685044766 -0.0041569470208601272 0 -0.010174742836276994 -0.0039776338612844339 0 -0.010297756685044766 -0.0041569470208601272 0 -0.010174742836276994 -0.0039776338612844339 0 -0.01042874438657047 -0.0041000522906627203 0 -0.010297756685044766 -0.0041569470208601272 0 -0.010408133922497186 -0.0042092747064120545 0 -0.01042874438657047 -0.0041000522906627203 0 0.0073156405734878501 -0.0012920973276933773 0 0.0065402226033021097 -0.0014062861843814093 0 0.0058401061924271544 -0.0014926751958171695 0 0.0033820960384559548 -0.00077670403974336184 0 0.0046988068171511486 -0.0016329056081020789 0 0.0058401061924271544 -0.0014926751958171695 0 0.0062011727121632524 -0.0014309551039015447 0 0.0065402226033021097 -0.0014062861843814093 0 0.0058401061924271544 -0.0014926751958171695 0 0.0062011727121632524 -0.0014309551039015447 0 0.0060561815038230396 -0.0014566860887176767 0 0.0061384319239943938 -0.0014478706901240924 0 0.0060561815038230396 -0.0014566860887176767 0 0.0060262024256359419 -0.0014982082109583604 0 0.0061384319239943938 -0.0014478706901240924 0 0.0060561815038230396 -0.0014566860887176767 0 0.0060262024256359419 -0.0014982082109583604 0 0.0058401061924271544 -0.0014926751958171695 0 0.0062011727121632524 -0.0014309551039015447 0 0.0060561815038230396 -0.0014566860887176767 0 0.0058401061924271544 -0.0014926751958171695 0 0.0062011727121632524 -0.0014309551039015447 0 0.0062660429664582653 -0.0014070542256113244 0 0.0061384319239943938 -0.0014478706901240924 0 0.0062011727121632524 -0.0014309551039015447 0 0.0065402226033021097 -0.0014062861843814093 0 0.0062660429664582653 -0.0014070542256113244 0 0.0065679902090820461 -0.0014918076437317219 0 0.0065402226033021097 -0.0014062861843814093 0 0.0062660429664582653 -0.0014070542256113244 0 0.0061836993773490721 -0.0014213516413801536 0 0.006215131621795416 -0.0014239586889664361 0 0.0063140720991881026 -0.0014708769270069062 0 0.0069630737464342488 -0.0013519089538412295 0 0.0067490065200497603 -0.0014001010261284919 0 0.0065832139235515045 -0.001491280613232022 0 0.0061836993773490721 -0.0014213516413801536 0 0.0065832139235515045 -0.001491280613232022 0 0.0063140720991881026 -0.0014708769270069062 0 0.0068708665369766287 -0.0015146189457481431 0 0.0067996039160593789 -0.0014975271900385227 0 0.0062660429664582653 -0.0014070542256113244 0 0.006215131621795416 -0.0014239586889664361 0 0.0061384319239943938 -0.0014478706901240924 0 0.0061836993773490721 -0.0014213516413801536 0 0.0062660429664582653 -0.0014070542256113244 0 0.006215131621795416 -0.0014239586889664361 0 0.0065832139235515045 -0.001491280613232022 0 0.0063140720991881026 -0.0014708769270069062 0 0.0063944085438871843 -0.0015861602343398185 0 0.0063140720991881026 -0.0014708769270069062 0 0.0061384319239943938 -0.0014478706901240924 0 0.0062214684429238772 -0.001618380882177149 0 0.006215131621795416 -0.0014239586889664361 0 0.0063140720991881026 -0.0014708769270069062 0 0.0061384319239943938 -0.0014478706901240924 0 0.0061384319239943938 -0.0014478706901240924 0 0.0060955254507155604 -0.0015442863441633265 0 0.0062214684429238772 -0.001618380882177149 0 0.0060262024256359419 -0.0014982082109583604 0 0.0061384319239943938 -0.0014478706901240924 0 0.0060955254507155604 -0.0015442863441633265 0 0.0010697308048982015 -0.0049445865865207139 0 -0.00097063435403000177 -0.0050696734805689035 0 0.0060955254507155604 -0.0015442863441633265 0 0.0062214684429238772 -0.001618380882177149 0 0.0059712062108692827 -0.0016477572057707218 0 0.0062214684429238772 -0.001618380882177149 0 0.0063944085438871843 -0.0015861602343398185 0 0.0063959370875820917 -0.0020902609568229764 0 0.0059712062108692827 -0.0016477572057707218 0 0.0059545213120906788 -0.0029631981573101712 0 0.0069969131238678704 -0.0035147751527342536 0 0.0062214684429238772 -0.001618380882177149 0 0.0059712062108692827 -0.0016477572057707218 0 0.0063959370875820917 -0.0020902609568229764 0 0.0063140720991881026 -0.0014708769270069062 0 0.0062214684429238772 -0.001618380882177149 0 0.0063944085438871843 -0.0015861602343398185 0 0.0054900380410939607 -0.0026087796029799749 0 0.0059712062108692827 -0.0016477572057707218 0 0.0059545213120906788 -0.0029631981573101712 0 0.0054900380410939607 -0.0026087796029799749 0 0.0055871363945377049 -0.0019690214521621238 0 0.0052498816682362767 -0.0022671695236616369 0 0.0054900380410939607 -0.0026087796029799749 0 0.0055871363945377049 -0.0019690214521621238 0 0.0059712062108692827 -0.0016477572057707218 0 0.0055871363945377049 -0.0019690214521621238 0 0.0052176998121299207 -0.0019363785027541724 0 0.0052498816682362767 -0.0022671695236616369 0 0.0055871363945377049 -0.0019690214521621238 0 0.0058401061924271544 -0.0014926751958171695 0 0.0052176998121299207 -0.0019363785027541724 0 0.0060262024256359419 -0.0014982082109583604 0 0.0058401061924271544 -0.0014926751958171695 0 0.0059712062108692827 -0.0016477572057707218 0 0.0055871363945377049 -0.0019690214521621238 0 0.0058401061924271544 -0.0014926751958171695 0 0.0059712062108692827 -0.0016477572057707218 0 0.0060262024256359419 -0.0014982082109583604 0 0.0060955254507155604 -0.0015442863441633265 0 0.0059712062108692827 -0.0016477572057707218 0 0.0046988068171511486 -0.0016329056081020789 0 0.0052176998121299207 -0.0019363785027541724 0 0.0047017313611770646 -0.0022821551620094615 0 0.0046988068171511486 -0.0016329056081020789 0 0.0058401061924271544 -0.0014926751958171695 0 0.0052176998121299207 -0.0019363785027541724 0 0.0052176998121299207 -0.0019363785027541724 0 0.0047017313611770646 -0.0022821551620094615 0 0.0052498816682362767 -0.0022671695236616369 0 0.0047017313611770646 -0.0022821551620094615 0 0.0049764762689967507 -0.0027457573603835261 0 0.0043283615873921568 -0.0030627210547200501 0 0.0047017313611770646 -0.0022821551620094615 0 0.0052498816682362767 -0.0022671695236616369 0 0.0049764762689967507 -0.0027457573603835261 0 0.0054900380410939607 -0.0026087796029799749 0 0.0052498816682362767 -0.0022671695236616369 0 0.0049764762689967507 -0.0027457573603835261 0 0.0049764762689967507 -0.0027457573603835261 0 0.0050311614572531036 -0.0034359983724891016 0 0.0043283615873921568 -0.0030627210547200501 0 0.0054900380410939607 -0.0026087796029799749 0 0.0049764762689967507 -0.0027457573603835261 0 0.0050311614572531036 -0.0034359983724891016 0 0.0050311614572531036 -0.0034359983724891016 0 0.004792977654992198 -0.0046176874680988128 0 0.0039922456241522734 -0.0039643555323726383 0 0.0050311614572531036 -0.0034359983724891016 0 0.0056750067260142468 -0.0039373729326834814 0 0.004792977654992198 -0.0046176874680988128 0 0.0050311614572531036 -0.0034359983724891016 0 0.0056750067260142468 -0.0039373729326834814 0 0.0059545213120906788 -0.0029631981573101712 0 0.0054900380410939607 -0.0026087796029799749 0 0.0050311614572531036 -0.0034359983724891016 0 0.0059545213120906788 -0.0029631981573101712 0 0.0056750067260142468 -0.0039373729326834814 0 0.0059545213120906788 -0.0029631981573101712 0 0.0069969131238678704 -0.0035147751527342536 0 0.0056750067260142468 -0.0039373729326834814 0 0.0069969131238678704 -0.0035147751527342536 0 0.0059273157489805085 -0.0053679149420567916 0 -0.00097063435403000177 -0.0050696734805689035 0 -0.00034752825897836674 -0.007046515393228237 0 -0.0046125942114039397 -0.012709152084554165 0 -0.0037988439063020864 -0.01115465368594374 0 -0.0047611735602427294 -0.011080301623297128 0 0.0056750067260142468 -0.0039373729326834814 0 0.0059273157489805085 -0.0053679149420567916 0 0.004792977654992198 -0.0046176874680988128 0 0.0059273157489805085 -0.0053679149420567916 0 0.004792977654992198 -0.0046176874680988128 0 0.0045289782013131774 -0.0058209590065637301 0 -0.010174742836276994 -0.0039776338612844339 0 -0.010486014754319041 -0.0039662539886643842 0 -0.010462083278199539 -0.0037534210882999739 0 -0.004756279346874526 -0.0028490176253929771 0 -0.0057429896503943265 -0.0027177518420186844 0 -0.010174742836276994 -0.0039776338612844339 0 -0.01042874438657047 -0.0041000522906627203 0 -0.010486014754319041 -0.0039662539886643842 0 -0.0090755144001341964 -0.0043169947956640288 0 -0.0098598498994702001 -0.0044398980618423648 0 -0.0096958342585937267 -0.0035586532674342338 0 -0.0046125942114039397 -0.012709152084554165 0 -0.0056159420994297453 -0.011428032760547557 0 -0.0047611735602427294 -0.011080301623297128 0 -0.00097063435403000177 -0.0050696734805689035 0 -0.0049678207342046341 -0.005702008493813829 0 -0.0098598498994702001 -0.0044398980618423648 0 -0.0096958342585937267 -0.0035586532674342338 0 -0.010172783105111367 -0.0036202054334717845 0 -0.010174742836276994 -0.0039776338612844339 0 -0.010172783105111367 -0.0036202054334717845 0 -0.010462083278199539 -0.0037534210882999739 0 -0.0096958342585937267 -0.0035586532674342338 0 -0.010172783105111367 -0.0036202054334717845 0 -0.010132269095749311 -0.0033363149708289662 0 -0.010172783105111367 -0.0036202054334717845 0 -0.010320064695908663 -0.0033550464853823515 0 -0.010132269095749311 -0.0033363149708289662 0 -0.010172783105111367 -0.0036202054334717845 0 -0.010320064695908663 -0.0033550464853823515 0 -0.010381005062050934 -0.0035530205318939864 0 -0.010172783105111367 -0.0036202054334717845 0 -0.010381005062050934 -0.0035530205318939864 0 -0.010462083278199539 -0.0037534210882999739 0 -0.0056159420994297453 -0.011428032760547557 0 -0.0066681141864680044 -0.010149336639800582 0 -0.0065561375016997834 -0.010205847476732914 0 -0.0096958342585937267 -0.0035586532674342338 0 -0.010190429052979819 -0.0029601705968967042 0 -0.010132269095749311 -0.0033363149708289662 0 -0.0056159420994297453 -0.011428032760547557 0 -0.0065561375016997834 -0.010205847476732914 0 -0.005450246257869963 -0.010285173816690788 0 -0.0049678207342046341 -0.005702008493813829 0 -0.0074324295035725725 -0.0057629151943650418 0 -0.0066759220241008931 -0.010153323259063396 0 -0.0065561375016997834 -0.010205847476732914 0 -0.0065942903118604229 -0.0098809893797558498 0 -0.0074324295035725725 -0.0057629151943650418 0 -0.007422159125738112 -0.0057734379641820556 0 -0.010190429052979819 -0.0029601705968967042 0 -0.010252474326323788 -0.0031911078744435648 0 -0.010423573936282932 -0.0030809629145286035 0 -0.010252474326323788 -0.0031911078744435648 0 -0.010320064695908663 -0.0033550464853823515 0 -0.010423573936282932 -0.0030809629145286035 0 -0.010190429052979819 -0.0029601705968967042 0 -0.010252474326323788 -0.0031911078744435648 0 -0.010132269095749311 -0.0033363149708289662 0 -0.010252474326323788 -0.0031911078744435648 0 -0.010320064695908663 -0.0033550464853823515 0 -0.010132269095749311 -0.0033363149708289662 0 -0.0065561375016997834 -0.010205847476732914 0 -0.005450246257869963 -0.010285173816690788 0 -0.0062415721533436641 -0.0096931014931680801 0 -0.0056159420994297453 -0.011428032760547557 0 -0.005450246257869963 -0.010285173816690788 0 -0.0047611735602427294 -0.011080301623297128 0 -0.005450246257869963 -0.010285173816690788 0 -0.0047611735602427294 -0.011080301623297128 0 -0.0043903677095048525 -0.010023033074840065 0 -0.0053506899575105722 -0.0094410191236830865 0 -0.0060388173480329654 -0.0089714154469375355 0 -0.0045968303932919924 -0.0087826038122901049 0 -0.0053506899575105722 -0.0094410191236830865 0 -0.0043903677095048525 -0.010023033074840065 0 -0.0045968303932919924 -0.0087826038122901049 0 -0.005450246257869963 -0.010285173816690788 0 -0.0053506899575105722 -0.0094410191236830865 0 -0.0043903677095048525 -0.010023033074840065 0 -0.005450246257869963 -0.010285173816690788 0 -0.0053506899575105722 -0.0094410191236830865 0 -0.0062415721533436641 -0.0096931014931680801 0 -0.0062415721533436641 -0.0096931014931680801 0 -0.0060388173480329654 -0.0089714154469375355 0 -0.0067700883553179552 -0.0094300676088949799 0 -0.0053506899575105722 -0.0094410191236830865 0 -0.0062415721533436641 -0.0096931014931680801 0 -0.0060388173480329654 -0.0089714154469375355 0 -0.0060388173480329654 -0.0089714154469375355 0 -0.0067700883553179552 -0.0094300676088949799 0 -0.0070079109702240183 -0.0087984356556410331 0 -0.0067700883553179552 -0.0094300676088949799 0 -0.0065942903118604229 -0.0098809893797558498 0 -0.006909926906620757 -0.0099059768360541534 0 -0.0062415721533436641 -0.0096931014931680801 0 -0.0067700883553179552 -0.0094300676088949799 0 -0.0065942903118604229 -0.0098809893797558498 0 -0.0065561375016997834 -0.010205847476732914 0 -0.0062415721533436641 -0.0096931014931680801 0 -0.0065942903118604229 -0.0098809893797558498 0 -0.0066759220241008931 -0.010153323259063396 0 -0.0065942903118604229 -0.0098809893797558498 0 -0.006909926906620757 -0.0099059768360541534 0 -0.0074324295035725725 -0.0057629151943650418 0 -0.0073697485611150916 -0.0058758888301325843 0 -0.00034752825897836674 -0.007046515393228237 0 -3.1129756185781316e-05 -0.007339148624391314 0 0.0059273157489805085 -0.0053679149420567916 0 0.0045289782013131774 -0.0058209590065637301 0 0.0048390338520009424 -0.0073733963561551791 0 -0.0037988439063020864 -0.01115465368594374 0 -0.0047611735602427294 -0.011080301623297128 0 -0.0043903677095048525 -0.010023033074840065 0 -0.0037988439063020864 -0.01115465368594374 0 -0.0043903677095048525 -0.010023033074840065 0 -0.002964088445265519 -0.0095655358591642831 0 -3.1129756185781316e-05 -0.007339148624391314 0 -0.0030600042041080805 -0.0075128458570247678 0 -0.0043903677095048525 -0.010023033074840065 0 -0.002964088445265519 -0.0095655358591642831 0 -0.0045968303932919924 -0.0087826038122901049 0 -0.0013737150804703205 -0.010368544562189335 0 -0.0039206272824301083 -0.0091237507952351901 0 -0.0019660660506023238 -0.0084930790498470195 0 -3.1129756185781316e-05 -0.007339148624391314 0 0.00012313713866046473 -0.0072175468277305777 0 0.00137729911576629 -0.0060994959439833974 0 0.0012976209394216216 -0.0061177735698664231 0 0.0012254035496945719 -0.0062229816186865489 0 0.0012976209394216216 -0.0061177735698664231 0 0.0015361447966464859 -0.0060960452326954554 0 0.0014498012339613498 -0.0060546740694187905 0 -3.1129756185781316e-05 -0.007339148624391314 0 0.00099467469640671471 -0.0073046804700143027 0 0.00137729911576629 -0.0060994959439833974 0 0.0012976209394216216 -0.0061177735698664231 0 0.0014498012339613498 -0.0060546740694187905 0 0.0015361447966464859 -0.0060960452326954554 0 0.0013126175344999056 -0.0060448061471766344 0 0.0011132474985527921 -0.0062094892238743794 0 0.0012976209394216216 -0.0061177735698664231 0 0.0015361447966464859 -0.0060960452326954554 0 0.0011132474985527921 -0.0062094892238743794 0 0.0018985630046765148 -0.0053342046394297474 0 0.0018784188604102593 -0.0046246582019509059 0 0.0015361447966464859 -0.0060960452326954554 0 0.0019063712495015488 -0.0057868040853269933 0 0.0014498012339613498 -0.0060546740694187905 0 0.0015361447966464859 -0.0060960452326954554 0 0.0019063712495015488 -0.0057868040853269933 0 0.0017940726294619401 -0.005044649320686643 0 0.0011536775103643201 -0.0072058806293555941 0 0.00099467469640671471 -0.0073046804700143027 0 0.0019063712495015488 -0.0057868040853269933 0 0.0034996412047478167 -0.0067256283784069013 0 0.0035476462600328167 -0.0050811924844555685 0 0.0045289782013131774 -0.0058209590065637301 0 0.0034996412047478167 -0.0067256283784069013 0 0.0035476462600328167 -0.0050811924844555685 0 0.0045289782013131774 -0.0058209590065637301 0 0.0048390338520009424 -0.0073733963561551791 0 0.0034996412047478167 -0.0067256283784069013 0 0.004792977654992198 -0.0046176874680988128 0 0.0045289782013131774 -0.0058209590065637301 0 0.0035476462600328167 -0.0050811924844555685 0 0.004792977654992198 -0.0046176874680988128 0 0.0035476462600328167 -0.0050811924844555685 0 0.0039922456241522734 -0.0039643555323726383 0 0.0035476462600328167 -0.0050811924844555685 0 0.0028435787723124239 -0.0040492735516693646 0 0.0039922456241522734 -0.0039643555323726383 0 0.0019063712495015488 -0.0057868040853269933 0 0.0035476462600328167 -0.0050811924844555685 0 0.0024901638935029744 -0.0050126306743032423 0 0.0019063712495015488 -0.0057868040853269933 0 0.0024901638935029744 -0.0050126306743032423 0 0.0017940726294619401 -0.005044649320686643 0 0.0024901638935029744 -0.0050126306743032423 0 0.0028435787723124239 -0.0040492735516693646 0 0.0017940726294619401 -0.005044649320686643 0 0.0035476462600328167 -0.0050811924844555685 0 0.0024901638935029744 -0.0050126306743032423 0 0.0028435787723124239 -0.0040492735516693646 0 0.002996117476322183 -0.0028670170591609985 0 0.0016973442253516416 -0.0026724875899100508 0 0.0028435787723124239 -0.0040492735516693646 0 0.0016973442253516416 -0.0026724875899100508 0 0.0028435787723124239 -0.0040492735516693646 0 0.0017940726294619401 -0.005044649320686643 0 0.002996117476322183 -0.0028670170591609985 0 0.0028435787723124239 -0.0040492735516693646 0 0.0035874096336959843 -0.0033025547761990209 0 0.0050311614572531036 -0.0034359983724891016 0 0.0043283615873921568 -0.0030627210547200501 0 0.0039922456241522734 -0.0039643555323726383 0 0.0035874096336959843 -0.0033025547761990209 0 0.0043283615873921568 -0.0030627210547200501 0 0.0039922456241522734 -0.0039643555323726383 0 0.0037879402273434436 -0.0025911240549298144 0 0.0035874096336959843 -0.0033025547761990209 0 0.0043283615873921568 -0.0030627210547200501 0 0.0028435787723124239 -0.0040492735516693646 0 0.0035874096336959843 -0.0033025547761990209 0 0.0039922456241522734 -0.0039643555323726383 0 0.0012040028351605013 -0.0028177434920953616 0 0.001331118420709213 -0.0038263091068135866 0 0.00031703977395467435 -0.0033700868551831704 0 0.001331118420709213 -0.0038263091068135866 0 0.00031703977395467435 -0.0033700868551831704 0 0.00036856395424665725 -0.0046443880352577795 0 0.0020616175013139825 -0.0030676736363357661 0 0.001331118420709213 -0.0038263091068135866 0 0.0020448148678169757 -0.0049680529125692161 0 0.0017552214656328361 -0.0031126709819634746 0 0.0018784188604102593 -0.0046246582019509059 0 0.001331118420709213 -0.0038263091068135866 0 0.0020448148678169757 -0.0049680529125692161 0 0.0013545020743159233 -0.005018579377417451 0 0.00069672154051748914 -0.0039942759159414098 0 0.00017601742540675479 -0.0043487374942138115 0 0.001331118420709213 -0.0038263091068135866 0 0.0013545020743159233 -0.005018579377417451 0 0.00082777127209249007 -0.0053147391103413712 0 0.0012768641364719769 -0.005726405982994928 0 0.0010789637348348553 -0.0057514218675287516 0 0.00082777127209249007 -0.0053147391103413712 0 0.0013545020743159233 -0.005018579377417451 0 0.0012768641364719769 -0.005726405982994928 0 0.00082777127209249007 -0.0053147391103413712 0 0.0015361447966464859 -0.0060960452326954554 0 0.0020448148678169757 -0.0049680529125692161 0 0.0012768641364719769 -0.005726405982994928 0 0.0020448148678169757 -0.0049680529125692161 0 0.0013545020743159233 -0.005018579377417451 0 0.0012768641364719769 -0.005726405982994928 0 0.0012768641364719769 -0.005726405982994928 0 0.0013126175344999056 -0.0060448061471766344 0 0.0012273044127855594 -0.005955454936254787 0 0.0015361447966464859 -0.0060960452326954554 0 0.0012768641364719769 -0.005726405982994928 0 0.0013126175344999056 -0.0060448061471766344 0 0.0012768641364719769 -0.005726405982994928 0 0.0010789637348348553 -0.0057514218675287516 0 0.0012273044127855594 -0.005955454936254787 0 0.0010789637348348553 -0.0057514218675287516 0 0.0011602137762761879 -0.0058475606900046774 0 0.0012273044127855594 -0.005955454936254787 0 -0.00056088725619345148 -0.0056663908068429348 0 -0.0013461369998357337 -0.0045582390303732833 0 0.00036856395424665725 -0.0046443880352577795 0 0.0010789637348348553 -0.0057514218675287516 0 0.0011198142849633632 -0.0058271160824054872 0 0.0011602137762761879 -0.0058475606900046774 0 -0.00089393691939104768 -0.0045104792913738551 0 0.00017601742540675479 -0.0043487374942138115 0 0.0010789637348348553 -0.0057514218675287516 0 0.0011198142849633632 -0.0058271160824054872 0 0.00082777127209249007 -0.0053147391103413712 0 -0.00089393691939104768 -0.0045104792913738551 0 -0.0027691246758774764 -0.003746885281255689 0 -0.00056088725619345148 -0.0056663908068429348 0 -0.0020223950822930289 -0.0058082523112115798 0 -0.0014982219534289368 -0.0067213316380180651 0 -0.0060660067470319897 -0.002161509649824088 0 -0.0051466460916463003 -0.001829110546219376 0 -0.005370134557323711 -0.0032613968699117426 0 -0.0060660067470319897 -0.002161509649824088 0 -0.0051466460916463003 -0.001829110546219376 0 -0.0061480709654259755 -0.0014612092288617332 0 -0.0030647162198103048 -0.0035158501298308198 0 -0.002879778926097002 -0.003271689254898574 0 -0.0020223950822930289 -0.0058082523112115798 0 -0.0013461369998357337 -0.0045582390303732833 0 -0.0025628208491104399 -0.0048807721658187999 0 -0.00056088725619345148 -0.0056663908068429348 0 -0.0020223950822930289 -0.0058082523112115798 0 -0.0013461369998357337 -0.0045582390303732833 0 -0.0013461369998357337 -0.0045582390303732833 0 -0.0021921524527786919 -0.0041355862909088804 0 -0.0025628208491104399 -0.0048807721658187999 0 -0.0013461369998357337 -0.0045582390303732833 0 -0.0021921524527786919 -0.0041355862909088804 0 -0.0017411348749492698 -0.0031619803754240412 0 -0.0021921524527786919 -0.0041355862909088804 0 -0.0017411348749492698 -0.0031619803754240412 0 -0.0031197860050959183 -0.0039267365965865711 0 -0.0024010817075564928 -0.002828167244176419 0 -0.0023786990268075095 -0.0025307242050626125 0 -0.0013461369998357337 -0.0045582390303732833 0 -0.0017411348749492698 -0.0031619803754240412 0 -0.0005978408144677145 -0.003670373877982162 0 -0.0017411348749492698 -0.0031619803754240412 0 -0.0005978408144677145 -0.003670373877982162 0 -0.00062250996941094088 -0.0025764033931206672 0 -0.0005978408144677145 -0.003670373877982162 0 0.00031703977395467435 -0.0033700868551831704 0 -0.00062250996941094088 -0.0025764033931206672 0 -0.0013461369998357337 -0.0045582390303732833 0 -0.0005978408144677145 -0.003670373877982162 0 0.00036856395424665725 -0.0046443880352577795 0 -0.0005978408144677145 -0.003670373877982162 0 0.00031703977395467435 -0.0033700868551831704 0 0.00036856395424665725 -0.0046443880352577795 0 0.00038796459885861941 -0.0016087413820446929 0 0.00054321940324545033 -0.0016281999302308933 0 0.00049908656561881582 -0.0015119100462717913 0 -0.00019070906113529432 -0.0019532813392996794 0 -0.00084916349481134229 -0.0021955162486332544 0 -0.00074913525014405494 -0.0021993708173880236 0 -0.0021277399074700236 -0.0029673148850766795 0 -0.0014382967641319916 -0.0020593794342993773 0 -0.0021277399074700236 -0.0029673148850766795 0 -0.0020285397921317085 -0.0018025055862357085 0 -0.0026721823722601684 -0.0019981804711041232 0 -0.0021277399074700236 -0.0029673148850766795 0 -0.0014382967641319916 -0.0020593794342993773 0 -0.0020285397921317085 -0.0018025055862357085 0 -0.0014382967641319916 -0.0020593794342993773 0 -0.001463714363664986 -0.0014886045098523872 0 -0.0020285397921317085 -0.0018025055862357085 0 -0.001463714363664986 -0.0014886045098523872 0 -0.0020285397921317085 -0.0018025055862357085 0 -0.001825278445719904 -0.0011408172644712953 0 -0.0020285397921317085 -0.0018025055862357085 0 -0.001825278445719904 -0.0011408172644712953 0 -0.0024228680461902468 -0.00126256871138992 0 -0.0020285397921317085 -0.0018025055862357085 0 -0.0026721823722601684 -0.0019981804711041232 0 -0.0024228680461902468 -0.00126256871138992 0 -0.0026721823722601684 -0.0019981804711041232 0 -0.003309744146662076 -0.0015066590554161591 0 -0.0033525275709454633 -0.0026522542719771623 0 -0.0026721823722601684 -0.0019981804711041232 0 -0.003309744146662076 -0.0015066590554161591 0 -0.0024228680461902468 -0.00126256871138992 0 -0.0021277399074700236 -0.0029673148850766795 0 -0.0026721823722601684 -0.0019981804711041232 0 -0.0033525275709454633 -0.0026522542719771623 0 -0.0021277399074700236 -0.0029673148850766795 0 -0.0033525275709454633 -0.0026522542719771623 0 -0.0034202958031100466 -0.0037120869558607212 0 -0.00084916349481134229 -0.0021955162486332544 0 -0.0015339449481732781 -0.0023917688494397541 0 -0.0033525275709454633 -0.0026522542719771623 0 -0.0042938981090183759 -0.0032408679958796935 0 -0.0034202958031100466 -0.0037120869558607212 0 -0.0033525275709454633 -0.0026522542719771623 0 -0.0042938981090183759 -0.0032408679958796935 0 -0.0042323446409669747 -0.0022159465633850902 0 -0.003309744146662076 -0.0015066590554161591 0 -0.0033525275709454633 -0.0026522542719771623 0 -0.0042323446409669747 -0.0022159465633850902 0 -0.003309744146662076 -0.0015066590554161591 0 -0.0042323446409669747 -0.0022159465633850902 0 -0.003970263216286918 -0.00086408373205984989 0 -0.0042323446409669747 -0.0022159465633850902 0 -0.0051466460916463003 -0.001829110546219376 0 -0.003970263216286918 -0.00086408373205984989 0 -0.0042323446409669747 -0.0022159465633850902 0 -0.0051466460916463003 -0.001829110546219376 0 -0.005370134557323711 -0.0032613968699117426 0 -0.0042938981090183759 -0.0032408679958796935 0 -0.0042323446409669747 -0.0022159465633850902 0 -0.005370134557323711 -0.0032613968699117426 0 -0.0021921524527786919 -0.0041355862909088804 0 -0.0025628208491104399 -0.0048807721658187999 0 -0.0031197860050959183 -0.0039267365965865711 0 -0.002879778926097002 -0.003271689254898574 0 -0.0023786990268075095 -0.0025307242050626125 0 -0.0042938981090183759 -0.0032408679958796935 0 -0.005370134557323711 -0.0032613968699117426 0 -0.0046950146586146714 -0.0044181228140264201 0 -0.0029412641745012679 -0.0037660715178971598 0 -0.0035151543456306742 -0.0027411398743056709 0 -0.0027546440867573458 -0.0029899494747859167 0 -0.0017411348749492698 -0.0031619803754240412 0 -0.0029412641745012679 -0.0037660715178971598 0 -0.0027546440867573458 -0.0029899494747859167 0 -0.0023786990268075095 -0.0025307242050626125 0 -0.0014200270279272501 -0.00189572651782278 0 0.0008912412250339475 -0.0014227627457953497 0 0.00070964753679861792 -0.0013418441277564018 0 0.00078502674922895858 -0.001228608884163917 0 0.0008912412250339475 -0.0014227627457953497 0 0.00072200786202738772 -0.0015219858213227722 0 0.00070964753679861792 -0.0013418441277564018 0 -0.0023786990268075095 -0.0025307242050626125 0 -0.0015339449481732781 -0.0023917688494397541 0 -0.0042938981090183759 -0.0032408679958796935 0 -0.0046950146586146714 -0.0044181228140264201 0 -0.0034202958031100466 -0.0037120869558607212 0 0.00072200786202738772 -0.0015219858213227722 0 0.00060108283886235638 -0.001436955876267522 0 0.00070964753679861792 -0.0013418441277564018 0 0.00054321940324545033 -0.0016281999302308933 0 0.00072200786202738772 -0.0015219858213227722 0 0.00060108283886235638 -0.001436955876267522 0 0.00060108283886235638 -0.001436955876267522 0 0.00070964753679861792 -0.0013418441277564018 0 0.00060475616428663618 -0.0012796863040430647 0 0.00060475616428663618 -0.0012796863040430647 0 0.00045340653134868402 -0.0013820984876947327 0 0.00051001033180859284 -0.0011808267874628875 0 0.00056433238814555169 -0.001302533585366901 0 0.00096918339399578498 -0.00075781918513716012 0 0.00057365192472329349 -0.0011052995673826076 0 0.00057784366226930881 -0.001291470099398254 0 0.00073828651256725025 -0.00070101207785055488 0 0.00060108283886235638 -0.001436955876267522 0 0.00060475616428663618 -0.0012796863040430647 0 0.00045340653134868402 -0.0013820984876947327 0 0.0004832385092234235 -0.0015339844231477724 0 0.00057365192472329349 -0.0011052995673826076 0 0.00057784366226930881 -0.001291470099398254 0 0.00060108283886235638 -0.001436955876267522 0 0.00045340653134868402 -0.0013820984876947327 0 0.00049908656561881582 -0.0015119100462717913 0 0.00054321940324545033 -0.0016281999302308933 0 0.00060108283886235638 -0.001436955876267522 0 0.00049908656561881582 -0.0015119100462717913 0 0.00038796459885861941 -0.0016087413820446929 0 0.00045340653134868402 -0.0013820984876947327 0 0.00049908656561881582 -0.0015119100462717913 0 0.0019698854739964959 0.00095938025949115298 0 0.0014689987719829882 0.0012767453594196654 0 0.0015285543718527666 0.0015742898766111402 0 0.00057374065615159355 -0.0010684046865104277 0 0.00059178336662922613 -0.0010669705602689432 0 0.00060093432650449631 -0.00099521313526209536 0 0.00059178336662922613 -0.0010669705602689432 0 0.00054938896302052448 -0.0011695798315254759 0 0.0006547079593777047 -0.0011754558404779146 0 0.0010076895289711418 -0.0007552908323627687 0 0.0010710449950988611 -0.00061590938532776513 0 0.00059178336662922613 -0.0010669705602689432 0 0.00056847211403470278 -0.0011049463831414195 0 0.00057786024434535257 -0.0011178488060275403 0 0.00057374065615159355 -0.0010684046865104277 0 0.00059178336662922613 -0.0010669705602689432 0 0.00056847211403470278 -0.0011049463831414195 0 0.0015668992268091423 -0.00021379535673671108 0 0.001238631983973697 -0.000424926483911635 0 0.0010034496698816963 -0.00094432073814429678 0 0.0010720768063807924 -0.00060573536448317513 0 0.0010979323866180991 -0.00070823706125692576 0 0.00077888844800293622 -0.0010085500750554581 0 0.001238631983973697 -0.000424926483911635 0 0.0010720768063807924 -0.00060573536448317513 0 0.0010979323866180991 -0.00070823706125692576 0 0.0011104696342353175 -0.00066081895598805952 0 0.001238631983973697 -0.000424926483911635 0 0.0010710449950988611 -0.00061590938532776513 0 0.00096918339399578498 -0.00075781918513716012 0 0.0010710449950988611 -0.00061590938532776513 0 0.00077888844800293622 -0.0010085500750554581 0 0.00096918339399578498 -0.00075781918513716012 0 0.00060475616428663618 -0.0012796863040430647 0 0.00051001033180859284 -0.0011808267874628875 0 0.00051768293942050958 -0.0011525899543514278 0 0.0010544926861887956 -0.00072197332857877833 0 0.0010710449950988611 -0.00061590938532776513 0 0.0006547079593777047 -0.0011754558404779146 0 0.00068309587565065105 -0.0010540098470837634 0 0.00078502674922895858 -0.001228608884163917 0 0.00070964753679861792 -0.0013418441277564018 0 0.00060475616428663618 -0.0012796863040430647 0 0.0006547079593777047 -0.0011754558404779146 0 0.00070964753679861792 -0.0013418441277564018 0 0.0006547079593777047 -0.0011754558404779146 0 0.00078502674922895858 -0.001228608884163917 0 0.00060475616428663618 -0.0012796863040430647 0 0.00054938896302052448 -0.0011695798315254759 0 0.0006547079593777047 -0.0011754558404779146 0 0.00059178336662922613 -0.0010669705602689432 0 0.0006547079593777047 -0.0011754558404779146 0 0.00068309587565065105 -0.0010540098470837634 0 0.00059178336662922613 -0.0010669705602689432 0 0.00068309587565065105 -0.0010540098470837634 0 0.00060093432650449631 -0.00099521313526209536 0 -0.00063413731990349617 -0.00096372773297922262 0 -0.0014200270279272501 -0.00189572651782278 0 -0.0040753763452844594 -0.0016826829757510598 0 -0.0033285653055820938 -0.0019594034418081354 0 -0.0030189758921102179 -0.0012355849675348019 0 -0.0040753763452844594 -0.0016826829757510598 0 -0.0033285653055820938 -0.0019594034418081354 0 -0.0035151543456306742 -0.0027411398743056709 0 -0.0033285653055820938 -0.0019594034418081354 0 -0.0035151543456306742 -0.0027411398743056709 0 -0.0027108694533146799 -0.0021759781941296701 0 -0.0035151543456306742 -0.0027411398743056709 0 -0.0027546440867573458 -0.0029899494747859167 0 -0.0027108694533146799 -0.0021759781941296701 0 -0.0027108694533146799 -0.0021759781941296701 0 -0.0030189758921102179 -0.0012355849675348019 0 -0.001777121684937758 -0.0016871723642084774 0 -0.0033285653055820938 -0.0019594034418081354 0 -0.0027108694533146799 -0.0021759781941296701 0 -0.0030189758921102179 -0.0012355849675348019 0 -0.0019203753043993662 -0.0011287586476575382 0 -0.0013141624458933494 -0.00083218099192382809 0 -0.0031689292938124215 -0.00016668905500275016 0 -0.0019757030512830925 -0.00045095595760882373 0 -0.0023059058868841603 0.00054204161828248201 0 -0.0030189758921102179 -0.0012355849675348019 0 -0.0031689292938124215 -0.00016668905500275016 0 -0.0019757030512830925 -0.00045095595760882373 0 -0.0031689292938124215 -0.00016668905500275016 0 -0.0037886461432844213 -0.00082622317033444995 0 -0.0039445363239423437 -0.00022319971213086555 0 -0.0031689292938124215 -0.00016668905500275016 0 -0.0039445363239423437 -0.00022319971213086555 0 -0.0037418832986325164 0.00031801359549818361 0 -0.0040753763452844594 -0.0016826829757510598 0 -0.0030189758921102179 -0.0012355849675348019 0 -0.0037886461432844213 -0.00082622317033444995 0 -0.0030189758921102179 -0.0012355849675348019 0 -0.0031689292938124215 -0.00016668905500275016 0 -0.0037886461432844213 -0.00082622317033444995 0 0.00068309587565065105 -0.0010540098470837634 0 0.00061999825848717521 -0.0009482355616974125 0 0.00060093432650449631 -0.00099521313526209536 0 -0.00063413731990349617 -0.00096372773297922262 0 0.00094740397803652729 -0.00015242254230594254 0 -0.0040753763452844594 -0.0016826829757510598 0 -0.0037886461432844213 -0.00082622317033444995 0 -0.0046458963519418065 -0.00061698282249827887 0 -0.0039445363239423437 -0.00022319971213086555 0 -0.0046458963519418065 -0.00061698282249827887 0 -0.0043393207228006455 0.00016281812099547927 0 -0.0037886461432844213 -0.00082622317033444995 0 -0.0039445363239423437 -0.00022319971213086555 0 -0.0046458963519418065 -0.00061698282249827887 0 0.00059016992327931052 -0.00089489354649202699 0 0.0005983753706798199 -0.00092322378868521504 0 0.00058380312101022672 -0.00095863100292687266 0 0.00094740397803652729 -0.00015242254230594254 0 0.0053402842070006682 -0.0010011014193909702 0 0.00061999825848717521 -0.0009482355616974125 0 0.0005983753706798199 -0.00092322378868521504 0 0.00059965531214632587 -0.00089188154803962981 0 -0.0046458963519418065 -0.00061698282249827887 0 -0.0052194776269508508 0.00044435408024366766 0 -0.0043393207228006455 0.00016281812099547927 0 0.00061999825848717521 -0.0009482355616974125 0 0.0005983753706798199 -0.00092322378868521504 0 0.00058380312101022672 -0.00095863100292687266 0 0.0019698854739964959 0.00095938025949115298 0 0.0014689987719829882 0.0012767453594196654 0 0.0016333036481361049 0.00056094626832439644 0 0.00059017747960923579 -0.0010383728489127679 0 0.00058380312101022672 -0.00095863100292687266 0 0.00060093432650449631 -0.00099521313526209536 0 0.0015668992268091423 -0.00021379535673671108 0 0.0029496151746826764 -0.00025293590927555679 0 0.00061999825848717521 -0.0009482355616974125 0 0.00058380312101022672 -0.00095863100292687266 0 0.00060093432650449631 -0.00099521313526209536 0 0.0015668992268091423 -0.00021379535673671108 0 0.0014672361360022884 -0.0004339251998885322 0 -0.00062250996941094088 -0.0025764033931206672 0 -0.001777121684937758 -0.0016871723642084774 0 -0.00027193925591879387 -0.0012952805717968063 0 0.00063347334592540037 -0.0023055411240895402 0 0.00072678284814185062 -0.0013697520619029996 0 -0.00027193925591879387 -0.0012952805717968063 0 0.00063347334592540037 -0.0023055411240895402 0 -0.00062250996941094088 -0.0025764033931206672 0 -0.00027193925591879387 -0.0012952805717968063 0 0.00063347334592540037 -0.0023055411240895402 0 0.00031703977395467435 -0.0033700868551831704 0 -0.00062250996941094088 -0.0025764033931206672 0 -0.0017411348749492698 -0.0031619803754240412 0 -0.00062250996941094088 -0.0025764033931206672 0 -0.001777121684937758 -0.0016871723642084774 0 -0.0017411348749492698 -0.0031619803754240412 0 -0.0027108694533146799 -0.0021759781941296701 0 -0.001777121684937758 -0.0016871723642084774 0 -0.0017411348749492698 -0.0031619803754240412 0 -0.0027546440867573458 -0.0029899494747859167 0 -0.0027108694533146799 -0.0021759781941296701 0 -0.001777121684937758 -0.0016871723642084774 0 -0.0011602455302723818 -0.00058201286716138016 0 -0.00027193925591879387 -0.0012952805717968063 0 -0.0030189758921102179 -0.0012355849675348019 0 -0.001777121684937758 -0.0016871723642084774 0 -0.0021974503726889909 -0.00038471907658709734 0 -0.001777121684937758 -0.0016871723642084774 0 -0.0021974503726889909 -0.00038471907658709734 0 -0.0011602455302723818 -0.00058201286716138016 0 -0.0013141624458933494 -0.00083218099192382809 0 0.00017579526804761673 -0.00035817498247460672 0 -0.0021974503726889909 -0.00038471907658709734 0 -0.0011602455302723818 -0.00058201286716138016 0 -0.0012759192921262448 0.00050934609198780489 0 -0.0011602455302723818 -0.00058201286716138016 0 -0.00026115321634827949 -3.0592121040884124e-05 0 -0.0012759192921262448 0.00050934609198780489 0 -0.0011602455302723818 -0.00058201286716138016 0 -0.00026115321634827949 -3.0592121040884124e-05 0 -0.00027193925591879387 -0.0012952805717968063 0 0.00067695569124772293 -0.00065018301799248611 0 -0.00026115321634827949 -3.0592121040884124e-05 0 -0.00027193925591879387 -0.0012952805717968063 0 0.00072678284814185062 -0.0013697520619029996 0 0.00067695569124772293 -0.00065018301799248611 0 -0.00027193925591879387 -0.0012952805717968063 0 0.00067695569124772293 -0.00065018301799248611 0 -0.00026115321634827949 -3.0592121040884124e-05 0 0.00084438831617308528 0.00049583997610947871 0 -0.00026115321634827949 -3.0592121040884124e-05 0 -0.00032608991479932039 0.0013521242195757861 0 0.00084438831617308528 0.00049583997610947871 0 0.0031498284575641414 0.00036141554898359699 0 0.0042355423318739 -0.00046772516420269788 0 0.0076123888727011634 -0.0016401329886861044 0 0.0076019673926737202 -0.0016478855889918271 0 0.0077202046491804 -0.0017044016921446933 0 0.0076733494798423294 -0.0016255086477180393 0 0.0076123888727011634 -0.0016401329886861044 0 0.0077202046491804 -0.0017044016921446933 0 0.0076733494798423294 -0.0016255086477180393 0 0.0076123888727011634 -0.0016401329886861044 0 0.0076250685913985608 -0.0016129130823770426 0 0.0075961193110767895 -0.0016223279508646837 0 0.0075986707639690539 -0.0016512663774726529 0 0.0075629264022092878 -0.0016003664267216073 0 0.0076082259323006678 -0.001618305169092554 0 0.0076123888727011634 -0.0016401329886861044 0 0.0076250685913985608 -0.0016129130823770426 0 0.0075961193110767895 -0.0016223279508646837 0 0.0076082259323006678 -0.001618305169092554 0 0.0076123888727011634 -0.0016401329886861044 0 0.0075961193110767895 -0.0016223279508646837 0 0.0076123888727011634 -0.0016401329886861044 0 0.0075986707639690539 -0.0016512663774726529 0 0.003180261857263768 0.00036810267339019732 0 0.0031498284575641414 0.00036141554898359699 0 -0.00026115321634827949 -3.0592121040884124e-05 0 -0.00032608991479932039 0.0013521242195757861 0 -0.0012759192921262448 0.00050934609198780489 0 0.0031498284575641414 0.00036141554898359699 0 0.00017579526804761673 -0.00035817498247460672 0 -0.00095589170614000633 0.00038171893675284274 0 -0.0016291687868257212 0.0011933095691202137 0 -0.0023059058868841603 0.00054204161828248201 0 -0.0019757030512830925 -0.00045095595760882373 0 -0.00095589170614000633 0.00038171893675284274 0 -0.0023059058868841603 0.00054204161828248201 0 -0.0016291687868257212 0.0011933095691202137 0 -0.001126535041052981 0.0021406237565342909 0 -0.0025604792325950214 0.0015675381832053565 0 -0.0016291687868257212 0.0011933095691202137 0 -0.0023059058868841603 0.00054204161828248201 0 -0.0025604792325950214 0.0015675381832053565 0 -0.0016291687868257212 0.0011933095691202137 0 -0.00094468022756032111 0.0012495191199183412 0 -0.001126535041052981 0.0021406237565342909 0 5.6384915189038628e-05 0.0012415042943390397 0 -0.00095589170614000633 0.00038171893675284274 0 -0.00094468022756032111 0.0012495191199183412 0 5.6384915189038628e-05 0.0012415042943390397 0 -0.00094468022756032111 0.0012495191199183412 0 -0.001126535041052981 0.0021406237565342909 0 -0.00095589170614000633 0.00038171893675284274 0 -0.0016291687868257212 0.0011933095691202137 0 -0.00094468022756032111 0.0012495191199183412 0 0.0071942869332997676 -0.00026164097999217031 0 0.0090441272130021826 -0.00025850603119582786 0 0.007484422785457732 -0.001568565258932424 0 0.0075629264022092878 -0.0016003664267216073 0 0.0075672244536414586 -0.0015371458809038607 0 0.014214987784224732 0.0010139643621763876 0 0.01496054943664548 0.00046223126187257344 0 0.0156518396704718 0.00081779636708576757 0 0.014214987784224732 0.0010139643621763876 0 0.015738721438755494 0.0015908432531331303 0 0.0156518396704718 0.00081779636708576757 0 0.0071942869332997676 -0.00026164097999217031 0 0.0070624576551559194 0.00036835480265909516 0 0.0071942869332997676 -0.00026164097999217031 0 0.0089779386193830097 -0.00094572706275196231 0 0.01496054943664548 0.00046223126187257344 0 0.014125777793874073 0.00011382501875752991 0 0.015215359342492402 -0.00036317113213840479 0 0.014246724924285069 0.0010161374432459032 0 0.01496054943664548 0.00046223126187257344 0 0.014125777793874073 0.00011382501875752991 0 0.014246724924285069 0.0010161374432459032 0 0.014125777793874073 0.00011382501875752991 0 0.013405388266771465 0.00069782844385090812 0 0.014125777793874073 0.00011382501875752991 0 0.013405388266771465 0.00069782844385090812 0 0.013143346054165948 -0.00022917600478442781 0 0.012577791381970939 0.0003811391862849637 0 0.013405388266771465 0.00069782844385090812 0 0.013143346054165948 -0.00022917600478442781 0 0.0095724907397324952 -0.00060136783079469964 0 0.0090441272130021826 -0.00025850603119582786 0 0.0095724907397324952 -0.00060136783079469964 0 0.010162787321731259 -0.00084491688572977297 0 0.012473629926449174 0.00050865499197333376 0 0.01227562985251129 -0.00073973178860363116 0 0.011193398280539477 4.9331303408436531e-06 0 0.0095724907397324952 -0.00060136783079469964 0 0.009754281803625222 -0.00056650517584889645 0 0.0076733494798423294 -0.0016255086477180393 0 0.0076311801035924814 -0.0015775224922317354 0 0.0077283398643326487 -0.0016253755405490399 0 0.007646875916348524 -0.0015101024605897238 0 0.0076311801035924814 -0.0015775224922317354 0 0.0077283398643326487 -0.0016253755405490399 0 0.0095724907397324952 -0.00060136783079469964 0 0.0086944909062587616 -0.0012348949658016794 0 0.0076733494798423294 -0.0016255086477180393 0 0.0076311801035924814 -0.0015775224922317354 0 0.0076250685913985608 -0.0016129130823770426 0 0.0076311801035924814 -0.0015775224922317354 0 0.0076250685913985608 -0.0016129130823770426 0 0.0075994758478461445 -0.0015973325542704311 0 0.0031498284575641414 0.00036141554898359699 0 0.0071942869332997676 -0.00026164097999217031 0 0.0075986707639690539 -0.0016512663774726529 0 0.007484422785457732 -0.001568565258932424 0 0.0075629264022092878 -0.0016003664267216073 0 0.0076082259323006678 -0.001618305169092554 0 0.0076250685913985608 -0.0016129130823770426 0 0.0075994758478461445 -0.0015973325542704311 0 0.0075961193110767895 -0.0016223279508646837 0 0.0076082259323006678 -0.001618305169092554 0 0.0075994758478461445 -0.0015973325542704311 0 0.0075961193110767895 -0.0016223279508646837 0 0.0075994758478461445 -0.0015973325542704311 0 0.0075629264022092878 -0.0016003664267216073 0 0.0075994758478461445 -0.0015973325542704311 0 0.0075629264022092878 -0.0016003664267216073 0 0.0075672244536414586 -0.0015371458809038607 0 0.007646875916348524 -0.0015101024605897238 0 0.0076311801035924814 -0.0015775224922317354 0 0.0075672244536414586 -0.0015371458809038607 0 0.0076311801035924814 -0.0015775224922317354 0 0.0075994758478461445 -0.0015973325542704311 0 0.0075672244536414586 -0.0015371458809038607 0 0.019262122266169374 0.0016374268362835558 0 0.018682096434139879 0.0016711412011523521 0 0.018183553918984432 0.0025102847782341076 0 0.008493620612331618 -0.0010409780784716635 0 0.0076058489876788381 -0.00064364367306009914 0 0.018255041976125725 0.0016421339672101143 0 0.018183553918984432 0.0025102847782341076 0 0.017631443683917482 0.0016035952076009898 0 0.018682096434139879 0.0016711412011523521 0 0.018255041976125725 0.0016421339672101143 0 0.01861629128427849 0.0012632334891182668 0 0.018682096434139879 0.0016711412011523521 0 0.018255041976125725 0.0016421339672101143 0 0.018183553918984432 0.0025102847782341076 0 0.0074905810314752682 -0.00052319052615951568 0 0.0069814938091210341 0.00036923243222350795 0 0.0062041893439092116 6.6466759043765271e-05 0 -0.0052194776269508508 0.00044435408024366766 0 -0.0047204521230127744 0.00064642267435002115 0 -0.0043393207228006455 0.00016281812099547927 0 0.0053402842070006682 -0.0010011014193909702 0 0.0076058489876788381 -0.00064364367306009914 0 0.00059016992327931052 -0.00089489354649202699 0 0.0005983753706798199 -0.00092322378868521504 0 0.00059965531214632587 -0.00089188154803962981 0 -0.0043393207228006455 0.00016281812099547927 0 -0.0039319574250489897 0.00098587350455332052 0 -0.0037418832986325164 0.00031801359549818361 0 -0.0047204521230127744 0.00064642267435002115 0 -0.0043393207228006455 0.00016281812099547927 0 -0.0039319574250489897 0.00098587350455332052 0 -0.0039445363239423437 -0.00022319971213086555 0 -0.0043393207228006455 0.00016281812099547927 0 -0.0037418832986325164 0.00031801359549818361 0 0.0076058489876788381 -0.00064364367306009914 0 0.0072707674301005863 5.9437373673203457e-05 0 0.017263488298535391 0.0021580295930419095 0 0.017631443683917482 0.0016035952076009898 0 0.016908644394373375 0.0010709409753439536 0 0.018183553918984432 0.0025102847782341076 0 0.017263488298535391 0.0021580295930419095 0 0.017631443683917482 0.0016035952076009898 0 0.0072707674301005863 5.9437373673203457e-05 0 0.0070624576551559194 0.00036835480265909516 0 -0.0039319574250489897 0.00098587350455332052 0 -0.0031497265463170448 0.00065151513918092349 0 -0.0025604792325950214 0.0015675381832053565 0 0.017263488298535391 0.0021580295930419095 0 0.015738721438755494 0.0015908432531331303 0 0.016908644394373375 0.0010709409753439536 0 -0.0039319574250489897 0.00098587350455332052 0 -0.0031497265463170448 0.00065151513918092349 0 -0.0037418832986325164 0.00031801359549818361 0 -0.0031689292938124215 -0.00016668905500275016 0 -0.0031497265463170448 0.00065151513918092349 0 -0.0037418832986325164 0.00031801359549818361 0 -0.0031689292938124215 -0.00016668905500275016 0 -0.0031497265463170448 0.00065151513918092349 0 -0.0023059058868841603 0.00054204161828248201 0 -0.0031497265463170448 0.00065151513918092349 0 -0.0023059058868841603 0.00054204161828248201 0 -0.0025604792325950214 0.0015675381832053565 0 0.0156518396704718 0.00081779636708576757 0 0.016148283682471412 0.00020523173935887043 0 0.016908644394373375 0.0010709409753439536 0 0.015738721438755494 0.0015908432531331303 0 0.0156518396704718 0.00081779636708576757 0 0.016908644394373375 0.0010709409753439536 0 0.01496054943664548 0.00046223126187257344 0 0.0156518396704718 0.00081779636708576757 0 0.016148283682471412 0.00020523173935887043 0 0.01496054943664548 0.00046223126187257344 0 0.016148283682471412 0.00020523173935887043 0 0.015215359342492402 -0.00036317113213840479 0 0.016148283682471412 0.00020523173935887043 0 0.017032207738780749 0.0002746023644837452 0 0.016908644394373375 0.0010709409753439536 0 0.016148283682471412 0.00020523173935887043 0 0.016568074384435007 -0.00030813855281469534 0 0.016026586323768115 -0.00048268636485707155 0 0.016148283682471412 0.00020523173935887043 0 0.017032207738780749 0.0002746023644837452 0 0.016568074384435007 -0.00030813855281469534 0 0.017032207738780749 0.0002746023644837452 0 0.017230703873455166 -0.00049017106246772399 0 0.016568074384435007 -0.00030813855281469534 0 0.017631443683917482 0.0016035952076009898 0 0.016908644394373375 0.0010709409753439536 0 0.0175115788023141 0.00080069260390813312 0 0.017631443683917482 0.0016035952076009898 0 0.0175115788023141 0.00080069260390813312 0 0.018076630327520552 0.0010995839235343184 0 0.018255041976125725 0.0016421339672101143 0 0.017631443683917482 0.0016035952076009898 0 0.018076630327520552 0.0010995839235343184 0 0.0175115788023141 0.00080069260390813312 0 0.017831869913799519 0.00028787508926285209 0 0.018076630327520552 0.0010995839235343184 0 0.017032207738780749 0.0002746023644837452 0 0.016908644394373375 0.0010709409753439536 0 0.0175115788023141 0.00080069260390813312 0 0.017032207738780749 0.0002746023644837452 0 0.0175115788023141 0.00080069260390813312 0 0.017831869913799519 0.00028787508926285209 0 0.017032207738780749 0.0002746023644837452 0 0.017831869913799519 0.00028787508926285209 0 0.017230703873455166 -0.00049017106246772399 0 0.017831869913799519 0.00028787508926285209 0 0.018406771942230803 0.00012492212700865933 0 0.017992258759530064 -0.00063355629284621664 0 0.017831869913799519 0.00028787508926285209 0 0.018406771942230803 0.00012492212700865933 0 0.018492013374410636 0.00073952814700764275 0 0.018909228960597942 0.00032814093740556689 0 0.018406771942230803 0.00012492212700865933 0 0.01875529253488031 -0.0003334514764203066 0 0.018909228960597942 0.00032814093740556689 0 0.018406771942230803 0.00012492212700865933 0 0.018492013374410636 0.00073952814700764275 0 0.018976171287789639 0.00087110457705467286 0 0.018909228960597942 0.00032814093740556689 0 0.018492013374410636 0.00073952814700764275 0 0.018976171287789639 0.00087110457705467286 0 0.018492013374410636 0.00073952814700764275 0 0.01861629128427849 0.0012632334891182668 0 0.017831869913799519 0.00028787508926285209 0 0.018492013374410636 0.00073952814700764275 0 0.018076630327520552 0.0010995839235343184 0 0.018492013374410636 0.00073952814700764275 0 0.018076630327520552 0.0010995839235343184 0 0.01861629128427849 0.0012632334891182668 0 0.018255041976125725 0.0016421339672101143 0 0.018076630327520552 0.0010995839235343184 0 0.01861629128427849 0.0012632334891182668 0 0.019018253832150538 0.0013034177604591345 0 0.018682096434139879 0.0016711412011523521 0 0.01861629128427849 0.0012632334891182668 0 0.018566189143298557 -0.0012792342016903185 0 0.017992258759530064 -0.00063355629284621664 0 0.017831623963414919 -0.0016105039812640766 0 0.019304392404133446 -0.0017870345103500216 0 0.018566189143298557 -0.0012792342016903185 0 0.01834889454252199 -0.0024800674277231892 0 0.018566189143298557 -0.0012792342016903185 0 0.017831623963414919 -0.0016105039812640766 0 0.01834889454252199 -0.0024800674277231892 0 0.018566189143298557 -0.0012792342016903185 0 0.01875529253488031 -0.0003334514764203066 0 0.017992258759530064 -0.00063355629284621664 0 0.018406771942230803 0.00012492212700865933 0 0.01875529253488031 -0.0003334514764203066 0 0.017992258759530064 -0.00063355629284621664 0 0.017831869913799519 0.00028787508926285209 0 0.017992258759530064 -0.00063355629284621664 0 0.017230703873455166 -0.00049017106246772399 0 0.017992258759530064 -0.00063355629284621664 0 0.017230703873455166 -0.00049017106246772399 0 0.017307466408796008 -0.0011966829095072617 0 0.017831623963414919 -0.0016105039812640766 0 0.017307466408796008 -0.0011966829095072617 0 0.017009463834088225 -0.0023632305699455187 0 0.017992258759530064 -0.00063355629284621664 0 0.017831623963414919 -0.0016105039812640766 0 0.017307466408796008 -0.0011966829095072617 0 0.017396156779166561 -0.00019647187118079944 0 0.016335379524311723 -0.0010563300012216559 0 0.017697015562901305 -0.0017338498441131442 0 0.016824769862426696 -0.0013390804230714723 0 0.0172150326323522 -0.0021590717742163224 0 0.017307466408796008 -0.0011966829095072617 0 0.016650507209628653 -0.001043072423015959 0 0.017009463834088225 -0.0023632305699455187 0 0.017230703873455166 -0.00049017106246772399 0 0.017307466408796008 -0.0011966829095072617 0 0.016650507209628653 -0.001043072423015959 0 0.016950438757245286 -0.0011892145738896802 0 0.016824769862426696 -0.0013390804230714723 0 0.017230703873455166 -0.00049017106246772399 0 0.016568074384435007 -0.00030813855281469534 0 0.016484134978966485 -0.00099371372686748354 0 0.016568074384435007 -0.00030813855281469534 0 0.016484134978966485 -0.00099371372686748354 0 0.016026586323768115 -0.00048268636485707155 0 0.016148283682471412 0.00020523173935887043 0 0.016026586323768115 -0.00048268636485707155 0 0.015215359342492402 -0.00036317113213840479 0 0.016484134978966485 -0.00099371372686748354 0 0.016026586323768115 -0.00048268636485707155 0 0.01578497234493428 -0.00097806968472940819 0 0.016026586323768115 -0.00048268636485707155 0 0.01578497234493428 -0.00097806968472940819 0 0.015215359342492402 -0.00036317113213840479 0 0.016824769862426696 -0.0013390804230714723 0 0.016054362187551924 -0.0016449608354949408 0 0.01578497234493428 -0.00097806968472940819 0 0.015513194466658678 -0.0016794573013399984 0 0.015073873425055151 -0.0010590062995931787 0 0.016484134978966485 -0.00099371372686748354 0 0.01578497234493428 -0.00097806968472940819 0 0.015513194466658678 -0.0016794573013399984 0 0.016335379524311723 -0.0010563300012216559 0 0.01671117762652892 -0.0022914868416511972 0 0.017697015562901305 -0.0017338498441131442 0 0.01671117762652892 -0.0022914868416511972 0 0.017970784114931679 -0.0032581642040608017 0 0.016238624817054507 -0.0034566505071035275 0 0.0172150326323522 -0.0021590717742163224 0 0.017589796095433548 -0.0033587859841878662 0 0.01671117762652892 -0.0022914868416511972 0 0.017697015562901305 -0.0017338498441131442 0 0.017970784114931679 -0.0032581642040608017 0 0.017831623963414919 -0.0016105039812640766 0 0.017009463834088225 -0.0023632305699455187 0 0.01834889454252199 -0.0024800674277231892 0 0.017009463834088225 -0.0023632305699455187 0 0.01834889454252199 -0.0024800674277231892 0 0.017407536186411443 -0.0036331295749495274 0 0.01834889454252199 -0.0024800674277231892 0 0.018946710746931078 -0.003773061928913786 0 0.017407536186411443 -0.0036331295749495274 0 0.019497375109520768 -0.0027418806974495507 0 0.01834889454252199 -0.0024800674277231892 0 0.018946710746931078 -0.003773061928913786 0 0.013439610699932722 -0.0012065553023582227 0 0.013562892368576766 -0.0021841136749146282 0 0.012451479955427013 -0.0018873798681843265 0 0.013439610699932722 -0.0012065553023582227 0 0.01227562985251129 -0.00073973178860363116 0 0.012451479955427013 -0.0018873798681843265 0 0.01227562985251129 -0.00073973178860363116 0 0.012451479955427013 -0.0018873798681843265 0 0.010822512259205712 -0.0015023028762108125 0 0.012473629926449174 0.00050865499197333376 0 0.01227562985251129 -0.00073973178860363116 0 0.013143346054165948 -0.00022917600478442781 0 0.013439610699932722 -0.0012065553023582227 0 0.013143346054165948 -0.00022917600478442781 0 0.013808180544564702 -0.00047574168262588096 0 0.013439610699932722 -0.0012065553023582227 0 0.01227562985251129 -0.00073973178860363116 0 0.013143346054165948 -0.00022917600478442781 0 0.013439610699932722 -0.0012065553023582227 0 0.013808180544564702 -0.00047574168262588096 0 0.014433568759869331 -0.00077653111728177458 0 0.014125777793874073 0.00011382501875752991 0 0.013143346054165948 -0.00022917600478442781 0 0.013808180544564702 -0.00047574168262588096 0 0.014125777793874073 0.00011382501875752991 0 0.013808180544564702 -0.00047574168262588096 0 0.014433568759869331 -0.00077653111728177458 0 0.014125777793874073 0.00011382501875752991 0 0.014433568759869331 -0.00077653111728177458 0 0.015215359342492402 -0.00036317113213840479 0 0.014433568759869331 -0.00077653111728177458 0 0.015215359342492402 -0.00036317113213840479 0 0.015073873425055151 -0.0010590062995931787 0 0.01578497234493428 -0.00097806968472940819 0 0.015215359342492402 -0.00036317113213840479 0 0.015073873425055151 -0.0010590062995931787 0 0.015513194466658678 -0.0016794573013399984 0 0.015073873425055151 -0.0010590062995931787 0 0.01443314950762792 -0.0015520784214023439 0 0.014433568759869331 -0.00077653111728177458 0 0.015073873425055151 -0.0010590062995931787 0 0.01443314950762792 -0.0015520784214023439 0 0.013439610699932722 -0.0012065553023582227 0 0.01443314950762792 -0.0015520784214023439 0 0.013562892368576766 -0.0021841136749146282 0 0.013439610699932722 -0.0012065553023582227 0 0.014433568759869331 -0.00077653111728177458 0 0.01443314950762792 -0.0015520784214023439 0 0.014610390862539385 -0.0023437822448603169 0 0.013925005048885884 -0.0029296121545222369 0 0.013562892368576766 -0.0021841136749146282 0 0.01443314950762792 -0.0015520784214023439 0 0.014610390862539385 -0.0023437822448603169 0 0.013562892368576766 -0.0021841136749146282 0 0.015513194466658678 -0.0016794573013399984 0 0.01443314950762792 -0.0015520784214023439 0 0.014610390862539385 -0.0023437822448603169 0 0.016054362187551924 -0.0016449608354949408 0 0.015210974033952898 -0.0021709743145557972 0 0.016335379524311723 -0.0010563300012216559 0 0.01671117762652892 -0.0022914868416511972 0 0.015235796081193942 -0.0019157669497424585 0 0.01671117762652892 -0.0022914868416511972 0 0.015235796081193942 -0.0019157669497424585 0 0.016238624817054507 -0.0034566505071035275 0 0.015235796081193942 -0.0019157669497424585 0 0.016238624817054507 -0.0034566505071035275 0 0.01495121873855729 -0.0036506601377137059 0 0.015210974033952898 -0.0021709743145557972 0 0.014761031244611511 -0.0024887185903860526 0 0.015235796081193942 -0.0019157669497424585 0 0.013925005048885884 -0.0029296121545222369 0 0.01495121873855729 -0.0036506601377137059 0 0.013925005048885884 -0.0029296121545222369 0 0.013562892368576766 -0.0021841136749146282 0 0.012600282346820849 -0.003054335916215384 0 0.013562892368576766 -0.0021841136749146282 0 0.012451479955427013 -0.0018873798681843265 0 0.012600282346820849 -0.003054335916215384 0 0.012451479955427013 -0.0018873798681843265 0 0.012600282346820849 -0.003054335916215384 0 0.011608286252453711 -0.0024835292548157791 0 0.012600282346820849 -0.003054335916215384 0 0.011168813923071251 -0.003491573755480917 0 0.011608286252453711 -0.0024835292548157791 0 0.011168813923071251 -0.003491573755480917 0 0.010653612849928853 -0.0025206024613562928 0 0.011608286252453711 -0.0024835292548157791 0 0.010228463459907022 -0.0031685287361872855 0 0.0097863957812827779 -0.003764701527508883 0 0.011168813923071251 -0.003491573755480917 0 0.010653612849928853 -0.0025206024613562928 0 0.0099832178187032449 -0.0036674771399362572 0 0.010653612849928853 -0.0025206024613562928 0 0.010822512259205712 -0.0015023028762108125 0 0.01019530972235793 -0.0017230269749900508 0 0.010653612849928853 -0.0025206024613562928 0 0.0097786732591145231 -0.0019467640673502856 0 0.01019530972235793 -0.0017230269749900508 0 0.010653612849928853 -0.0025206024613562928 0 0.011608286252453711 -0.0024835292548157791 0 0.010822512259205712 -0.0015023028762108125 0 0.012451479955427013 -0.0018873798681843265 0 0.011608286252453711 -0.0024835292548157791 0 0.010822512259205712 -0.0015023028762108125 0 0.0093178628803424757 -0.0026740739432101414 0 0.0083048739660378287 -0.003275292738994906 0 0.0088732332624872987 -0.0039767703947863062 0 0.0093178628803424757 -0.0026740739432101414 0 0.0088732332624872987 -0.0039767703947863062 0 0.009687848481037856 -0.0037181374095016464 0 0.010653612849928853 -0.0025206024613562928 0 0.0093178628803424757 -0.0026740739432101414 0 0.009687848481037856 -0.0037181374095016464 0 0.010653612849928853 -0.0025206024613562928 0 0.0097786732591145231 -0.0019467640673502856 0 0.0093178628803424757 -0.0026740739432101414 0 0.0097786732591145231 -0.0019467640673502856 0 0.0093178628803424757 -0.0026740739432101414 0 0.0091819374147577605 -0.0019288420510779954 0 0.0093178628803424757 -0.0026740739432101414 0 0.0085675424327796724 -0.0017502738197113872 0 0.0083048739660378287 -0.003275292738994906 0 0.008008337439867487 -0.0032511686763649545 0 0.0082266657002010961 -0.0038227357268409362 0 0.0093178628803424757 -0.0026740739432101414 0 0.0091819374147577605 -0.0019288420510779954 0 0.0085675424327796724 -0.0017502738197113872 0 0.0079148339278572975 -0.0030461224591806276 0 0.0084266632134899506 -0.0031263682544518147 0 0.008008337439867487 -0.0032511686763649545 0 0.0084266632134899506 -0.0031263682544518147 0 0.0081562175507146339 -0.0032016013133497057 0 0.0081644514651253615 -0.0031634872733008958 0 0.0080951990263308619 -0.0031798242702172548 0 0.0091819374147577605 -0.0019288420510779954 0 0.0085675424327796724 -0.0017502738197113872 0 0.009616654576642316 -0.0014412083667454086 0 0.0079148339278572975 -0.0030461224591806276 0 0.008008337439867487 -0.0032511686763649545 0 0.0071791213156343348 -0.0037256607449107793 0 0.0071492615798282198 -0.0038761440542764104 0 0.0070402621882964403 -0.0037587235581085041 0 0.0093545472211467168 -0.0011551432790577309 0 0.009616654576642316 -0.0014412083667454086 0 0.0095222743895079544 -0.0010474403212705021 0 0.0097786732591145231 -0.0019467640673502856 0 0.0091819374147577605 -0.0019288420510779954 0 0.009616654576642316 -0.0014412083667454086 0 0.0097786732591145231 -0.0019467640673502856 0 0.009616654576642316 -0.0014412083667454086 0 0.01019530972235793 -0.0017230269749900508 0 0.009616654576642316 -0.0014412083667454086 0 0.0095222743895079544 -0.0010474403212705021 0 0.0098866493792797022 -0.0012652561014394842 0 0.009616654576642316 -0.0014412083667454086 0 0.01019530972235793 -0.0017230269749900508 0 0.0098866493792797022 -0.0012652561014394842 0 0.0095222743895079544 -0.0010474403212705021 0 0.0093697937434341835 -0.00117646940437884 0 0.0095127157050213813 -0.001122231658549694 0 0.0095222743895079544 -0.0010474403212705021 0 0.0095980099674037225 -0.0007884269538341698 0 0.0093697937434341835 -0.00117646940437884 0 0.0095222743895079544 -0.0010474403212705021 0 0.0098866493792797022 -0.0012652561014394842 0 0.0095980099674037225 -0.0007884269538341698 0 0.0093545472211467168 -0.0011551432790577309 0 0.0095222743895079544 -0.0010474403212705021 0 0.0095127157050213813 -0.001122231658549694 0 0.0075774773573114556 -0.0038513393882711011 0 0.0076828271556309063 -0.0033688093037770603 0 0.0073289199737763206 -0.0034554595782033425 0 0.0079148339278572975 -0.0030461224591806276 0 0.0082061320192467185 -0.0024679400954823925 0 0.010822512259205712 -0.0015023028762108125 0 0.01019530972235793 -0.0017230269749900508 0 0.0098866493792797022 -0.0012652561014394842 0 0.010822512259205712 -0.0015023028762108125 0 0.0098866493792797022 -0.0012652561014394842 0 0.0095980099674037225 -0.0007884269538341698 0 0.0097180297154955825 -0.00059879768496665044 0 0.009754281803625222 -0.00056650517584889645 0 0.010822512259205712 -0.0015023028762108125 0 0.0095980099674037225 -0.0007884269538341698 0 0.011193398280539477 4.9331303408436531e-06 0 0.01227562985251129 -0.00073973178860363116 0 0.010822512259205712 -0.0015023028762108125 0 0.011193398280539477 4.9331303408436531e-06 0 0.0085304302742569855 -0.0011051766391415084 0 0.0089614967156324155 -0.0014832101039400497 0 0.008558830636995465 -0.001991294702805011 0 0.0079503026461273107 -0.0013340799239117635 0 0.0085304302742569855 -0.0011051766391415084 0 0.008558830636995465 -0.001991294702805011 0 0.0088071822756511098 -0.0018578724253975919 0 0.0089614967156324155 -0.0014832101039400497 0 0.008558830636995465 -0.001991294702805011 0 0.0088071822756511098 -0.0018578724253975919 0 0.0090308829635132089 -0.0016624958133012379 0 0.0088520920363758925 -0.0019692372182824377 0 0.0088071822756511098 -0.0018578724253975919 0 0.0089614967156324155 -0.0014832101039400497 0 0.0090308829635132089 -0.0016624958133012379 0 0.0089614967156324155 -0.0014832101039400497 0 0.0093697937434341835 -0.00117646940437884 0 0.0090308829635132089 -0.0016624958133012379 0 0.0095980099674037225 -0.0007884269538341698 0 0.0085304302742569855 -0.0011051766391415084 0 0.0089614967156324155 -0.0014832101039400497 0 0.0095980099674037225 -0.0007884269538341698 0 0.0089614967156324155 -0.0014832101039400497 0 0.0093697937434341835 -0.00117646940437884 0 0.0093697937434341835 -0.00117646940437884 0 0.0095127157050213813 -0.001122231658549694 0 0.0092820958721157951 -0.0015547350605439308 0 0.0093697937434341835 -0.00117646940437884 0 0.0090308829635132089 -0.0016624958133012379 0 0.0092820958721157951 -0.0015547350605439308 0 0.0076828271556309063 -0.0033688093037770603 0 0.0075680213680014265 -0.0030384884262231282 0 0.0077894154082559022 -0.002885564877904292 0 0.0095127157050213813 -0.001122231658549694 0 0.0094072539888329573 -0.0017079252504013447 0 0.0092820958721157951 -0.0015547350605439308 0 0.0076828271556309063 -0.0033688093037770603 0 0.0073327016210243349 -0.0030791065223544733 0 0.0073289199737763206 -0.0034554595782033425 0 0.0082061320192467185 -0.0024679400954823925 0 0.0082975958074847297 -0.0022502867644869284 0 0.0076828271556309063 -0.0033688093037770603 0 0.0075680213680014265 -0.0030384884262231282 0 0.0073327016210243349 -0.0030791065223544733 0 0.0077894154082559022 -0.002885564877904292 0 0.0074667496005630099 -0.0028202684201977207 0 0.0074450474441275748 -0.0024581234235622937 0 0.0075680213680014265 -0.0030384884262231282 0 0.0074667496005630099 -0.0028202684201977207 0 0.0073327016210243349 -0.0030791065223544733 0 0.0075680213680014265 -0.0030384884262231282 0 0.0077894154082559022 -0.002885564877904292 0 0.0074667496005630099 -0.0028202684201977207 0 0.009264990884576536 -0.0017793932369346785 0 0.008999292636164927 -0.0018673344332460499 0 0.0085030389034863943 -0.0022153055935734247 0 0.0090308829635132089 -0.0016624958133012379 0 0.0092820958721157951 -0.0015547350605439308 0 0.008999292636164927 -0.0018673344332460499 0 0.009264990884576536 -0.0017793932369346785 0 0.0092820958721157951 -0.0015547350605439308 0 0.008999292636164927 -0.0018673344332460499 0 0.0082975958074847297 -0.0022502867644869284 0 0.0083148712765351174 -0.0022364477462374719 0 0.0090308829635132089 -0.0016624958133012379 0 0.008999292636164927 -0.0018673344332460499 0 0.0088520920363758925 -0.0019692372182824377 0 0.0082975958074847297 -0.0022502867644869284 0 0.0083490279410876611 -0.0021530632056894886 0 0.0085030389034863943 -0.0022153055935734247 0 0.0081567476931755575 -0.0020750966334057955 0 0.008742750694950098 -0.0020811427245332995 0 0.0088520920363758925 -0.0019692372182824377 0 0.0085030389034863943 -0.0022153055935734247 0 0.008742750694950098 -0.0020811427245332995 0 0.008999292636164927 -0.0018673344332460499 0 0.0088520920363758925 -0.0019692372182824377 0 0.0085030389034863943 -0.0022153055935734247 0 0.0083712268112321082 -0.0028270710907939639 0 0.0085030389034863943 -0.0022153055935734247 0 0.0078040567182685308 -0.0022632014703881779 0 0.0082975958074847297 -0.0022502867644869284 0 0.0078208212016565703 -0.0021358682500711751 0 0.0085030389034863943 -0.0022153055935734247 0 0.0081567476931755575 -0.0020750966334057955 0 0.0078040567182685308 -0.0022632014703881779 0 0.0071965758413576816 -0.0017134088736755965 0 0.0074630406821832567 -0.0018915069156008157 0 0.0076016010391294943 -0.0016673242388813899 0 0.0081567476931755575 -0.0020750966334057955 0 0.0077178268903994309 -0.0020029143206260411 0 0.0081567476931755575 -0.0020750966334057955 0 0.0077178268903994309 -0.0020029143206260411 0 0.0078040567182685308 -0.0022632014703881779 0 0.0075466414373140953 -0.0016516195518509556 0 0.0081567476931755575 -0.0020750966334057955 0 0.0086786209546338838 -0.0020387555372467516 0 0.0081567476931755575 -0.0020750966334057955 0 0.0086786209546338838 -0.0020387555372467516 0 0.008742750694950098 -0.0020811427245332995 0 0.0077672370930627404 -0.0016464045518601257 0 0.0077540781468472967 -0.0017130357963554897 0 0.0077202046491804 -0.0017044016921446933 0 0.0077540781468472967 -0.0017130357963554897 0 0.0077202046491804 -0.0017044016921446933 0 0.0077283398643326487 -0.0016253755405490399 0 0.0076733494798423294 -0.0016255086477180393 0 0.0077202046491804 -0.0017044016921446933 0 0.0077283398643326487 -0.0016253755405490399 0 0.0086786209546338838 -0.0020387555372467516 0 0.008558830636995465 -0.001991294702805011 0 0.008742750694950098 -0.0020811427245332995 0 0.0088071822756511098 -0.0018578724253975919 0 0.008558830636995465 -0.001991294702805011 0 0.008742750694950098 -0.0020811427245332995 0 0.0083804218466762958 -0.0015697003789178661 0 0.0086944909062587616 -0.0012348949658016794 0 0.0088071822756511098 -0.0018578724253975919 0 0.0088520920363758925 -0.0019692372182824377 0 0.008742750694950098 -0.0020811427245332995 0 0.0064488966738522422 -0.002442781530813681 0 0.0067003323630056601 -0.0025951068566835698 0 0.0065252484592337031 -0.00283589144962573 0 0.0064488966738522422 -0.002442781530813681 0 0.0067070822623830325 -0.0021857341017594936 0 0.0067003323630056601 -0.0025951068566835698 0 0.0064488966738522422 -0.002442781530813681 0 0.006267333842978607 -0.0026421554427555885 0 0.0065252484592337031 -0.00283589144962573 0 0.0061158548662300369 -0.0023475902910432014 0 0.0060041817545146096 -0.0027521508019471806 0 0.0058275264701452617 -0.0025112872890872633 0 0.006267333842978607 -0.0026421554427555885 0 0.0061158548662300369 -0.0023475902910432014 0 0.0060041817545146096 -0.0027521508019471806 0 0.0064488966738522422 -0.002442781530813681 0 0.006267333842978607 -0.0026421554427555885 0 0.0061158548662300369 -0.0023475902910432014 0 0.0062591261683292701 -0.0019185431317085499 0 0.0061158548662300369 -0.0023475902910432014 0 0.0058064335032400145 -0.0020065163149194029 0 0.0061158548662300369 -0.0023475902910432014 0 0.0058064335032400145 -0.0020065163149194029 0 0.0058275264701452617 -0.0025112872890872633 0 0.0062591261683292701 -0.0019185431317085499 0 0.0061158548662300369 -0.0023475902910432014 0 0.00643145615743253 -0.0021777931686873349 0 0.0062591261683292701 -0.0019185431317085499 0 0.0065756912275823313 -0.0018861848340805459 0 0.00643145615743253 -0.0021777931686873349 0 0.0064488966738522422 -0.002442781530813681 0 0.0061158548662300369 -0.0023475902910432014 0 0.00643145615743253 -0.0021777931686873349 0 0.0064488966738522422 -0.002442781530813681 0 0.00643145615743253 -0.0021777931686873349 0 0.0067070822623830325 -0.0021857341017594936 0 0.0065756912275823313 -0.0018861848340805459 0 0.0068045980594038076 -0.0019609260006149191 0 0.0067070822623830325 -0.0021857341017594936 0 0.0065756912275823313 -0.0018861848340805459 0 0.00643145615743253 -0.0021777931686873349 0 0.0067070822623830325 -0.0021857341017594936 0 0.0068045980594038076 -0.0019609260006149191 0 0.0067070822623830325 -0.0021857341017594936 0 0.0070939544143895214 -0.0020191296179708201 0 0.0067070822623830325 -0.0021857341017594936 0 0.0070939544143895214 -0.0020191296179708201 0 0.0069724265899707757 -0.0024662057301809608 0 0.0074079913325539922 -0.0018795473877807546 0 0.0078208212016565703 -0.0021358682500711751 0 0.0070939544143895214 -0.0020191296179708201 0 0.0074450474441275748 -0.0024581234235622937 0 0.0069724265899707757 -0.0024662057301809608 0 0.0077178268903994309 -0.0020029143206260411 0 0.0072993896410696773 -0.0019760849734364763 0 0.0078040567182685308 -0.0022632014703881779 0 0.0076016010391294943 -0.0016673242388813899 0 0.0077178268903994309 -0.0020029143206260411 0 0.0072993896410696773 -0.0019760849734364763 0 0.0074450474441275748 -0.0024581234235622937 0 0.0069724265899707757 -0.0024662057301809608 0 0.0072069093553595509 -0.0027233544528469811 0 0.0074667496005630099 -0.0028202684201977207 0 0.0074450474441275748 -0.0024581234235622937 0 0.0072069093553595509 -0.0027233544528469811 0 0.0067003323630056601 -0.0025951068566835698 0 0.0069724265899707757 -0.0024662057301809608 0 0.0069288306018172145 -0.0028951621659842842 0 0.0067070822623830325 -0.0021857341017594936 0 0.0067003323630056601 -0.0025951068566835698 0 0.0069724265899707757 -0.0024662057301809608 0 0.0069724265899707757 -0.0024662057301809608 0 0.0069288306018172145 -0.0028951621659842842 0 0.0072069093553595509 -0.0027233544528469811 0 0.0067003323630056601 -0.0025951068566835698 0 0.0069288306018172145 -0.0028951621659842842 0 0.0065252484592337031 -0.00283589144962573 0 0.0069288306018172145 -0.0028951621659842842 0 0.0066710454669935935 -0.0031382433227890891 0 0.0065252484592337031 -0.00283589144962573 0 0.0069288306018172145 -0.0028951621659842842 0 0.0072069093553595509 -0.0027233544528469811 0 0.0073327016210243349 -0.0030791065223544733 0 0.0074667496005630099 -0.0028202684201977207 0 0.0072069093553595509 -0.0027233544528469811 0 0.0073327016210243349 -0.0030791065223544733 0 0.0069288306018172145 -0.0028951621659842842 0 0.0073327016210243349 -0.0030791065223544733 0 0.0069878664862014694 -0.0033052388908040224 0 0.0073327016210243349 -0.0030791065223544733 0 0.0069878664862014694 -0.0033052388908040224 0 0.0073289199737763206 -0.0034554595782033425 0 0.0069878664862014694 -0.0033052388908040224 0 0.0066710454669935935 -0.0031382433227890891 0 0.0065435139746563321 -0.0034860116522309986 0 0.0069288306018172145 -0.0028951621659842842 0 0.0069878664862014694 -0.0033052388908040224 0 0.0066710454669935935 -0.0031382433227890891 0 0.0066710454669935935 -0.0031382433227890891 0 0.006311885200796224 -0.0031812323819824938 0 0.0065435139746563321 -0.0034860116522309986 0 0.0065252484592337031 -0.00283589144962573 0 0.0062434575434392337 -0.002892150185251395 0 0.006311885200796224 -0.0031812323819824938 0 0.0066710454669935935 -0.0031382433227890891 0 0.0065252484592337031 -0.00283589144962573 0 0.006311885200796224 -0.0031812323819824938 0 0.006267333842978607 -0.0026421554427555885 0 0.0065252484592337031 -0.00283589144962573 0 0.0062434575434392337 -0.002892150185251395 0 0.0060041817545146096 -0.0027521508019471806 0 0.0059976011067390655 -0.0029879326278046433 0 0.0057352416830060478 -0.0028593251173150308 0 0.0060041817545146096 -0.0027521508019471806 0 0.0062434575434392337 -0.002892150185251395 0 0.0059976011067390655 -0.0029879326278046433 0 0.006267333842978607 -0.0026421554427555885 0 0.0060041817545146096 -0.0027521508019471806 0 0.0062434575434392337 -0.002892150185251395 0 0.0062434575434392337 -0.002892150185251395 0 0.0059976011067390655 -0.0029879326278046433 0 0.006311885200796224 -0.0031812323819824938 0 0.006311885200796224 -0.0031812323819824938 0 0.006089240189775252 -0.0032894371921139177 0 0.0065435139746563321 -0.0034860116522309986 0 0.0065119999898684165 -0.0032083832224608492 0 0.0067379418437538531 -0.003235233714500635 0 0.0050980539083007688 -0.0036170920142577401 0 0.0040173558492946244 -0.003720450267806685 0 0.006311885200796224 -0.0031812323819824938 0 0.006089240189775252 -0.0032894371921139177 0 0.005863637800595344 -0.0031646108849132581 0 0.0059976011067390655 -0.0029879326278046433 0 0.006311885200796224 -0.0031812323819824938 0 0.005719447349376708 -0.0032250384501346886 0 0.006089240189775252 -0.0032894371921139177 0 0.006113026642575404 -0.0034807895594695581 0 0.0065864531467367928 -0.0034631949449365836 0 0.006089240189775252 -0.0032894371921139177 0 0.006113026642575404 -0.0034807895594695581 0 0.0058819765160350338 -0.0034059356255578669 0 0.006113026642575404 -0.0034807895594695581 0 0.006208054230127498 -0.0036514154868186304 0 0.0065864531467367928 -0.0034631949449365836 0 0.006113026642575404 -0.0034807895594695581 0 0.006208054230127498 -0.0036514154868186304 0 0.0058037984371037887 -0.0036069250860878018 0 0.006208054230127498 -0.0036514154868186304 0 0.0064629902556055871 -0.003682455933709472 0 0.0063019252277624217 -0.0038139830894352239 0 0.0065864531467367928 -0.0034631949449365836 0 0.0064629902556055871 -0.003682455933709472 0 0.0066756986563137298 -0.0038418767824548406 0 0.006208054230127498 -0.0036514154868186304 0 0.0065864531467367928 -0.0034631949449365836 0 0.0064629902556055871 -0.003682455933709472 0 0.0064629902556055871 -0.003682455933709472 0 0.0066756986563137298 -0.0038418767824548406 0 0.0063019252277624217 -0.0038139830894352239 0 0.0066756986563137298 -0.0038418767824548406 0 0.0065985196418913792 -0.0038432578186028501 0 0.0066579772698850802 -0.0038785135788319022 0 0.0063656592341741515 -0.0038986690385811123 0 0.006099800016483972 -0.0039647207703984253 0 0.0066756986563137298 -0.0038418767824548406 0 0.0067655471644101767 -0.0039372644946953327 0 0.0066579772698850802 -0.0038785135788319022 0 0.0066756986563137298 -0.0038418767824548406 0 0.0061277286028769201 -0.004058188448812468 0 0.0063019252277624217 -0.0038139830894352239 0 0.006208054230127498 -0.0036514154868186304 0 0.0063019252277624217 -0.0038139830894352239 0 0.0060260676009296736 -0.0038345516578830053 0 0.0061277286028769201 -0.004058188448812468 0 0.0063019252277624217 -0.0038139830894352239 0 0.0060260676009296736 -0.0038345516578830053 0 0.0079148339278572975 -0.0030461224591806276 0 0.0072080969409334551 -0.0032130394500361173 0 0.0075774773573114556 -0.0038513393882711011 0 0.0073289199737763206 -0.0034554595782033425 0 0.0070625867744670114 -0.0036720602882391422 0 0.0071791213156343348 -0.0037256607449107793 0 0.006916497312792356 -0.0036231446916144007 0 0.0070402621882964403 -0.0037587235581085041 0 0.0069878664862014694 -0.0033052388908040224 0 0.0073289199737763206 -0.0034554595782033425 0 0.0070625867744670114 -0.0036720602882391422 0 0.0069878664862014694 -0.0033052388908040224 0 0.0065435139746563321 -0.0034860116522309986 0 0.0070625867744670114 -0.0036720602882391422 0 0.0067379418437538531 -0.003235233714500635 0 0.0072080969409334551 -0.0032130394500361173 0 0.0065864531467367928 -0.0034631949449365836 0 0.0066756986563137298 -0.0038418767824548406 0 0.006916497312792356 -0.0036231446916144007 0 0.0066756986563137298 -0.0038418767824548406 0 0.0069172068275422756 -0.0038148271646654438 0 0.0067655471644101767 -0.0039372644946953327 0 0.0066756986563137298 -0.0038418767824548406 0 0.006916497312792356 -0.0036231446916144007 0 0.0069172068275422756 -0.0038148271646654438 0 0.0071492615798282198 -0.0038761440542764104 0 0.0069172068275422756 -0.0038148271646654438 0 0.0067655471644101767 -0.0039372644946953327 0 0.0071492615798282198 -0.0038761440542764104 0 0.0069172068275422756 -0.0038148271646654438 0 0.0070402621882964403 -0.0037587235581085041 0 0.006916497312792356 -0.0036231446916144007 0 0.0069172068275422756 -0.0038148271646654438 0 0.0070402621882964403 -0.0037587235581085041 0 0.0075819250122912095 -0.0036907512550756793 0 0.0073883578161759141 -0.0038895324286879326 0 0.0074788156581526433 -0.0041493071432777209 0 0.0075819250122912095 -0.0036907512550756793 0 0.0073883578161759141 -0.0038895324286879326 0 0.0071266428497893126 -0.0037972330828555338 0 0.008008337439867487 -0.0032511686763649545 0 0.00707525426894259 -0.0036582335201140819 0 0.0073883578161759141 -0.0038895324286879326 0 0.0071266428497893126 -0.0037972330828555338 0 0.0072217177600940362 -0.0040603768112985493 0 0.0071266428497893126 -0.0037972330828555338 0 0.0072217177600940362 -0.0040603768112985493 0 0.0069548426624811786 -0.0041063081295420484 0 0.0072217177600940362 -0.0040603768112985493 0 0.0069548426624811786 -0.0041063081295420484 0 0.0071555202379112344 -0.0043503931123513332 0 0.0072217177600940362 -0.0040603768112985493 0 0.0074788156581526433 -0.0041493071432777209 0 0.0071555202379112344 -0.0043503931123513332 0 0.0073883578161759141 -0.0038895324286879326 0 0.0072217177600940362 -0.0040603768112985493 0 0.0074788156581526433 -0.0041493071432777209 0 0.0066397268742313048 -0.0039268933913502264 0 0.0065004798171659096 -0.003932135797796151 0 0.0065408112656406064 -0.0040767707472824976 0 0.0065985196418913792 -0.0038432578186028501 0 0.0066397268742313048 -0.0039268933913502264 0 0.0065004798171659096 -0.003932135797796151 0 0.0065985196418913792 -0.0038432578186028501 0 0.0066397268742313048 -0.0039268933913502264 0 0.0066579772698850802 -0.0038785135788319022 0 0.0067655471644101767 -0.0039372644946953327 0 0.0066397268742313048 -0.0039268933913502264 0 0.0066579772698850802 -0.0038785135788319022 0 0.00707525426894259 -0.0036582335201140819 0 0.0068277343286743267 -0.0037642902685193513 0 0.0071266428497893126 -0.0037972330828555338 0 0.0066397268742313048 -0.0039268933913502264 0 0.0069548426624811786 -0.0041063081295420484 0 0.0066397268742313048 -0.0039268933913502264 0 0.0069548426624811786 -0.0041063081295420484 0 0.0067209797689601926 -0.0041370001116472314 0 0.0069548426624811786 -0.0041063081295420484 0 0.0067209797689601926 -0.0041370001116472314 0 0.0068459799766625992 -0.0043816277694058905 0 0.0066397268742313048 -0.0039268933913502264 0 0.0067209797689601926 -0.0041370001116472314 0 0.0065408112656406064 -0.0040767707472824976 0 0.0067209797689601926 -0.0041370001116472314 0 0.0066085608895586076 -0.0042698890424941113 0 0.0065408112656406064 -0.0040767707472824976 0 0.0066085608895586076 -0.0042698890424941113 0 0.0068459799766625992 -0.0043816277694058905 0 0.006595934772234145 -0.0045214538985525292 0 0.0067209797689601926 -0.0041370001116472314 0 0.0066085608895586076 -0.0042698890424941113 0 0.0068459799766625992 -0.0043816277694058905 0 0.0068459799766625992 -0.0043816277694058905 0 0.0069784549210699957 -0.0045770105838508811 0 0.0071555202379112344 -0.0043503931123513332 0 0.0069548426624811786 -0.0041063081295420484 0 0.0068459799766625992 -0.0043816277694058905 0 0.0071555202379112344 -0.0043503931123513332 0 0.0068459799766625992 -0.0043816277694058905 0 0.0069784549210699957 -0.0045770105838508811 0 0.006817137285593672 -0.0046567512181659105 0 0.0069784549210699957 -0.0045770105838508811 0 0.006817137285593672 -0.0046567512181659105 0 0.0070513760882183777 -0.0047439379463516743 0 0.006817137285593672 -0.0046567512181659105 0 0.006595934772234145 -0.0045214538985525292 0 0.0066062720395567501 -0.0048625132960075663 0 0.0068459799766625992 -0.0043816277694058905 0 0.006817137285593672 -0.0046567512181659105 0 0.006595934772234145 -0.0045214538985525292 0 0.006817137285593672 -0.0046567512181659105 0 0.0066062720395567501 -0.0048625132960075663 0 0.0068930588828931653 -0.0048795961073397169 0 0.006817137285593672 -0.0046567512181659105 0 0.0068930588828931653 -0.0048795961073397169 0 0.0070513760882183777 -0.0047439379463516743 0 0.0068930588828931653 -0.0048795961073397169 0 0.0070742451237890457 -0.0049773100332427059 0 0.0070513760882183777 -0.0047439379463516743 0 0.0068930588828931653 -0.0048795961073397169 0 0.0069155943667803593 -0.0051562229703776691 0 0.0070742451237890457 -0.0049773100332427059 0 0.0069155943667803593 -0.0051562229703776691 0 0.0071280737625102446 -0.0051500214387051827 0 0.0070742451237890457 -0.0049773100332427059 0 0.017896863369717655 0.00070683953676170942 0 0.017580982657197177 0.0010161389454494997 0 0.018016243385568211 0.0010356972532321236 0 0.0066062720395567501 -0.0048625132960075663 0 0.0068930588828931653 -0.0048795961073397169 0 0.0069155943667803593 -0.0051562229703776691 0 0.012254196733958828 -0.0021455751588443455 0 0.012379899038672867 -0.002350044607661039 0 0.0082330744334629825 -0.0063045997365879392 0 0.0079285982795963862 -0.006250938220799784 0 0.0081710952491675544 -0.0059981206369710584 0 0.008714488220955623 -0.0060993495705426058 0 0.0084766669463356061 -0.0064907904375286953 0 0.00890660044900554 -0.006532529384838553 0 0.0082330744334629825 -0.0063045997365879392 0 0.008714488220955623 -0.0060993495705426058 0 0.0084766669463356061 -0.0064907904375286953 0 0.0082330744334629825 -0.0063045997365879392 0 0.0081710952491675544 -0.0059981206369710584 0 0.008714488220955623 -0.0060993495705426058 0 0.0084766669463356061 -0.0064907904375286953 0 0.00890660044900554 -0.006532529384838553 0 0.0084731027258484679 -0.006893607272549296 0 0.0082330744334629825 -0.0063045997365879392 0 0.0079285982795963862 -0.006250938220799784 0 0.008099844001976348 -0.0066815076299107708 0 0.0084766669463356061 -0.0064907904375286953 0 0.008099844001976348 -0.0066815076299107708 0 0.0084731027258484679 -0.006893607272549296 0 0.0082330744334629825 -0.0063045997365879392 0 0.0084766669463356061 -0.0064907904375286953 0 0.008099844001976348 -0.0066815076299107708 0 0.0072976585473216032 -0.0050211016810337199 0 0.0071280737625102446 -0.0051500214387051827 0 0.0070742451237890457 -0.0049773100332427059 0 0.0072976585473216032 -0.0050211016810337199 0 0.0070742451237890457 -0.0049773100332427059 0 0.0071703179143713441 -0.0048618711880858163 0 0.0070742451237890457 -0.0049773100332427059 0 0.0071703179143713441 -0.0048618711880858163 0 0.0070513760882183777 -0.0047439379463516743 0 0.0072976585473216032 -0.0050211016810337199 0 0.0071703179143713441 -0.0048618711880858163 0 0.0072259023402905138 -0.0047461775697771828 0 0.0071703179143713441 -0.0048618711880858163 0 0.0070513760882183777 -0.0047439379463516743 0 0.0072259023402905138 -0.0047461775697771828 0 0.0072976585473216032 -0.0050211016810337199 0 0.0072259023402905138 -0.0047461775697771828 0 0.0073808379776057016 -0.0045926204457709769 0 0.0098305190475597177 -0.0054851094148718584 0 0.0086430408865555575 -0.004766711949358105 0 0.0081710952491675544 -0.0059981206369710584 0 0.0080980703185554066 -0.0047593035821360012 0 0.0088679281498447449 -0.004839170624762113 0 0.0086053360591886157 -0.0053529518894969612 0 0.0090501814335689924 -0.0047554591155490314 0 0.0079285982795963862 -0.006250938220799784 0 0.0081710952491675544 -0.0059981206369710584 0 0.0080980703185554066 -0.0047593035821360012 0 0.0081710952491675544 -0.0059981206369710584 0 0.008714488220955623 -0.0060993495705426058 0 0.0091432514001169203 -0.0048182936392727072 0 0.0069784549210699957 -0.0045770105838508811 0 0.0071649443565691175 -0.0045939415160078717 0 0.0071555202379112344 -0.0043503931123513332 0 0.0073808379776057016 -0.0045926204457709769 0 0.0071649443565691175 -0.0045939415160078717 0 0.0071555202379112344 -0.0043503931123513332 0 0.0070513760882183777 -0.0047439379463516743 0 0.0072259023402905138 -0.0047461775697771828 0 0.0071649443565691175 -0.0045939415160078717 0 0.0069784549210699957 -0.0045770105838508811 0 0.0070513760882183777 -0.0047439379463516743 0 0.0071649443565691175 -0.0045939415160078717 0 0.0072259023402905138 -0.0047461775697771828 0 0.0073808379776057016 -0.0045926204457709769 0 0.0071649443565691175 -0.0045939415160078717 0 0.0083048739660378287 -0.003275292738994906 0 0.0080980703185554066 -0.0047593035821360012 0 0.0088732332624872987 -0.0039767703947863062 0 0.0082266657002010961 -0.0038227357268409362 0 0.0086430408865555575 -0.004766711949358105 0 0.0074788156581526433 -0.0041493071432777209 0 0.0073808379776057016 -0.0045926204457709769 0 0.0071555202379112344 -0.0043503931123513332 0 0.0088732332624872987 -0.0039767703947863062 0 0.009687848481037856 -0.0037181374095016464 0 0.0088679281498447449 -0.004839170624762113 0 0.0097863957812827779 -0.003764701527508883 0 0.0090501814335689924 -0.0047554591155490314 0 0.0099832178187032449 -0.0036674771399362572 0 0.0099712668136784071 -0.0047373842268596134 0 0.010766578628987824 -0.0044993112442475863 0 0.0099712668136784071 -0.0047373842268596134 0 0.010766578628987824 -0.0044993112442475863 0 0.010288437365538344 -0.0053494349863800403 0 0.0099832178187032449 -0.0036674771399362572 0 0.0099712668136784071 -0.0047373842268596134 0 0.0091432514001169203 -0.0048182936392727072 0 0.0080980703185554066 -0.0047593035821360012 0 0.0088732332624872987 -0.0039767703947863062 0 0.0088679281498447449 -0.004839170624762113 0 0.0099712668136784071 -0.0047373842268596134 0 0.0091432514001169203 -0.0048182936392727072 0 0.0096787207169601666 -0.0053714388996557493 0 0.012600282346820849 -0.003054335916215384 0 0.011168813923071251 -0.003491573755480917 0 0.012016605547158676 -0.00426514981258136 0 0.011168813923071251 -0.003491573755480917 0 0.012016605547158676 -0.00426514981258136 0 0.010766578628987824 -0.0044993112442475863 0 0.011168813923071251 -0.003491573755480917 0 0.0099832178187032449 -0.0036674771399362572 0 0.010766578628987824 -0.0044993112442475863 0 0.010766578628987824 -0.0044993112442475863 0 0.011389544455577463 -0.0055415953959043014 0 0.010288437365538344 -0.0053494349863800403 0 0.012016605547158676 -0.00426514981258136 0 0.011389544455577463 -0.0055415953959043014 0 0.012571260670394404 -0.0053664732937742819 0 0.012016605547158676 -0.00426514981258136 0 0.010766578628987824 -0.0044993112442475863 0 0.011389544455577463 -0.0055415953959043014 0 0.011389544455577463 -0.0055415953959043014 0 0.012571260670394404 -0.0053664732937742819 0 0.012355900896067282 -0.0067044430573597984 0 0.011389544455577463 -0.0055415953959043014 0 0.010530880711305573 -0.0060406150935666215 0 0.010288437365538344 -0.0053494349863800403 0 0.011041430508849726 -0.0065843446188871236 0 0.010530880711305573 -0.0060406150935666215 0 0.010165652859773383 -0.0065923764242613045 0 0.011041430508849726 -0.0065843446188871236 0 0.010165652859773383 -0.0065923764242613045 0 0.010507102501180941 -0.007172151324446159 0 0.011389544455577463 -0.0055415953959043014 0 0.011041430508849726 -0.0065843446188871236 0 0.010530880711305573 -0.0060406150935666215 0 0.011389544455577463 -0.0055415953959043014 0 0.011041430508849726 -0.0065843446188871236 0 0.012355900896067282 -0.0067044430573597984 0 0.008714488220955623 -0.0060993495705426058 0 0.0091432514001169203 -0.0048182936392727072 0 0.0092682668280812536 -0.0059064111075845787 0 0.0091432514001169203 -0.0048182936392727072 0 0.0092682668280812536 -0.0059064111075845787 0 0.0096787207169601666 -0.0053714388996557493 0 0.0092682668280812536 -0.0059064111075845787 0 0.0096787207169601666 -0.0053714388996557493 0 0.0098475419872170646 -0.0060630510392295535 0 0.0099712668136784071 -0.0047373842268596134 0 0.0096787207169601666 -0.0053714388996557493 0 0.010288437365538344 -0.0053494349863800403 0 0.010530880711305573 -0.0060406150935666215 0 0.010288437365538344 -0.0053494349863800403 0 0.0098475419872170646 -0.0060630510392295535 0 0.0096787207169601666 -0.0053714388996557493 0 0.010288437365538344 -0.0053494349863800403 0 0.0098475419872170646 -0.0060630510392295535 0 0.0098475419872170646 -0.0060630510392295535 0 0.010165652859773383 -0.0065923764242613045 0 0.0094442009537003008 -0.0065023168936806141 0 0.010530880711305573 -0.0060406150935666215 0 0.0098475419872170646 -0.0060630510392295535 0 0.010165652859773383 -0.0065923764242613045 0 0.010165652859773383 -0.0065923764242613045 0 0.0094442009537003008 -0.0065023168936806141 0 0.0095713069146713611 -0.0070314198200762939 0 0.0094442009537003008 -0.0065023168936806141 0 0.0091611219322657467 -0.0069046332268758968 0 0.0095713069146713611 -0.0070314198200762939 0 0.0092682668280812536 -0.0059064111075845787 0 0.0098475419872170646 -0.0060630510392295535 0 0.0094442009537003008 -0.0065023168936806141 0 0.0092682668280812536 -0.0059064111075845787 0 0.0094442009537003008 -0.0065023168936806141 0 0.00890660044900554 -0.006532529384838553 0 0.008714488220955623 -0.0060993495705426058 0 0.0092682668280812536 -0.0059064111075845787 0 0.00890660044900554 -0.006532529384838553 0 0.0094442009537003008 -0.0065023168936806141 0 0.00890660044900554 -0.006532529384838553 0 0.0091611219322657467 -0.0069046332268758968 0 0.00890660044900554 -0.006532529384838553 0 0.0088098237879462773 -0.0070196799564059033 0 0.0091611219322657467 -0.0069046332268758968 0 0.0088098237879462773 -0.0070196799564059033 0 0.0091611219322657467 -0.0069046332268758968 0 0.0090765909122062591 -0.0074329978056879957 0 0.0088098237879462773 -0.0070196799564059033 0 0.0090765909122062591 -0.0074329978056879957 0 0.0085512105209407177 -0.00747627126503554 0 0.0090765909122062591 -0.0074329978056879957 0 0.0094788054596017732 -0.0075478032597475512 0 0.0095713069146713611 -0.0070314198200762939 0 0.0091611219322657467 -0.0069046332268758968 0 0.0090765909122062591 -0.0074329978056879957 0 0.0095713069146713611 -0.0070314198200762939 0 0.012214801261714257 -0.0071021219695109866 0 0.012498598566442665 -0.0071061175778395404 0 0.010165652859773383 -0.0065923764242613045 0 0.010507102501180941 -0.007172151324446159 0 0.010140440744572087 -0.0075089852894715294 0 0.010165652859773383 -0.0065923764242613045 0 0.0095713069146713611 -0.0070314198200762939 0 0.0099885584390451854 -0.007560617293620093 0 0.012299949850751455 -0.0072199564252281283 0 0.012498598566442665 -0.0071061175778395404 0 0.0094788054596017732 -0.0075478032597475512 0 0.0095713069146713611 -0.0070314198200762939 0 0.0099885584390451854 -0.007560617293620093 0 0.010507102501180941 -0.007172151324446159 0 0.010313508860007776 -0.0074117023725908541 0 0.010504724893559809 -0.0080020978567053955 0 0.010313508860007776 -0.0074117023725908541 0 0.010504724893559809 -0.0080020978567053955 0 0.01023846823491824 -0.0083592306679666269 0 0.013888198962361131 -0.0063250329867414034 0 0.014349921660266633 -0.0059176656975931186 0 0.014005803605569392 -0.0055677699743469115 0 0.012498598566442665 -0.0071061175778395404 0 0.013850849841870501 -0.0066071342703357345 0 0.0092792127480941303 -0.0081626681556416624 0 0.0085860579441380796 -0.0087661629898294225 0 0.0085896962923246827 -0.0080997441786707352 0 0.012941227139446208 -0.0062497557089279485 0 0.014573099474269834 -0.0043948404026626963 0 0.0090765909122062591 -0.0074329978056879957 0 0.0092792127480941303 -0.0081626681556416624 0 0.0085896962923246827 -0.0080997441786707352 0 0.0094788054596017732 -0.0075478032597475512 0 0.0099885584390451854 -0.007560617293620093 0 0.0092792127480941303 -0.0081626681556416624 0 0.012498598566442665 -0.0071061175778395404 0 0.012941227139446208 -0.0062497557089279485 0 0.0090765909122062591 -0.0074329978056879957 0 0.0094788054596017732 -0.0075478032597475512 0 0.0092792127480941303 -0.0081626681556416624 0 0.011786272213811184 -0.0071534818527286999 0 0.012856006492332941 -0.0064259968657664349 0 0.011041430508849726 -0.0065843446188871236 0 0.011231102743478025 -0.007399271313743825 0 0.012355900896067282 -0.0067044430573597984 0 0.011982178189717786 -0.0069769774224999175 0 0.012618643053710485 -0.0076642125601173077 0 0.01333003793901663 -0.0061343785700628938 0 0.011041430508849726 -0.0065843446188871236 0 0.010507102501180941 -0.007172151324446159 0 0.011231102743478025 -0.007399271313743825 0 0.010504724893559809 -0.0080020978567053955 0 0.011982178189717786 -0.0069769774224999175 0 0.011733901896949088 -0.0081227382483546745 0 0.010507102501180941 -0.007172151324446159 0 0.010504724893559809 -0.0080020978567053955 0 0.011231102743478025 -0.007399271313743825 0 0.011209271100262401 -0.007559387534716122 0 0.011786272213811184 -0.0071534818527286999 0 0.011982178189717786 -0.0069769774224999175 0 0.011733901896949088 -0.0081227382483546745 0 0.012618643053710485 -0.0076642125601173077 0 0.012618643053710485 -0.0076642125601173077 0 0.012805973555871408 -0.0087988990279105946 0 0.01355151640566685 -0.0077251662509659931 0 0.011733901896949088 -0.0081227382483546745 0 0.012805973555871408 -0.0087988990279105946 0 0.011725669748916112 -0.0091284761307614173 0 0.011733901896949088 -0.0081227382483546745 0 0.012618643053710485 -0.0076642125601173077 0 0.012805973555871408 -0.0087988990279105946 0 0.011733901896949088 -0.0081227382483546745 0 0.011725669748916112 -0.0091284761307614173 0 0.010992920008066438 -0.008606601243571944 0 0.010504724893559809 -0.0080020978567053955 0 0.011733901896949088 -0.0081227382483546745 0 0.010992920008066438 -0.008606601243571944 0 0.011725669748916112 -0.0091284761307614173 0 0.010992920008066438 -0.008606601243571944 0 0.010888802741349225 -0.0092421767132577805 0 0.011725669748916112 -0.0091284761307614173 0 0.011534449868278182 -0.010004574677251266 0 0.012573070110439018 -0.0099089927376020698 0 0.011725669748916112 -0.0091284761307614173 0 0.011534449868278182 -0.010004574677251266 0 0.010888802741349225 -0.0092421767132577805 0 0.012805973555871408 -0.0087988990279105946 0 0.012573070110439018 -0.0099089927376020698 0 0.013368284248054902 -0.0097925521274506155 0 0.012805973555871408 -0.0087988990279105946 0 0.011725669748916112 -0.0091284761307614173 0 0.012573070110439018 -0.0099089927376020698 0 0.01432082979100807 -0.0054534757327329682 0 0.014005803605569392 -0.0055677699743469115 0 0.014122398140631019 -0.0048183572498055049 0 0.016039387283105732 -0.004968587862173573 0 0.014573099474269834 -0.0043948404026626963 0 0.01432082979100807 -0.0054534757327329682 0 0.014122398140631019 -0.0048183572498055049 0 0.01480540893993893 -0.0055124946645430202 0 0.014349921660266633 -0.0059176656975931186 0 0.01432082979100807 -0.0054534757327329682 0 0.01480540893993893 -0.0055124946645430202 0 0.014349921660266633 -0.0059176656975931186 0 0.01432082979100807 -0.0054534757327329682 0 0.014005803605569392 -0.0055677699743469115 0 0.013850849841870501 -0.0066071342703357345 0 0.016039387283105732 -0.004968587862173573 0 0.01023846823491824 -0.0083592306679666269 0 0.010888802741349225 -0.0092421767132577805 0 0.010060871469468892 -0.0097035206358446289 0 0.010504724893559809 -0.0080020978567053955 0 0.01023846823491824 -0.0083592306679666269 0 0.010992920008066438 -0.008606601243571944 0 0.01023846823491824 -0.0083592306679666269 0 0.010992920008066438 -0.008606601243571944 0 0.010888802741349225 -0.0092421767132577805 0 0.011534449868278182 -0.010004574677251266 0 0.010888802741349225 -0.0092421767132577805 0 0.010060871469468892 -0.0097035206358446289 0 0.019225540528057614 -0.00223560560265841 0 0.019454968741978579 -0.002231529613243001 0 0.019435854604608803 -0.002445434404921384 0 0.019225540528057614 -0.00223560560265841 0 0.019454968741978579 -0.002231529613243001 0 0.019348313476559045 -0.0021150907806086828 0 0.019454968741978579 -0.002231529613243001 0 0.019435854604608803 -0.002445434404921384 0 0.019581041574724723 -0.0023111179137534146 0 0.019454968741978579 -0.002231529613243001 0 0.019583380273888742 -0.0021746750410936064 0 0.019525158075745855 -0.0020914654165557389 0 0.019454968741978579 -0.002231529613243001 0 0.019581041574724723 -0.0023111179137534146 0 0.019583380273888742 -0.0021746750410936064 0 0.014573099474269834 -0.0043948404026626963 0 0.0164098296478246 -0.0028085440492256219 0 0.014828281944770143 -0.0033289057871405516 0 0.015264486870484748 -0.0034647568413083509 0 0.015303454590855657 -0.0029077316453535516 0 0.019088469626295453 -0.0016722163056464266 0 0.019256585213750916 -0.001640763672806414 0 0.019022473618791141 -0.0019284159499607211 0 0.015264486870484748 -0.0034647568413083509 0 0.015627992893004556 -0.0031809310958856966 0 0.015472431362497045 -0.0038700888456233928 0 0.015264486870484748 -0.0034647568413083509 0 0.015627992893004556 -0.0031809310958856966 0 0.015303454590855657 -0.0029077316453535516 0 0.0164098296478246 -0.0028085440492256219 0 0.017342371255074467 -0.0018342099182968121 0 0.015901140975893104 -0.0023641933910112079 0 0.017342371255074467 -0.0018342099182968121 0 0.015627992893004556 -0.0031809310958856966 0 0.015303454590855657 -0.0029077316453535516 0 0.015785002303520777 -0.0024837845478668488 0 0.019581041574724723 -0.0023111179137534146 0 0.019583380273888742 -0.0021746750410936064 0 0.019701579388086279 -0.0021825275100509551 0 0.019148544232550919 -0.0014316269424345484 0 0.019244666063886418 -0.0014138458691685726 0 0.019293875651974126 -0.0014915403530830174 0 0.019148544232550919 -0.0014316269424345484 0 0.019293875651974126 -0.0014915403530830174 0 0.019256585213750916 -0.001640763672806414 0 0.019293875651974126 -0.0014915403530830174 0 0.019421841817125116 -0.0016106142898326249 0 0.019325753437630686 -0.0013007919948345354 0 0.019088469626295453 -0.0016722163056464266 0 0.019148544232550919 -0.0014316269424345484 0 0.019256585213750916 -0.001640763672806414 0 0.019244666063886418 -0.0014138458691685726 0 0.019293875651974126 -0.0014915403530830174 0 0.019325753437630686 -0.0013007919948345354 0 0.019293875651974126 -0.0014915403530830174 0 0.019421841817125116 -0.0016106142898326249 0 0.019256585213750916 -0.001640763672806414 0 0.019241640690406819 -0.0015525479578329432 0 0.019174365916531315 -0.0014903877737707551 0 0.019475864676301746 -0.0015138130683680783 0 0.019421841817125116 -0.0016106142898326249 0 0.019464085675800172 -0.0014520284724086677 0 0.019506031278652924 -0.0015021334632756072 0 0.019475864676301746 -0.0015138130683680783 0 0.019512384008197291 -0.0015731413776558275 0 0.019475864676301746 -0.0015138130683680783 0 0.019512384008197291 -0.0015731413776558275 0 0.019421841817125116 -0.0016106142898326249 0 0.019512384008197291 -0.0015731413776558275 0 0.019386934913669697 -0.0017355151654132313 0 0.019618483613166187 -0.0015833074851354034 0 0.019512384008197291 -0.0015731413776558275 0 0.019421841817125116 -0.0016106142898326249 0 0.019386934913669697 -0.0017355151654132313 0 0.018145379485604858 -0.00076259448215175863 0 0.019448557669340855 -0.00023300247258434679 0 0.019386934913669697 -0.0017355151654132313 0 0.019256585213750916 -0.001640763672806414 0 0.019022473618791141 -0.0019284159499607211 0 0.019421841817125116 -0.0016106142898326249 0 0.019386934913669697 -0.0017355151654132313 0 0.019256585213750916 -0.001640763672806414 0 0.017709568407175458 0.0015918201047114228 0 0.017534629671782997 0.0013169779249902157 0 0.01726849421613455 0.0013642139738749425 0 0.018145379485604858 -0.00076259448215175863 0 0.013914022673243783 -0.0031737424209877943 0 0.017709568407175458 0.0015918201047114228 0 0.017853997273215658 0.0012914276307838134 0 0.018033198933845283 0.00148788674511689 0 0.017709568407175458 0.0015918201047114228 0 0.017534629671782997 0.0013169779249902157 0 0.017853997273215658 0.0012914276307838134 0 0.017580982657197177 0.0010161389454494997 0 0.017853997273215658 0.0012914276307838134 0 0.018016243385568211 0.0010356972532321236 0 0.012379899038672867 -0.002350044607661039 0 0.013329894617796094 -0.0034882754173302961 0 0.017580982657197177 0.0010161389454494997 0 0.017534629671782997 0.0013169779249902157 0 0.017853997273215658 0.0012914276307838134 0 0.017580982657197177 0.0010161389454494997 0 0.017534629671782997 0.0013169779249902157 0 0.017259486383793182 0.0013224184645124776 0 0.0072976585473216032 -0.0050211016810337199 0 0.0071280737625102446 -0.0051500214387051827 0 0.0072238396603846976 -0.0054452110956649483 0 0.0079285982795963862 -0.006250938220799784 0 0.008099844001976348 -0.0066815076299107708 0 0.0076319967866664232 -0.0078123439082573159 0 0.0098305190475597177 -0.0054851094148718584 0 0.013329894617796094 -0.0034882754173302961 0 0.0069155943667803593 -0.0051562229703776691 0 0.0071280737625102446 -0.0051500214387051827 0 0.0072238396603846976 -0.0054452110956649483 0 0.008099844001976348 -0.0066815076299107708 0 0.0081199802951122894 -0.0070862030391666856 0 0.0076319967866664232 -0.0078123439082573159 0 0.008099844001976348 -0.0066815076299107708 0 0.0081199802951122894 -0.0070862030391666856 0 0.0084731027258484679 -0.006893607272549296 0 0.0081199802951122894 -0.0070862030391666856 0 0.0084731027258484679 -0.006893607272549296 0 0.008365680904857932 -0.0071796472754523848 0 0.0088098237879462773 -0.0070196799564059033 0 0.008365680904857932 -0.0071796472754523848 0 0.0085512105209407177 -0.00747627126503554 0 0.00890660044900554 -0.006532529384838553 0 0.0088098237879462773 -0.0070196799564059033 0 0.0084731027258484679 -0.006893607272549296 0 0.0088098237879462773 -0.0070196799564059033 0 0.0084731027258484679 -0.006893607272549296 0 0.008365680904857932 -0.0071796472754523848 0 0.0081199802951122894 -0.0070862030391666856 0 0.0081520114536634616 -0.0074540959570138562 0 0.0076319967866664232 -0.0078123439082573159 0 0.008365680904857932 -0.0071796472754523848 0 0.0085512105209407177 -0.00747627126503554 0 0.0081520114536634616 -0.0074540959570138562 0 0.0081199802951122894 -0.0070862030391666856 0 0.008365680904857932 -0.0071796472754523848 0 0.0081520114536634616 -0.0074540959570138562 0 0.0085512105209407177 -0.00747627126503554 0 0.0082929179189509799 -0.0076291813448333854 0 0.0081520114536634616 -0.0074540959570138562 0 0.0082929179189509799 -0.0076291813448333854 0 0.0081520114536634616 -0.0074540959570138562 0 0.0080203550864729658 -0.0077352961097802474 0 0.014828281944770143 -0.0033289057871405516 0 0.015264486870484748 -0.0034647568413083509 0 0.015399922815486345 -0.0039070767090648205 0 0.0080203550864729658 -0.0077352961097802474 0 0.0085896962923246827 -0.0080997441786707352 0 0.00771504398512627 -0.0078911158762165669 0 0.014573099474269834 -0.0043948404026626963 0 0.013456800348320669 -0.0035115048602339912 0 0.0082929179189509799 -0.0076291813448333854 0 0.0080203550864729658 -0.0077352961097802474 0 0.0085896962923246827 -0.0080997441786707352 0 0.0085860579441380796 -0.0087661629898294225 0 0.0085896962923246827 -0.0080997441786707352 0 0.00771504398512627 -0.0078911158762165669 0 0.0090765909122062591 -0.0074329978056879957 0 0.0085512105209407177 -0.00747627126503554 0 0.0085896962923246827 -0.0080997441786707352 0 0.0085512105209407177 -0.00747627126503554 0 0.0082929179189509799 -0.0076291813448333854 0 0.0085896962923246827 -0.0080997441786707352 0 0.015264486870484748 -0.0034647568413083509 0 0.015472431362497045 -0.0038700888456233928 0 0.015399922815486345 -0.0039070767090648205 0 0.017534629671782997 0.0013169779249902157 0 0.017259486383793182 0.0013224184645124776 0 0.01726849421613455 0.0013642139738749425 0 0.015901140975893104 -0.0023641933910112079 0 0.013914022673243783 -0.0031737424209877943 0 0.0081520114536634616 -0.0074540959570138562 0 0.0080203550864729658 -0.0077352961097802474 0 0.0076319967866664232 -0.0078123439082573159 0 0.013329894617796094 -0.0034882754173302961 0 0.013456800348320669 -0.0035115048602339912 0 0.013072293639117018 -0.0037318574969547286 0 0.013456800348320669 -0.0035115048602339912 0 0.0080203550864729658 -0.0077352961097802474 0 0.0076319967866664232 -0.0078123439082573159 0 0.0077124023009237288 -0.0078920551335419243 0 0.013329894617796094 -0.0034882754173302961 0 0.013914022673243783 -0.0031737424209877943 0 0.012748773884505174 -0.0027577416566742226 0 0.012074768079859865 -0.0058707513268545734 0 0.014569173296229858 -0.0045977301396673761 0 0.013914022673243783 -0.0031737424209877943 0 0.013456800348320669 -0.0035115048602339912 0 0.019146444098611964 -0.0054673154757635877 0 0.019221534905676903 -0.0061296803336495353 0 0.018928988150174606 -0.0060911368123302894 0 0.018928988150174606 -0.0060911368123302894 0 0.018392892667591924 -0.0058386890316880768 0 0.018788955322550437 -0.0065143545230686968 0 0.019146444098611964 -0.0054673154757635877 0 0.018928988150174606 -0.0060911368123302894 0 0.018392892667591924 -0.0058386890316880768 0 0.019221534905676903 -0.0061296803336495353 0 0.018928988150174606 -0.0060911368123302894 0 0.019083287044657032 -0.0064384914533527019 0 0.018045730461721383 -0.0050226935487142224 0 0.017896311329442718 -0.0044588528363739841 0 0.018392892667591924 -0.0058386890316880768 0 0.018699349618607218 -0.0047100492214906444 0 0.017844986323950176 -0.0048042617929503198 0 0.018392892667591924 -0.0058386890316880768 0 0.01822347476853017 -0.0046384321638267174 0 0.017604596602324406 -0.0055600810167001124 0 0.019146444098611964 -0.0054673154757635877 0 0.018392892667591924 -0.0058386890316880768 0 0.018699349618607218 -0.0047100492214906444 0 0.018699349618607218 -0.0047100492214906444 0 0.018946710746931078 -0.003773061928913786 0 0.017407536186411443 -0.0036331295749495274 0 0.017896311329442718 -0.0044588528363739841 0 0.017589796095433548 -0.0033587859841878662 0 0.018699349618607218 -0.0047100492214906444 0 0.017844986323950176 -0.0048042617929503198 0 0.017407536186411443 -0.0036331295749495274 0 0.01822347476853017 -0.0046384321638267174 0 0.017970784114931679 -0.0032581642040608017 0 0.016903604572284611 -0.0047170492430446635 0 0.017970784114931679 -0.0032581642040608017 0 0.016238624817054507 -0.0034566505071035275 0 0.016903604572284611 -0.0047170492430446635 0 0.016903604572284611 -0.0047170492430446635 0 0.017604596602324406 -0.0055600810167001124 0 0.016649047965357558 -0.0058698504942779261 0 0.017604596602324406 -0.0055600810167001124 0 0.016649047965357558 -0.0058698504942779261 0 0.018255740341770663 -0.0068796284162789823 0 0.018392892667591924 -0.0058386890316880768 0 0.017604596602324406 -0.0055600810167001124 0 0.018255740341770663 -0.0068796284162789823 0 0.01822347476853017 -0.0046384321638267174 0 0.016903604572284611 -0.0047170492430446635 0 0.017604596602324406 -0.0055600810167001124 0 0.016649047965357558 -0.0058698504942779261 0 0.01543574260672039 -0.0060838997170125971 0 0.016560279634479903 -0.006789075111894154 0 0.01543574260672039 -0.0060838997170125971 0 0.014518532172657743 -0.0054140273559166365 0 0.01454259916162229 -0.0068063350914814597 0 0.014548204242967856 -0.0052732740956249529 0 0.013940633668238627 -0.0056940708921457668 0 0.01543574260672039 -0.0060838997170125971 0 0.015325944123455516 -0.0048220235151372574 0 0.014518532172657743 -0.0054140273559166365 0 0.016903604572284611 -0.0047170492430446635 0 0.016649047965357558 -0.0058698504942779261 0 0.015325944123455516 -0.0048220235151372574 0 0.016649047965357558 -0.0058698504942779261 0 0.01543574260672039 -0.0060838997170125971 0 0.015325944123455516 -0.0048220235151372574 0 0.016238624817054507 -0.0034566505071035275 0 0.016903604572284611 -0.0047170492430446635 0 0.015325944123455516 -0.0048220235151372574 0 0.016238624817054507 -0.0034566505071035275 0 0.01495121873855729 -0.0036506601377137059 0 0.015325944123455516 -0.0048220235151372574 0 0.013925005048885884 -0.0029296121545222369 0 0.01495121873855729 -0.0036506601377137059 0 0.013559984779155231 -0.0042928457938459967 0 0.015325944123455516 -0.0048220235151372574 0 0.013559984779155231 -0.0042928457938459967 0 0.013674879134042995 -0.0059265417601971548 0 0.01495121873855729 -0.0036506601377137059 0 0.015325944123455516 -0.0048220235151372574 0 0.013559984779155231 -0.0042928457938459967 0 0.013925005048885884 -0.0029296121545222369 0 0.012600282346820849 -0.003054335916215384 0 0.013559984779155231 -0.0042928457938459967 0 0.012600282346820849 -0.003054335916215384 0 0.012016605547158676 -0.00426514981258136 0 0.013559984779155231 -0.0042928457938459967 0 0.012016605547158676 -0.00426514981258136 0 0.013559984779155231 -0.0042928457938459967 0 0.012571260670394404 -0.0053664732937742819 0 0.012571260670394404 -0.0053664732937742819 0 0.013674879134042995 -0.0059265417601971548 0 0.012355900896067282 -0.0067044430573597984 0 0.013559984779155231 -0.0042928457938459967 0 0.012571260670394404 -0.0053664732937742819 0 0.013674879134042995 -0.0059265417601971548 0 0.014518532172657743 -0.0054140273559166365 0 0.01333003793901663 -0.0061343785700628938 0 0.01454259916162229 -0.0068063350914814597 0 0.013940633668238627 -0.0056940708921457668 0 0.012856006492332941 -0.0064259968657664349 0 0.012618643053710485 -0.0076642125601173077 0 0.01333003793901663 -0.0061343785700628938 0 0.01355151640566685 -0.0077251662509659931 0 0.01333003793901663 -0.0061343785700628938 0 0.01454259916162229 -0.0068063350914814597 0 0.01355151640566685 -0.0077251662509659931 0 0.01454259916162229 -0.0068063350914814597 0 0.01355151640566685 -0.0077251662509659931 0 0.014719701647685155 -0.0080987749299920187 0 0.016749827357864473 -0.0076521815051342383 0 0.017497585985171787 -0.0077294435563191616 0 0.012805973555871408 -0.0087988990279105946 0 0.01355151640566685 -0.0077251662509659931 0 0.013856800218035552 -0.0091186851647572804 0 0.012805973555871408 -0.0087988990279105946 0 0.013856800218035552 -0.0091186851647572804 0 0.013368284248054902 -0.0097925521274506155 0 0.013856800218035552 -0.0091186851647572804 0 0.013368284248054902 -0.0097925521274506155 0 0.014233054449202597 -0.010411302064659046 0 0.017497585985171787 -0.0077294435563191616 0 0.019636432846175916 -0.0068458977348623239 0 0.013872435415805838 -0.0089530868207248673 0 0.014904308344360009 -0.0092983821129291773 0 0.014234547295197452 -0.01013119044171468 0 0.018022858093942162 -0.0083876879345407326 0 0.019636432846175916 -0.0068458977348623239 0 0.014904308344360009 -0.0092983821129291773 0 0.01509318724779714 -0.010015779084072965 0 0.014258013176339597 -0.010124980240231474 0 0.01355151640566685 -0.0077251662509659931 0 0.013872435415805838 -0.0089530868207248673 0 0.014719701647685155 -0.0080987749299920187 0 0.013872435415805838 -0.0089530868207248673 0 0.014719701647685155 -0.0080987749299920187 0 0.014904308344360009 -0.0092983821129291773 0 0.014719701647685155 -0.0080987749299920187 0 0.015467122896281041 -0.0086109375963724921 0 0.014904308344360009 -0.0092983821129291773 0 0.014904308344360009 -0.0092983821129291773 0 0.015873318080968535 -0.0097640345660962389 0 0.01509318724779714 -0.010015779084072965 0 0.015467122896281041 -0.0086109375963724921 0 0.014904308344360009 -0.0092983821129291773 0 0.015873318080968535 -0.0097640345660962389 0 0.015873318080968535 -0.0097640345660962389 0 0.016473333002202478 -0.0085633241169026687 0 0.01693588913774681 -0.0095037472104963477 0 0.015467122896281041 -0.0086109375963724921 0 0.015873318080968535 -0.0097640345660962389 0 0.016473333002202478 -0.0085633241169026687 0 0.015467122896281041 -0.0086109375963724921 0 0.016473333002202478 -0.0085633241169026687 0 0.0157042854538877 -0.007518155763993669 0 0.016473333002202478 -0.0085633241169026687 0 0.0157042854538877 -0.007518155763993669 0 0.016959130967307029 -0.0076395936928493969 0 0.0157042854538877 -0.007518155763993669 0 0.016560279634479903 -0.006789075111894154 0 0.016959130967307029 -0.0076395936928493969 0 0.01454259916162229 -0.0068063350914814597 0 0.014719701647685155 -0.0080987749299920187 0 0.0157042854538877 -0.007518155763993669 0 0.014719701647685155 -0.0080987749299920187 0 0.015467122896281041 -0.0086109375963724921 0 0.0157042854538877 -0.007518155763993669 0 0.01543574260672039 -0.0060838997170125971 0 0.01454259916162229 -0.0068063350914814597 0 0.0157042854538877 -0.007518155763993669 0 0.01543574260672039 -0.0060838997170125971 0 0.0157042854538877 -0.007518155763993669 0 0.016560279634479903 -0.006789075111894154 0 0.016649047965357558 -0.0058698504942779261 0 0.016560279634479903 -0.006789075111894154 0 0.018255740341770663 -0.0068796284162789823 0 0.018793657140134274 -0.0069901696179824344 0 0.018865488623279806 -0.0072012530842201277 0 0.018255740341770663 -0.0068796284162789823 0 0.016959130967307029 -0.0076395936928493969 0 0.017990398876500339 -0.0084546335727588018 0 0.018255740341770663 -0.0068796284162789823 0 0.019412725727280887 -0.0068214546166810242 0 0.018908226954845845 -0.0068417178155804875 0 0.016560279634479903 -0.006789075111894154 0 0.018255740341770663 -0.0068796284162789823 0 0.016959130967307029 -0.0076395936928493969 0 0.016473333002202478 -0.0085633241169026687 0 0.01693588913774681 -0.0095037472104963477 0 0.017990398876500339 -0.0084546335727588018 0 0.016473333002202478 -0.0085633241169026687 0 0.016959130967307029 -0.0076395936928493969 0 0.017990398876500339 -0.0084546335727588018 0 0.01693588913774681 -0.0095037472104963477 0 0.017802533302024626 -0.0097687869513955281 0 0.017990398876500339 -0.0084546335727588018 0 0.019008011448466398 -0.0072955477403339637 0 0.018865488623279806 -0.0072012530842201277 0 0.02057203207713203 -0.0060821917963733924 0 0.019412725727280887 -0.0068214546166810242 0 0.019713500851248407 -0.0063853140908114257 0 0.02057203207713203 -0.0060821917963733924 0 0.019713500851248407 -0.0063853140908114257 0 0.01995801641936934 -0.0057861009065602311 0 0.019412725727280887 -0.0068214546166810242 0 0.019239318678296338 -0.0065994840449989309 0 0.018908226954845845 -0.0068417178155804875 0 0.019412725727280887 -0.0068214546166810242 0 0.019239318678296338 -0.0065994840449989309 0 0.019713500851248407 -0.0063853140908114257 0 0.019239318678296338 -0.0065994840449989309 0 0.019713500851248407 -0.0063853140908114257 0 0.019468450276394583 -0.0062621689516640126 0 0.019713500851248407 -0.0063853140908114257 0 0.019468450276394583 -0.0062621689516640126 0 0.01995801641936934 -0.0057861009065602311 0 0.019239318678296338 -0.0065994840449989309 0 0.019468450276394583 -0.0062621689516640126 0 0.01901577648566526 -0.0062113157858842451 0 0.019009164837843793 -0.0065519845484449234 0 0.019239318678296338 -0.0065994840449989309 0 0.01901577648566526 -0.0062113157858842451 0 0.019239318678296338 -0.0065994840449989309 0 0.019031318414915663 -0.0067201403722778053 0 0.018908226954845845 -0.0068417178155804875 0 0.019009164837843793 -0.0065519845484449234 0 0.019239318678296338 -0.0065994840449989309 0 0.019031318414915663 -0.0067201403722778053 0 0.019081229235741928 -0.006630845378523282 0 0.019031318414915663 -0.0067201403722778053 0 0.018976711707168612 -0.0066656448516599666 0 0.019081229235741928 -0.006630845378523282 0 0.018976711707168612 -0.0066656448516599666 0 0.019083287044657032 -0.0064384914533527019 0 0.019031318414915663 -0.0067201403722778053 0 0.018976711707168612 -0.0066656448516599666 0 0.018908226954845845 -0.0068417178155804875 0 0.018255740341770663 -0.0068796284162789823 0 0.018908226954845845 -0.0068417178155804875 0 0.018788955322550437 -0.0065143545230686968 0 0.018976711707168612 -0.0066656448516599666 0 0.018908226954845845 -0.0068417178155804875 0 0.018788955322550437 -0.0065143545230686968 0 0.018392892667591924 -0.0058386890316880768 0 0.018255740341770663 -0.0068796284162789823 0 0.018788955322550437 -0.0065143545230686968 0 0.018928988150174606 -0.0060911368123302894 0 0.018788955322550437 -0.0065143545230686968 0 0.019083287044657032 -0.0064384914533527019 0 0.018976711707168612 -0.0066656448516599666 0 0.018788955322550437 -0.0065143545230686968 0 0.019083287044657032 -0.0064384914533527019 0 0.021990925252907769 -0.00093848107509736096 0 0.021907520200926105 -0.00044577651343255298 0 0.017107715770162495 -0.00019179118458456803 0 0.018437910234015944 -0.0011568040170690896 0 0.019259477522236893 0.00031197579376735613 0 0.018437910234015944 -0.0011568040170690896 0 0.019514491053025704 -0.0012458347549584611 0 0.018879262615418918 -0.002147276718048566 0 0.017107715770162495 -0.00019179118458456803 0 0.018437910234015944 -0.0011568040170690896 0 0.017785207137777256 -0.0014286868643109628 0 0.018437910234015944 -0.0011568040170690896 0 0.019514491053025704 -0.0012458347549584611 0 0.019259477522236893 0.00031197579376735613 0 0.020387317481217488 -0.0006129865024744036 0 0.019514491053025704 -0.0012458347549584611 0 0.019259477522236893 0.00031197579376735613 0 0.020387317481217488 -0.0006129865024744036 0 0.022348921032304469 0.00061451865863006768 0 0.019259477522236893 0.00031197579376735613 0 0.020387317481217488 -0.0006129865024744036 0 0.021419664804155605 -0.0005157117800992471 0 0.022348921032304469 0.00061451865863006768 0 0.021419664804155605 -0.0005157117800992471 0 0.020472795049010128 -0.0014917266847088459 0 0.021129635896871411 -0.0014689049450139823 0 0.020387317481217488 -0.0006129865024744036 0 0.021419664804155605 -0.0005157117800992471 0 0.020472795049010128 -0.0014917266847088459 0 0.020387317481217488 -0.0006129865024744036 0 0.020472795049010128 -0.0014917266847088459 0 0.019514491053025704 -0.0012458347549584611 0 0.020472795049010128 -0.0014917266847088459 0 0.019514491053025704 -0.0012458347549584611 0 0.019680661268152145 -0.002119978303484676 0 0.020472795049010128 -0.0014917266847088459 0 0.019680661268152145 -0.002119978303484676 0 0.020230120091376334 -0.0026395760970579522 0 0.019680661268152145 -0.002119978303484676 0 0.019416313867174385 -0.0030597417140234093 0 0.018879262615418918 -0.002147276718048566 0 0.020472795049010128 -0.0014917266847088459 0 0.020230120091376334 -0.0026395760970579522 0 0.021053046309470091 -0.0021492683513619588 0 0.020472795049010128 -0.0014917266847088459 0 0.021053046309470091 -0.0021492683513619588 0 0.021129635896871411 -0.0014689049450139823 0 0.020230120091376334 -0.0026395760970579522 0 0.019416313867174385 -0.0030597417140234093 0 0.02019172969860546 -0.003837480822973801 0 0.020230120091376334 -0.0026395760970579522 0 0.020964469696088686 -0.0030224247159661463 0 0.021053046309470091 -0.0021492683513619588 0 0.020230120091376334 -0.0026395760970579522 0 0.02019172969860546 -0.003837480822973801 0 0.020964469696088686 -0.0030224247159661463 0 0.019680661268152145 -0.002119978303484676 0 0.020230120091376334 -0.0026395760970579522 0 0.019416313867174385 -0.0030597417140234093 0 0.019416313867174385 -0.0030597417140234093 0 0.018619901586297602 -0.0028649656073263209 0 0.018879262615418918 -0.002147276718048566 0 0.019514491053025704 -0.0012458347549584611 0 0.019680661268152145 -0.002119978303484676 0 0.018879262615418918 -0.002147276718048566 0 0.018619901586297602 -0.0028649656073263209 0 0.018879262615418918 -0.002147276718048566 0 0.018072695338379689 -0.0022064257230133802 0 0.018437910234015944 -0.0011568040170690896 0 0.017785207137777256 -0.0014286868643109628 0 0.018072695338379689 -0.0022064257230133802 0 0.018437910234015944 -0.0011568040170690896 0 0.018879262615418918 -0.002147276718048566 0 0.018072695338379689 -0.0022064257230133802 0 0.017513998360107575 -0.002149889859364729 0 0.017785207137777256 -0.0014286868643109628 0 0.018072695338379689 -0.0022064257230133802 0 0.017389447679106287 -0.0024512898137385593 0 0.018072695338379689 -0.0022064257230133802 0 0.017956797214695577 -0.0029704770781874821 0 0.018619901586297602 -0.0028649656073263209 0 0.018072695338379689 -0.0022064257230133802 0 0.017956797214695577 -0.0029704770781874821 0 0.017527833333191186 -0.0035389653920272794 0 0.017956797214695577 -0.0029704770781874821 0 0.01867460279569437 -0.0037743527516507841 0 0.018619901586297602 -0.0028649656073263209 0 0.017956797214695577 -0.0029704770781874821 0 0.01867460279569437 -0.0037743527516507841 0 0.019416313867174385 -0.0030597417140234093 0 0.018619901586297602 -0.0028649656073263209 0 0.01867460279569437 -0.0037743527516507841 0 0.01840833603335686 -0.0038793466379693628 0 0.018401014797494133 -0.0047068374524794248 0 0.01916300079902768 -0.0049629455059708137 0 0.017680610391597854 -0.0044168183288205674 0 0.01840833603335686 -0.0038793466379693628 0 0.018401014797494133 -0.0047068374524794248 0 0.017680610391597854 -0.0044168183288205674 0 0.018401014797494133 -0.0047068374524794248 0 0.018123265655106979 -0.0057041751979700879 0 0.018401014797494133 -0.0047068374524794248 0 0.018123265655106979 -0.0057041751979700879 0 0.01916300079902768 -0.0049629455059708137 0 0.01895541144049032 -0.005027923477196502 0 0.019368766108590917 -0.0052108100883024007 0 0.018123265655106979 -0.0057041751979700879 0 0.01995801641936934 -0.0057861009065602311 0 0.01916300079902768 -0.0049629455059708137 0 0.019468450276394583 -0.0062621689516640126 0 0.01901577648566526 -0.0062113157858842451 0 0.01995801641936934 -0.0057861009065602311 0 0.01995801641936934 -0.0057861009065602311 0 0.01916300079902768 -0.0049629455059708137 0 0.020394809468812693 -0.0049294645680624128 0 0.019416313867174385 -0.0030597417140234093 0 0.01867460279569437 -0.0037743527516507841 0 0.02019172969860546 -0.003837480822973801 0 0.019166085372355385 -0.0031368791618783085 0 0.019380569020540746 -0.0032303594659978852 0 0.01916300079902768 -0.0049629455059708137 0 0.02019172969860546 -0.003837480822973801 0 0.020394809468812693 -0.0049294645680624128 0 0.01840833603335686 -0.0038793466379693628 0 0.01916300079902768 -0.0049629455059708137 0 0.02019172969860546 -0.003837480822973801 0 0.02019172969860546 -0.003837480822973801 0 0.021656504005647316 -0.0040761070158617978 0 0.020964469696088686 -0.0030224247159661463 0 0.02019172969860546 -0.003837480822973801 0 0.021656504005647316 -0.0040761070158617978 0 0.020394809468812693 -0.0049294645680624128 0 0.021656504005647316 -0.0040761070158617978 0 0.021535054292071806 -0.0025327162029224856 0 0.020964469696088686 -0.0030224247159661463 0 0.017802533302024626 -0.0097687869513955281 0 0.017654333658116594 -0.011051044444732245 0 0.017187007437173055 -0.010316039095222966 0 0.02057203207713203 -0.0060821917963733924 0 0.021656504005647316 -0.0040761070158617978 0 0.020394809468812693 -0.0049294645680624128 0 0.019008011448466398 -0.0072955477403339637 0 0.019094912227046394 -0.0068102297317405597 0 0.02057203207713203 -0.0060821917963733924 0 0.01995801641936934 -0.0057861009065602311 0 0.020394809468812693 -0.0049294645680624128 0 0.01693588913774681 -0.0095037472104963477 0 0.017187007437173055 -0.010316039095222966 0 0.016640432719175126 -0.010285374650741962 0 0.01693588913774681 -0.0095037472104963477 0 0.017802533302024626 -0.0097687869513955281 0 0.017187007437173055 -0.010316039095222966 0 0.017187007437173055 -0.010316039095222966 0 0.016896903613526838 -0.010956143756098434 0 0.016640432719175126 -0.010285374650741962 0 0.017654333658116594 -0.011051044444732245 0 0.017187007437173055 -0.010316039095222966 0 0.016896903613526838 -0.010956143756098434 0 0.017654333658116594 -0.011051044444732245 0 0.016896903613526838 -0.010956143756098434 0 0.017138021781594334 -0.011489166458714641 0 0.016896903613526838 -0.010956143756098434 0 0.017138021781594334 -0.011489166458714641 0 0.016466974933101303 -0.011602588842927225 0 0.017654333658116594 -0.011051044444732245 0 0.017138021781594334 -0.011489166458714641 0 0.017538127667660754 -0.012307459632065254 0 0.023445796752691699 -0.0011324408859482511 0 0.022815334440443036 -0.0011004205683454967 0 0.023791417966056896 -0.0016504112855934804 0 0.019011428399826072 -0.0050445036960055159 0 0.019831436843692932 -0.0061411010602141483 0 0.017138021781594334 -0.011489166458714641 0 0.017538127667660754 -0.012307459632065254 0 0.016466974933101303 -0.011602588842927225 0 0.021656504005647316 -0.0040761070158617978 0 0.021535054292071806 -0.0025327162029224856 0 0.02229341534261654 -0.0018105823731009657 0 0.019094912227046394 -0.0068102297317405597 0 0.019011428399826072 -0.0050445036960055159 0 0.021535054292071806 -0.0025327162029224856 0 0.020964469696088686 -0.0030224247159661463 0 0.021053046309470091 -0.0021492683513619588 0 0.021535054292071806 -0.0025327162029224856 0 0.021053046309470091 -0.0021492683513619588 0 0.021557173962976892 -0.0016740803733653808 0 0.021053046309470091 -0.0021492683513619588 0 0.021557173962976892 -0.0016740803733653808 0 0.021129635896871411 -0.0014689049450139823 0 0.021535054292071806 -0.0025327162029224856 0 0.021557173962976892 -0.0016740803733653808 0 0.02229341534261654 -0.0018105823731009657 0 0.022764501580280459 -0.00076192426314464971 0 0.022374926647976811 -7.2749186081758256e-05 0 0.022549719214337675 0.00048653368187156186 0 0.019011428399826072 -0.0050445036960055159 0 0.019049872511852348 -0.0049070666488259199 0 0.021419664804155605 -0.0005157117800992471 0 0.022739401387900367 -0.0010922218777815473 0 0.022764501580280459 -0.00076192426314464971 0 0.021419664804155605 -0.0005157117800992471 0 0.022764501580280459 -0.00076192426314464971 0 0.022374926647976811 -7.2749186081758256e-05 0 0.021419664804155605 -0.0005157117800992471 0 0.021557173962976892 -0.0016740803733653808 0 0.021129635896871411 -0.0014689049450139823 0 0.019253172589904131 -0.0044205006691174133 0 0.019011428399826072 -0.0050445036960055159 0 0.021419664804155605 -0.0005157117800992471 0 0.021557173962976892 -0.0016740803733653808 0 0.02229341534261654 -0.0018105823731009657 0 0.021419664804155605 -0.0005157117800992471 0 0.022374926647976811 -7.2749186081758256e-05 0 0.022348921032304469 0.00061451865863006768 0 0.02360625006068132 -0.0005007689248010379 0 0.02359742587268859 -0.00023811145488065411 0 0.023445796752691699 -0.0011324408859482511 0 0.023773974316922578 -0.00093094684138430271 0 0.023584751318069645 -0.00076351828150905839 0 0.023445796752691699 -0.0011324408859482511 0 0.022764501580280459 -0.00076192426314464971 0 0.022549719214337675 0.00048653368187156186 0 0.023445796752691699 -0.0011324408859482511 0 0.023584751318069645 -0.00076351828150905839 0 0.023345905220963265 -0.0006859332153250731 0 0.023445796752691699 -0.0011324408859482511 0 0.022815334440443036 -0.0011004205683454967 0 0.022764501580280459 -0.00076192426314464971 0 0.024042965943636516 -0.0010977528083498417 0 0.023773974316922578 -0.00093094684138430271 0 0.023830220441463879 -0.0012720964540881112 0 0.023445796752691699 -0.0011324408859482511 0 0.023773974316922578 -0.00093094684138430271 0 0.023830220441463879 -0.0012720964540881112 0 0.023773974316922578 -0.00093094684138430271 0 0.024004443453407007 -0.00085848049901092146 0 0.023812445257394232 -0.00063231096656555879 0 0.024042965943636516 -0.0010977528083498417 0 0.023773974316922578 -0.00093094684138430271 0 0.024004443453407007 -0.00085848049901092146 0 0.024042965943636516 -0.0010977528083498417 0 0.024004443453407007 -0.00085848049901092146 0 0.024206925629509182 -0.00095167006639840462 0 0.024004443453407007 -0.00085848049901092146 0 0.024206925629509182 -0.00095167006639840462 0 0.024188800179813626 -0.00071072137620455328 0 0.024206925629509182 -0.00095167006639840462 0 0.024495012173382933 -0.00094916127490018759 0 0.024188800179813626 -0.00071072137620455328 0 0.024206925629509182 -0.00095167006639840462 0 0.024331509857459029 -0.0012215629084078613 0 0.024495012173382933 -0.00094916127490018759 0 0.024042965943636516 -0.0010977528083498417 0 0.024206925629509182 -0.00095167006639840462 0 0.024331509857459029 -0.0012215629084078613 0 0.024042965943636516 -0.0010977528083498417 0 0.024331509857459029 -0.0012215629084078613 0 0.024213164377415084 -0.0015078512228175031 0 0.024331509857459029 -0.0012215629084078613 0 0.024213164377415084 -0.0015078512228175031 0 0.024662854490338525 -0.0016235953862034907 0 0.024213164377415084 -0.0015078512228175031 0 0.023830220441463879 -0.0012720964540881112 0 0.023791417966056896 -0.0016504112855934804 0 0.024042965943636516 -0.0010977528083498417 0 0.024213164377415084 -0.0015078512228175031 0 0.023830220441463879 -0.0012720964540881112 0 0.023445796752691699 -0.0011324408859482511 0 0.023830220441463879 -0.0012720964540881112 0 0.023791417966056896 -0.0016504112855934804 0 0.016896903613526838 -0.010956143756098434 0 0.016466974933101303 -0.011602588842927225 0 0.016188809297700377 -0.010806402796818135 0 0.016466974933101303 -0.011602588842927225 0 0.016188809297700377 -0.010806402796818135 0 0.015355761856343178 -0.01087366051543278 0 0.019831436843692932 -0.0061411010602141483 0 0.019756688764304611 -0.0064836317086494587 0 0.015873318080968535 -0.0097640345660962389 0 0.01693588913774681 -0.0095037472104963477 0 0.016640432719175126 -0.010285374650741962 0 0.015873318080968535 -0.0097640345660962389 0 0.016188809297700377 -0.010806402796818135 0 0.016640432719175126 -0.010285374650741962 0 0.015873318080968535 -0.0097640345660962389 0 0.016188809297700377 -0.010806402796818135 0 0.015355761856343178 -0.01087366051543278 0 0.016896903613526838 -0.010956143756098434 0 0.016188809297700377 -0.010806402796818135 0 0.016640432719175126 -0.010285374650741962 0 0.015873318080968535 -0.0097640345660962389 0 0.01509318724779714 -0.010015779084072965 0 0.015355761856343178 -0.01087366051543278 0 0.01509318724779714 -0.010015779084072965 0 0.015355761856343178 -0.01087366051543278 0 0.014258013176339597 -0.010124980240231474 0 0.024213164377415084 -0.0015078512228175031 0 0.024270720644341937 -0.0019612580142784157 0 0.024662854490338525 -0.0016235953862034907 0 0.024213164377415084 -0.0015078512228175031 0 0.023791417966056896 -0.0016504112855934804 0 0.024270720644341937 -0.0019612580142784157 0 0.024270720644341937 -0.0019612580142784157 0 0.024770371775705735 -0.0023254636119831745 0 0.024662854490338525 -0.0016235953862034907 0 0.024668134968214083 -0.0029592142362148944 0 0.025134201595292022 -0.002378356498764226 0 0.024526362610349378 -0.0020099430912886044 0 0.019636432846175916 -0.0068458977348623239 0 0.021977701240652459 -0.0029386935138461141 0 0.019756688764304611 -0.0064836317086494587 0 0.019636432846175916 -0.0068458977348623239 0 0.014233054449202597 -0.010411302064659046 0 0.013280777708857118 -0.010556783204923124 0 0.013437867449748876 -0.011389553484441695 0 0.019636432846175916 -0.0068458977348623239 0 0.019437099024998943 -0.0058255153258933018 0 0.012573070110439018 -0.0099089927376020698 0 0.013368284248054902 -0.0097925521274506155 0 0.013280777708857118 -0.010556783204923124 0 0.013368284248054902 -0.0097925521274506155 0 0.014233054449202597 -0.010411302064659046 0 0.013280777708857118 -0.010556783204923124 0 0.013280777708857118 -0.010556783204923124 0 0.013437867449748876 -0.011389553484441695 0 0.012550807758026777 -0.01102647007378808 0 0.025134201595292022 -0.002378356498764226 0 0.025164647834999207 -0.0019615931669705934 0 0.024526362610349378 -0.0020099430912886044 0 0.025134201595292022 -0.002378356498764226 0 0.025164647834999207 -0.0019615931669705934 0 0.025539984040219947 -0.0018597133353326636 0 0.019437099024998943 -0.0058255153258933018 0 0.019961169851577719 -0.0037445350317794833 0 0.025164647834999207 -0.0019615931669705934 0 0.025267846684684594 -0.0015817212621503608 0 0.025539984040219947 -0.0018597133353326636 0 0.025267846684684594 -0.0015817212621503608 0 0.024883083492330465 -0.0017136254220893648 0 0.024735620196866415 -0.0012973275317082656 0 0.025164647834999207 -0.0019615931669705934 0 0.024883083492330465 -0.0017136254220893648 0 0.024526362610349378 -0.0020099430912886044 0 0.025164647834999207 -0.0019615931669705934 0 0.025267846684684594 -0.0015817212621503608 0 0.024883083492330465 -0.0017136254220893648 0 0.021977701240652459 -0.0029386935138461141 0 0.022974614267835765 -0.0016428903700658388 0 0.024331509857459029 -0.0012215629084078613 0 0.024662854490338525 -0.0016235953862034907 0 0.024495012173382933 -0.00094916127490018759 0 0.024883083492330465 -0.0017136254220893648 0 0.024526362610349378 -0.0020099430912886044 0 0.024735620196866415 -0.0012973275317082656 0 0.024526362610349378 -0.0020099430912886044 0 0.024735620196866415 -0.0012973275317082656 0 0.024400441062504018 -0.0011498580991937679 0 0.024400441062504018 -0.0011498580991937679 0 0.024751335919765607 -0.0010456145025851175 0 0.024516370621935943 -0.00078239274147537548 0 0.024735620196866415 -0.0012973275317082656 0 0.024400441062504018 -0.0011498580991937679 0 0.024751335919765607 -0.0010456145025851175 0 0.021665840302844255 -0.0033633093957685717 0 0.0224158949471382 -0.0031583517067074953 0 0.025221262621566078 -0.0015599768585127841 0 0.024735620196866415 -0.0012973275317082656 0 0.024751335919765607 -0.0010456145025851175 0 0.021665840302844255 -0.0033633093957685717 0 0.022537536998761737 -0.003366876591678101 0 0.025125820201118042 -0.0014532657995899162 0 0.024751335919765607 -0.0010456145025851175 0 0.024987606543851081 -0.0010890899767653645 0 0.025125820201118042 -0.0014532657995899162 0 0.024987606543851081 -0.0010890899767653645 0 0.025379445550180863 -0.0015656277875851215 0 0.022948489934540111 -0.0022095991856046077 0 0.021008581133584441 -0.0028556925100617831 0 0.024776765348802392 -0.00062533246549250276 0 0.024853179651217975 -0.00062525701679187024 0 0.024832934929556773 -0.00057221550278261724 0 0.024776765348802392 -0.00062533246549250276 0 0.02479036247502682 -0.00051995358376679182 0 0.024582808702519436 -0.0005201768367669666 0 0.02479036247502682 -0.00051995358376679182 0 0.024824848138711102 -0.00046058419322632849 0 0.024854681409709173 -0.00051657132155369725 0 0.02479036247502682 -0.00051995358376679182 0 0.024854681409709173 -0.00051657132155369725 0 0.024832934929556773 -0.00057221550278261724 0 0.024776765348802392 -0.00062533246549250276 0 0.02479036247502682 -0.00051995358376679182 0 0.024832934929556773 -0.00057221550278261724 0 0.024751335919765607 -0.0010456145025851175 0 0.024987606543851081 -0.0010890899767653645 0 0.024582808702519436 -0.0005201768367669666 0 0.024751335919765607 -0.0010456145025851175 0 0.024516370621935943 -0.00078239274147537548 0 0.024582808702519436 -0.0005201768367669666 0 0.02479036247502682 -0.00051995358376679182 0 0.024582808702519436 -0.0005201768367669666 0 0.024745769013505434 -0.00044870272269521448 0 0.022948489934540111 -0.0022095991856046077 0 0.023320127278415533 -0.0018397369256238805 0 0.024516370621935943 -0.00078239274147537548 0 0.024582808702519436 -0.0005201768367669666 0 0.024346808590371527 -0.00042117413570158231 0 0.024582808702519436 -0.0005201768367669666 0 0.024745769013505434 -0.00044870272269521448 0 0.024611840345605859 -0.00024213081074146207 0 0.024582808702519436 -0.0005201768367669666 0 0.024611840345605859 -0.00024213081074146207 0 0.024346808590371527 -0.00042117413570158231 0 0.024745769013505434 -0.00044870272269521448 0 0.024611840345605859 -0.00024213081074146207 0 0.02482817164934718 -0.00016546946526913261 0 0.024745769013505434 -0.00044870272269521448 0 0.02482817164934718 -0.00016546946526913261 0 0.025026124029814505 -4.1868822452111806e-05 0 0.024745769013505434 -0.00044870272269521448 0 0.024824848138711102 -0.00046058419322632849 0 0.02484628049724795 -0.00038454429296691511 0 0.02478483007864821 -0.00031209897907851555 0 0.024845595182411764 -0.00021477901681404556 0 0.02479036247502682 -0.00051995358376679182 0 0.024745769013505434 -0.00044870272269521448 0 0.024824848138711102 -0.00046058419322632849 0 0.02482817164934718 -0.00016546946526913261 0 0.024902816348932478 2.9947944598164861e-05 0 0.025026124029814505 -4.1868822452111806e-05 0 0.024999902000115645 5.3380698479287045e-08 0 0.024902816348932478 2.9947944598164861e-05 0 0.024999862923922176 -2.6539807808400942e-08 0 0.024999902000115645 5.3380698479287045e-08 0 0.024902816348932478 2.9947944598164861e-05 0 0.025026124029814505 -4.1868822452111806e-05 0 0.024902816348932478 2.9947944598164861e-05 0 0.024999862923922176 -2.6539807808400942e-08 0 0.024994048337543921 3.106553460088277e-05 0 0.024611840345605859 -0.00024213081074146207 0 0.02482817164934718 -0.00016546946526913261 0 0.024902816348932478 2.9947944598164861e-05 0 0.024706326239911966 -9.721820644404159e-06 0 0.024645595002515772 -2.8897394425535352e-05 0 0.024611840345605859 -0.00024213081074146207 0 0.024902816348932478 2.9947944598164861e-05 0 0.024416157035926808 1.9436766611091015e-05 0 0.024416157035926808 1.9436766611091015e-05 0 0.024175619013066318 -0.00025384997447439999 0 0.024387173378883371 -0.00022587962406180739 0 0.024611840345605859 -0.00024213081074146207 0 0.024416157035926808 1.9436766611091015e-05 0 0.024387173378883371 -0.00022587962406180739 0 0.024416157035926808 1.9436766611091015e-05 0 0.02400177957361967 -7.1965777886123143e-05 0 0.024175619013066318 -0.00025384997447439999 0 0.024645595002515772 -2.8897394425535352e-05 0 0.024532475406426103 -7.4440256031294092e-05 0 0.024999862923922176 -2.6539807808400942e-08 0 0.024994048337543921 3.106553460088277e-05 0 0.025000099134845018 3.4424663208571203e-08 0 0.024994048337543921 3.106553460088277e-05 0 0.025000099134845018 3.4424663208571203e-08 0 0.025011662781732339 3.5378307851332912e-05 0 0.024999203869144653 3.4870860253015614e-08 0 0.024532475406426103 -7.4440256031294092e-05 0 0.025000033889148721 -1.0394919906831919e-08 0 0.025005845037870667 -1.8422111317101242e-05 0 0.024998691034684661 -1.0727845289144025e-05 0 0.024532475406426103 -7.4440256031294092e-05 0 0.02425071777092537 -8.8324735839328343e-05 0 0.023919220754929183 8.3738728757358513e-05 0 0.023863151660113699 -0.00027272218955017588 0 0.023513206990950771 -5.0502967934670517e-05 0 0.023933728994902714 -0.00035848396585984083 0 0.024175619013066318 -0.00025384997447439999 0 0.024105957076002601 -0.00048469231922690435 0 0.024532475406426103 -7.4440256031294092e-05 0 0.024370245949924266 -0.00027343082611708247 0 0.02400177957361967 -7.1965777886123143e-05 0 0.023933728994902714 -0.00035848396585984083 0 0.024175619013066318 -0.00025384997447439999 0 0.024175619013066318 -0.00025384997447439999 0 0.024387173378883371 -0.00022587962406180739 0 0.024346808590371527 -0.00042117413570158231 0 0.024611840345605859 -0.00024213081074146207 0 0.024387173378883371 -0.00022587962406180739 0 0.024346808590371527 -0.00042117413570158231 0 0.024175619013066318 -0.00025384997447439999 0 0.024346808590371527 -0.00042117413570158231 0 0.024105957076002601 -0.00048469231922690435 0 0.024346808590371527 -0.00042117413570158231 0 0.024105957076002601 -0.00048469231922690435 0 0.024188800179813626 -0.00071072137620455328 0 0.024495012173382933 -0.00094916127490018759 0 0.024346808590371527 -0.00042117413570158231 0 0.024188800179813626 -0.00071072137620455328 0 0.022974614267835765 -0.0016428903700658388 0 0.02323416195190834 -0.0011776829046588188 0 0.024400441062504018 -0.0011498580991937679 0 0.024516370621935943 -0.00078239274147537548 0 0.024346808590371527 -0.00042117413570158231 0 0.024004443453407007 -0.00085848049901092146 0 0.024188800179813626 -0.00071072137620455328 0 0.023812445257394232 -0.00063231096656555879 0 0.023773974316922578 -0.00093094684138430271 0 0.023812445257394232 -0.00063231096656555879 0 0.023584751318069645 -0.00076351828150905839 0 0.023863151660113699 -0.00027272218955017588 0 0.023812445257394232 -0.00063231096656555879 0 0.023535025850814819 -0.00040529076655164621 0 0.024370245949924266 -0.00027343082611708247 0 0.024312289204068905 -0.00037364213461649036 0 0.023933728994902714 -0.00035848396585984083 0 0.024105957076002601 -0.00048469231922690435 0 0.023812445257394232 -0.00063231096656555879 0 0.024105957076002601 -0.00048469231922690435 0 0.024188800179813626 -0.00071072137620455328 0 0.023812445257394232 -0.00063231096656555879 0 0.023812445257394232 -0.00063231096656555879 0 0.023584751318069645 -0.00076351828150905839 0 0.023535025850814819 -0.00040529076655164621 0 0.023584751318069645 -0.00076351828150905839 0 0.023345905220963265 -0.0006859332153250731 0 0.023535025850814819 -0.00040529076655164621 0 0.023345905220963265 -0.0006859332153250731 0 0.023116835481759336 -0.00018445510541792684 0 0.023535025850814819 -0.00040529076655164621 0 0.022549719214337675 0.00048653368187156186 0 0.022471894245974025 -0.00027704284007477436 0 0.022832755323258604 0.00020822736116004145 0 0.022374926647976811 -7.2749186081758256e-05 0 0.022549719214337675 0.00048653368187156186 0 0.022348921032304469 0.00061451865863006768 0 0.022549719214337675 0.00048653368187156186 0 0.022348921032304469 0.00061451865863006768 0 0.022832755323258604 0.00020822736116004145 0 0.02359742587268859 -0.00023811145488065411 0 0.023952110989168194 -0.00012053011907828015 0 0.023952110989168194 -0.00012053011907828015 0 0.02425071777092537 -8.8324735839328343e-05 0 0.023116835481759336 -0.00018445510541792684 0 0.023535025850814819 -0.00040529076655164621 0 0.023513206990950771 -5.0502967934670517e-05 0 0.023863151660113699 -0.00027272218955017588 0 0.023535025850814819 -0.00040529076655164621 0 0.023513206990950771 -5.0502967934670517e-05 0 0.025005845037870667 -1.8422111317101242e-05 0 0.024994236188728893 -2.7701155883754219e-05 0 0.024998691034684661 -1.0727845289144025e-05 0 0.024994236188728893 -2.7701155883754219e-05 0 0.024998691034684661 -1.0727845289144025e-05 0 0.02498749800629747 -1.9458749118145278e-05 0 0.024999961923280765 6.9560653242556972e-10 0 0.024998691034684661 -1.0727845289144025e-05 0 0.02498749800629747 -1.9458749118145278e-05 0 0.025000033889148721 -1.0394919906831919e-08 0 0.024999961923280765 6.9560653242556972e-10 0 0.024998691034684661 -1.0727845289144025e-05 0 0.024999961923280765 6.9560653242556972e-10 0 0.024966019223082555 -2.1842513215971862e-05 0 0.024946908939394191 9.4900328484691706e-09 0 0.024999961923280765 6.9560653242556972e-10 0 0.02498749800629747 -1.9458749118145278e-05 0 0.024966019223082555 -2.1842513215971862e-05 0 0.023952110989168194 -0.00012053011907828015 0 0.024219772950225864 -9.919300701953839e-05 0 0.024976527906034371 -3.7157739013030042e-05 0 0.02498749800629747 -1.9458749118145278e-05 0 0.024966019223082555 -2.1842513215971862e-05 0 0.024976527906034371 -3.7157739013030042e-05 0 0.024994236188728893 -2.7701155883754219e-05 0 0.02498749800629747 -1.9458749118145278e-05 0 0.024382534692723536 -2.1031993412687187e-05 0 0.024454155747633811 6.138609032092832e-06 0 0.024283682282435382 1.8919341306177514e-05 0 0.024454155747633811 6.138609032092832e-06 0 0.024731957349531476 -2.2757052039676488e-05 0 0.02449121554402791 -3.4793646458089503e-05 0 0.024454155747633811 6.138609032092832e-06 0 0.02449121554402791 -3.4793646458089503e-05 0 0.024283682282435382 1.8919341306177514e-05 0 0.024454155747633811 6.138609032092832e-06 0 0.024731957349531476 -2.2757052039676488e-05 0 0.02494597858693913 -2.2571363619866706e-07 0 0.024219772950225864 -9.919300701953839e-05 0 0.024305227175524205 -7.6460606466728545e-05 0 0.024731957349531476 -2.2757052039676488e-05 0 0.02494597858693913 -2.2571363619866706e-07 0 0.024803567527270073 -4.8861795980674472e-05 0 0.024999927947242769 -8.1220819233985521e-08 0 0.02494597858693913 -2.2571363619866706e-07 0 0.024803567527270073 -4.8861795980674472e-05 0 0.024731957349531476 -2.2757052039676488e-05 0 0.024803567527270073 -4.8861795980674472e-05 0 0.02449121554402791 -3.4793646458089503e-05 0 0.024922950156154158 -4.0227191624143636e-05 0 0.024803567527270073 -4.8861795980674472e-05 0 0.02449121554402791 -3.4793646458089503e-05 0 0.024839456004907175 0.00024174509350820684 0 0.02449121554402791 -3.4793646458089503e-05 0 0.024442267112802195 0.00039662235155391745 0 0.02449121554402791 -3.4793646458089503e-05 0 0.023956781968375376 2.487299092547882e-05 0 0.024442267112802195 0.00039662235155391745 0 0.024382534692723536 -2.1031993412687187e-05 0 0.024283682282435382 1.8919341306177514e-05 0 0.023956781968375376 2.487299092547882e-05 0 0.023952110989168194 -0.00012053011907828015 0 0.023937751285204523 -0.0001058291068290953 0 0.02449121554402791 -3.4793646458089503e-05 0 0.024283682282435382 1.8919341306177514e-05 0 0.023956781968375376 2.487299092547882e-05 0 0.022471894245974025 -0.00027704284007477436 0 0.022832755323258604 0.00020822736116004145 0 0.023956781968375376 2.487299092547882e-05 0 0.022832755323258604 0.00020822736116004145 0 0.023956781968375376 2.487299092547882e-05 0 0.024024679848312403 0.0010059116298001655 0 0.022027625228039662 -0.00027757141486684921 0 0.021907520200926105 -0.00044577651343255298 0 0.022348921032304469 0.00061451865863006768 0 0.022832755323258604 0.00020822736116004145 0 0.024024679848312403 0.0010059116298001655 0 0.023956781968375376 2.487299092547882e-05 0 0.024442267112802195 0.00039662235155391745 0 0.024024679848312403 0.0010059116298001655 0 0.024873823053264781 0.001049762114832187 0 0.024442267112802195 0.00039662235155391745 0 0.024024679848312403 0.0010059116298001655 0 0.019646357012186928 -0.0018776576882832837 0 0.019534828480203891 -0.0019000445329516002 0 0.019608022358389258 -0.0018078457563506982 0 0.019646357012186928 -0.0018776576882832837 0 0.019534828480203891 -0.0019000445329516002 0 0.019586885052605623 -0.0019694160364065127 0 0.019646357012186928 -0.0018776576882832837 0 0.019739736470072503 -0.001914002880686188 0 0.019673389203085909 -0.0019606889586943938 0 0.019534828480203891 -0.0019000445329516002 0 0.019515557666730653 -0.0018127672343667231 0 0.019466707781578326 -0.0018768869332167009 0 0.019534828480203891 -0.0019000445329516002 0 0.019515557666730653 -0.0018127672343667231 0 0.019608022358389258 -0.0018078457563506982 0 0.019515557666730653 -0.0018127672343667231 0 0.019608022358389258 -0.0018078457563506982 0 0.019606659726897343 -0.0017016638459533713 0 0.019515557666730653 -0.0018127672343667231 0 0.019606659726897343 -0.0017016638459533713 0 0.019537128986785258 -0.0016652128741313839 0 0.019646357012186928 -0.0018776576882832837 0 0.019608022358389258 -0.0018078457563506982 0 0.019702278423666311 -0.0017693125172695702 0 0.019608022358389258 -0.0018078457563506982 0 0.019702278423666311 -0.0017693125172695702 0 0.019606659726897343 -0.0017016638459533713 0 0.020450543222939391 -0.00097788105010303012 0 0.020674385156183347 -0.0010063631677792082 0 0.02142416553978992 -0.00059701759595625183 0 0.021438196998812609 -0.00051447201448226779 0 0.021508002013359447 -0.00067369289167987126 0 0.019609993709377993 -0.0015329814006541152 0 0.019547880237589129 -0.0014675234390525819 0 0.019595006335669275 -0.0015733704252850465 0 0.019499260028877727 -0.0014490108919335972 0 0.019547880237589129 -0.0014675234390525819 0 0.019595006335669275 -0.0015733704252850465 0 0.021439672383004101 -0.00066225419657093979 0 0.02142416553978992 -0.00059701759595625183 0 0.021508002013359447 -0.00067369289167987126 0 0.022603183134003769 -0.00070819893099482415 0 0.022062277995472526 -0.00078669474493703892 0 0.02014682898900488 -0.0020497146735173133 0 0.020200279086079857 -0.0019228720360671744 0 0.020462713233943528 -0.0022624252960866129 0 0.021439672383004101 -0.00066225419657093979 0 0.02142416553978992 -0.00059701759595625183 0 0.021345467553291347 -0.0005929889453488577 0 0.021270953178391602 -0.00091379198087579373 0 0.022062277995472526 -0.00078669474493703892 0 0.02142416553978992 -0.00059701759595625183 0 0.021388401543040701 -0.00054160816789687615 0 0.021345467553291347 -0.0005929889453488577 0 0.02142416553978992 -0.00059701759595625183 0 0.021388401543040701 -0.00054160816789687615 0 0.021438196998812609 -0.00051447201448226779 0 0.021388401543040701 -0.00054160816789687615 0 0.021438196998812609 -0.00051447201448226779 0 0.021387881312071172 -0.00047988330430550491 0 0.021388401543040701 -0.00054160816789687615 0 0.021387881312071172 -0.00047988330430550491 0 0.021343873420339058 -0.00050024974380414526 0 0.019282257322427488 -0.0016730861141446036 0 0.01899005281114674 -0.0015179167777988147 0 0.019646357012186928 -0.0018776576882832837 0 0.019702278423666311 -0.0017693125172695702 0 0.019739736470072503 -0.001914002880686188 0 0.019609993709377993 -0.0015329814006541152 0 0.019547880237589129 -0.0014675234390525819 0 0.01955199950093273 -0.0014189891177130551 0 0.019499260028877727 -0.0014490108919335972 0 0.019547880237589129 -0.0014675234390525819 0 0.019523971240163755 -0.0014406957564376513 0 0.019012697073325081 -0.001500861433730571 0 0.01899005281114674 -0.0015179167777988147 0 0.01899005281114674 -0.0015179167777988147 0 0.01833730965726442 -0.0015892375902797488 0 0.019240795381555285 -0.0010103017251607853 0 0.01919680612160871 -0.0012181698087828001 0 0.019325753437630686 -0.0013007919948345354 0 0.019739736470072503 -0.001914002880686188 0 0.019719756733356714 -0.0020343363279359751 0 0.019673389203085909 -0.0019606889586943938 0 0.019523971240163755 -0.0014406957564376513 0 0.019494624962802867 -0.0014424840383905812 0 0.019464085675800172 -0.0014520284724086677 0 0.01899005281114674 -0.0015179167777988147 0 0.019174365916531315 -0.0014903877737707551 0 0.019499260028877727 -0.0014490108919335972 0 0.019523971240163755 -0.0014406957564376513 0 0.019494624962802867 -0.0014424840383905812 0 0.021438196998812609 -0.00051447201448226779 0 0.021387881312071172 -0.00047988330430550491 0 0.021377605969098806 -0.00034727002179920757 0 0.019499260028877727 -0.0014490108919335972 0 0.019494624962802867 -0.0014424840383905812 0 0.019508264657106155 -0.0014403050883477623 0 0.020450543222939391 -0.00097788105010303012 0 0.020174238355402316 -0.00087315509145911917 0 0.021387881312071172 -0.00047988330430550491 0 0.021377605969098806 -0.00034727002179920757 0 0.021358214806707822 -0.00044467415013123312 0 0.019494624962802867 -0.0014424840383905812 0 0.01948772829168691 -0.0014520953256370317 0 0.019508264657106155 -0.0014403050883477623 0 0.019494624962802867 -0.0014424840383905812 0 0.01948772829168691 -0.0014520953256370317 0 0.019464085675800172 -0.0014520284724086677 0 0.01948772829168691 -0.0014520953256370317 0 0.019482665475502401 -0.0014738156769178337 0 0.019464085675800172 -0.0014520284724086677 0 0.019475864676301746 -0.0015138130683680783 0 0.019482665475502401 -0.0014738156769178337 0 0.019464085675800172 -0.0014520284724086677 0 0.019506031278652924 -0.0015021334632756072 0 0.01948772829168691 -0.0014520953256370317 0 0.019508264657106155 -0.0014403050883477623 0 0.019506031278652924 -0.0015021334632756072 0 0.01948772829168691 -0.0014520953256370317 0 0.019482665475502401 -0.0014738156769178337 0 0.019506031278652924 -0.0015021334632756072 0 0.019475864676301746 -0.0015138130683680783 0 0.019482665475502401 -0.0014738156769178337 0 0.019145589373821471 -0.0014338112627433617 0 0.01919680612160871 -0.0012181698087828001 0 0.019254032210616643 -0.0013398786365004026 0 0.017342371255074467 -0.0018342099182968121 0 0.01833730965726442 -0.0015892375902797488 0 0.01919680612160871 -0.0012181698087828001 0 0.019325753437630686 -0.0013007919948345354 0 0.019254032210616643 -0.0013398786365004026 0 0.019244666063886418 -0.0014138458691685726 0 0.019325753437630686 -0.0013007919948345354 0 0.019254032210616643 -0.0013398786365004026 0 0.019148544232550919 -0.0014316269424345484 0 0.019244666063886418 -0.0014138458691685726 0 0.019254032210616643 -0.0013398786365004026 0 0.017342371255074467 -0.0018342099182968121 0 0.017606784239393856 -0.0016608492873552119 0 0.019634339231137721 -0.0020750828310901691 0 0.019586885052605623 -0.0019694160364065127 0 0.019525158075745855 -0.0020914654165557389 0 0.019583380273888742 -0.0021746750410936064 0 0.019701579388086279 -0.0021825275100509551 0 0.019634339231137721 -0.0020750828310901691 0 0.019701579388086279 -0.0021825275100509551 0 0.019719756733356714 -0.0020343363279359751 0 0.019634339231137721 -0.0020750828310901691 0 0.019583380273888742 -0.0021746750410936064 0 0.019634339231137721 -0.0020750828310901691 0 0.019525158075745855 -0.0020914654165557389 0 0.019634339231137721 -0.0020750828310901691 0 0.019586885052605623 -0.0019694160364065127 0 0.019673389203085909 -0.0019606889586943938 0 0.019719756733356714 -0.0020343363279359751 0 0.019634339231137721 -0.0020750828310901691 0 0.019673389203085909 -0.0019606889586943938 0 0.019646357012186928 -0.0018776576882832837 0 0.019586885052605623 -0.0019694160364065127 0 0.019673389203085909 -0.0019606889586943938 0 0.019586885052605623 -0.0019694160364065127 0 0.019494407388047717 -0.0019856402112133271 0 0.019525158075745855 -0.0020914654165557389 0 0.019534828480203891 -0.0019000445329516002 0 0.019494407388047717 -0.0019856402112133271 0 0.019470491389138214 -0.0019294930128351576 0 0.019534828480203891 -0.0019000445329516002 0 0.019586885052605623 -0.0019694160364065127 0 0.019494407388047717 -0.0019856402112133271 0 0.019454968741978579 -0.002231529613243001 0 0.019525158075745855 -0.0020914654165557389 0 0.019348313476559045 -0.0021150907806086828 0 0.019525158075745855 -0.0020914654165557389 0 0.019348313476559045 -0.0021150907806086828 0 0.019263478528589298 -0.0019656500836943572 0 0.016039387283105732 -0.004968587862173573 0 0.018344053670732427 -0.0026968546499904402 0 0.019494407388047717 -0.0019856402112133271 0 0.019525158075745855 -0.0020914654165557389 0 0.019423834668956912 -0.0019987182504019852 0 0.018829773380563859 -0.0026868230462567528 0 0.018344053670732427 -0.0026968546499904402 0 0.019225540528057614 -0.00223560560265841 0 0.019348313476559045 -0.0021150907806086828 0 0.019263478528589298 -0.0019656500836943572 0 0.01787874167333265 -0.0025739076009458272 0 0.017740005982304605 -0.003543789374617991 0 0.018748335494381835 -0.0034361452548133269 0 0.016039387283105732 -0.004968587862173573 0 0.017149068099025971 -0.0051707247205089232 0 0.011534449868278182 -0.010004574677251266 0 0.010060871469468892 -0.0097035206358446289 0 0.011396870948356494 -0.011006126480136205 0 0.017740005982304605 -0.003543789374617991 0 0.018748335494381835 -0.0034361452548133269 0 0.018748140157473375 -0.0036463837817808562 0 0.018344053670732427 -0.0026968546499904402 0 0.019280257167486169 -0.002739176525106018 0 0.017740005982304605 -0.003543789374617991 0 0.018748140157473375 -0.0036463837817808562 0 0.018579416399418135 -0.003958676806339604 0 0.019398114637325745 -0.0019364973232083328 0 0.019429245327737214 -0.001984587999532327 0 0.019355060678668368 -0.0019420516839733133 0 0.019398114637325745 -0.0019364973232083328 0 0.019432560544674311 -0.0019622448105251029 0 0.019434134089059436 -0.0019187219413263072 0 0.019432560544674311 -0.0019622448105251029 0 0.019470491389138214 -0.0019294930128351576 0 0.019434134089059436 -0.0019187219413263072 0 0.019494407388047717 -0.0019856402112133271 0 0.019432560544674311 -0.0019622448105251029 0 0.019470491389138214 -0.0019294930128351576 0 0.019494407388047717 -0.0019856402112133271 0 0.019432560544674311 -0.0019622448105251029 0 0.019423834668956912 -0.0019987182504019852 0 0.019398114637325745 -0.0019364973232083328 0 0.019432560544674311 -0.0019622448105251029 0 0.019429245327737214 -0.001984587999532327 0 0.01836572487182336 -0.002648958759926278 0 0.018344053670732427 -0.0026968546499904402 0 0.012573070110439018 -0.0099089927376020698 0 0.013280777708857118 -0.010556783204923124 0 0.012550807758026777 -0.01102647007378808 0 0.011534449868278182 -0.010004574677251266 0 0.012573070110439018 -0.0099089927376020698 0 0.012550807758026777 -0.01102647007378808 0 0.011534449868278182 -0.010004574677251266 0 0.012550807758026777 -0.01102647007378808 0 0.011396870948356494 -0.011006126480136205 0 0.018748140157473375 -0.0036463837817808562 0 0.018579416399418135 -0.003958676806339604 0 0.01941900402632446 -0.0043656607953497907 0 0.018748335494381835 -0.0034361452548133269 0 0.018748140157473375 -0.0036463837817808562 0 0.01964086263310091 -0.0043179972297658275 0 0.02024555607462113 -0.0029546755126248648 0 0.020682460765505194 -0.0028508982227179683 0 0.013437867449748876 -0.011389553484441695 0 0.012550807758026777 -0.01102647007378808 0 0.01271466285719001 -0.012285431840276261 0 0.017149068099025971 -0.0051707247205089232 0 0.019961169851577719 -0.0037445350317794833 0 0.012550807758026777 -0.01102647007378808 0 0.011396870948356494 -0.011006126480136205 0 0.01271466285719001 -0.012285431840276261 0 0.018748140157473375 -0.0036463837817808562 0 0.01964086263310091 -0.0043179972297658275 0 0.019436419182573033 -0.0043881783748738875 0 0.021459539773131839 -0.0036247617246705252 0 0.019759379487351326 -0.0019069421924089803 0 0.019123792694574482 -0.0026942508526159683 0 0.021665840302844255 -0.0033633093957685717 0 0.019961169851577719 -0.0037445350317794833 0 0.021665840302844255 -0.0033633093957685717 0 0.021008581133584441 -0.0028556925100617831 0 0.01964086263310091 -0.0043179972297658275 0 0.019436419182573033 -0.0043881783748738875 0 0.019515791279611727 -0.0044746545957415644 0 0.019961169851577719 -0.0037445350317794833 0 0.021008581133584441 -0.0028556925100617831 0 0.020682460765505194 -0.0028508982227179683 0 0.021008581133584441 -0.0028556925100617831 0 0.019197212979867095 -0.0018893499825593432 0 0.019172661532877448 -0.0018680755485975407 0 0.019299362618163736 -0.001869435399822786 0 0.019280257167486169 -0.002739176525106018 0 0.020682460765505194 -0.0028508982227179683 0 0.019172661532877448 -0.0018680755485975407 0 0.019299362618163736 -0.001869435399822786 0 0.019309943008410151 -0.0016383870783411457 0 0.019355060678668368 -0.0019420516839733133 0 0.019197212979867095 -0.0018893499825593432 0 0.019299362618163736 -0.001869435399822786 0 0.019299362618163736 -0.001869435399822786 0 0.019366672923447487 -0.0018819632013303352 0 0.019381070425026438 -0.0017969199639251837 0 0.019355060678668368 -0.0019420516839733133 0 0.019299362618163736 -0.001869435399822786 0 0.019366672923447487 -0.0018819632013303352 0 0.019309943008410151 -0.0016383870783411457 0 0.019599777594094831 -0.0016421410753521164 0 0.019528236935410444 -0.0013535168620833131 0 0.019299362618163736 -0.001869435399822786 0 0.019309943008410151 -0.0016383870783411457 0 0.019599777594094831 -0.0016421410753521164 0 0.019817999442373373 -0.001941291991474056 0 0.020089746298361594 -0.0018136366653934703 0 0.024856240966923907 -0.00070978424992854615 0 0.024923367687819432 -0.00062639463485496282 0 0.024853179651217975 -0.00062525701679187024 0 0.021008581133584441 -0.0028556925100617831 0 0.021832229385239443 -0.0015945394475196529 0 0.024776765348802392 -0.00062533246549250276 0 0.024856240966923907 -0.00070978424992854615 0 0.024853179651217975 -0.00062525701679187024 0 0.024923367687819432 -0.00062639463485496282 0 0.024853179651217975 -0.00062525701679187024 0 0.024881827707887643 -0.00057495996245844269 0 0.024853179651217975 -0.00062525701679187024 0 0.024832934929556773 -0.00057221550278261724 0 0.024881827707887643 -0.00057495996245844269 0 0.019466707781578326 -0.0018768869332167009 0 0.019412557499911356 -0.0018726322207974664 0 0.019445256267488973 -0.0018149102890333009 0 0.019515557666730653 -0.0018127672343667231 0 0.019466707781578326 -0.0018768869332167009 0 0.019445256267488973 -0.0018149102890333009 0 0.019534828480203891 -0.0019000445329516002 0 0.019470491389138214 -0.0019294930128351576 0 0.019466707781578326 -0.0018768869332167009 0 0.019470491389138214 -0.0019294930128351576 0 0.019466707781578326 -0.0018768869332167009 0 0.019434134089059436 -0.0019187219413263072 0 0.019466707781578326 -0.0018768869332167009 0 0.019434134089059436 -0.0019187219413263072 0 0.019412557499911356 -0.0018726322207974664 0 0.019366672923447487 -0.0018819632013303352 0 0.019412557499911356 -0.0018726322207974664 0 0.019381070425026438 -0.0017969199639251837 0 0.019398114637325745 -0.0019364973232083328 0 0.019366672923447487 -0.0018819632013303352 0 0.019412557499911356 -0.0018726322207974664 0 0.019398114637325745 -0.0019364973232083328 0 0.019434134089059436 -0.0019187219413263072 0 0.019412557499911356 -0.0018726322207974664 0 0.019398114637325745 -0.0019364973232083328 0 0.019355060678668368 -0.0019420516839733133 0 0.019366672923447487 -0.0018819632013303352 0 0.019412557499911356 -0.0018726322207974664 0 0.019381070425026438 -0.0017969199639251837 0 0.019445256267488973 -0.0018149102890333009 0 0.020754514949809962 -0.0012556005238331589 0 0.021144540820461848 -0.0012587275645743864 0 0.019381070425026438 -0.0017969199639251837 0 0.019445256267488973 -0.0018149102890333009 0 0.019463087572417798 -0.0017195489025697015 0 0.019515557666730653 -0.0018127672343667231 0 0.019445256267488973 -0.0018149102890333009 0 0.019463087572417798 -0.0017195489025697015 0 0.021144540820461848 -0.0012587275645743864 0 0.021579116749768756 -0.0010907193589165714 0 0.019920053752574576 -0.0013579449946902818 0 0.019528236935410444 -0.0013535168620833131 0 0.019765275306521987 -0.0010619686045953373 0 0.020089746298361594 -0.0018136366653934703 0 0.021144540820461848 -0.0012587275645743864 0 0.019599777594094831 -0.0016421410753521164 0 0.019920053752574576 -0.0013579449946902818 0 0.019528236935410444 -0.0013535168620833131 0 0.024982738477788438 -0.00053781181237565201 0 0.024981101431445475 -0.0004385930990896952 0 0.025037465902416706 -0.00046007892252868983 0 0.022100555202984887 -0.0010580828934028167 0 0.022164046575472374 -0.0007475096225363566 0 0.024981101431445475 -0.0004385930990896952 0 0.025037465902416706 -0.00046007892252868983 0 0.024999575700373002 -0.00038832488935501786 0 0.021940966440606079 -0.00083539853832016297 0 0.021856134358350512 -0.00067442845528199312 0 0.022082532727335336 -0.00070393179644273921 0 0.021856134358350512 -0.00067442845528199312 0 0.021961979155109522 -0.0005437387894139384 0 0.022082532727335336 -0.00070393179644273921 0 0.022164046575472374 -0.0007475096225363566 0 0.02274319941029088 -0.00048774742116440112 0 0.021144540820461848 -0.0012587275645743864 0 0.022164046575472374 -0.0007475096225363566 0 0.024854681409709173 -0.00051657132155369725 0 0.024832934929556773 -0.00057221550278261724 0 0.024881827707887643 -0.00057495996245844269 0 0.024854681409709173 -0.00051657132155369725 0 0.024881827707887643 -0.00057495996245844269 0 0.024922026374676318 -0.00052300786023013769 0 0.021832229385239443 -0.0015945394475196529 0 0.022100555202984887 -0.0010580828934028167 0 0.024923367687819432 -0.00062639463485496282 0 0.024982738477788438 -0.00053781181237565201 0 0.024922026374676318 -0.00052300786023013769 0 0.024923367687819432 -0.00062639463485496282 0 0.024881827707887643 -0.00057495996245844269 0 0.024922026374676318 -0.00052300786023013769 0 0.024982738477788438 -0.00053781181237565201 0 0.024922026374676318 -0.00052300786023013769 0 0.024934001081446326 -0.00046041745405755671 0 0.024982738477788438 -0.00053781181237565201 0 0.024981101431445475 -0.0004385930990896952 0 0.024934001081446326 -0.00046041745405755671 0 0.024981101431445475 -0.0004385930990896952 0 0.024934001081446326 -0.00046041745405755671 0 0.024948832773213067 -0.00041572937249288478 0 0.024934001081446326 -0.00046041745405755671 0 0.02488037374530426 -0.00045319619571075696 0 0.024913443743016402 -0.00039983969872452396 0 0.024922026374676318 -0.00052300786023013769 0 0.024934001081446326 -0.00046041745405755671 0 0.02488037374530426 -0.00045319619571075696 0 0.024824848138711102 -0.00046058419322632849 0 0.02488037374530426 -0.00045319619571075696 0 0.02484628049724795 -0.00038454429296691511 0 0.024854681409709173 -0.00051657132155369725 0 0.024922026374676318 -0.00052300786023013769 0 0.02488037374530426 -0.00045319619571075696 0 0.024824848138711102 -0.00046058419322632849 0 0.024854681409709173 -0.00051657132155369725 0 0.02488037374530426 -0.00045319619571075696 0 0.02484628049724795 -0.00038454429296691511 0 0.024913443743016402 -0.00039983969872452396 0 0.024936711784809704 -0.00034469746199740955 0 0.02488037374530426 -0.00045319619571075696 0 0.02484628049724795 -0.00038454429296691511 0 0.024913443743016402 -0.00039983969872452396 0 0.024913443743016402 -0.00039983969872452396 0 0.024942520562244368 -0.00038607175649672543 0 0.024936711784809704 -0.00034469746199740955 0 0.024934001081446326 -0.00046041745405755671 0 0.024913443743016402 -0.00039983969872452396 0 0.024948832773213067 -0.00041572937249288478 0 0.024981101431445475 -0.0004385930990896952 0 0.024948832773213067 -0.00041572937249288478 0 0.024971140789134493 -0.00038488261242523018 0 0.024913443743016402 -0.00039983969872452396 0 0.024948832773213067 -0.00041572937249288478 0 0.024942520562244368 -0.00038607175649672543 0 0.024948832773213067 -0.00041572937249288478 0 0.024942520562244368 -0.00038607175649672543 0 0.024971140789134493 -0.00038488261242523018 0 0.024942520562244368 -0.00038607175649672543 0 0.024936711784809704 -0.00034469746199740955 0 0.024971140789134493 -0.00038488261242523018 0 0.024936711784809704 -0.00034469746199740955 0 0.024971140789134493 -0.00038488261242523018 0 0.024997283298706201 -0.0003879468751865463 0 0.02484628049724795 -0.00038454429296691511 0 0.024936711784809704 -0.00034469746199740955 0 0.024932023108384094 -0.00029217370812586064 0 0.024936711784809704 -0.00034469746199740955 0 0.024947121532362858 -0.00029297277352410741 0 0.024997283298706201 -0.0003879468751865463 0 0.024936711784809704 -0.00034469746199740955 0 0.024947121532362858 -0.00029297277352410741 0 0.024932023108384094 -0.00029217370812586064 0 0.024999972107265497 5.2133499660008381e-08 0 0.025017517404874921 -3.2710858998287821e-05 0 0.024930925713246836 -5.2153287258673168e-08 0 0.024881570667695297 -7.2887039874745184e-05 0 0.024878916912228956 -8.0925417607646802e-05 0 0.024996730065139413 -1.8833010550155148e-06 0 0.024881570667695297 -7.2887039874745184e-05 0 0.024999902000115645 5.3380698479287045e-08 0 0.025026124029814505 -4.1868822452111806e-05 0 0.024931041070994395 -4.832298607368295e-08 0 0.024845595182411764 -0.00021477901681404556 0 0.024878916912228956 -8.0925417607646802e-05 0 0.023740308820007112 -0.00015684998629770337 0 0.023962185658873869 -0.00018192364263831354 0 0.023828972484438053 -0.0002740226881668826 0 0.02274319941029088 -0.00048774742116440112 0 0.023442605252283533 -0.00059805975938294342 0 0.023694773087287686 -0.00021312122877445577 0 0.023828972484438053 -0.0002740226881668826 0 0.023688370893255505 -0.00031109345608588149 0 0.023694773087287686 -0.00021312122877445577 0 0.023740308820007112 -0.00015684998629770337 0 0.023828972484438053 -0.0002740226881668826 0 0.022780021115305221 -0.0004555579243372891 0 0.02274319941029088 -0.00048774742116440112 0 0.022164046575472374 -0.0007475096225363566 0 0.023442605252283533 -0.00059805975938294342 0 0.022601095741550087 -0.00040902315130435891 0 0.022616126367143004 -0.00039034111345382174 0 0.022591044093336048 -0.00038796362903900492 0 0.024981101431445475 -0.0004385930990896952 0 0.024971140789134493 -0.00038488261242523018 0 0.024999575700373002 -0.00038832488935501786 0 0.023528811823368499 -0.00060215078011883983 0 0.023442605252283533 -0.00059805975938294342 0 0.02410074668423939 -0.00043554621786290435 0 0.023827394550747453 -0.00042033335864602645 0 0.023828972484438053 -0.0002740226881668826 0 0.024999999741722515 -2.7063917450103608e-10 0 0.02499997223678865 -4.8705136884536762e-08 0 0.024999999378977039 -4.0306194963230674e-10 0 0.024881570667695297 -7.2887039874745184e-05 0 0.024580058416992338 -5.0168022289006542e-05 0 0.02499997223678865 -4.8705136884536762e-08 0 0.024999999378977039 -4.0306194963230674e-10 0 0.024999921279538501 -3.9306503618949421e-08 0 0.02410074668423939 -0.00043554621786290435 0 0.023962185658873869 -0.00018192364263831354 0 0.023828972484438053 -0.0002740226881668826 0 0.024881570667695297 -7.2887039874745184e-05 0 0.023442605252283533 -0.00059805975938294342 0 0.024999999378977039 -4.0306194963230674e-10 0 0.024999921279538501 -3.9306503618949421e-08 0 0.024999999351285714 9.2552674154013385e-10 0 0.024580058416992338 -5.0168022289006542e-05 0 0.024649442534955556 2.8167315533788042e-05 0 0.023827394550747453 -0.00042033335864602645 0 0.023688370893255505 -0.00031109345608588149 0 0.023555004803701891 -0.0004045726602757384 0 0.023827394550747453 -0.00042033335864602645 0 0.023828972484438053 -0.0002740226881668826 0 0.023688370893255505 -0.00031109345608588149 0 0.024999921279538501 -3.9306503618949421e-08 0 0.024999999351285714 9.2552674154013385e-10 0 0.024999864112587127 1.4478359530706132e-07 0 0.023555004803701891 -0.0004045726602757384 0 0.023358048304302381 -0.00018571505057089969 0 0.023535822503743198 -0.00024323343395969384 0 0.024997657325637711 -5.8931066648901675e-07 0 0.024649442534955556 2.8167315533788042e-05 0 0.025000086954694974 -1.3873896974986905e-08 0 0.024999907295373231 1.4326205776480818e-08 0 0.02498967153326696 5.1383156367854177e-05 0 0.023688370893255505 -0.00031109345608588149 0 0.023555004803701891 -0.0004045726602757384 0 0.023535822503743198 -0.00024323343395969384 0 0.024999907295373231 1.4326205776480818e-08 0 0.02498967153326696 5.1383156367854177e-05 0 0.024643810974031365 0.00018051881989637934 0 0.02498967153326696 5.1383156367854177e-05 0 0.02476612731168442 0.00029498299801780105 0 0.024643810974031365 0.00018051881989637934 0 0.024999452259574017 -1.8001747981991051e-07 0 0.024233978209507526 8.9685367335392646e-05 0 0.024999999187286515 -1.1965919758389168e-09 0 0.024999307148571639 1.9675788720877518e-07 0 0.024999998923430123 1.0503225095625784e-09 0 0.024649442534955556 2.8167315533788042e-05 0 0.023564818774713087 -0.00012083020204860921 0 0.023564818774713087 -0.00012083020204860921 0 0.024233978209507526 8.9685367335392646e-05 0 0.023358048304302381 -0.00018571505057089969 0 0.023429006184346908 -0.00011991076507277901 0 0.023535822503743198 -0.00024323343395969384 0 0.023564818774713087 -0.00012083020204860921 0 0.022751589702187255 -0.00044317445670593198 0 0.023518955007188421 -0.00056444226174364549 0 0.023902895917648766 -0.00020829587066954297 0 0.023120570019428618 -0.00011847369946170537 0 0.019634601476816227 -0.001477991756452145 0 0.019688250991466354 -0.0015454634752827122 0 0.019799367135293712 -0.0014644125391498136 0 0.022751589702187255 -0.00044317445670593198 0 0.023250429922280692 -0.00016264126718054927 0 0.023564818774713087 -0.00012083020204860921 0 0.023250429922280692 -0.00016264126718054927 0 0.023943214601793234 4.1843933367963246e-05 0 0.024007605320083052 -3.0036052406555974e-05 0 0.02402383749296038 4.1865252584480471e-05 0 0.023694773087287686 -0.00021312122877445577 0 0.023740007743957438 -0.00015675961060480234 0 0.023429006184346908 -0.00011991076507277901 0 0.023694773087287686 -0.00021312122877445577 0 0.023429006184346908 -0.00011991076507277901 0 0.023535822503743198 -0.00024323343395969384 0 0.02274319941029088 -0.00048774742116440112 0 0.022751589702187255 -0.00044317445670593198 0 0.023694773087287686 -0.00021312122877445577 0 0.023688370893255505 -0.00031109345608588149 0 0.023535822503743198 -0.00024323343395969384 0 0.021961979155109522 -0.0005437387894139384 0 0.0222241771821978 -0.00057228695442439203 0 0.022082532727335336 -0.00070393179644273921 0 0.019537551148742595 -0.0015752103323787964 0 0.019612184311078074 -0.0015868552637426068 0 0.019537128986785258 -0.0016652128741313839 0 0.019634601476816227 -0.001477991756452145 0 0.019537551148742595 -0.0015752103323787964 0 0.019612184311078074 -0.0015868552637426068 0 0.022751589702187255 -0.00044317445670593198 0 0.021579116749768756 -0.0010907193589165714 0 0.020643537946080263 -0.0010768289099716164 0 0.020765934314533534 -0.00098503999683615014 0 0.019688250991466354 -0.0015454634752827122 0 0.019658689185611283 -0.0016099830254958181 0 0.019633440037513206 -0.001607777888187984 0 0.019688250991466354 -0.0015454634752827122 0 0.019832177842564389 -0.0018401250111200426 0 0.019817103811751949 -0.0016070723167769202 0 0.019634601476816227 -0.001477991756452145 0 0.019688250991466354 -0.0015454634752827122 0 0.019612184311078074 -0.0015868552637426068 0 0.019688250991466354 -0.0015454634752827122 0 0.019817103811751949 -0.0016070723167769202 0 0.019799367135293712 -0.0014644125391498136 0 0.019688250991466354 -0.0015454634752827122 0 0.019612184311078074 -0.0015868552637426068 0 0.019658689185611283 -0.0016099830254958181 0 0.019282257322427488 -0.0016730861141446036 0 0.019358960778203961 -0.0016857035936618146 0 0.019612184311078074 -0.0015868552637426068 0 0.019658689185611283 -0.0016099830254958181 0 0.019606659726897343 -0.0017016638459533713 0 0.019702278423666311 -0.0017693125172695702 0 0.019658689185611283 -0.0016099830254958181 0 0.019606659726897343 -0.0017016638459533713 0 0.019612184311078074 -0.0015868552637426068 0 0.019606659726897343 -0.0017016638459533713 0 0.019537128986785258 -0.0016652128741313839 0 0.019515557666730653 -0.0018127672343667231 0 0.019441474907936913 -0.0016617087105347316 0 0.019537128986785258 -0.0016652128741313839 0 0.019441474907936913 -0.0016617087105347316 0 0.019537551148742595 -0.0015752103323787964 0 0.019537128986785258 -0.0016652128741313839 0 0.024714407952257222 1.4063164508495619e-06 0 0.024767628071855466 6.1012238150802875e-05 0 0.024807410018273621 1.8990871121129976e-05 0 0.024714407952257222 1.4063164508495619e-06 0 0.024661022730100055 6.6498579838758956e-05 0 0.024713226056132968 6.3842667382967984e-05 0 0.024714407952257222 1.4063164508495619e-06 0 0.024713226056132968 6.3842667382967984e-05 0 0.024767628071855466 6.1012238150802875e-05 0 0.02014682898900488 -0.0020497146735173133 0 0.020200279086079857 -0.0019228720360671744 0 0.019832177842564389 -0.0018401250111200426 0 0.019609993709377993 -0.0015329814006541152 0 0.019658689185611283 -0.0016099830254958181 0 0.019595006335669275 -0.0015733704252850465 0 0.020200279086079857 -0.0019228720360671744 0 0.019832177842564389 -0.0018401250111200426 0 0.019941146074291115 -0.0015922921261873853 0 0.021270953178391602 -0.00091379198087579373 0 0.020765934314533534 -0.00098503999683615014 0 0.021439672383004101 -0.00066225419657093979 0 0.021508002013359447 -0.00067369289167987126 0 0.021533605493956994 -0.00073135646853479739 0 0.020674385156183347 -0.0010063631677792082 0 0.020765934314533534 -0.00098503999683615014 0 0.019658689185611283 -0.0016099830254958181 0 0.019595006335669275 -0.0015733704252850465 0 0.019633440037513206 -0.001607777888187984 0 0.022603183134003769 -0.00070819893099482415 0 0.023081315002610875 -0.00034111590178448293 0 0.024629309809142075 9.7719322382146183e-05 0 0.024709350559714186 0.00013012766417651322 0 0.024584543134765099 0.00014563611259589437 0 0.024714407952257222 1.4063164508495619e-06 0 0.024661022730100055 6.6498579838758956e-05 0 0.024628948614929504 9.4272221076249085e-05 0 0.023147186871040667 -0.00036645595071228826 0 0.023081315002610875 -0.00034111590178448293 0 0.019832177842564389 -0.0018401250111200426 0 0.019817103811751949 -0.0016070723167769202 0 0.019941146074291115 -0.0015922921261873853 0 0.023081315002610875 -0.00034111590178448293 0 0.023250429922280692 -0.00016264126718054927 0 0.019817103811751949 -0.0016070723167769202 0 0.019941146074291115 -0.0015922921261873853 0 0.019799367135293712 -0.0014644125391498136 0 0.024661022730100055 6.6498579838758956e-05 0 0.024629309809142075 9.7719322382146183e-05 0 0.024709350559714186 0.00013012766417651322 0 0.024661022730100055 6.6498579838758956e-05 0 0.024709350559714186 0.00013012766417651322 0 0.024713226056132968 6.3842667382967984e-05 0 0.024709350559714186 0.00013012766417651322 0 0.024713226056132968 6.3842667382967984e-05 0 0.024767628071855466 6.1012238150802875e-05 0 0.024220626653601363 -5.3953962861293155e-05 0 0.024236251761668146 2.7156630232758195e-05 0 0.024435659494402566 -7.7795955938553504e-05 0 0.024220626653601363 -5.3953962861293155e-05 0 0.024236251761668146 2.7156630232758195e-05 0 0.024105650399207569 2.4863569726037031e-05 0 0.024999454618811062 2.0589852659273358e-06 0 0.024999603091123149 5.5950249257701339e-07 0 0.024998183272947012 1.3887956075430002e-06 0 0.024236251761668146 2.7156630232758195e-05 0 0.024105650399207569 2.4863569726037031e-05 0 0.02403910977780192 0.00013077335520487489 0 0.024496102862297954 -2.1626420989338489e-05 0 0.024233978209507526 8.9685367335392646e-05 0 0.024220626653601363 -5.3953962861293155e-05 0 0.024007605320083052 -3.0036052406555974e-05 0 0.024105650399207569 2.4863569726037031e-05 0 0.024999454618811062 2.0589852659273358e-06 0 0.024999391942231535 5.3839115927440555e-07 0 0.024999528472920491 3.122266615969705e-07 0 0.024162259391555817 -0.00011677363806841088 0 0.023250429922280692 -0.00016264126718054927 0 0.024007605320083052 -3.0036052406555974e-05 0 0.024105650399207569 2.4863569726037031e-05 0 0.02402383749296038 4.1865252584480471e-05 0 0.024105650399207569 2.4863569726037031e-05 0 0.02402383749296038 4.1865252584480471e-05 0 0.02403910977780192 0.00013077335520487489 0 0.023943214601793234 4.1843933367963246e-05 0 0.02402383749296038 4.1865252584480471e-05 0 0.02403910977780192 0.00013077335520487489 0 0.024999307148571639 1.9675788720877518e-07 0 0.024999528472920491 3.122266615969705e-07 0 0.024999998923430123 1.0503225095625784e-09 0 0.024233978209507526 8.9685367335392646e-05 0 0.024251788224296685 9.8456290773455749e-05 0 0.024999528472920491 3.122266615969705e-07 0 0.024999998923430123 1.0503225095625784e-09 0 0.024999603091123149 5.5950249257701339e-07 0 0.024999603091123149 5.5950249257701339e-07 0 0.02499999817155776 -1.238092223566946e-11 0 0.024998183272947012 1.3887956075430002e-06 0 0.024999998923430123 1.0503225095625784e-09 0 0.024999603091123149 5.5950249257701339e-07 0 0.02499999817155776 -1.238092223566946e-11 0 0.024999454618811062 2.0589852659273358e-06 0 0.024999528472920491 3.122266615969705e-07 0 0.024999603091123149 5.5950249257701339e-07 0 0.02499999817155776 -1.238092223566946e-11 0 0.02499648182469217 4.3484476350717015e-07 0 0.024998183272947012 1.3887956075430002e-06 0 0.02499648182469217 4.3484476350717015e-07 0 0.024989622676240813 1.9450161669142751e-06 0 0.024999984895053076 -1.8289625448358987e-09 0 0.02499999817155776 -1.238092223566946e-11 0 0.02499648182469217 4.3484476350717015e-07 0 0.024999984895053076 -1.8289625448358987e-09 0 0.02499648182469217 4.3484476350717015e-07 0 0.024989622676240813 1.9450161669142751e-06 0 0.024994771112938064 3.0480300312703175e-06 0 0.024989622676240813 1.9450161669142751e-06 0 0.024991958366317846 4.5028619787580136e-06 0 0.024994771112938064 3.0480300312703175e-06 0 0.024999454618811062 2.0589852659273358e-06 0 0.024998183272947012 1.3887956075430002e-06 0 0.024995877035755065 5.9630504000910537e-06 0 0.024994771112938064 3.0480300312703175e-06 0 0.024998183272947012 1.3887956075430002e-06 0 0.024995877035755065 5.9630504000910537e-06 0 0.024991958366317846 4.5028619787580136e-06 0 0.024994771112938064 3.0480300312703175e-06 0 0.024995877035755065 5.9630504000910537e-06 0 0.024496102862297954 -2.1626420989338489e-05 0 0.02459040357884739 -8.2358938248984107e-05 0 0.02499648182469217 4.3484476350717015e-07 0 0.024994771112938064 3.0480300312703175e-06 0 0.024998183272947012 1.3887956075430002e-06 0 0.024999987656902544 5.383735377374872e-09 0 0.024986847422203286 3.0089330600245434e-06 0 0.02499357029100889 3.2167170875945467e-06 0 0.024989622676240813 1.9450161669142751e-06 0 0.024999984895053076 -1.8289625448358987e-09 0 0.024986847422203286 3.0089330600245434e-06 0 0.024999987656902544 5.383735377374872e-09 0 0.024999984895053076 -1.8289625448358987e-09 0 0.024986847422203286 3.0089330600245434e-06 0 0.024989622676240813 1.9450161669142751e-06 0 0.024986847422203286 3.0089330600245434e-06 0 0.024976002956721591 5.1956284730728348e-06 0 0.024986847422203286 3.0089330600245434e-06 0 0.024974821949357968 5.7542413904009883e-06 0 0.02499357029100889 3.2167170875945467e-06 0 0.024974821949357968 5.7542413904009883e-06 0 0.024990130665153428 2.2150266376188367e-06 0 0.02499357029100889 3.2167170875945467e-06 0 0.024974821949357968 5.7542413904009883e-06 0 0.024954563821859677 -1.123810207091426e-05 0 0.024990130665153428 2.2150266376188367e-06 0 0.024986847422203286 3.0089330600245434e-06 0 0.024974821949357968 5.7542413904009883e-06 0 0.024976002956721591 5.1956284730728348e-06 0 0.024974821949357968 5.7542413904009883e-06 0 0.024976002956721591 5.1956284730728348e-06 0 0.024955110097741873 1.0066315553472493e-05 0 0.024976002956721591 5.1956284730728348e-06 0 0.024955110097741873 1.0066315553472493e-05 0 0.024985502866897873 9.9124522870368644e-06 0 0.024789438793084123 -9.5883272035857968e-05 0 0.02474458259051282 -9.3427769161806795e-05 0 0.024974821949357968 5.7542413904009883e-06 0 0.024955110097741873 1.0066315553472493e-05 0 0.024954563821859677 -1.123810207091426e-05 0 0.024955110097741873 1.0066315553472493e-05 0 0.024930687334962578 -1.6042078465750258e-05 0 0.024883628425336743 7.3484660971320662e-06 0 0.024955110097741873 1.0066315553472493e-05 0 0.024930687334962578 -1.6042078465750258e-05 0 0.024954563821859677 -1.123810207091426e-05 0 0.024930687334962578 -1.6042078465750258e-05 0 0.024954563821859677 -1.123810207091426e-05 0 0.024942147007345983 -3.240671973651005e-05 0 0.024954563821859677 -1.123810207091426e-05 0 0.024961887225187364 -1.8690473056488505e-05 0 0.024964923844859405 -8.5870954432663639e-06 0 0.024954563821859677 -1.123810207091426e-05 0 0.024961887225187364 -1.8690473056488505e-05 0 0.024954947476382838 -3.1480029457986211e-05 0 0.024971129165499827 -8.0697990279428588e-06 0 0.024978015031805675 -3.9262573657873733e-06 0 0.024709350559714186 0.00013012766417651322 0 0.024767628071855466 6.1012238150802875e-05 0 0.024818908813252299 0.00011200298295892721 0 0.024162259391555817 -0.00011677363806841088 0 0.02459040357884739 -8.2358938248984107e-05 0 0.024838194883969114 5.9402007441891604e-05 0 0.024767628071855466 6.1012238150802875e-05 0 0.024818908813252299 0.00011200298295892721 0 0.024991958366317846 4.5028619787580136e-06 0 0.024995877035755065 5.9630504000910537e-06 0 0.024985502866897873 9.9124522870368644e-06 0 0.02459040357884739 -8.2358938248984107e-05 0 0.02474458259051282 -9.3427769161806795e-05 0 0.024989622676240813 1.9450161669142751e-06 0 0.024991958366317846 4.5028619787580136e-06 0 0.024985502866897873 9.9124522870368644e-06 0 0.024989622676240813 1.9450161669142751e-06 0 0.024976002956721591 5.1956284730728348e-06 0 0.024985502866897873 9.9124522870368644e-06 0 0.024838194883969114 5.9402007441891604e-05 0 0.024818908813252299 0.00011200298295892721 0 0.024888625008596472 6.6511168360452316e-05 0 0.024838194883969114 5.9402007441891604e-05 0 0.024888625008596472 6.6511168360452316e-05 0 0.024883628425336743 7.3484660971320662e-06 0 0.024955110097741873 1.0066315553472493e-05 0 0.024888625008596472 6.6511168360452316e-05 0 0.024883628425336743 7.3484660971320662e-06 0 0.024930687334962578 -1.6042078465750258e-05 0 0.024883628425336743 7.3484660971320662e-06 0 0.024892946921015749 -2.9596901243105585e-05 0 0.024883628425336743 7.3484660971320662e-06 0 0.024821939698693122 -3.0413484880521864e-05 0 0.024892946921015749 -2.9596901243105585e-05 0 0.024714407952257222 1.4063164508495619e-06 0 0.024807410018273621 1.8990871121129976e-05 0 0.024821939698693122 -3.0413484880521864e-05 0 0.024883628425336743 7.3484660971320662e-06 0 0.024807410018273621 1.8990871121129976e-05 0 0.024821939698693122 -3.0413484880521864e-05 0 0.024838194883969114 5.9402007441891604e-05 0 0.024883628425336743 7.3484660971320662e-06 0 0.024807410018273621 1.8990871121129976e-05 0 0.024838194883969114 5.9402007441891604e-05 0 0.024767628071855466 6.1012238150802875e-05 0 0.024807410018273621 1.8990871121129976e-05 0 0.024714407952257222 1.4063164508495619e-06 0 0.024821939698693122 -3.0413484880521864e-05 0 0.024786820111426033 -7.6704908731002817e-05 0 0.024786820111426033 -7.6704908731002817e-05 0 0.024850266207712274 -0.00011408782319015258 0 0.024867058237808756 -5.5980512044347897e-05 0 0.024821939698693122 -3.0413484880521864e-05 0 0.024786820111426033 -7.6704908731002817e-05 0 0.024867058237808756 -5.5980512044347897e-05 0 0.021388401543040701 -0.00054160816789687615 0 0.021345467553291347 -0.0005929889453488577 0 0.021343873420339058 -0.00050024974380414526 0 0.021460739139230297 -0.0007165854852283583 0 0.021320414437524811 -0.00052647576220618195 0 0.021312483111549662 -0.0006102398216196298 0 0.021345467553291347 -0.0005929889453488577 0 0.021264735561739755 -0.00048307093234441597 0 0.021343873420339058 -0.00050024974380414526 0 0.022062277995472526 -0.00078669474493703892 0 0.021644612862025212 -0.00048296154658021816 0 0.022062277995472526 -0.00078669474493703892 0 0.022756681598039615 -0.0005824388045218348 0 0.021264735561739755 -0.00048307093234441597 0 0.021343873420339058 -0.00050024974380414526 0 0.021308704922346152 -0.00044520259436779165 0 0.021387881312071172 -0.00047988330430550491 0 0.021343873420339058 -0.00050024974380414526 0 0.021358214806707822 -0.00044467415013123312 0 0.02490366167591888 -0.00015717025712962959 0 0.024850266207712274 -0.00011408782319015258 0 0.024867058237808756 -5.5980512044347897e-05 0 0.023295309461817928 -0.00036564103142155388 0 0.023685177709753483 -0.00044255223940800045 0 0.024909579753893199 -7.4339271149081237e-05 0 0.02490548449718584 -5.9920603905107327e-05 0 0.024867058237808756 -5.5980512044347897e-05 0 0.021320414437524811 -0.00052647576220618195 0 0.021178371648933988 -0.00050607268559616501 0 0.021312483111549662 -0.0006102398216196298 0 0.023295309461817928 -0.00036564103142155388 0 0.022756681598039615 -0.0005824388045218348 0 0.02490548449718584 -5.9920603905107327e-05 0 0.024902945456101989 -4.6760789607797122e-05 0 0.024867058237808756 -5.5980512044347897e-05 0 0.024821939698693122 -3.0413484880521864e-05 0 0.024867058237808756 -5.5980512044347897e-05 0 0.024892946921015749 -2.9596901243105585e-05 0 0.024902945456101989 -4.6760789607797122e-05 0 0.024867058237808756 -5.5980512044347897e-05 0 0.024892946921015749 -2.9596901243105585e-05 0 0.024902945456101989 -4.6760789607797122e-05 0 0.024892946921015749 -2.9596901243105585e-05 0 0.024919009721958634 -3.500534846611557e-05 0 0.024930687334962578 -1.6042078465750258e-05 0 0.024919009721958634 -3.500534846611557e-05 0 0.024942147007345983 -3.240671973651005e-05 0 0.024919009721958634 -3.500534846611557e-05 0 0.024942147007345983 -3.240671973651005e-05 0 0.024922621645956853 -4.8080472883494075e-05 0 0.024930687334962578 -1.6042078465750258e-05 0 0.024892946921015749 -2.9596901243105585e-05 0 0.024919009721958634 -3.500534846611557e-05 0 0.024942147007345983 -3.240671973651005e-05 0 0.024922621645956853 -4.8080472883494075e-05 0 0.024935823237702357 -5.1478675445531284e-05 0 0.024902945456101989 -4.6760789607797122e-05 0 0.024919009721958634 -3.500534846611557e-05 0 0.024922621645956853 -4.8080472883494075e-05 0 0.02490548449718584 -5.9920603905107327e-05 0 0.024902945456101989 -4.6760789607797122e-05 0 0.024922621645956853 -4.8080472883494075e-05 0 0.024942147007345983 -3.240671973651005e-05 0 0.024954947476382838 -3.1480029457986211e-05 0 0.024946000179576419 -4.1096531508271275e-05 0 0.024954563821859677 -1.123810207091426e-05 0 0.024942147007345983 -3.240671973651005e-05 0 0.024954947476382838 -3.1480029457986211e-05 0 0.024942147007345983 -3.240671973651005e-05 0 0.024946000179576419 -4.1096531508271275e-05 0 0.024935823237702357 -5.1478675445531284e-05 0 0.024954947476382838 -3.1480029457986211e-05 0 0.024950688318416164 -4.942545963145154e-05 0 0.024966294299537752 -3.2290878710089803e-05 0 0.024954947476382838 -3.1480029457986211e-05 0 0.024946000179576419 -4.1096531508271275e-05 0 0.024950688318416164 -4.942545963145154e-05 0 0.024950688318416164 -4.942545963145154e-05 0 0.024933672437722126 -6.5386596974719008e-05 0 0.024946434242405363 -7.17414398277033e-05 0 0.024946000179576419 -4.1096531508271275e-05 0 0.024950688318416164 -4.942545963145154e-05 0 0.024935823237702357 -5.1478675445531284e-05 0 0.024950688318416164 -4.942545963145154e-05 0 0.024933672437722126 -6.5386596974719008e-05 0 0.024935823237702357 -5.1478675445531284e-05 0 0.02490548449718584 -5.9920603905107327e-05 0 0.024922621645956853 -4.8080472883494075e-05 0 0.024919598293254557 -6.587966696256906e-05 0 0.024922621645956853 -4.8080472883494075e-05 0 0.024935823237702357 -5.1478675445531284e-05 0 0.024919598293254557 -6.587966696256906e-05 0 0.024933672437722126 -6.5386596974719008e-05 0 0.024919598293254557 -6.587966696256906e-05 0 0.024923568260964403 -7.0004854871934854e-05 0 0.024933672437722126 -6.5386596974719008e-05 0 0.024935823237702357 -5.1478675445531284e-05 0 0.024919598293254557 -6.587966696256906e-05 0 0.024919598293254557 -6.587966696256906e-05 0 0.02491491209131776 -7.3921193608326663e-05 0 0.024923568260964403 -7.0004854871934854e-05 0 0.024909579753893199 -7.4339271149081237e-05 0 0.024919598293254557 -6.587966696256906e-05 0 0.02491491209131776 -7.3921193608326663e-05 0 0.024909579753893199 -7.4339271149081237e-05 0 0.02490548449718584 -5.9920603905107327e-05 0 0.024919598293254557 -6.587966696256906e-05 0 0.023295309461817928 -0.00036564103142155388 0 0.023369196038049621 -0.00039371274806370685 0 0.023295309461817928 -0.00036564103142155388 0 0.022811015722147863 -0.00019721632601833625 0 0.021178371648933988 -0.00050607268559616501 0 0.021113698466470703 -0.000342313209514238 0 0.021189670886659545 -0.00036383437744730871 0 0.024908910417015373 -7.083400869965873e-05 0 0.02491491209131776 -7.3921193608326663e-05 0 0.024917562663655843 -8.5741622373500126e-05 0 0.02491491209131776 -7.3921193608326663e-05 0 0.024923568260964403 -7.0004854871934854e-05 0 0.024926653161285828 -7.6901226364267948e-05 0 0.024933672437722126 -6.5386596974719008e-05 0 0.024923568260964403 -7.0004854871934854e-05 0 0.024926653161285828 -7.6901226364267948e-05 0 0.02491491209131776 -7.3921193608326663e-05 0 0.024926653161285828 -7.6901226364267948e-05 0 0.024917562663655843 -8.5741622373500126e-05 0 0.024933672437722126 -6.5386596974719008e-05 0 0.024926653161285828 -7.6901226364267948e-05 0 0.024946434242405363 -7.17414398277033e-05 0 0.024926653161285828 -7.6901226364267948e-05 0 0.024946434242405363 -7.17414398277033e-05 0 0.024933182974428071 -8.8650712033148236e-05 0 0.024946434242405363 -7.17414398277033e-05 0 0.024933182974428071 -8.8650712033148236e-05 0 0.024949135202722451 -8.6997636267567544e-05 0 0.024933182974428071 -8.8650712033148236e-05 0 0.024923228703570964 -0.00010327632205683411 0 0.024936432339044388 -0.00010386311863809493 0 0.024933182974428071 -8.8650712033148236e-05 0 0.024949135202722451 -8.6997636267567544e-05 0 0.024936432339044388 -0.00010386311863809493 0 0.021113698466470703 -0.000342313209514238 0 0.021123197003444293 -0.00027693581219617508 0 0.021066417003747496 -0.00022198694085138768 0 0.022811015722147863 -0.00019721632601833625 0 0.022195394541437603 0.00010807217748878406 0 0.024933182974428071 -8.8650712033148236e-05 0 0.024917562663655843 -8.5741622373500126e-05 0 0.024923228703570964 -0.00010327632205683411 0 0.021113698466470703 -0.000342313209514238 0 0.021145732568629463 -0.00030570222366528717 0 0.021189670886659545 -0.00036383437744730871 0 0.021113698466470703 -0.000342313209514238 0 0.021145732568629463 -0.00030570222366528717 0 0.021123197003444293 -0.00027693581219617508 0 0.024926653161285828 -7.6901226364267948e-05 0 0.024933182974428071 -8.8650712033148236e-05 0 0.024917562663655843 -8.5741622373500126e-05 0 0.021123197003444293 -0.00027693581219617508 0 0.021160267735253979 -0.00026316591833674182 0 0.021066417003747496 -0.00022198694085138768 0 0.021145732568629463 -0.00030570222366528717 0 0.021160267735253979 -0.00026316591833674182 0 0.021183038205491892 -0.00029500251522955633 0 0.021145732568629463 -0.00030570222366528717 0 0.021123197003444293 -0.00027693581219617508 0 0.021160267735253979 -0.00026316591833674182 0 0.021160267735253979 -0.00026316591833674182 0 0.021183038205491892 -0.00029500251522955633 0 0.021220040158790861 -0.00028073256644543055 0 0.021220040158790861 -0.00028073256644543055 0 0.021309564226748651 -0.00026878077664076606 0 0.021193815293825552 -0.00023147810746700648 0 0.021160267735253979 -0.00026316591833674182 0 0.021220040158790861 -0.00028073256644543055 0 0.021193815293825552 -0.00023147810746700648 0 0.021183038205491892 -0.00029500251522955633 0 0.021218076954972805 -0.00032091129715645797 0 0.021220040158790861 -0.00028073256644543055 0 0.021183038205491892 -0.00029500251522955633 0 0.021218076954972805 -0.00032091129715645797 0 0.021189670886659545 -0.00036383437744730871 0 0.021145732568629463 -0.00030570222366528717 0 0.021183038205491892 -0.00029500251522955633 0 0.021189670886659545 -0.00036383437744730871 0 0.021246499861629325 -0.00035853171075403022 0 0.021218076954972805 -0.00032091129715645797 0 0.021189670886659545 -0.00036383437744730871 0 0.021218076954972805 -0.00032091129715645797 0 0.021250756633407395 -0.00030700743788803137 0 0.021220040158790861 -0.00028073256644543055 0 0.021246499861629325 -0.00035853171075403022 0 0.021218076954972805 -0.00032091129715645797 0 0.021250756633407395 -0.00030700743788803137 0 0.021250756633407395 -0.00030700743788803137 0 0.021220040158790861 -0.00028073256644543055 0 0.021309564226748651 -0.00026878077664076606 0 0.021309564226748651 -0.00026878077664076606 0 0.021377605969098806 -0.00034727002179920757 0 0.02121598203167847 -3.3737611352443332e-05 0 0.021309564226748651 -0.00026878077664076606 0 0.021377605969098806 -0.00034727002179920757 0 0.021323476884151964 -0.00035431736842291006 0 0.021377605969098806 -0.00034727002179920757 0 0.021323476884151964 -0.00035431736842291006 0 0.021331546376060485 -0.00039673029615883523 0 0.021309564226748651 -0.00026878077664076606 0 0.021323476884151964 -0.00035431736842291006 0 0.021282192365393544 -0.00033629643236590619 0 0.021250756633407395 -0.00030700743788803137 0 0.021309564226748651 -0.00026878077664076606 0 0.021282192365393544 -0.00033629643236590619 0 0.021323476884151964 -0.00035431736842291006 0 0.021282192365393544 -0.00033629643236590619 0 0.021291122969656497 -0.00038780517982366146 0 0.021246499861629325 -0.00035853171075403022 0 0.021250756633407395 -0.00030700743788803137 0 0.021282192365393544 -0.00033629643236590619 0 0.021246499861629325 -0.00035853171075403022 0 0.021291122969656497 -0.00038780517982366146 0 0.02125918752662577 -0.0004077523796672577 0 0.021246499861629325 -0.00035853171075403022 0 0.021282192365393544 -0.00033629643236590619 0 0.021291122969656497 -0.00038780517982366146 0 0.021291122969656497 -0.00038780517982366146 0 0.021331546376060485 -0.00039673029615883523 0 0.021308704922346152 -0.00044520259436779165 0 0.021291122969656497 -0.00038780517982366146 0 0.021308704922346152 -0.00044520259436779165 0 0.02125918752662577 -0.0004077523796672577 0 0.021377605969098806 -0.00034727002179920757 0 0.021331546376060485 -0.00039673029615883523 0 0.021358214806707822 -0.00044467415013123312 0 0.021323476884151964 -0.00035431736842291006 0 0.021291122969656497 -0.00038780517982366146 0 0.021331546376060485 -0.00039673029615883523 0 0.021343873420339058 -0.00050024974380414526 0 0.021358214806707822 -0.00044467415013123312 0 0.021308704922346152 -0.00044520259436779165 0 0.021331546376060485 -0.00039673029615883523 0 0.021358214806707822 -0.00044467415013123312 0 0.021308704922346152 -0.00044520259436779165 0 0.021264735561739755 -0.00048307093234441597 0 0.021308704922346152 -0.00044520259436779165 0 0.02125918752662577 -0.0004077523796672577 0 0.021644612862025212 -0.00048296154658021816 0 0.021521042500905155 -0.00039325764680773627 0 0.021320414437524811 -0.00052647576220618195 0 0.021178371648933988 -0.00050607268559616501 0 0.021189670886659545 -0.00036383437744730871 0 0.021264735561739755 -0.00048307093234441597 0 0.021189670886659545 -0.00036383437744730871 0 0.02125918752662577 -0.0004077523796672577 0 0.021246499861629325 -0.00035853171075403022 0 0.021189670886659545 -0.00036383437744730871 0 0.02125918752662577 -0.0004077523796672577 0 0.02448576044127123 0.0012737555073030218 0 0.024502430182842126 0.0012711203929125559 0 0.024488623609741588 0.0012586018286826683 0 0.02448576044127123 0.0012737555073030218 0 0.024493184730987227 0.0012833178482458288 0 0.024502430182842126 0.0012711203929125559 0 0.023347476034680313 0.0013941529103714144 0 0.02415616732652176 0.0015034536076229295 0 0.024534066883601002 0.0014686021986336333 0 0.024466997474115678 0.001443978702099771 0 0.024485757231173685 0.0014996732844030115 0 0.024540877846561008 0.0013690891844431122 0 0.02461078779351732 0.0014699309408390999 0 0.024466997474115678 0.001443978702099771 0 0.023962937676458705 0.0015359342229230844 0 0.023347476034680313 0.0013941529103714144 0 0.024493184730987227 0.0012833178482458288 0 0.024502430182842126 0.0012711203929125559 0 0.02449901496373157 0.0012836685458918278 0 0.024962579884180887 -7.4699679726384266e-05 0 0.024983042179589139 -6.6156772216989377e-05 0 0.024966248193631302 -9.7605949801485859e-05 0 0.023347476034680313 0.0013941529103714144 0 0.022784108222802323 0.00093353771733983046 0 0.023946476012128407 0.00083127382050418445 0 0.022784108222802323 0.00093353771733983046 0 0.024949135202722451 -8.6997636267567544e-05 0 0.024936432339044388 -0.00010386311863809493 0 0.024966248193631302 -9.7605949801485859e-05 0 0.024949135202722451 -8.6997636267567544e-05 0 0.024962579884180887 -7.4699679726384266e-05 0 0.024966248193631302 -9.7605949801485859e-05 0 0.024946434242405363 -7.17414398277033e-05 0 0.024962579884180887 -7.4699679726384266e-05 0 0.024965521076537343 -5.3551661267053202e-05 0 0.024946434242405363 -7.17414398277033e-05 0 0.024949135202722451 -8.6997636267567544e-05 0 0.024962579884180887 -7.4699679726384266e-05 0 0.024962579884180887 -7.4699679726384266e-05 0 0.024983042179589139 -6.6156772216989377e-05 0 0.024965521076537343 -5.3551661267053202e-05 0 0.024983042179589139 -6.6156772216989377e-05 0 0.024965521076537343 -5.3551661267053202e-05 0 0.024979003878849732 -3.3881963754418369e-05 0 0.024950688318416164 -4.942545963145154e-05 0 0.024965521076537343 -5.3551661267053202e-05 0 0.024966294299537752 -3.2290878710089803e-05 0 0.024950688318416164 -4.942545963145154e-05 0 0.024946434242405363 -7.17414398277033e-05 0 0.024965521076537343 -5.3551661267053202e-05 0 0.024966294299537752 -3.2290878710089803e-05 0 0.024979003878849732 -3.3881963754418369e-05 0 0.024970442292865224 -1.7483991026332881e-05 0 0.024965521076537343 -5.3551661267053202e-05 0 0.024966294299537752 -3.2290878710089803e-05 0 0.024979003878849732 -3.3881963754418369e-05 0 0.024961887225187364 -1.8690473056488505e-05 0 0.024954947476382838 -3.1480029457986211e-05 0 0.024966294299537752 -3.2290878710089803e-05 0 0.024979003878849732 -3.3881963754418369e-05 0 0.02499530092267719 -3.5212182118886277e-05 0 0.024990005238997571 -2.0532226551595798e-05 0 0.024502430182842126 0.0012711203929125559 0 0.024506977440790782 0.001238297229420547 0 0.024488623609741588 0.0012586018286826683 0 0.023946476012128407 0.00083127382050418445 0 0.024464976500183807 0.00067886751335962281 0 0.024983042179589139 -6.6156772216989377e-05 0 0.024979003878849732 -3.3881963754418369e-05 0 0.02499530092267719 -3.5212182118886277e-05 0 0.02448576044127123 0.0012737555073030218 0 0.024488623609741588 0.0012586018286826683 0 0.024465283989768213 0.0012642019298595355 0 0.023962937676458705 0.0015359342229230844 0 0.024091724552018311 0.0015140648083383 0 0.024488623609741588 0.0012586018286826683 0 0.024480479490083761 0.0012396883330984395 0 0.024465283989768213 0.0012642019298595355 0 0.024506977440790782 0.001238297229420547 0 0.024488623609741588 0.0012586018286826683 0 0.024480479490083761 0.0012396883330984395 0 0.024506977440790782 0.001238297229420547 0 0.024480479490083761 0.0012396883330984395 0 0.024481205960484045 0.0012123957500347875 0 0.024480479490083761 0.0012396883330984395 0 0.024481205960484045 0.0012123957500347875 0 0.024457623177858538 0.001219757074610258 0 0.024481205960484045 0.0012123957500347875 0 0.024496301161829853 0.0011792686993761072 0 0.024462581535315404 0.0011880406556163028 0 0.024506977440790782 0.001238297229420547 0 0.024481205960484045 0.0012123957500347875 0 0.024496301161829853 0.0011792686993761072 0 0.02475559686238844 0.00050794156679270536 0 0.024754650455336737 0.00050999600173914569 0 0.02499530092267719 -3.5212182118886277e-05 0 0.024998449974708885 -1.1779963149754495e-05 0 0.024990005238997571 -2.0532226551595798e-05 0 0.02499530092267719 -3.5212182118886277e-05 0 0.024998449974708885 -1.1779963149754495e-05 0 0.025000697189409771 -1.0396106290238748e-05 0 0.024464976500183807 0.00067886751335962281 0 0.024754650455336737 0.00050999600173914569 0 0.024990005238997571 -2.0532226551595798e-05 0 0.024988895820690818 -1.4627615508345827e-05 0 0.024993634665737788 -1.2254872680923651e-05 0 0.024990005238997571 -2.0532226551595798e-05 0 0.024988895820690818 -1.4627615508345827e-05 0 0.024982733227408089 -1.7579979809711527e-05 0 0.024998449974708885 -1.1779963149754495e-05 0 0.024990005238997571 -2.0532226551595798e-05 0 0.024993634665737788 -1.2254872680923651e-05 0 0.024998449974708885 -1.1779963149754495e-05 0 0.024993634665737788 -1.2254872680923651e-05 0 0.024997516596165923 -8.8594155362938364e-06 0 0.024993634665737788 -1.2254872680923651e-05 0 0.024994946741222407 -7.4934553988043854e-06 0 0.024997516596165923 -8.8594155362938364e-06 0 0.024993634665737788 -1.2254872680923651e-05 0 0.024994946741222407 -7.4934553988043854e-06 0 0.024991471278200263 -9.6829017387494304e-06 0 0.024994946741222407 -7.4934553988043854e-06 0 0.024998018724080955 -5.7187036974658005e-06 0 0.024997516596165923 -8.8594155362938364e-06 0 0.024991471278200263 -9.6829017387494304e-06 0 0.024991618285160045 -4.9851056857068203e-06 0 0.024986123339517597 -1.1501879775782492e-05 0 0.024988895820690818 -1.4627615508345827e-05 0 0.024991471278200263 -9.6829017387494304e-06 0 0.024986123339517597 -1.1501879775782492e-05 0 0.024988895820690818 -1.4627615508345827e-05 0 0.024993634665737788 -1.2254872680923651e-05 0 0.024991471278200263 -9.6829017387494304e-06 0 0.024994946741222407 -7.4934553988043854e-06 0 0.024991471278200263 -9.6829017387494304e-06 0 0.024991618285160045 -4.9851056857068203e-06 0 0.024994946741222407 -7.4934553988043854e-06 0 0.024991618285160045 -4.9851056857068203e-06 0 0.024996063325028409 -4.9018045542567319e-06 0 0.024994946741222407 -7.4934553988043854e-06 0 0.024996063325028409 -4.9018045542567319e-06 0 0.024998018724080955 -5.7187036974658005e-06 0 0.024754650455336737 0.00050999600173914569 0 0.024753345671497066 0.0005056096154678559 0 0.024998018724080955 -5.7187036974658005e-06 0 0.024998796390065622 -7.6299895130880662e-06 0 0.024999299152734227 -3.3094402221147167e-06 0 0.024996063325028409 -4.9018045542567319e-06 0 0.024998018724080955 -5.7187036974658005e-06 0 0.024998114558304831 -3.4884315520618851e-06 0 0.024998018724080955 -5.7187036974658005e-06 0 0.024999299152734227 -3.3094402221147167e-06 0 0.024998114558304831 -3.4884315520618851e-06 0 0.024998796390065622 -7.6299895130880662e-06 0 0.024998700193698653 -8.2790191372674338e-06 0 0.025000560952784381 -2.7168479505116969e-06 0 0.024998796390065622 -7.6299895130880662e-06 0 0.024999299152734227 -3.3094402221147167e-06 0 0.025000560952784381 -2.7168479505116969e-06 0 0.024998449974708885 -1.1779963149754495e-05 0 0.024997516596165923 -8.8594155362938364e-06 0 0.024999074151175697 -1.0163861641018982e-05 0 0.024998796390065622 -7.6299895130880662e-06 0 0.024997516596165923 -8.8594155362938364e-06 0 0.024999074151175697 -1.0163861641018982e-05 0 0.02475391747887248 0.00050316512248151416 0 0.024754650455336737 0.00050999600173914569 0 0.024998018724080955 -5.7187036974658005e-06 0 0.024998796390065622 -7.6299895130880662e-06 0 0.024997516596165923 -8.8594155362938364e-06 0 0.024961887225187364 -1.8690473056488505e-05 0 0.024970442292865224 -1.7483991026332881e-05 0 0.024964923844859405 -8.5870954432663639e-06 0 0.024961887225187364 -1.8690473056488505e-05 0 0.024966294299537752 -3.2290878710089803e-05 0 0.024970442292865224 -1.7483991026332881e-05 0 0.024979003878849732 -3.3881963754418369e-05 0 0.024990005238997571 -2.0532226551595798e-05 0 0.024982733227408089 -1.7579979809711527e-05 0 0.024979003878849732 -3.3881963754418369e-05 0 0.024970442292865224 -1.7483991026332881e-05 0 0.024982733227408089 -1.7579979809711527e-05 0 0.024970442292865224 -1.7483991026332881e-05 0 0.024982733227408089 -1.7579979809711527e-05 0 0.024979901243676255 -8.9513637501759435e-06 0 0.024988895820690818 -1.4627615508345827e-05 0 0.024982733227408089 -1.7579979809711527e-05 0 0.024986123339517597 -1.1501879775782492e-05 0 0.024982733227408089 -1.7579979809711527e-05 0 0.024986123339517597 -1.1501879775782492e-05 0 0.024979901243676255 -8.9513637501759435e-06 0 0.024991618285160045 -4.9851056857068203e-06 0 0.024986123339517597 -1.1501879775782492e-05 0 0.024979901243676255 -8.9513637501759435e-06 0 0.024979901243676255 -8.9513637501759435e-06 0 0.024964923844859405 -8.5870954432663639e-06 0 0.024983571064521065 1.5632837248339236e-06 0 0.024970442292865224 -1.7483991026332881e-05 0 0.024979901243676255 -8.9513637501759435e-06 0 0.024964923844859405 -8.5870954432663639e-06 0 0.024990130665153428 2.2150266376188367e-06 0 0.02499357029100889 3.2167170875945467e-06 0 0.024997253944407976 1.5340404618128708e-06 0 0.024978015031805675 -3.9262573657873733e-06 0 0.024986368139285967 2.4546241319649708e-07 0 0.024991618285160045 -4.9851056857068203e-06 0 0.024979901243676255 -8.9513637501759435e-06 0 0.024983571064521065 1.5632837248339236e-06 0 0.02499357029100889 3.2167170875945467e-06 0 0.024997253944407976 1.5340404618128708e-06 0 0.02499999681892652 2.6154319474433855e-09 0 0.024986368139285967 2.4546241319649708e-07 0 0.024989915174117135 1.5690777419262851e-06 0 0.024997253944407976 1.5340404618128708e-06 0 0.02499999681892652 2.6154319474433855e-09 0 0.024999367340998682 6.5053549872912551e-07 0 0.024999987656902544 5.383735377374872e-09 0 0.02499357029100889 3.2167170875945467e-06 0 0.02499999681892652 2.6154319474433855e-09 0 0.024998779816735081 -1.6984865434095607e-06 0 0.024998710914747497 -5.7234284797121504e-08 0 0.025000089442263156 -7.8293597985556788e-07 0 0.024998779816735081 -1.6984865434095607e-06 0 0.024996633118174419 -2.2636828487816929e-06 0 0.024998710914747497 -5.7234284797121504e-08 0 0.024998779816735081 -1.6984865434095607e-06 0 0.024999299152734227 -3.3094402221147167e-06 0 0.025000089442263156 -7.8293597985556788e-07 0 0.024998779816735081 -1.6984865434095607e-06 0 0.024998114558304831 -3.4884315520618851e-06 0 0.024996633118174419 -2.2636828487816929e-06 0 0.024996063325028409 -4.9018045542567319e-06 0 0.024998114558304831 -3.4884315520618851e-06 0 0.024996633118174419 -2.2636828487816929e-06 0 0.024998779816735081 -1.6984865434095607e-06 0 0.024999299152734227 -3.3094402221147167e-06 0 0.024998114558304831 -3.4884315520618851e-06 0 0.024991618285160045 -4.9851056857068203e-06 0 0.024996633118174419 -2.2636828487816929e-06 0 0.024994547182001236 -3.4916555949007074e-07 0 0.024991618285160045 -4.9851056857068203e-06 0 0.024983571064521065 1.5632837248339236e-06 0 0.024994547182001236 -3.4916555949007074e-07 0 0.024991618285160045 -4.9851056857068203e-06 0 0.024996063325028409 -4.9018045542567319e-06 0 0.024996633118174419 -2.2636828487816929e-06 0 0.024996633118174419 -2.2636828487816929e-06 0 0.024994547182001236 -3.4916555949007074e-07 0 0.024998710914747497 -5.7234284797121504e-08 0 0.024994547182001236 -3.4916555949007074e-07 0 0.024999367340998682 6.5053549872912551e-07 0 0.024998710914747497 -5.7234284797121504e-08 0 0.024983571064521065 1.5632837248339236e-06 0 0.024994547182001236 -3.4916555949007074e-07 0 0.024999367340998682 6.5053549872912551e-07 0 0.02499999681892652 2.6154319474433855e-09 0 0.024999367340998682 6.5053549872912551e-07 0 0.0249999955628015 1.5740965664293094e-09 0 0.024999367340998682 6.5053549872912551e-07 0 0.0249999955628015 1.5740965664293094e-09 0 0.024998710914747497 -5.7234284797121504e-08 0 0.0249999955628015 1.5740965664293094e-09 0 0.024998710914747497 -5.7234284797121504e-08 0 0.025000089442263156 -7.8293597985556788e-07 0 0.0249999955628015 1.5740965664293094e-09 0 0.025000089442263156 -7.8293597985556788e-07 0 0.025000001949977025 -1.2450740404175549e-09 0 0.024999299152734227 -3.3094402221147167e-06 0 0.025000089442263156 -7.8293597985556788e-07 0 0.025000560952784381 -2.7168479505116969e-06 0 0.025000089442263156 -7.8293597985556788e-07 0 0.02500068670405366 -6.250813055282737e-07 0 0.025000560952784381 -2.7168479505116969e-06 0 0.02476210548588393 0.00046088010610922041 0 0.024753345671497066 0.0005056096154678559 0 0.025000089442263156 -7.8293597985556788e-07 0 0.025000001949977025 -1.2450740404175549e-09 0 0.02500068670405366 -6.250813055282737e-07 0 0.025000001949977025 -1.2450740404175549e-09 0 0.025000000289383435 5.8228729470249458e-10 0 0.02500068670405366 -6.250813055282737e-07 0 0.024999502634542294 4.5094279952590404e-07 0 0.02476210548588393 0.00046088010610922041 0 0.025000000527363623 7.3236471134176071e-10 0 0.024999716459457824 2.3150320530577177e-06 0 0.025003983147795995 9.0142907847467831e-06 0 0.02470168183031389 0.00034064259736673393 0 0.024901101810241591 0.00015845266567560397 0 0.024999706048159313 1.1067261595325307e-06 0 0.025000000527363623 7.3236471134176071e-10 0 0.024999998556011635 1.4824648997799385e-09 0 0.024999706048159313 1.1067261595325307e-06 0 0.024999488396275082 2.3501124476898851e-06 0 0.024999745145720613 5.6557794085298193e-07 0 0.024999706048159313 1.1067261595325307e-06 0 0.025000000527363623 7.3236471134176071e-10 0 0.024999716459457824 2.3150320530577177e-06 0 0.024718244348666991 0.00029776502705266145 0 0.02470168183031389 0.00034064259736673393 0 0.024999706048159313 1.1067261595325307e-06 0 0.024999716459457824 2.3150320530577177e-06 0 0.024999488396275082 2.3501124476898851e-06 0 0.025208383173625885 3.3178400968780687e-05 0 0.025190624128694637 0.00035880983640101694 0 0.02503000070456906 0.0001432231900120576 0 0.02470168183031389 0.00034064259736673393 0 0.02461320248827906 0.00071613671910542075 0 0.024999716459457824 2.3150320530577177e-06 0 0.024998616611717039 5.591457177077272e-06 0 0.025003983147795995 9.0142907847467831e-06 0 0.02470168183031389 0.00034064259736673393 0 0.02476210548588393 0.00046088010610922041 0 0.024294522074068316 0.00101863422269955 0 0.024364960155205246 0.0010527343555422207 0 0.024341389298153202 0.0011211056116668925 0 0.024294522074068316 0.00101863422269955 0 0.024341389298153202 0.0011211056116668925 0 0.024269977705142949 0.0011257184008692824 0 0.024269977705142949 0.0011257184008692824 0 0.024302396261394958 0.0011871929169746899 0 0.024246724800610325 0.0012302584260762044 0 0.02461320248827906 0.00071613671910542075 0 0.024466949595912866 0.00096840316285309316 0 0.024341389298153202 0.0011211056116668925 0 0.024269977705142949 0.0011257184008692824 0 0.024302396261394958 0.0011871929169746899 0 0.024341389298153202 0.0011211056116668925 0 0.024302396261394958 0.0011871929169746899 0 0.024357923649935821 0.0011918150493256299 0 0.024357923649935821 0.0011918150493256299 0 0.024409844254247762 0.0011970171265779652 0 0.02441323765528618 0.0011350273748509641 0 0.024341389298153202 0.0011211056116668925 0 0.024357923649935821 0.0011918150493256299 0 0.02441323765528618 0.0011350273748509641 0 0.024696199871467144 0.00088316218517556807 0 0.024670345104286184 0.00099189227501942311 0 0.024481205960484045 0.0012123957500347875 0 0.024462581535315404 0.0011880406556163028 0 0.024457623177858538 0.001219757074610258 0 0.024409844254247762 0.0011970171265779652 0 0.02441323765528618 0.0011350273748509641 0 0.024457623177858538 0.001219757074610258 0 0.024462581535315404 0.0011880406556163028 0 0.024430687084550148 0.0011768644841232976 0 0.024457623177858538 0.001219757074610258 0 0.024496301161829853 0.0011792686993761072 0 0.024462581535315404 0.0011880406556163028 0 0.024450871690480613 0.0011545197849076331 0 0.024462581535315404 0.0011880406556163028 0 0.024450871690480613 0.0011545197849076331 0 0.024430687084550148 0.0011768644841232976 0 0.024364960155205246 0.0010527343555422207 0 0.024341389298153202 0.0011211056116668925 0 0.02441323765528618 0.0011350273748509641 0 0.024403475277056056 0.0011288870767933333 0 0.024450871690480613 0.0011545197849076331 0 0.024430687084550148 0.0011768644841232976 0 0.02476210548588393 0.00046088010610922041 0 0.024696199871467144 0.00088316218517556807 0 0.024703053183696262 9.9801383128426705e-05 0 0.024596876822684757 0.00012836294878331973 0 0.024502754415346429 5.4936920256446306e-05 0 0.024646929860221753 0.00016520017491020742 0 0.024596876822684757 0.00012836294878331973 0 0.024559999439855724 0.00017134994498710165 0 0.024646929860221753 0.00016520017491020742 0 0.024703053183696262 9.9801383128426705e-05 0 0.024596876822684757 0.00012836294878331973 0 0.024842641855929326 2.3710853588955227e-05 0 0.024813435359690647 3.1236511414233773e-05 0 0.024999826159955787 6.5505277336330753e-08 0 0.024896751800347144 -3.2233123551986095e-06 0 0.025011586876110409 -7.3501746041424126e-06 0 0.024703053183696262 9.9801383128426705e-05 0 0.024896751800347144 -3.2233123551986095e-06 0 0.024502754415346429 5.4936920256446306e-05 0 0.024999826159955787 6.5505277336330753e-08 0 0.024896751800347144 -3.2233123551986095e-06 0 0.024999587792411675 -8.9363804176811122e-08 0 0.024896751800347144 -3.2233123551986095e-06 0 0.024784931923993159 9.6439832093031647e-05 0 0.02491461032361713 3.0024615755589796e-05 0 0.024703053183696262 9.9801383128426705e-05 0 0.024896751800347144 -3.2233123551986095e-06 0 0.024784931923993159 9.6439832093031647e-05 0 0.024646929860221753 0.00016520017491020742 0 0.024703053183696262 9.9801383128426705e-05 0 0.024784931923993159 9.6439832093031647e-05 0 0.024646929860221753 0.00016520017491020742 0 0.024784931923993159 9.6439832093031647e-05 0 0.024643926999585914 0.00019482739364443715 0 0.024784931923993159 9.6439832093031647e-05 0 0.024855200359925788 0.00012287590495819767 0 0.024643926999585914 0.00019482739364443715 0 0.024855200359925788 0.00012287590495819767 0 0.02491461032361713 3.0024615755589796e-05 0 0.02501912720357094 -1.9344201196314898e-05 0 0.024784931923993159 9.6439832093031647e-05 0 0.024855200359925788 0.00012287590495819767 0 0.02491461032361713 3.0024615755589796e-05 0 0.024896751800347144 -3.2233123551986095e-06 0 0.024999587792411675 -8.9363804176811122e-08 0 0.02491461032361713 3.0024615755589796e-05 0 0.024999587792411675 -8.9363804176811122e-08 0 0.02491461032361713 3.0024615755589796e-05 0 0.02501912720357094 -1.9344201196314898e-05 0 0.024999798010039351 3.970274370641921e-07 0 0.024901101810241591 0.00015845266567560397 0 0.025000000174083475 -5.8050771450644909e-10 0 0.024999998556011635 1.4824648997799385e-09 0 0.024999745145720613 5.6557794085298193e-07 0 0.024999706048159313 1.1067261595325307e-06 0 0.024999998556011635 1.4824648997799385e-09 0 0.024999745145720613 5.6557794085298193e-07 0 0.025208383173625885 3.3178400968780687e-05 0 0.02501912720357094 -1.9344201196314898e-05 0 0.02503000070456906 0.0001432231900120576 0 0.024855200359925788 0.00012287590495819767 0 0.02501912720357094 -1.9344201196314898e-05 0 0.02503000070456906 0.0001432231900120576 0 0.024855200359925788 0.00012287590495819767 0 0.02503000070456906 0.0001432231900120576 0 0.024869065162750646 0.00030876377904347267 0 0.025190624128694637 0.00035880983640101694 0 0.02503000070456906 0.0001432231900120576 0 0.024869065162750646 0.00030876377904347267 0 0.025190624128694637 0.00035880983640101694 0 0.024812996372061601 0.00075756633973467181 0 0.02510262484977048 0.0008657714873512455 0 0.025190624128694637 0.00035880983640101694 0 0.024869065162750646 0.00030876377904347267 0 0.024812996372061601 0.00075756633973467181 0 0.02433308813632187 0.00083559740442031895 0 0.024405440141693709 0.00088396901459605187 0 0.024614782837820467 0.00042698949080969086 0 0.02427222545768894 0.00066133081651762187 0 0.024812996372061601 0.00075756633973467181 0 0.024614782837820467 0.00042698949080969086 0 0.024869065162750646 0.00030876377904347267 0 0.024812996372061601 0.00075756633973467181 0 0.024614782837820467 0.00042698949080969086 0 0.024685481970308513 0.00025135833692807878 0 0.024475377802629528 0.00026533842760572725 0 0.024614782837820467 0.00042698949080969086 0 0.024869065162750646 0.00030876377904347267 0 0.024685481970308513 0.00025135833692807878 0 0.024855200359925788 0.00012287590495819767 0 0.024869065162750646 0.00030876377904347267 0 0.024685481970308513 0.00025135833692807878 0 0.024855200359925788 0.00012287590495819767 0 0.024685481970308513 0.00025135833692807878 0 0.024643926999585914 0.00019482739364443715 0 0.024646929860221753 0.00016520017491020742 0 0.024643926999585914 0.00019482739364443715 0 0.024568378601317272 0.00023550774981884325 0 0.024643926999585914 0.00019482739364443715 0 0.024475377802629528 0.00026533842760572725 0 0.024568378601317272 0.00023550774981884325 0 0.024685481970308513 0.00025135833692807878 0 0.024643926999585914 0.00019482739364443715 0 0.024475377802629528 0.00026533842760572725 0 0.024614782837820467 0.00042698949080969086 0 0.024475377802629528 0.00026533842760572725 0 0.02427222545768894 0.00066133081651762187 0 0.02427222545768894 0.00066133081651762187 0 0.023706929860989143 0.00065753089630606412 0 0.023940573609330773 0.0008399047315474237 0 0.02424079178470704 0.00045198444609958718 0 0.024152526974489837 0.00053736066303441445 0 0.024475377802629528 0.00026533842760572725 0 0.02427222545768894 0.00066133081651762187 0 0.023706929860989143 0.00065753089630606412 0 0.024563631472631967 0.00022193758662759631 0 0.024557371738903346 0.00022386394939834895 0 0.024536470285043147 0.00023151919198600946 0 0.024563631472631967 0.00022193758662759631 0 0.024557371738903346 0.00022386394939834895 0 0.024568378601317272 0.00023550774981884325 0 0.024475377802629528 0.00026533842760572725 0 0.024563631472631967 0.00022193758662759631 0 0.024568378601317272 0.00023550774981884325 0 0.024557371738903346 0.00022386394939834895 0 0.024568378601317272 0.00023550774981884325 0 0.024546677881854568 0.00020656184719729741 0 0.024568378601317272 0.00023550774981884325 0 0.024559999439855724 0.00017134994498710165 0 0.024546677881854568 0.00020656184719729741 0 0.024646929860221753 0.00016520017491020742 0 0.024568378601317272 0.00023550774981884325 0 0.024559999439855724 0.00017134994498710165 0 0.02369558826466291 0.0010275810089408375 0 0.02357431107214366 0.0012745105724668942 0 0.023383043804688558 0.0012467555711855205 0 0.02369558826466291 0.0010275810089408375 0 0.023817659469875716 0.0011891766372635155 0 0.02357431107214366 0.0012745105724668942 0 0.023706929860989143 0.00065753089630606412 0 0.02369558826466291 0.0010275810089408375 0 0.023368167005276688 0.00095276793042755649 0 0.023706929860989143 0.00065753089630606412 0 0.02369558826466291 0.0010275810089408375 0 0.023940573609330773 0.0008399047315474237 0 0.02369558826466291 0.0010275810089408375 0 0.023940573609330773 0.0008399047315474237 0 0.024040575558027435 0.00093278889976661586 0 0.02427222545768894 0.00066133081651762187 0 0.023940573609330773 0.0008399047315474237 0 0.024040575558027435 0.00093278889976661586 0 0.02369558826466291 0.0010275810089408375 0 0.024040575558027435 0.00093278889976661586 0 0.023817659469875716 0.0011891766372635155 0 0.024040575558027435 0.00093278889976661586 0 0.024053054192367678 0.001142797964070109 0 0.023817659469875716 0.0011891766372635155 0 0.024040575558027435 0.00093278889976661586 0 0.024053054192367678 0.001142797964070109 0 0.024185568852479526 0.0009656231935730792 0 0.02427222545768894 0.00066133081651762187 0 0.024040575558027435 0.00093278889976661586 0 0.024192257420536243 0.0008112890230955671 0 0.024040575558027435 0.00093278889976661586 0 0.024192257420536243 0.0008112890230955671 0 0.024185568852479526 0.0009656231935730792 0 0.024192257420536243 0.0008112890230955671 0 0.024328556090023389 0.00088820515989480181 0 0.024185568852479526 0.0009656231935730792 0 0.024405440141693709 0.00088396901459605187 0 0.024466949595912866 0.00096840316285309316 0 0.024466949595912866 0.00096840316285309316 0 0.024354296819986292 0.0011517795820671626 0 0.024328556090023389 0.00088820515989480181 0 0.024185568852479526 0.0009656231935730792 0 0.024261428223211898 0.0011116216380577088 0 0.024053054192367678 0.001142797964070109 0 0.024185568852479526 0.0009656231935730792 0 0.024261428223211898 0.0011116216380577088 0 0.024053054192367678 0.001142797964070109 0 0.024261428223211898 0.0011116216380577088 0 0.024117777478426899 0.0013847873265248438 0 0.024354296819986292 0.0011517795820671626 0 0.024312749663525722 0.0012297015619019897 0 0.024151430121266994 0.0012945614561735252 0 0.024117777478426899 0.0013847873265248438 0 0.02423445252967733 0.0013676857294844819 0 0.023912235162770187 0.0013442422729311484 0 0.023624642157543611 0.0014292964221043804 0 0.023962401618980531 0.0016897736804012619 0 0.024117777478426899 0.0013847873265248438 0 0.023912235162770187 0.0013442422729311484 0 0.023962401618980531 0.0016897736804012619 0 0.024053054192367678 0.001142797964070109 0 0.023912235162770187 0.0013442422729311484 0 0.023817659469875716 0.0011891766372635155 0 0.024053054192367678 0.001142797964070109 0 0.024117777478426899 0.0013847873265248438 0 0.023912235162770187 0.0013442422729311484 0 0.023817659469875716 0.0011891766372635155 0 0.023624642157543611 0.0014292964221043804 0 0.02357431107214366 0.0012745105724668942 0 0.023912235162770187 0.0013442422729311484 0 0.023817659469875716 0.0011891766372635155 0 0.023624642157543611 0.0014292964221043804 0 0.023386625462938137 0.0015425626167370773 0 0.023382121035403013 0.0014423973947706788 0 0.023242901027803943 0.0016079659705607668 0 0.023624642157543611 0.0014292964221043804 0 0.023386625462938137 0.0015425626167370773 0 0.023382121035403013 0.0014423973947706788 0 0.023624642157543611 0.0014292964221043804 0 0.023382121035403013 0.0014423973947706788 0 0.02357431107214366 0.0012745105724668942 0 0.023382121035403013 0.0014423973947706788 0 0.02357431107214366 0.0012745105724668942 0 0.023383043804688558 0.0012467555711855205 0 0.024425306525404485 0.0013064051741678343 0 0.024409941065081348 0.0012394949870123701 0 0.024337076279593851 0.0012667460617799236 0 0.024419584347457217 0.0011528133020134996 0 0.024398819507494444 0.0010999687360087058 0 0.024425306525404485 0.0013064051741678343 0 0.02430505798085714 0.0012502646169139074 0 0.024341477719233721 0.0013518241486046986 0 0.024425306525404485 0.0013064051741678343 0 0.024465283989768213 0.0012642019298595355 0 0.024460589746646853 0.0013556845881777305 0 0.024425306525404485 0.0013064051741678343 0 0.024465283989768213 0.0012642019298595355 0 0.024409941065081348 0.0012394949870123701 0 0.024465283989768213 0.0012642019298595355 0 0.024457623177858538 0.001219757074610258 0 0.024409941065081348 0.0012394949870123701 0 0.024480479490083761 0.0012396883330984395 0 0.024465283989768213 0.0012642019298595355 0 0.024457623177858538 0.001219757074610258 0 0.024409844254247762 0.0011970171265779652 0 0.024457623177858538 0.001219757074610258 0 0.024409941065081348 0.0012394949870123701 0 0.024357923649935821 0.0011918150493256299 0 0.024409844254247762 0.0011970171265779652 0 0.024409941065081348 0.0012394949870123701 0 0.024357923649935821 0.0011918150493256299 0 0.024409941065081348 0.0012394949870123701 0 0.024337076279593851 0.0012667460617799236 0 0.024302396261394958 0.0011871929169746899 0 0.024357923649935821 0.0011918150493256299 0 0.024337076279593851 0.0012667460617799236 0 0.024466949595912866 0.00096840316285309316 0 0.024398819507494444 0.0010999687360087058 0 0.024302396261394958 0.0011871929169746899 0 0.024246724800610325 0.0012302584260762044 0 0.024337076279593851 0.0012667460617799236 0 0.024151430121266994 0.0012945614561735252 0 0.02430505798085714 0.0012502646169139074 0 0.02423445252967733 0.0013676857294844819 0 0.024175944821462129 0.0011949745560090633 0 0.024151430121266994 0.0012945614561735252 0 0.02430505798085714 0.0012502646169139074 0 0.024341477719233721 0.0013518241486046986 0 0.02423445252967733 0.0013676857294844819 0 0.02432908365878737 0.0014416910719357509 0 0.02430505798085714 0.0012502646169139074 0 0.024341477719233721 0.0013518241486046986 0 0.02423445252967733 0.0013676857294844819 0 0.02423445252967733 0.0013676857294844819 0 0.02432908365878737 0.0014416910719357509 0 0.024240495620631682 0.0015899736031973165 0 0.024117777478426899 0.0013847873265248438 0 0.02423445252967733 0.0013676857294844819 0 0.024240495620631682 0.0015899736031973165 0 0.024405889327846535 0.0013963369359194719 0 0.024466997474115678 0.001443978702099771 0 0.024380836082425472 0.0015332783795751394 0 0.02432908365878737 0.0014416910719357509 0 0.024405889327846535 0.0013963369359194719 0 0.024380836082425472 0.0015332783795751394 0 0.024341477719233721 0.0013518241486046986 0 0.02432908365878737 0.0014416910719357509 0 0.024405889327846535 0.0013963369359194719 0 0.024425306525404485 0.0013064051741678343 0 0.024341477719233721 0.0013518241486046986 0 0.024405889327846535 0.0013963369359194719 0 0.024405889327846535 0.0013963369359194719 0 0.024460589746646853 0.0013556845881777305 0 0.024466997474115678 0.001443978702099771 0 0.024540877846561008 0.0013690891844431122 0 0.024465283989768213 0.0012642019298595355 0 0.024460589746646853 0.0013556845881777305 0 0.024540877846561008 0.0013690891844431122 0 0.024460589746646853 0.0013556845881777305 0 0.024466997474115678 0.001443978702099771 0 0.024425306525404485 0.0013064051741678343 0 0.024405889327846535 0.0013963369359194719 0 0.024460589746646853 0.0013556845881777305 0 0.024466997474115678 0.001443978702099771 0 0.024380836082425472 0.0015332783795751394 0 0.024485757231173685 0.0014996732844030115 0 0.022702659337088298 0.0016724206433290608 0 0.022407593417167204 0.0014954025782281141 0 0.020342246119833703 0.0018321150688794335 0 0.021063102208835869 0.0021238054251852246 0 0.020247251069924338 0.0021322049292755024 0 0.020639740204192524 0.0016386242037022321 0 0.02085803336320001 0.0014413329763034006 0 0.020342246119833703 0.0018321150688794335 0 0.020834304423695306 0.0017073208684438006 0 0.020891648986939029 0.0012156464557702147 0 0.020342246119833703 0.0018321150688794335 0 0.020552001883645261 0.0015370102861669177 0 0.020276938327984991 0.0016217771883510674 0 0.020342246119833703 0.0018321150688794335 0 0.020834304423695306 0.0017073208684438006 0 0.021063102208835869 0.0021238054251852246 0 0.020834304423695306 0.0017073208684438006 0 0.021063102208835869 0.0021238054251852246 0 0.021516507229361111 0.0014506648388418132 0 0.02432908365878737 0.0014416910719357509 0 0.024380836082425472 0.0015332783795751394 0 0.024240495620631682 0.0015899736031973165 0 0.022702659337088298 0.0016724206433290608 0 0.022991880367391811 0.0017402824492462235 0 0.021894747743188333 0.0020455063870297063 0 0.021516507229361111 0.0014506648388418132 0 0.022331179828809136 0.0015283924397067094 0 0.021063102208835869 0.0021238054251852246 0 0.021894747743188333 0.0020455063870297063 0 0.021516507229361111 0.0014506648388418132 0 0.021516507229361111 0.0014506648388418132 0 0.021415709487512355 0.00065577519123846478 0 0.020891648986939029 0.0012156464557702147 0 0.021516507229361111 0.0014506648388418132 0 0.022331179828809136 0.0015283924397067094 0 0.022125782472298846 0.00093334286109535364 0 0.021264204707253459 0.0011664950299220885 0 0.021821760631516626 0.001256781010116736 0 0.021516507229361111 0.0014506648388418132 0 0.021415709487512355 0.00065577519123846478 0 0.022125782472298846 0.00093334286109535364 0 0.02135327548287513 0.0011918590306198833 0 0.021017283622895486 0.0012365287154084304 0 0.021618025214754026 0.0014530035194306003 0 0.02135327548287513 0.0011918590306198833 0 0.021618025214754026 0.0014530035194306003 0 0.021489954117573269 0.001141759639456529 0 0.021264204707253459 0.0011664950299220885 0 0.021253166838229878 0.0011642056637480031 0 0.020372214818492301 0.0012128724477425891 0 0.020552001883645261 0.0015370102861669177 0 0.020569182409256866 0.001201487231489125 0 0.020774238749645478 0.0012352473507924525 0 0.020552001883645261 0.0015370102861669177 0 0.020569182409256866 0.001201487231489125 0 0.020832193752155129 0.0012564176298093331 0 0.020774238749645478 0.0012352473507924525 0 0.020552001883645261 0.0015370102861669177 0 0.021264204707253459 0.0011664950299220885 0 0.02085803336320001 0.0014413329763034006 0 0.020372214818492301 0.0012128724477425891 0 0.020271379664380133 0.0014374939175225384 0 0.020552001883645261 0.0015370102861669177 0 0.020372214818492301 0.0012128724477425891 0 0.020271379664380133 0.0014374939175225384 0 0.020113296523813589 0.0013029819171282515 0 0.020271379664380133 0.0014374939175225384 0 0.020552001883645261 0.0015370102861669177 0 0.020276938327984991 0.0016217771883510674 0 0.020834304423695306 0.0017073208684438006 0 0.021516507229361111 0.0014506648388418132 0 0.020891648986939029 0.0012156464557702147 0 0.02328684809512958 0.0016966686216435653 0 0.023047132380416644 0.0015377707973674363 0 0.023242901027803943 0.0016079659705607668 0 0.023047132380416644 0.0015377707973674363 0 0.023242901027803943 0.0016079659705607668 0 0.023144837021577217 0.0014573348926311348 0 0.023386625462938137 0.0015425626167370773 0 0.02328684809512958 0.0016966686216435653 0 0.023242901027803943 0.0016079659705607668 0 0.023624642157543611 0.0014292964221043804 0 0.023386625462938137 0.0015425626167370773 0 0.02328684809512958 0.0016966686216435653 0 0.023624642157543611 0.0014292964221043804 0 0.02328684809512958 0.0016966686216435653 0 0.023962401618980531 0.0016897736804012619 0 0.0232285831372025 0.0017486406997671803 0 0.02318154474566237 0.0017551482630874578 0 0.02328684809512958 0.0016966686216435653 0 0.022928425368028662 0.0015782118008157422 0 0.023047132380416644 0.0015377707973674363 0 0.02328684809512958 0.0016966686216435653 0 0.022928425368028662 0.0015782118008157422 0 0.022625089696255516 0.0019229694832783948 0 0.022928425368028662 0.0015782118008157422 0 0.022625089696255516 0.0019229694832783948 0 0.022331179828809136 0.0015283924397067094 0 0.022991880367391811 0.0017402824492462235 0 0.02318154474566237 0.0017551482630874578 0 0.024117777478426899 0.0013847873265248438 0 0.024240495620631682 0.0015899736031973165 0 0.023962401618980531 0.0016897736804012619 0 0.021894747743188333 0.0020455063870297063 0 0.022625089696255516 0.0019229694832783948 0 0.022331179828809136 0.0015283924397067094 0 0.021821760631516626 0.001256781010116736 0 0.022355251605993422 0.0013938986566258199 0 0.022331179828809136 0.0015283924397067094 0 0.022125782472298846 0.00093334286109535364 0 0.022770743732516842 0.0012431714150041501 0 0.021618025214754026 0.0014530035194306003 0 0.02231781693836906 0.0015797962831098616 0 0.021988586341589133 0.0011316862343575774 0 0.021618025214754026 0.0014530035194306003 0 0.021988586341589133 0.0011316862343575774 0 0.021489954117573269 0.001141759639456529 0 0.02231781693836906 0.0015797962831098616 0 0.022636101542061842 0.0012394294253921208 0 0.021988586341589133 0.0011316862343575774 0 0.022928425368028662 0.0015782118008157422 0 0.022331179828809136 0.0015283924397067094 0 0.022770743732516842 0.0012431714150041501 0 0.022928425368028662 0.0015782118008157422 0 0.022770743732516842 0.0012431714150041501 0 0.023047132380416644 0.0015377707973674363 0 0.022355251605993422 0.0013938986566258199 0 0.022617079546533851 0.0014677869004438861 0 0.02231781693836906 0.0015797962831098616 0 0.022636101542061842 0.0012394294253921208 0 0.023047132380416644 0.0015377707973674363 0 0.022636101542061842 0.0012394294253921208 0 0.022978607251452784 0.0012642116267675542 0 0.023047132380416644 0.0015377707973674363 0 0.022636101542061842 0.0012394294253921208 0 0.022978607251452784 0.0012642116267675542 0 0.022788308924386109 0.0010372867537427174 0 0.022978607251452784 0.0012642116267675542 0 0.023047132380416644 0.0015377707973674363 0 0.023144837021577217 0.0014573348926311348 0 0.022817821804367318 0.00083853511034263808 0 0.022788308924386109 0.0010372867537427174 0 0.022965216985123417 0.0010305378609361379 0 0.022978607251452784 0.0012642116267675542 0 0.022788308924386109 0.0010372867537427174 0 0.022965216985123417 0.0010305378609361379 0 0.022817821804367318 0.00083853511034263808 0 0.022788308924386109 0.0010372867537427174 0 0.022318320011039412 0.00076932001852316649 0 0.022636101542061842 0.0012394294253921208 0 0.022788308924386109 0.0010372867537427174 0 0.022318320011039412 0.00076932001852316649 0 0.022467021982665928 0.00084192104119070051 0 0.022090937434651119 0.00087358691208335186 0 0.022301657722682625 0.00089058717212453162 0 0.021839840976558684 0.0009275720659568088 0 0.021992379306364204 0.00057081866403819179 0 0.021839840976558684 0.0009275720659568088 0 0.021617025736013661 0.00081154360883504419 0 0.021644805414374885 0.00059522992412156385 0 0.022636101542061842 0.0012394294253921208 0 0.022318320011039412 0.00076932001852316649 0 0.021988586341589133 0.0011316862343575774 0 0.022090937434651119 0.00087358691208335186 0 0.021836946645079479 0.00089904054094186491 0 0.022318320011039412 0.00076932001852316649 0 0.021988586341589133 0.0011316862343575774 0 0.02149019115641428 0.00090517067480050015 0 0.021988586341589133 0.0011316862343575774 0 0.021489954117573269 0.001141759639456529 0 0.02149019115641428 0.00090517067480050015 0 0.021617025736013661 0.00081154360883504419 0 0.02149019115641428 0.00090517067480050015 0 0.021407574740955219 0.00081266605760221724 0 0.021839840976558684 0.0009275720659568088 0 0.021617025736013661 0.00081154360883504419 0 0.02149019115641428 0.00090517067480050015 0 0.021617025736013661 0.00081154360883504419 0 0.021431090740999754 0.00065669150096798535 0 0.021407574740955219 0.00081266605760221724 0 0.021431090740999754 0.00065669150096798535 0 0.021644805414374885 0.00059522992412156385 0 0.021253319423631581 0.00039416974000343878 0 0.021617025736013661 0.00081154360883504419 0 0.021431090740999754 0.00065669150096798535 0 0.021644805414374885 0.00059522992412156385 0 0.021644805414374885 0.00059522992412156385 0 0.021719870308878401 0.00021785816169795751 0 0.021253319423631581 0.00039416974000343878 0 0.021719870308878401 0.00021785816169795751 0 0.021253319423631581 0.00039416974000343878 0 0.021205538466572759 -0.00021306656696214442 0 0.021644805414374885 0.00059522992412156385 0 0.021719870308878401 0.00021785816169795751 0 0.021992379306364204 0.00057081866403819179 0 0.021839840976558684 0.0009275720659568088 0 0.021644805414374885 0.00059522992412156385 0 0.021992379306364204 0.00057081866403819179 0 0.022301657722682625 0.00089058717212453162 0 0.021992379306364204 0.00057081866403819179 0 0.022268155641864178 0.00051724029771029552 0 0.021992379306364204 0.00057081866403819179 0 0.022150517848703057 0.00027118025842088358 0 0.022268155641864178 0.00051724029771029552 0 0.021719870308878401 0.00021785816169795751 0 0.021992379306364204 0.00057081866403819179 0 0.022150517848703057 0.00027118025842088358 0 0.022150517848703057 0.00027118025842088358 0 0.02237801463387409 0.00035150772248313059 0 0.022268155641864178 0.00051724029771029552 0 0.02237801463387409 0.00035150772248313059 0 0.022268155641864178 0.00051724029771029552 0 0.022515510221807741 0.0005348898723029627 0 0.022301657722682625 0.00089058717212453162 0 0.022268155641864178 0.00051724029771029552 0 0.022515510221807741 0.0005348898723029627 0 0.020759690120190726 0.00090105453099014235 0 0.020899903097680469 0.00072984477956683546 0 0.020519781709835538 0.00065986559510581872 0 0.020581637773736665 0.0010291859910035342 0 0.020759690120190726 0.00090105453099014235 0 0.020519781709835538 0.00065986559510581872 0 0.020289239921889479 0.00093113786645577503 0 0.020581637773736665 0.0010291859910035342 0 0.020519781709835538 0.00065986559510581872 0 0.020289239921889479 0.00093113786645577503 0 0.020519781709835538 0.00065986559510581872 0 0.020064266477816423 0.00068742196475823111 0 0.020372214818492301 0.0012128724477425891 0 0.020289239921889479 0.00093113786645577503 0 0.020581637773736665 0.0010291859910035342 0 0.020372214818492301 0.0012128724477425891 0 0.020569182409256866 0.001201487231489125 0 0.020581637773736665 0.0010291859910035342 0 0.020774238749645478 0.0012352473507924525 0 0.020569182409256866 0.001201487231489125 0 0.020581637773736665 0.0010291859910035342 0 0.020843677123352746 0.001266507842895791 0 0.020774238749645478 0.0012352473507924525 0 0.020879356836785923 0.0011041579008806413 0 0.020581637773736665 0.0010291859910035342 0 0.020879356836785923 0.0011041579008806413 0 0.020759690120190726 0.00090105453099014235 0 0.020774238749645478 0.0012352473507924525 0 0.020581637773736665 0.0010291859910035342 0 0.020879356836785923 0.0011041579008806413 0 0.021264204707253459 0.0011664950299220885 0 0.021283802273381489 0.0010856988164745062 0 0.02135327548287513 0.0011918590306198833 0 0.021017283622895486 0.0012365287154084304 0 0.021292675324009292 0.00095648586348315811 0 0.020843677123352746 0.001266507842895791 0 0.020879356836785923 0.0011041579008806413 0 0.021079810932283383 0.0010820688903715691 0 0.020879356836785923 0.0011041579008806413 0 0.021079810932283383 0.0010820688903715691 0 0.020942322350977292 0.00094963855930594763 0 0.020879356836785923 0.0011041579008806413 0 0.020759690120190726 0.00090105453099014235 0 0.020942322350977292 0.00094963855930594763 0 0.02135327548287513 0.0011918590306198833 0 0.021489954117573269 0.001141759639456529 0 0.021292675324009292 0.00095648586348315811 0 0.021292675324009292 0.00095648586348315811 0 0.02149019115641428 0.00090517067480050015 0 0.021407574740955219 0.00081266605760221724 0 0.021489954117573269 0.001141759639456529 0 0.021292675324009292 0.00095648586348315811 0 0.02149019115641428 0.00090517067480050015 0 0.021283802273381489 0.0010856988164745062 0 0.021326042804810937 0.0010222649868370883 0 0.021079810932283383 0.0010820688903715691 0 0.021407574740955219 0.00081266605760221724 0 0.021099893560802638 0.00083808738660082476 0 0.021407574740955219 0.00081266605760221724 0 0.021099893560802638 0.00083808738660082476 0 0.021178795945535574 0.00063687849241413617 0 0.021099893560802638 0.00083808738660082476 0 0.020899903097680469 0.00072984477956683546 0 0.021178795945535574 0.00063687849241413617 0 0.021431090740999754 0.00065669150096798535 0 0.021407574740955219 0.00081266605760221724 0 0.021178795945535574 0.00063687849241413617 0 0.020759690120190726 0.00090105453099014235 0 0.020942322350977292 0.00094963855930594763 0 0.020899903097680469 0.00072984477956683546 0 0.021079810932283383 0.0010820688903715691 0 0.021099893560802638 0.00083808738660082476 0 0.020942322350977292 0.00094963855930594763 0 0.021099893560802638 0.00083808738660082476 0 0.020942322350977292 0.00094963855930594763 0 0.020899903097680469 0.00072984477956683546 0 0.020899903097680469 0.00072984477956683546 0 0.020817402597524258 0.00045106775077185558 0 0.021178795945535574 0.00063687849241413617 0 0.020899903097680469 0.00072984477956683546 0 0.020817402597524258 0.00045106775077185558 0 0.020519781709835538 0.00065986559510581872 0 0.020817402597524258 0.00045106775077185558 0 0.021178795945535574 0.00063687849241413617 0 0.021253319423631581 0.00039416974000343878 0 0.021431090740999754 0.00065669150096798535 0 0.021178795945535574 0.00063687849241413617 0 0.021253319423631581 0.00039416974000343878 0 0.020817402597524258 0.00045106775077185558 0 0.021253319423631581 0.00039416974000343878 0 0.02066719837276295 4.5331866219142012e-05 0 0.020817402597524258 0.00045106775077185558 0 0.020494556789922944 0.0002687402477804542 0 0.02066719837276295 4.5331866219142012e-05 0 0.020817402597524258 0.00045106775077185558 0 0.020494556789922944 0.0002687402477804542 0 0.020519781709835538 0.00065986559510581872 0 0.020494556789922944 0.0002687402477804542 0 0.020519781709835538 0.00065986559510581872 0 0.020168209665775066 0.0002970645925670462 0 0.020519781709835538 0.00065986559510581872 0 0.020168209665775066 0.0002970645925670462 0 0.020064266477816423 0.00068742196475823111 0 0.020494556789922944 0.0002687402477804542 0 0.020168209665775066 0.0002970645925670462 0 0.020353690425176232 -3.9016207518861728e-05 0 0.020168209665775066 0.0002970645925670462 0 0.019922751759247074 0.00019357255786836016 0 0.01978568677838969 0.00042421483946561525 0 0.019922751759247074 0.00019357255786836016 0 0.01978568677838969 0.00042421483946561525 0 0.019715216278091766 8.8487644672747783e-05 0 0.01978568677838969 0.00042421483946561525 0 0.019747646351973791 0.00075898154320706726 0 0.019458711429267493 0.00055408369259399401 0 0.01978568677838969 0.00042421483946561525 0 0.020064266477816423 0.00068742196475823111 0 0.019747646351973791 0.00075898154320706726 0 0.020168209665775066 0.0002970645925670462 0 0.01978568677838969 0.00042421483946561525 0 0.020064266477816423 0.00068742196475823111 0 0.020289239921889479 0.00093113786645577503 0 0.020064266477816423 0.00068742196475823111 0 0.019893208102375982 0.0010694464770162695 0 0.020064266477816423 0.00068742196475823111 0 0.019747646351973791 0.00075898154320706726 0 0.019893208102375982 0.0010694464770162695 0 0.019747646351973791 0.00075898154320706726 0 0.019893208102375982 0.0010694464770162695 0 0.01945972671131178 0.00092451885775621419 0 0.019879427544853386 0.0010239632351671537 0 0.019464377439267717 0.00088353414236893972 0 0.020372214818492301 0.0012128724477425891 0 0.020289239921889479 0.00093113786645577503 0 0.019893208102375982 0.0010694464770162695 0 0.020105597993250322 0.0011004070069349609 0 0.019879427544853386 0.0010239632351671537 0 0.019216014951838851 0.00087138900526937898 0 0.019349393496491622 0.0010664076117741503 0 0.019122512718969992 0.0012067462432767168 0 0.019216014951838851 0.00087138900526937898 0 0.019349393496491622 0.0010664076117741503 0 0.019509348699004531 0.00084682232484379271 0 0.01998054760350338 0.0010302035754230804 0 0.019509348699004531 0.00084682232484379271 0 0.019546410192808936 0.0011425935957022383 0 0.019349393496491622 0.0010664076117741503 0 0.019509348699004531 0.00084682232484379271 0 0.019546410192808936 0.0011425935957022383 0 0.019747646351973791 0.00075898154320706726 0 0.01945972671131178 0.00092451885775621419 0 0.019458711429267493 0.00055408369259399401 0 0.01945972671131178 0.00092451885775621419 0 0.01906896477063626 0.00072208675626393487 0 0.018964776054123025 0.00075617681038131121 0 0.019464377439267717 0.00088353414236893972 0 0.019022040915027294 0.00073674101654001454 0 0.019216014951838851 0.00087138900526937898 0 0.019509348699004531 0.00084682232484379271 0 0.018987983408103877 0.00066498657386079407 0 0.01945972671131178 0.00092451885775621419 0 0.019458711429267493 0.00055408369259399401 0 0.01906896477063626 0.00072208675626393487 0 0.019458711429267493 0.00055408369259399401 0 0.019223393582541944 0.00035000682117366404 0 0.01906896477063626 0.00072208675626393487 0 0.017222593344373597 -0.00015768535754893397 0 0.017606776939420088 0.00014700029589678426 0 0.01978568677838969 0.00042421483946561525 0 0.019467683515283919 0.00021091739171567192 0 0.019715216278091766 8.8487644672747783e-05 0 0.01978568677838969 0.00042421483946561525 0 0.019458711429267493 0.00055408369259399401 0 0.019467683515283919 0.00021091739171567192 0 0.017222593344373597 -0.00015768535754893397 0 0.015770169407522475 -0.00086684706688289681 0 0.019467683515283919 0.00021091739171567192 0 0.019223393582541944 0.00035000682117366404 0 0.019350964728228757 6.3164225048674842e-06 0 0.019458711429267493 0.00055408369259399401 0 0.019467683515283919 0.00021091739171567192 0 0.019223393582541944 0.00035000682117366404 0 0.018577801246588824 6.9240501593354162e-06 0 0.018870169203525005 0.00039783806564343103 0 0.018969662306166594 -5.0687836997499173e-05 0 0.019120501683196782 0.00019819530095202981 0 0.018870169203525005 0.00039783806564343103 0 0.018969662306166594 -5.0687836997499173e-05 0 0.018577801246588824 6.9240501593354162e-06 0 0.01855878224230537 0.00030970662323629068 0 0.018870169203525005 0.00039783806564343103 0 0.01855878224230537 0.00030970662323629068 0 0.018870169203525005 0.00039783806564343103 0 0.018429275158719383 0.00053587396853460795 0 0.018870169203525005 0.00039783806564343103 0 0.018429275158719383 0.00053587396853460795 0 0.018964776054123025 0.00075617681038131121 0 0.019120501683196782 0.00019819530095202981 0 0.018870169203525005 0.00039783806564343103 0 0.01906896477063626 0.00072208675626393487 0 0.0066085608895586076 -0.0042698890424941113 0 0.006595934772234145 -0.0045214538985525292 0 0.0063730137642183243 -0.0042527566051127619 0 0.006595934772234145 -0.0045214538985525292 0 0.0063730137642183243 -0.0042527566051127619 0 0.0062996579196619544 -0.0045701570831689336 0 0.0059679949823269289 -0.0042738575133988424 0 0.0063730137642183243 -0.0042527566051127619 0 0.0062996579196619544 -0.0045701570831689336 0 0.018577801246588824 6.9240501593354162e-06 0 0.01855878224230537 0.00030970662323629068 0 0.018222958907132138 0.00037127683173036939 0 0.012275661958409609 -0.0021124345428049553 0 0.012255916316628883 -0.0021137268465133648 0 0.018222958907132138 0.00037127683173036939 0 0.018218860477561681 0.00065206170260281773 0 0.018429275158719383 0.00053587396853460795 0 0.01855878224230537 0.00030970662323629068 0 0.018222958907132138 0.00037127683173036939 0 0.018429275158719383 0.00053587396853460795 0 0.006595934772234145 -0.0045214538985525292 0 0.0066062720395567501 -0.0048625132960075663 0 0.0062996579196619544 -0.0045701570831689336 0 0.017896863369717655 0.00070683953676170942 0 0.018222958907132138 0.00037127683173036939 0 0.018218860477561681 0.00065206170260281773 0 0.017896863369717655 0.00070683953676170942 0 0.018218860477561681 0.00065206170260281773 0 0.018172529022475913 0.00084930661087874362 0 0.012254196733958828 -0.0021455751588443455 0 0.012255916316628883 -0.0021137268465133648 0 0.018218860477561681 0.00065206170260281773 0 0.018381792374399956 0.00079717831011220995 0 0.018172529022475913 0.00084930661087874362 0 0.018218860477561681 0.00065206170260281773 0 0.018429275158719383 0.00053587396853460795 0 0.018381792374399956 0.00079717831011220995 0 0.018429275158719383 0.00053587396853460795 0 0.018381792374399956 0.00079717831011220995 0 0.018551974516905403 0.00074743519598081053 0 0.018381792374399956 0.00079717831011220995 0 0.018306729950474408 0.0010293186535637706 0 0.018615436008963256 0.00095844061246594847 0 0.018306729950474408 0.0010293186535637706 0 0.018615436008963256 0.00095844061246594847 0 0.01848191871900625 0.0012205540818970807 0 0.018381792374399956 0.00079717831011220995 0 0.018306729950474408 0.0010293186535637706 0 0.018172529022475913 0.00084930661087874362 0 0.018306729950474408 0.0010293186535637706 0 0.018016243385568211 0.0010356972532321236 0 0.018172529022475913 0.00084930661087874362 0 0.017896863369717655 0.00070683953676170942 0 0.018016243385568211 0.0010356972532321236 0 0.018172529022475913 0.00084930661087874362 0 0.018870169203525005 0.00039783806564343103 0 0.01906896477063626 0.00072208675626393487 0 0.018964776054123025 0.00075617681038131121 0 0.018987983408103877 0.00066498657386079407 0 0.018784456666000694 0.00069412952961442158 0 0.018892675838828608 0.00083118426692222337 0 0.018987983408103877 0.00066498657386079407 0 0.018892675838828608 0.00083118426692222337 0 0.01901555733857049 0.00083867924875308871 0 0.019216014951838851 0.00087138900526937898 0 0.018987983408103877 0.00066498657386079407 0 0.01901555733857049 0.00083867924875308871 0 0.018429275158719383 0.00053587396853460795 0 0.018987983408103877 0.00066498657386079407 0 0.018784456666000694 0.00069412952961442158 0 0.018759790764087122 0.00065201724047149728 0 0.019022040915027294 0.00073674101654001454 0 0.018429275158719383 0.00053587396853460795 0 0.018551974516905403 0.00074743519598081053 0 0.018784456666000694 0.00069412952961442158 0 0.018551974516905403 0.00074743519598081053 0 0.018784456666000694 0.00069412952961442158 0 0.018615436008963256 0.00095844061246594847 0 0.018784456666000694 0.00069412952961442158 0 0.018678370269410896 0.00098550630661842263 0 0.018892675838828608 0.00083118426692222337 0 0.01924595407297015 0.00094397438353856688 0 0.019310916793987113 0.00094671014822014007 0 0.018381792374399956 0.00079717831011220995 0 0.018551974516905403 0.00074743519598081053 0 0.018615436008963256 0.00095844061246594847 0 0.018678370269410896 0.00098550630661842263 0 0.018964656949514717 0.00098212351987051589 0 0.01881548810519449 0.0012194157379789227 0 0.019216014951838851 0.00087138900526937898 0 0.018964656949514717 0.00098212351987051589 0 0.019122512718969992 0.0012067462432767168 0 0.018678370269410896 0.00098550630661842263 0 0.018964656949514717 0.00098212351987051589 0 0.018892675838828608 0.00083118426692222337 0 0.018964656949514717 0.00098212351987051589 0 0.018892675838828608 0.00083118426692222337 0 0.01901555733857049 0.00083867924875308871 0 0.019216014951838851 0.00087138900526937898 0 0.018964656949514717 0.00098212351987051589 0 0.01901555733857049 0.00083867924875308871 0 0.018953019879392088 0.0013649852865037389 0 0.01881548810519449 0.0012194157379789227 0 0.018802879132230214 0.0015287468504625286 0 0.019122512718969992 0.0012067462432767168 0 0.018953019879392088 0.0013649852865037389 0 0.01881548810519449 0.0012194157379789227 0 0.018964656949514717 0.00098212351987051589 0 0.019122512718969992 0.0012067462432767168 0 0.01881548810519449 0.0012194157379789227 0 0.019122512718969992 0.0012067462432767168 0 0.019100346103127205 0.0014124183517253686 0 0.018953019879392088 0.0013649852865037389 0 0.01881548810519449 0.0012194157379789227 0 0.018552882489001034 0.0012675478635326817 0 0.018802879132230214 0.0015287468504625286 0 0.018678370269410896 0.00098550630661842263 0 0.01881548810519449 0.0012194157379789227 0 0.018552882489001034 0.0012675478635326817 0 0.019310916793987113 0.00094671014822014007 0 0.019624560572977238 0.00073758343963422441 0 0.019624560572977238 0.00073758343963422441 0 0.020183525357112694 0.00072272667676269279 0 0.020755353490948297 0.00037255118419808316 0 0.021085895841725943 0.00027845142397334442 0 0.020865997358331938 0.00015000768976920639 0 0.020943062749694263 0.00057706309376871117 0 0.020755353490948297 0.00037255118419808316 0 0.021085895841725943 0.00027845142397334442 0 0.020755353490948297 0.00037255118419808316 0 0.020723292895887334 0.0001815140510548009 0 0.020865997358331938 0.00015000768976920639 0 0.020755353490948297 0.00037255118419808316 0 0.020565964827307982 0.00016851611874138802 0 0.020723292895887334 0.0001815140510548009 0 0.020183525357112694 0.00072272667676269279 0 0.020947490440423391 0.00072947800990675455 0 0.018802879132230214 0.0015287468504625286 0 0.019008864470266708 0.0015389401146999172 0 0.019056822075180477 0.0017906014183068761 0 0.019123055342665733 0.0016497676670017348 0 0.019008864470266708 0.0015389401146999172 0 0.019164657107441186 0.0015293129343848259 0 0.019123055342665733 0.0016497676670017348 0 0.019008864470266708 0.0015389401146999172 0 0.019056822075180477 0.0017906014183068761 0 0.019100346103127205 0.0014124183517253686 0 0.019008864470266708 0.0015389401146999172 0 0.019164657107441186 0.0015293129343848259 0 0.019100346103127205 0.0014124183517253686 0 0.018953019879392088 0.0013649852865037389 0 0.019008864470266708 0.0015389401146999172 0 0.018953019879392088 0.0013649852865037389 0 0.018802879132230214 0.0015287468504625286 0 0.019008864470266708 0.0015389401146999172 0 0.018306729950474408 0.0010293186535637706 0 0.018016243385568211 0.0010356972532321236 0 0.01816381128181482 0.0012641340354598764 0 0.017853997273215658 0.0012914276307838134 0 0.018016243385568211 0.0010356972532321236 0 0.01816381128181482 0.0012641340354598764 0 0.018306729950474408 0.0010293186535637706 0 0.018444081601151421 0.0011770981667974549 0 0.01816381128181482 0.0012641340354598764 0 0.01946146974923799 0.0006835104864402877 0 0.019624560572977238 0.00073758343963422441 0 0.019624560572977238 0.00073758343963422441 0 0.019488953937009293 0.00051981137415985806 0 0.018444081601151421 0.0011770981667974549 0 0.01816381128181482 0.0012641340354598764 0 0.018292313164978383 0.0014872882376332267 0 0.01816381128181482 0.0012641340354598764 0 0.018292313164978383 0.0014872882376332267 0 0.018033198933845283 0.00148788674511689 0 0.017853997273215658 0.0012914276307838134 0 0.01816381128181482 0.0012641340354598764 0 0.018033198933845283 0.00148788674511689 0 0.018292313164978383 0.0014872882376332267 0 0.018033198933845283 0.00148788674511689 0 0.01814155986850775 0.0018062780278940878 0 0.017709568407175458 0.0015918201047114228 0 0.018033198933845283 0.00148788674511689 0 0.01814155986850775 0.0018062780278940878 0 0.019488953937009293 0.00051981137415985806 0 0.019448557669340855 -0.00023300247258434679 0 0.021085895841725943 0.00027845142397334442 0 0.021013608137067208 3.4250138277124227e-05 0 0.020865997358331938 0.00015000768976920639 0 0.021085895841725943 0.00027845142397334442 0 0.021013608137067208 3.4250138277124227e-05 0 0.021224917951481886 -2.0140624479852927e-05 0 0.021013608137067208 3.4250138277124227e-05 0 0.020976875176519142 -3.3852549910267334e-05 0 0.020894208696571558 -4.0302360639685815e-07 0 0.021309564226748651 -0.00026878077664076606 0 0.021180405588821345 -0.00021337016116689146 0 0.021193815293825552 -0.00023147810746700648 0 0.021309564226748651 -0.00026878077664076606 0 0.020977122918141307 -0.00011821951957400319 0 0.021113875524241019 -7.7794369578130178e-05 0 0.02130165293905896 3.3905881353653526e-05 0 0.021236838602476799 0.00016819978281043955 0 0.02102253716666071 -5.0423351658201929e-05 0 0.020977122918141307 -0.00011821951957400319 0 0.021113875524241019 -7.7794369578130178e-05 0 0.021013608137067208 3.4250138277124227e-05 0 0.020976875176519142 -3.3852549910267334e-05 0 0.02102253716666071 -5.0423351658201929e-05 0 0.021013608137067208 3.4250138277124227e-05 0 0.02102253716666071 -5.0423351658201929e-05 0 0.021113875524241019 -7.7794369578130178e-05 0 0.020976875176519142 -3.3852549910267334e-05 0 0.02102253716666071 -5.0423351658201929e-05 0 0.020977122918141307 -0.00011821951957400319 0 0.021013608137067208 3.4250138277124227e-05 0 0.021113875524241019 -7.7794369578130178e-05 0 0.021224917951481886 -2.0140624479852927e-05 0 0.019610954710934006 -0.00017019208813786165 0 0.019448557669340855 -0.00023300247258434679 0 0.021309564226748651 -0.00026878077664076606 0 0.021113875524241019 -7.7794369578130178e-05 0 0.02121598203167847 -3.3737611352443332e-05 0 0.020174238355402316 -0.00087315509145911917 0 0.019448557669340855 -0.00023300247258434679 0 0.019506031278652924 -0.0015021334632756072 0 0.019508264657106155 -0.0014403050883477623 0 0.019618483613166187 -0.0015833074851354034 0 0.019506031278652924 -0.0015021334632756072 0 0.019512384008197291 -0.0015731413776558275 0 0.019618483613166187 -0.0015833074851354034 0 0.02061280935092074 6.8211716732923081e-05 0 0.020723292895887334 0.0001815140510548009 0 0.020783169313758957 5.1220455384054407e-05 0 0.02156742986302574 0.00046557488848573573 0 0.021632931187423751 0.00043152567239441167 0 0.021629264998968029 0.00054234250864725649 0 0.021241532061279367 0.00053930680976727236 0 0.021100307034513682 0.00070833631631831123 0 0.020860486049318699 0.00077702542955564147 0 0.020926687883987785 0.00063692040268087987 0 0.020993036979012607 0.00070819348327517137 0 0.021241532061279367 0.00053930680976727236 0 0.020947490440423391 0.00072947800990675455 0 0.019060620740425603 0.0017873994649617211 0 0.019120623345012324 0.0018522627879740622 0 0.019184561174617806 0.0017241940046979875 0 0.020947490440423391 0.00072947800990675455 0 0.021100307034513682 0.00070833631631831123 0 0.020848328301004377 0.00086315702835392167 0 0.020947490440423391 0.00072947800990675455 0 0.019123055342665733 0.0016497676670017348 0 0.019060620740425603 0.0017873994649617211 0 0.019184561174617806 0.0017241940046979875 0 0.02061280935092074 6.8211716732923081e-05 0 0.020565964827307982 0.00016851611874138802 0 0.020723292895887334 0.0001815140510548009 0 0.020723292895887334 0.0001815140510548009 0 0.020865997358331938 0.00015000768976920639 0 0.020783169313758957 5.1220455384054407e-05 0 0.020977122918141307 -0.00011821951957400319 0 0.02061280935092074 6.8211716732923081e-05 0 0.020783169313758957 5.1220455384054407e-05 0 0.021013608137067208 3.4250138277124227e-05 0 0.020865997358331938 0.00015000768976920639 0 0.020894208696571558 -4.0302360639685815e-07 0 0.020865997358331938 0.00015000768976920639 0 0.020783169313758957 5.1220455384054407e-05 0 0.020894208696571558 -4.0302360639685815e-07 0 0.021180405588821345 -0.00021337016116689146 0 0.02110040881793963 -0.00016477916167508477 0 0.021142476688087487 -0.00020882079810588162 0 0.02174908167483031 7.3071023220674683e-05 0 0.022195394541437603 0.00010807217748878406 0 0.021236838602476799 0.00016819978281043955 0 0.021241532061279367 0.00053930680976727236 0 0.021193815293825552 -0.00023147810746700648 0 0.021142476688087487 -0.00020882079810588162 0 0.02112376099441076 -0.00022077894099651536 0 0.021160267735253979 -0.00026316591833674182 0 0.021193815293825552 -0.00023147810746700648 0 0.021066417003747496 -0.00022198694085138768 0 0.020976875176519142 -3.3852549910267334e-05 0 0.020977122918141307 -0.00011821951957400319 0 0.020894208696571558 -4.0302360639685815e-07 0 0.020977122918141307 -0.00011821951957400319 0 0.020783169313758957 5.1220455384054407e-05 0 0.020894208696571558 -4.0302360639685815e-07 0 0.021180405588821345 -0.00021337016116689146 0 0.021193815293825552 -0.00023147810746700648 0 0.021142476688087487 -0.00020882079810588162 0 0.021142476688087487 -0.00020882079810588162 0 0.02112376099441076 -0.00022077894099651536 0 0.021120185797384547 -0.00021243662942222995 0 0.021989271025197103 0.00018946901220826128 0 0.02205365333282145 0.00020596133483469806 0 0.022195394541437603 0.00010807217748878406 0 0.022414852469779846 0.00038580236022425952 0 0.02205365333282145 0.00020596133483469806 0 0.022414852469779846 0.00038580236022425952 0 0.021946330461065703 0.0003776088062202572 0 0.021987905088757264 0.00028998833672129058 0 0.022362719064896362 0.00036204469223162196 0 0.022195394541437603 0.00010807217748878406 0 0.02205365333282145 0.00020596133483469806 0 0.021241532061279367 0.00053930680976727236 0 0.02205365333282145 0.00020596133483469806 0 0.02156742986302574 0.00046557488848573573 0 0.021503692516074681 0.00060127626554022206 0 0.021629264998968029 0.00054234250864725649 0 0.02110040881793963 -0.00016477916167508477 0 0.021142476688087487 -0.00020882079810588162 0 0.021121093155120414 -0.00021200586783219218 0 0.021503692516074681 0.00060127626554022206 0 0.021629264998968029 0.00054234250864725649 0 0.021610990814132296 0.00062245295105434152 0 0.021100307034513682 0.00070833631631831123 0 0.022038037979631123 0.00074050383490255496 0 0.021629264998968029 0.00054234250864725649 0 0.021610990814132296 0.00062245295105434152 0 0.021804620273072565 0.00061603999854182591 0 0.022473449709306644 0.00049119528499405412 0 0.022309156286485433 0.00050021635870877638 0 0.022296757688776463 0.00048710972039602007 0 0.021670366837247587 0.00074376703775813613 0 0.021650673834898181 0.00065933214878855829 0 0.021683986082260954 0.00074325737381499295 0 0.022473449709306644 0.00049119528499405412 0 0.022296757688776463 0.00048710972039602007 0 0.02225776946598473 0.00045351195742169366 0 0.021632931187423751 0.00043152567239441167 0 0.021629264998968029 0.00054234250864725649 0 0.021804620273072565 0.00061603999854182591 0 0.022414852469779846 0.00038580236022425952 0 0.022784108222802323 0.00093353771733983046 0 0.022414852469779846 0.00038580236022425952 0 0.022038037979631123 0.00074050383490255496 0 0.022038037979631123 0.00074050383490255496 0 0.02203847819071568 0.00074005476997896142 0 0.019345728422752319 0.0017155261977138069 0 0.01947672705511011 0.0017531908002450002 0 0.019520815327923293 0.0021486116052197783 0 0.021200125873218584 0.0010392931638825286 0 0.022202794065142226 0.00078947962928905613 0 0.021609743887224638 0.0006803861440040235 0 0.021670366837247587 0.00074376703775813613 0 0.021650673834898181 0.00065933214878855829 0 0.019394491336887532 0.0016933446183775448 0 0.01947672705511011 0.0017531908002450002 0 0.019495176765975106 0.0016528235951618181 0 0.019394491336887532 0.0016933446183775448 0 0.019345728422752319 0.0017155261977138069 0 0.01947672705511011 0.0017531908002450002 0 0.021173564533051196 0.0010520217997814045 0 0.021200125873218584 0.0010392931638825286 0 0.019120623345012324 0.0018522627879740622 0 0.019340054075657059 0.0017395055279876722 0 0.019184561174617806 0.0017241940046979875 0 0.021100307034513682 0.00070833631631831123 0 0.021200125873218584 0.0010392931638825286 0 0.021399445062160689 0.00096648728451929824 0 0.022230357301377585 0.0010854390580337886 0 0.01947672705511011 0.0017531908002450002 0 0.019738985503713568 0.0021099966069721642 0 0.019735216182807824 0.0018242786109487889 0 0.019606118221273148 0.0016986298495952725 0 0.01947672705511011 0.0017531908002450002 0 0.019735216182807824 0.0018242786109487889 0 0.019606118221273148 0.0016986298495952725 0 0.019735216182807824 0.0018242786109487889 0 0.019730734855889068 0.0016911242925662946 0 0.019606118221273148 0.0016986298495952725 0 0.01947672705511011 0.0017531908002450002 0 0.019495176765975106 0.0016528235951618181 0 0.02247858393124974 0.00097757119386700187 0 0.022760352290372241 0.0010298623842268867 0 0.022585730578659199 0.0011232575882853988 0 0.01947672705511011 0.0017531908002450002 0 0.019520815327923293 0.0021486116052197783 0 0.01977898070379875 0.0021378767368819248 0 0.022309357715414101 0.00050089558596816115 0 0.022296757688776463 0.00048710972039602007 0 0.022275841528898575 0.00050210108852838755 0 0.022038037979631123 0.00074050383490255496 0 0.022202794065142226 0.00078947962928905613 0 0.022202794065142226 0.00078947962928905613 0 0.022784108222802323 0.00093353771733983046 0 0.022296757688776463 0.00048710972039602007 0 0.022275841528898575 0.00050210108852838755 0 0.02225776946598473 0.00045351195742169366 0 0.022791970459493292 0.0011142731208341166 0 0.022760352290372241 0.0010298623842268867 0 0.022585730578659199 0.0011232575882853988 0 0.022202794065142226 0.00078947962928905613 0 0.022230357301377585 0.0010854390580337886 0 0.022230357301377585 0.0010854390580337886 0 0.022407593417167204 0.0014954025782281141 0 0.023347476034680313 0.0013941529103714144 0 0.022230357301377585 0.0010854390580337886 0 0.019738985503713568 0.0021099966069721642 0 0.019984499153958422 0.001964574194438358 0 0.019735216182807824 0.0018242786109487889 0 0.019738985503713568 0.0021099966069721642 0 0.019984499153958422 0.001964574194438358 0 0.020247251069924338 0.0021322049292755024 0 0.024534066883601002 0.0014686021986336333 0 0.024547374932688937 0.001489239401804326 0 0.024485757231173685 0.0014996732844030115 0 0.019984499153958422 0.001964574194438358 0 0.020247251069924338 0.0021322049292755024 0 0.020168105905827828 0.0019244852139531957 0 0.020342246119833703 0.0018321150688794335 0 0.020247251069924338 0.0021322049292755024 0 0.020168105905827828 0.0019244852139531957 0 0.020342246119833703 0.0018321150688794335 0 0.020168105905827828 0.0019244852139531957 0 0.02011528740539429 0.0017798098462764322 0 0.019984499153958422 0.001964574194438358 0 0.020168105905827828 0.0019244852139531957 0 0.02011528740539429 0.0017798098462764322 0 0.02011528740539429 0.0017798098462764322 0 0.019909666187431181 0.0017047459820205852 0 0.020051883403328839 0.0015376277486484102 0 0.020342246119833703 0.0018321150688794335 0 0.02011528740539429 0.0017798098462764322 0 0.020276938327984991 0.0016217771883510674 0 0.019984499153958422 0.001964574194438358 0 0.019735216182807824 0.0018242786109487889 0 0.019909666187431181 0.0017047459820205852 0 0.019984499153958422 0.001964574194438358 0 0.02011528740539429 0.0017798098462764322 0 0.019909666187431181 0.0017047459820205852 0 0.019735216182807824 0.0018242786109487889 0 0.019909666187431181 0.0017047459820205852 0 0.019730734855889068 0.0016911242925662946 0 0.019909666187431181 0.0017047459820205852 0 0.019730734855889068 0.0016911242925662946 0 0.019793539815223801 0.0015372596327286516 0 0.019909666187431181 0.0017047459820205852 0 0.019793539815223801 0.0015372596327286516 0 0.020051883403328839 0.0015376277486484102 0 0.019793539815223801 0.0015372596327286516 0 0.020051883403328839 0.0015376277486484102 0 0.019923273929675762 0.0013520881724382184 0 0.02011528740539429 0.0017798098462764322 0 0.020276938327984991 0.0016217771883510674 0 0.020051883403328839 0.0015376277486484102 0 0.020271379664380133 0.0014374939175225384 0 0.020051883403328839 0.0015376277486484102 0 0.020113296523813589 0.0013029819171282515 0 0.020271379664380133 0.0014374939175225384 0 0.020276938327984991 0.0016217771883510674 0 0.020051883403328839 0.0015376277486484102 0 0.020372214818492301 0.0012128724477425891 0 0.01998054760350338 0.0010302035754230804 0 0.020113296523813589 0.0013029819171282515 0 0.01998054760350338 0.0010302035754230804 0 0.020113296523813589 0.0013029819171282515 0 0.019923273929675762 0.0013520881724382184 0 0.020051883403328839 0.0015376277486484102 0 0.020113296523813589 0.0013029819171282515 0 0.019923273929675762 0.0013520881724382184 0 0.01998054760350338 0.0010302035754230804 0 0.019923273929675762 0.0013520881724382184 0 0.019669530183710485 0.0013477697945382808 0 0.01998054760350338 0.0010302035754230804 0 0.019669530183710485 0.0013477697945382808 0 0.019546410192808936 0.0011425935957022383 0 0.019793539815223801 0.0015372596327286516 0 0.019923273929675762 0.0013520881724382184 0 0.019669530183710485 0.0013477697945382808 0 0.019669530183710485 0.0013477697945382808 0 0.019486019380563473 0.0014025996936739829 0 0.019546410192808936 0.0011425935957022383 0 0.019486019380563473 0.0014025996936739829 0 0.019546410192808936 0.0011425935957022383 0 0.019350198045649282 0.0012603582901125785 0 0.019349393496491622 0.0010664076117741503 0 0.019546410192808936 0.0011425935957022383 0 0.019350198045649282 0.0012603582901125785 0 0.019349393496491622 0.0010664076117741503 0 0.019122512718969992 0.0012067462432767168 0 0.019350198045649282 0.0012603582901125785 0 0.019122512718969992 0.0012067462432767168 0 0.019350198045649282 0.0012603582901125785 0 0.019279199844606215 0.0014266786077951135 0 0.019122512718969992 0.0012067462432767168 0 0.019100346103127205 0.0014124183517253686 0 0.019279199844606215 0.0014266786077951135 0 0.019486019380563473 0.0014025996936739829 0 0.019350198045649282 0.0012603582901125785 0 0.019279199844606215 0.0014266786077951135 0 0.019279199844606215 0.0014266786077951135 0 0.019282700952211886 0.0015879431297461512 0 0.019424927302001942 0.0015603079638455294 0 0.019486019380563473 0.0014025996936739829 0 0.019279199844606215 0.0014266786077951135 0 0.019424927302001942 0.0015603079638455294 0 0.019164657107441186 0.0015293129343848259 0 0.019279199844606215 0.0014266786077951135 0 0.019282700952211886 0.0015879431297461512 0 0.019100346103127205 0.0014124183517253686 0 0.019164657107441186 0.0015293129343848259 0 0.019279199844606215 0.0014266786077951135 0 0.019123055342665733 0.0016497676670017348 0 0.019164657107441186 0.0015293129343848259 0 0.019282700952211886 0.0015879431297461512 0 0.019123055342665733 0.0016497676670017348 0 0.019184561174617806 0.0017241940046979875 0 0.019282700952211886 0.0015879431297461512 0 0.019340054075657059 0.0017395055279876722 0 0.019184561174617806 0.0017241940046979875 0 0.019282700952211886 0.0015879431297461512 0 0.019394491336887532 0.0016933446183775448 0 0.019282700952211886 0.0015879431297461512 0 0.019424927302001942 0.0015603079638455294 0 0.019394491336887532 0.0016933446183775448 0 0.019344944398066388 0.0017194414997838605 0 0.019282700952211886 0.0015879431297461512 0 0.021200125873218584 0.0010392931638825286 0 0.021144971875509847 0.001046859514170574 0 0.019394491336887532 0.0016933446183775448 0 0.019424927302001942 0.0015603079638455294 0 0.019495176765975106 0.0016528235951618181 0 0.019424927302001942 0.0015603079638455294 0 0.019495176765975106 0.0016528235951618181 0 0.019592614909869643 0.0015696988390521381 0 0.019606118221273148 0.0016986298495952725 0 0.019495176765975106 0.0016528235951618181 0 0.019592614909869643 0.0015696988390521381 0 0.019606118221273148 0.0016986298495952725 0 0.019730734855889068 0.0016911242925662946 0 0.019592614909869643 0.0015696988390521381 0 0.019730734855889068 0.0016911242925662946 0 0.019793539815223801 0.0015372596327286516 0 0.019592614909869643 0.0015696988390521381 0 0.019793539815223801 0.0015372596327286516 0 0.019669530183710485 0.0013477697945382808 0 0.019592614909869643 0.0015696988390521381 0 0.019669530183710485 0.0013477697945382808 0 0.019486019380563473 0.0014025996936739829 0 0.019592614909869643 0.0015696988390521381 0 0.019486019380563473 0.0014025996936739829 0 0.019424927302001942 0.0015603079638455294 0 0.019592614909869643 0.0015696988390521381 0 0.019748987982338994 -6.3751722578307254e-05 0 0.021087263045224038 1.7907685875213598e-07 0 0.018201548390522095 -1.1199603580702653e-06 0 0.019748987982338994 -6.3751722578307254e-05 0 0.019066298400074157 -9.0169987429733516e-05 0 0.018938821939782233 -7.1875463982893107e-05 0 0.020509634479195845 -0.00030815098322019795 0 0.020228774896976789 -0.00031248983132267459 0 0.019748987982338994 -6.3751722578307254e-05 0 0.020313153437323102 -6.9618622010872398e-05 0 0.019066298400074157 -9.0169987429733516e-05 0 0.019049644104030004 -0.00010999872003500606 0 0.01900820903362126 -0.0001707403282250718 0 0.019066298400074157 -9.0169987429733516e-05 0 0.019049644104030004 -0.00010999872003500606 0 0.01900820903362126 -0.0001707403282250718 0 0.019127129708031269 -0.00022569603391367875 0 0.019748987982338994 -6.3751722578307254e-05 0 0.020313153437323102 -6.9618622010872398e-05 0 0.021051565890697232 -6.4794462896144921e-05 0 0.020313153437323102 -6.9618622010872398e-05 0 0.021432261489491716 -0.00012387253596205858 0 0.021051565890697232 -6.4794462896144921e-05 0 0.019013045977870794 -0.00035129302900121839 0 0.019135880940238804 -0.00037096883692232382 0 0.019127129708031269 -0.00022569603391367875 0 0.020509634479195845 -0.00030815098322019795 0 0.021277269699516266 -0.00020067622183480159 0 0.01900820903362126 -0.0001707403282250718 0 0.019013045977870794 -0.00035129302900121839 0 0.019127129708031269 -0.00022569603391367875 0 0.021432261489491716 -0.00012387253596205858 0 0.021949868221595413 -3.1199682069380126e-05 0 0.021962193942439881 0.00019037226648559202 0 0.021277269699516266 -0.00020067622183480159 0 0.022664447770123903 0.00025362326157477884 0 0.019013045977870794 -0.00035129302900121839 0 0.019087233587961473 -0.00046930546945023562 0 0.019022034048377316 -0.00059016736773745274 0 0.019013045977870794 -0.00035129302900121839 0 0.019087233587961473 -0.00046930546945023562 0 0.019135880940238804 -0.00037096883692232382 0 0.021432261489491716 -0.00012387253596205858 0 0.021949868221595413 -3.1199682069380126e-05 0 0.021051565890697232 -6.4794462896144921e-05 0 0.021051565890697232 -6.4794462896144921e-05 0 0.021087263045224038 1.7907685875213598e-07 0 0.02214655295512017 4.3925087718869871e-05 0 0.021949868221595413 -3.1199682069380126e-05 0 0.021051565890697232 -6.4794462896144921e-05 0 0.02214655295512017 4.3925087718869871e-05 0 0.019748987982338994 -6.3751722578307254e-05 0 0.021051565890697232 -6.4794462896144921e-05 0 0.021087263045224038 1.7907685875213598e-07 0 0.021087263045224038 1.7907685875213598e-07 0 0.02214655295512017 4.3925087718869871e-05 0 0.023999193346662392 -2.6002955851755422e-05 0 0.021087263045224038 1.7907685875213598e-07 0 0.024998404853224045 -9.5754199055985283e-08 0 0.023999193346662392 -2.6002955851755422e-05 0 0.02214655295512017 4.3925087718869871e-05 0 0.023999193346662392 -2.6002955851755422e-05 0 0.02266717899380908 0.00018047717022909556 0 0.024998404853224045 -9.5754199055985283e-08 0 0.023999193346662392 -2.6002955851755422e-05 0 0.024997508998572036 -2.0378503574343414e-07 0 0.023999193346662392 -2.6002955851755422e-05 0 0.024107826972823914 -6.8064807517513405e-05 0 0.023574475609232322 1.4665552229871485e-05 0 0.023999193346662392 -2.6002955851755422e-05 0 0.024997508998572036 -2.0378503574343414e-07 0 0.024107826972823914 -6.8064807517513405e-05 0 0.024999985460587092 -1.7313908268778795e-09 0 0.024988296039832093 3.992350448147016e-06 0 0.024995892453324706 1.9651797484243733e-06 0 0.024998235027161919 -4.1236137877053019e-07 0 0.024023596419104926 -8.5183573015397095e-05 0 0.024107826972823914 -6.8064807517513405e-05 0 0.023574475609232322 1.4665552229871485e-05 0 0.023579612496779999 0.00031699682519606995 0 0.024023596419104926 -8.5183573015397095e-05 0 0.022664447770123903 0.00025362326157477884 0 0.024988296039832093 3.992350448147016e-06 0 0.024978921072072793 1.5638089767348667e-05 0 0.024988803254586526 8.7166367184431974e-06 0 0.024978921072072793 1.5638089767348667e-05 0 0.024985956826566361 1.5674280563506905e-05 0 0.024988803254586526 8.7166367184431974e-06 0 0.023999193346662392 -2.6002955851755422e-05 0 0.023574475609232322 1.4665552229871485e-05 0 0.02266717899380908 0.00018047717022909556 0 0.023574475609232322 1.4665552229871485e-05 0 0.02266717899380908 0.00018047717022909556 0 0.023579612496779999 0.00031699682519606995 0 0.022690182152648369 0.00024964394332061218 0 0.022664447770123903 0.00025362326157477884 0 0.021949868221595413 -3.1199682069380126e-05 0 0.02266717899380908 0.00018047717022909556 0 0.021962193942439881 0.00019037226648559202 0 0.021949868221595413 -3.1199682069380126e-05 0 0.02214655295512017 4.3925087718869871e-05 0 0.02266717899380908 0.00018047717022909556 0 0.019022034048377316 -0.00059016736773745274 0 0.019096223557515276 -0.00056297341987719587 0 0.01912290432331187 -0.00059434505977900925 0 0.022664447770123903 0.00025362326157477884 0 0.02295759658330418 9.8348985363601654e-05 0 0.019087233587961473 -0.00046930546945023562 0 0.019022034048377316 -0.00059016736773745274 0 0.019096223557515276 -0.00056297341987719587 0 0.019288727421919654 -0.00056595135063577137 0 0.019105972203770923 -0.00061289112857387655 0 0.019532328706125257 -0.00065610148367386449 0 0.02295759658330418 9.8348985363601654e-05 0 0.022524136123201716 -8.1735650169326962e-05 0 0.019179723555779224 -0.00048215282250139367 0 0.019288727421919654 -0.00056595135063577137 0 0.019105972203770923 -0.00061289112857387655 0 0.019087233587961473 -0.00046930546945023562 0 0.019096223557515276 -0.00056297341987719587 0 0.019179723555779224 -0.00048215282250139367 0 0.019096223557515276 -0.00056297341987719587 0 0.019179723555779224 -0.00048215282250139367 0 0.019105972203770923 -0.00061289112857387655 0 0.022894393259737807 0.00012928275552294289 0 0.02295759658330418 9.8348985363601654e-05 0 0.019288727421919654 -0.00056595135063577137 0 0.019532328706125257 -0.00065610148367386449 0 0.019473627707747576 -2.9508598660038527e-05 0 0.024956610799702589 2.9687717774352398e-05 0 0.024949415162950919 9.2896387025791935e-06 0 0.02497501979833925 1.0832699012802547e-05 0 0.02295759658330418 9.8348985363601654e-05 0 0.024157480822707588 -0.00019136720127364278 0 0.024923382064099307 3.3215315963414788e-05 0 0.024956610799702589 2.9687717774352398e-05 0 0.024949415162950919 9.2896387025791935e-06 0 0.024985956826566361 1.5674280563506905e-05 0 0.024995338944601597 7.0283943652551137e-06 0 0.024988803254586526 8.7166367184431974e-06 0 0.024988296039832093 3.992350448147016e-06 0 0.024988803254586526 8.7166367184431974e-06 0 0.024995892453324706 1.9651797484243733e-06 0 0.024995338944601597 7.0283943652551137e-06 0 0.024988803254586526 8.7166367184431974e-06 0 0.024995892453324706 1.9651797484243733e-06 0 0.024949415162950919 9.2896387025791935e-06 0 0.024975353977045714 -2.4884563790219494e-06 0 0.02497501979833925 1.0832699012802547e-05 0 0.024157480822707588 -0.00019136720127364278 0 0.024682378659151585 -0.00012422589866756915 0 0.024995338944601597 7.0283943652551137e-06 0 0.024995892453324706 1.9651797484243733e-06 0 0.024999758816633893 1.4995209885177901e-06 0 0.024999758816633893 1.4995209885177901e-06 0 0.024999999563161221 6.4488058164412492e-10 0 0.025000000860992647 1.8226063150268669e-10 0 0.024995892453324706 1.9651797484243733e-06 0 0.024999758816633893 1.4995209885177901e-06 0 0.024999999563161221 6.4488058164412492e-10 0 0.024999985460587092 -1.7313908268778795e-09 0 0.024995892453324706 1.9651797484243733e-06 0 0.024999999563161221 6.4488058164412492e-10 0 0.024995830797425771 -2.7902324898470351e-06 0 0.024999937668285139 -3.29375878267993e-08 0 0.024990281124756146 -2.0850112681253984e-07 0 0.024995830797425771 -2.7902324898470351e-06 0 0.024999937668285139 -3.29375878267993e-08 0 0.025000047891647507 2.5978191441046847e-08 0 0.024975353977045714 -2.4884563790219494e-06 0 0.024999937668285139 -3.29375878267993e-08 0 0.024990281124756146 -2.0850112681253984e-07 0 0.024682378659151585 -0.00012422589866756915 0 0.024999391399885263 -3.6242630925883861e-07 0 0.024975353977045714 -2.4884563790219494e-06 0 0.024990281124756146 -2.0850112681253984e-07 0 0.02497501979833925 1.0832699012802547e-05 0 0.024995830797425771 -2.7902324898470351e-06 0 0.024990281124756146 -2.0850112681253984e-07 0 0.024993445086781044 -8.7657500871791651e-06 0 0.024990281124756146 -2.0850112681253984e-07 0 0.024986594223858103 1.1193661650365842e-05 0 0.02497501979833925 1.0832699012802547e-05 0 0.024990281124756146 -2.0850112681253984e-07 0 0.024986594223858103 1.1193661650365842e-05 0 0.024993645370652001 5.4907123936872607e-06 0 0.024956610799702589 2.9687717774352398e-05 0 0.02497501979833925 1.0832699012802547e-05 0 0.024978140877909411 2.2178757444105369e-05 0 0.024986594223858103 1.1193661650365842e-05 0 0.02497501979833925 1.0832699012802547e-05 0 0.024978140877909411 2.2178757444105369e-05 0 0.019532328706125257 -0.00065610148367386449 0 0.020115230297280694 -0.00067179847167535365 0 0.019835378844576548 -0.00035729765741275023 0 0.022524136123201716 -8.1735650169326962e-05 0 0.022594321049538652 -0.00017295037590112154 0 0.020115230297280694 -0.00067179847167535365 0 0.020149215483507857 -0.00043343222807291508 0 0.019835378844576548 -0.00035729765741275023 0 0.020115230297280694 -0.00067179847167535365 0 0.020149215483507857 -0.00043343222807291508 0 0.020540511215842501 -0.00064720342600457391 0 0.022594321049538652 -0.00017295037590112154 0 0.022763160334895841 -0.00020593125868844869 0 0.020115230297280694 -0.00067179847167535365 0 0.020540511215842501 -0.00064720342600457391 0 0.020670299745628909 -0.00066634793191145477 0 0.020149215483507857 -0.00043343222807291508 0 0.020540511215842501 -0.00064720342600457391 0 0.020100965474622388 -5.7745535725680157e-05 0 0.024986594223858103 1.1193661650365842e-05 0 0.024978140877909411 2.2178757444105369e-05 0 0.024990481917140751 1.761081294817639e-05 0 0.020540511215842501 -0.00064720342600457391 0 0.020553530648470025 -0.00017442846749192109 0 0.020238557704350117 -0.00017933892568195329 0 0.020055805712774655 -0.00057215712218258794 0 0.019782874949834627 -0.00040339763008166084 0 0.020553530648470025 -0.00017442846749192109 0 0.020377578477625627 4.3481495974213501e-05 0 0.020459554375420783 0.00027483726214803695 0 0.021795864685220667 2.124994876512688e-05 0 0.02149854981081321 0.00018502848804979562 0 0.020553530648470025 -0.00017442846749192109 0 0.020377578477625627 4.3481495974213501e-05 0 0.020238557704350117 -0.00017933892568195329 0 0.020572308922171906 -0.00016038861389137179 0 0.020459554375420783 0.00027483726214803695 0 0.020589291640760097 0.00028250021879983305 0 0.020377578477625627 4.3481495974213501e-05 0 0.020230551874565222 0.00014654532369153282 0 0.02033774871756271 0.00019214398884965356 0 0.020377578477625627 4.3481495974213501e-05 0 0.020459554375420783 0.00027483726214803695 0 0.02033774871756271 0.00019214398884965356 0 0.020230551874565222 0.00014654532369153282 0 0.020238557704350117 -0.00017933892568195329 0 0.019943616980138423 0.00024858434062919644 0 0.019782874949834627 -0.00040339763008166084 0 0.019223873345621013 -0.00041200358672697666 0 0.020377578477625627 4.3481495974213501e-05 0 0.020230551874565222 0.00014654532369153282 0 0.020238557704350117 -0.00017933892568195329 0 0.020100965474622388 -5.7745535725680157e-05 0 0.019835378844576548 -0.00035729765741275023 0 0.019473627707747576 -2.9508598660038527e-05 0 0.020149215483507857 -0.00043343222807291508 0 0.020100965474622388 -5.7745535725680157e-05 0 0.019835378844576548 -0.00035729765741275023 0 0.019532328706125257 -0.00065610148367386449 0 0.019835378844576548 -0.00035729765741275023 0 0.019473627707747576 -2.9508598660038527e-05 0 0.019282025865797948 -0.00037437811007642332 0 0.019300230296327537 -0.00029064991539134874 0 0.019179723555779224 -0.00048215282250139367 0 0.019288727421919654 -0.00056595135063577137 0 0.019264929943812108 -0.00035657666343677106 0 0.019179723555779224 -0.00048215282250139367 0 0.019264929943812108 -0.00035657666343677106 0 0.019135880940238804 -0.00037096883692232382 0 0.019087233587961473 -0.00046930546945023562 0 0.019179723555779224 -0.00048215282250139367 0 0.019135880940238804 -0.00037096883692232382 0 0.019264929943812108 -0.00035657666343677106 0 0.019135880940238804 -0.00037096883692232382 0 0.019127129708031269 -0.00022569603391367875 0 0.020100965474622388 -5.7745535725680157e-05 0 0.019473627707747576 -2.9508598660038527e-05 0 0.019679148576343761 0.00051867158048883274 0 0.019264929943812108 -0.00035657666343677106 0 0.019281451702784703 -0.00021705712255791891 0 0.019127129708031269 -0.00022569603391367875 0 0.019300230296327537 -0.00029064991539134874 0 0.019223873345621013 -0.00041200358672697666 0 0.019223873345621013 -0.00041200358672697666 0 0.018734242507405924 -0.00078227485265302708 0 0.019281451702784703 -0.00021705712255791891 0 0.019127129708031269 -0.00022569603391367875 0 0.019133224117819911 -9.2435884994799603e-05 0 0.019049644104030004 -0.00010999872003500606 0 0.019127129708031269 -0.00022569603391367875 0 0.019133224117819911 -9.2435884994799603e-05 0 0.018331351987916925 -0.0025269904633458992 0 0.017894666045103369 -0.0019357010719060145 0 0.018567397947626293 -0.0019048031765053692 0 0.020121781374843332 0.00070523735235798572 0 0.020247594852230828 0.00048718024716877105 0 0.020435474926328089 0.00072143089478234697 0 0.019943616980138423 0.00024858434062919644 0 0.020121781374843332 0.00070523735235798572 0 0.020247594852230828 0.00048718024716877105 0 0.019223873345621013 -0.00041200358672697666 0 0.019480487147023523 -0.00040358763549898141 0 0.020435474926328089 0.00072143089478234697 0 0.020403338888534323 0.00041435033415669376 0 0.020589291640760097 0.00028250021879983305 0 0.020247594852230828 0.00048718024716877105 0 0.020435474926328089 0.00072143089478234697 0 0.020403338888534323 0.00041435033415669376 0 0.020816050755244717 0.0013158367405074903 0 0.021473809376240091 0.0012002356237529525 0 0.022354074300139002 0.0031491675119508754 0 0.022616519694752309 0.0024476916038107385 0 0.022693950377543178 0.0027841990435823328 0 0.020403338888534323 0.00041435033415669376 0 0.020459554375420783 0.00027483726214803695 0 0.020283939436633674 0.00030353811280013854 0 0.020247594852230828 0.00048718024716877105 0 0.020403338888534323 0.00041435033415669376 0 0.020283939436633674 0.00030353811280013854 0 0.020403338888534323 0.00041435033415669376 0 0.020459554375420783 0.00027483726214803695 0 0.020589291640760097 0.00028250021879983305 0 0.020459554375420783 0.00027483726214803695 0 0.02033774871756271 0.00019214398884965356 0 0.020283939436633674 0.00030353811280013854 0 0.020230551874565222 0.00014654532369153282 0 0.02033774871756271 0.00019214398884965356 0 0.020283939436633674 0.00030353811280013854 0 0.019943616980138423 0.00024858434062919644 0 0.020247594852230828 0.00048718024716877105 0 0.020283939436633674 0.00030353811280013854 0 0.020230551874565222 0.00014654532369153282 0 0.019943616980138423 0.00024858434062919644 0 0.020283939436633674 0.00030353811280013854 0 0.023401482848642154 0.0027595578829139695 0 0.023803762989585382 0.0024132557402076018 0 0.024136233178649127 0.0022161048176885623 0 0.022383120156000452 0.0031540681005992385 0 0.022342618544859173 0.0031464690776092305 0 0.022326853254189646 0.003187126694494793 0 0.022987531258892864 0.0023805811852658388 0 0.023604018076622012 0.0016405135091188479 0 0.023401482848642154 0.0027595578829139695 0 0.02333221060620997 0.002468054098438107 0 0.022990199877264025 0.0026965272535269418 0 0.023401482848642154 0.0027595578829139695 0 0.023803762989585382 0.0024132557402076018 0 0.02333221060620997 0.002468054098438107 0 0.022383120156000452 0.0031540681005992385 0 0.022342618544859173 0.0031464690776092305 0 0.022355676210957999 0.0031144834971516835 0 0.023803762989585382 0.0024132557402076018 0 0.023496467414356313 0.0022530981397674791 0 0.023705431344461229 0.0021131840983128103 0 0.023803762989585382 0.0024132557402076018 0 0.023919298872842859 0.0021418905600627692 0 0.023705431344461229 0.0021131840983128103 0 0.023803762989585382 0.0024132557402076018 0 0.023496467414356313 0.0022530981397674791 0 0.02333221060620997 0.002468054098438107 0 0.023496467414356313 0.0022530981397674791 0 0.02333221060620997 0.002468054098438107 0 0.023249673211425355 0.002247940521156407 0 0.023249673211425355 0.002247940521156407 0 0.02300903644481931 0.0022612312099785327 0 0.023041630013638809 0.0024485140525517461 0 0.02300903644481931 0.0022612312099785327 0 0.023041630013638809 0.0024485140525517461 0 0.022847332255522965 0.00254308362178674 0 0.02333221060620997 0.002468054098438107 0 0.023249673211425355 0.002247940521156407 0 0.023041630013638809 0.0024485140525517461 0 0.02300903644481931 0.0022612312099785327 0 0.022616519694752309 0.0024476916038107385 0 0.022847332255522965 0.00254308362178674 0 0.022616519694752309 0.0024476916038107385 0 0.022847332255522965 0.00254308362178674 0 0.022693950377543178 0.0027841990435823328 0 0.022847332255522965 0.00254308362178674 0 0.022990199877264025 0.0026965272535269418 0 0.022693950377543178 0.0027841990435823328 0 0.02333221060620997 0.002468054098438107 0 0.023041630013638809 0.0024485140525517461 0 0.022990199877264025 0.0026965272535269418 0 0.023041630013638809 0.0024485140525517461 0 0.022847332255522965 0.00254308362178674 0 0.022990199877264025 0.0026965272535269418 0 0.023401482848642154 0.0027595578829139695 0 0.022990199877264025 0.0026965272535269418 0 0.022525992163725347 0.0030949357431921567 0 0.022525992163725347 0.0030949357431921567 0 0.022373798562382721 0.0030842154651632946 0 0.022384434049122895 0.0030655045839949615 0 0.022383120156000452 0.0031540681005992385 0 0.022525992163725347 0.0030949357431921567 0 0.022373798562382721 0.0030842154651632946 0 0.022987531258892864 0.0023805811852658388 0 0.022802902022877432 0.0025923717388489352 0 0.022990199877264025 0.0026965272535269418 0 0.022693950377543178 0.0027841990435823328 0 0.022525992163725347 0.0030949357431921567 0 0.022354074300139002 0.0031491675119508754 0 0.022693950377543178 0.0027841990435823328 0 0.022525992163725347 0.0030949357431921567 0 0.022373798562382721 0.0030842154651632946 0 0.022355676210957999 0.0031144834971516835 0 0.02233111371955775 0.0030860311238777999 0 0.022383120156000452 0.0031540681005992385 0 0.022373798562382721 0.0030842154651632946 0 0.022355676210957999 0.0031144834971516835 0 0.023467243137799864 0.0013748618224173332 0 0.023524141510201418 0.0013707588339958174 0 0.023541297297692471 0.00128262374357631 0 0.022342618544859173 0.0031464690776092305 0 0.022355676210957999 0.0031144834971516835 0 0.02233111371955775 0.0030860311238777999 0 0.023749713945006311 0.0012140197691466396 0 0.023732700450692548 0.0012416009600183995 0 0.023524141510201418 0.0013707588339958174 0 0.023541297297692471 0.00128262374357631 0 0.023603688882371156 0.0013949947167586102 0 0.023660717340594974 0.0012285591765769655 0 0.023493796008394539 0.0011456727872127051 0 0.023603688882371156 0.0013949947167586102 0 0.023660717340594974 0.0012285591765769655 0 0.023603688882371156 0.0013949947167586102 0 0.023682031638404981 0.0014097167788655962 0 0.023493796008394539 0.0011456727872127051 0 0.023607899857296045 0.00094200335591317194 0 0.023369106657070957 0.00085334763134999048 0 0.023660717340594974 0.0012285591765769655 0 0.023739272926966488 0.0010344639773321655 0 0.023493796008394539 0.0011456727872127051 0 0.023739272926966488 0.0010344639773321655 0 0.023493796008394539 0.0011456727872127051 0 0.023607899857296045 0.00094200335591317194 0 0.023739272926966488 0.0010344639773321655 0 0.023607899857296045 0.00094200335591317194 0 0.023744938761717387 0.00086875651068130718 0 0.023138633929173535 0.0021197716620419806 0 0.023753443970483453 0.0014449667156451219 0 0.023749713945006311 0.0012140197691466396 0 0.023879762667849531 0.0012850983999204884 0 0.023541297297692471 0.00128262374357631 0 0.023479021101421971 0.0011728821460135941 0 0.023491444434564912 0.001162823992267188 0 0.023467243137799864 0.0013748618224173332 0 0.023541297297692471 0.00128262374357631 0 0.023479021101421971 0.0011728821460135941 0 0.022342618544859173 0.0031464690776092305 0 0.02233111371955775 0.0030860311238777999 0 0.022318395031436414 0.0031940526799084878 0 0.022342618544859173 0.0031464690776092305 0 0.022326853254189646 0.003187126694494793 0 0.022318395031436414 0.0031940526799084878 0 0.02360171311801712 0.0016693182765831691 0 0.023604018076622012 0.0016405135091188479 0 0.023803762989585382 0.0024132557402076018 0 0.024080394871872812 0.0022211933892867237 0 0.023919298872842859 0.0021418905600627692 0 0.023919298872842859 0.0021418905600627692 0 0.024005981199660173 0.0020233679799980396 0 0.024068116454581696 0.0021055204154476494 0 0.024080394871872812 0.0022211933892867237 0 0.023919298872842859 0.0021418905600627692 0 0.024068116454581696 0.0021055204154476494 0 0.023919298872842859 0.0021418905600627692 0 0.024005981199660173 0.0020233679799980396 0 0.023853387355694849 0.001939831935519965 0 0.024005981199660173 0.0020233679799980396 0 0.024162366969366654 0.0019643827825318967 0 0.024001104236218176 0.0019164170295554676 0 0.024005981199660173 0.0020233679799980396 0 0.024001104236218176 0.0019164170295554676 0 0.023853387355694849 0.001939831935519965 0 0.024005981199660173 0.0020233679799980396 0 0.024162366969366654 0.0019643827825318967 0 0.024068116454581696 0.0021055204154476494 0 0.023903780137590785 0.0012912279449087732 0 0.023753443970483453 0.0014449667156451219 0 0.024162366969366654 0.0019643827825318967 0 0.024068116454581696 0.0021055204154476494 0 0.024161422562034171 0.0021485257970983778 0 0.023951741725390437 0.0015803708304232029 0 0.024009244913108352 0.00075959527006575953 0 0.023708615703434986 0.0010055982319086933 0 0.023753443970483453 0.0014449667156451219 0 0.023879762667849531 0.0012850983999204884 0 0.024080394871872812 0.0022211933892867237 0 0.024068116454581696 0.0021055204154476494 0 0.024161422562034171 0.0021485257970983778 0 0.023604018076622012 0.0016405135091188479 0 0.023753443970483453 0.0014449667156451219 0 0.023903780137590785 0.0012912279449087732 0 0.023879762667849531 0.0012850983999204884 0 0.023879762667849531 0.0012850983999204884 0 0.024321878134807181 0.00069072696640775917 0 0.025022483090835674 -0.0003573172522345746 0 0.025007401776310941 -0.00030776752016290507 0 0.024963482473598468 -0.000311468702748638 0 0.025028959426677561 -0.00034254745898606233 0 0.025022483090835674 -0.0003573172522345746 0 0.025007401776310941 -0.00030776752016290507 0 0.024162366969366654 0.0019643827825318967 0 0.023955097640110244 0.0017331621495488701 0 0.024001104236218176 0.0019164170295554676 0 0.023955097640110244 0.0017331621495488701 0 0.024001104236218176 0.0019164170295554676 0 0.023853387355694849 0.001939831935519965 0 0.023369106657070957 0.00085334763134999048 0 0.023664773835360881 0.00068774646280376117 0 0.023696144515236484 0.0006455260850479008 0 0.023369106657070957 0.00085334763134999048 0 0.023630441632390749 0.00081824882377130729 0 0.023664773835360881 0.00068774646280376117 0 0.023879762667849531 0.0012850983999204884 0 0.024165599119469441 0.00072520636906088151 0 0.023881785965293254 0.0010560620472827775 0 0.024165807110483193 0.0008201271314977422 0 0.024294178702708346 0.00079438055683773469 0 0.023630441632390749 0.00081824882377130729 0 0.023744938761717387 0.00086875651068130718 0 0.023767196803760455 0.00073000747429614681 0 0.023607899857296045 0.00094200335591317194 0 0.023630441632390749 0.00081824882377130729 0 0.023744938761717387 0.00086875651068130718 0 0.023607899857296045 0.00094200335591317194 0 0.023369106657070957 0.00085334763134999048 0 0.023630441632390749 0.00081824882377130729 0 0.023630441632390749 0.00081824882377130729 0 0.023664773835360881 0.00068774646280376117 0 0.023767196803760455 0.00073000747429614681 0 0.024161981521846662 0.0007273069657900271 0 0.024165599119469441 0.00072520636906088151 0 0.023664773835360881 0.00068774646280376117 0 0.02369709252545573 0.00064328166025437363 0 0.023767196803760455 0.00073000747429614681 0 0.024963482473598468 -0.000311468702748638 0 0.024958799285965758 -0.00023085920314009812 0 0.024896412589842778 -0.00026439161760298622 0 0.024963482473598468 -0.000311468702748638 0 0.024990195131949864 -0.00026934714877398198 0 0.024958799285965758 -0.00023085920314009812 0 0.024165807110483193 0.0008201271314977422 0 0.024294178702708346 0.00079438055683773469 0 0.024449762004378407 0.00058449631504982824 0 0.024321878134807181 0.00069072696640775917 0 0.024382423715287115 0.00046827443420600407 0 0.025007401776310941 -0.00030776752016290507 0 0.024963482473598468 -0.000311468702748638 0 0.024990195131949864 -0.00026934714877398198 0 0.024990195131949864 -0.00026934714877398198 0 0.025030834010345723 -0.00023445609811591054 0 0.024958799285965758 -0.00023085920314009812 0 0.024958799285965758 -0.00023085920314009812 0 0.024917450261419997 -0.00022184941525582111 0 0.024896412589842778 -0.00026439161760298622 0 0.023903780137590785 0.0012912279449087732 0 0.024414519406898146 0.00067980616844747778 0 0.025007401776310941 -0.00030776752016290507 0 0.024990195131949864 -0.00026934714877398198 0 0.025030834010345723 -0.00023445609811591054 0 0.024162366969366654 0.0019643827825318967 0 0.023955097640110244 0.0017331621495488701 0 0.023890922872516901 0.0012967074788873098 0 0.025028959426677561 -0.00034254745898606233 0 0.025007401776310941 -0.00030776752016290507 0 0.025030834010345723 -0.00023445609811591054 0 0.023903780137590785 0.0012912279449087732 0 0.024013122431859223 0.0013226676697496605 0 0.024764831670954474 0.0023579838664109071 0 0.024834728128191954 0.0014552546665439982 0 0.024433230166690675 0.0015721592302621414 0 0.023890922872516901 0.0012967074788873098 0 0.023692404361279937 0.0013974467051742292 0 0.023774087615783424 0.0015397553293843773 0 0.023890922872516901 0.0012967074788873098 0 0.02361728347941254 0.0012599218789481241 0 0.023687833687476158 0.001110883820181546 0 0.02361728347941254 0.0012599218789481241 0 0.023692404361279937 0.0013974467051742292 0 0.023490121773950327 0.0014749101768846075 0 0.023890922872516901 0.0012967074788873098 0 0.02361728347941254 0.0012599218789481241 0 0.023692404361279937 0.0013974467051742292 0 0.023692404361279937 0.0013974467051742292 0 0.023589522251107605 0.0015635217566182312 0 0.023774087615783424 0.0015397553293843773 0 0.023692404361279937 0.0013974467051742292 0 0.023490121773950327 0.0014749101768846075 0 0.023589522251107605 0.0015635217566182312 0 0.023490121773950327 0.0014749101768846075 0 0.023589522251107605 0.0015635217566182312 0 0.023372701215147878 0.0016524716738311443 0 0.023955097640110244 0.0017331621495488701 0 0.023890922872516901 0.0012967074788873098 0 0.023774087615783424 0.0015397553293843773 0 0.023589522251107605 0.0015635217566182312 0 0.023774087615783424 0.0015397553293843773 0 0.023740349011588679 0.0017309680984171772 0 0.023955097640110244 0.0017331621495488701 0 0.023774087615783424 0.0015397553293843773 0 0.023740349011588679 0.0017309680984171772 0 0.023955097640110244 0.0017331621495488701 0 0.023740349011588679 0.0017309680984171772 0 0.023853387355694849 0.001939831935519965 0 0.023740349011588679 0.0017309680984171772 0 0.023853387355694849 0.001939831935519965 0 0.023674934392110065 0.0019289964292692609 0 0.023589522251107605 0.0015635217566182312 0 0.023740349011588679 0.0017309680984171772 0 0.023472282827428043 0.0018068879246869013 0 0.023589522251107605 0.0015635217566182312 0 0.023472282827428043 0.0018068879246869013 0 0.023372701215147878 0.0016524716738311443 0 0.023740349011588679 0.0017309680984171772 0 0.023472282827428043 0.0018068879246869013 0 0.023674934392110065 0.0019289964292692609 0 0.023472282827428043 0.0018068879246869013 0 0.023485306030334236 0.0020316530849487958 0 0.023674934392110065 0.0019289964292692609 0 0.023485306030334236 0.0020316530849487958 0 0.023705431344461229 0.0021131840983128103 0 0.023674934392110065 0.0019289964292692609 0 0.023472282827428043 0.0018068879246869013 0 0.023485306030334236 0.0020316530849487958 0 0.023237439470714057 0.002032201333518223 0 0.023249673211425355 0.002247940521156407 0 0.023485306030334236 0.0020316530849487958 0 0.023237439470714057 0.002032201333518223 0 0.023496467414356313 0.0022530981397674791 0 0.023249673211425355 0.002247940521156407 0 0.023485306030334236 0.0020316530849487958 0 0.023496467414356313 0.0022530981397674791 0 0.023485306030334236 0.0020316530849487958 0 0.023705431344461229 0.0021131840983128103 0 0.023919298872842859 0.0021418905600627692 0 0.023705431344461229 0.0021131840983128103 0 0.023853387355694849 0.001939831935519965 0 0.023705431344461229 0.0021131840983128103 0 0.023853387355694849 0.001939831935519965 0 0.023674934392110065 0.0019289964292692609 0 0.020572308922171906 -0.00016038861389137179 0 0.020589291640760097 0.00028250021879983305 0 0.020752782876513495 -0.00015669045396077464 0 0.021473809376240091 0.0012002356237529525 0 0.022146936586624925 0.00069608764479900181 0 0.022616519694752309 0.0024476916038107385 0 0.02314854516828467 0.001949139441138006 0 0.023154864917138609 0.00153690853684864 0 0.02300903644481931 0.0022612312099785327 0 0.022616519694752309 0.0024476916038107385 0 0.02314854516828467 0.001949139441138006 0 0.02300903644481931 0.0022612312099785327 0 0.023237439470714057 0.002032201333518223 0 0.02314854516828467 0.001949139441138006 0 0.023249673211425355 0.002247940521156407 0 0.02300903644481931 0.0022612312099785327 0 0.023237439470714057 0.002032201333518223 0 0.023472282827428043 0.0018068879246869013 0 0.02314854516828467 0.001949139441138006 0 0.023372701215147878 0.0016524716738311443 0 0.02314854516828467 0.001949139441138006 0 0.023154864917138609 0.00153690853684864 0 0.023372701215147878 0.0016524716738311443 0 0.023472282827428043 0.0018068879246869013 0 0.023237439470714057 0.002032201333518223 0 0.02314854516828467 0.001949139441138006 0 0.021795864685220667 2.124994876512688e-05 0 0.022763160334895841 -0.00020593125868844869 0 0.020572308922171906 -0.00016038861389137179 0 0.020752782876513495 -0.00015669045396077464 0 0.020675476623323284 -0.00060044099235389756 0 0.022146936586624925 0.00069608764479900181 0 0.023052787826443301 -0.00020309408588252824 0 0.02361728347941254 0.0012599218789481241 0 0.023154864917138609 0.00153690853684864 0 0.023687833687476158 0.001110883820181546 0 0.02361728347941254 0.0012599218789481241 0 0.023490121773950327 0.0014749101768846075 0 0.023154864917138609 0.00153690853684864 0 0.023490121773950327 0.0014749101768846075 0 0.023154864917138609 0.00153690853684864 0 0.023372701215147878 0.0016524716738311443 0 0.020752782876513495 -0.00015669045396077464 0 0.020675476623323284 -0.00060044099235389756 0 0.020907639019009827 -0.00060053138089816269 0 0.020540511215842501 -0.00064720342600457391 0 0.020553530648470025 -0.00017442846749192109 0 0.020670299745628909 -0.00066634793191145477 0 0.023154864917138609 0.00153690853684864 0 0.023687833687476158 0.001110883820181546 0 0.023744785323965605 0.00090216567505753897 0 0.022763160334895841 -0.00020593125868844869 0 0.023052787826443301 -0.00020309408588252824 0 0.024985041030918979 -3.5138665216607725e-05 0 0.024979676396285372 -3.5034195959962379e-05 0 0.024984426275166973 -3.106099569870896e-05 0 0.024433230166690675 0.0015721592302621414 0 0.024031821767870269 0.00074713554103264339 0 0.024553640974228436 0.00099166654577655003 0 0.024013122431859223 0.0013226676697496605 0 0.023961462068255363 0.0011094349995308523 0 0.023890922872516901 0.0012967074788873098 0 0.023835763363743857 0.00091027418398200409 0 0.024031821767870269 0.00074713554103264339 0 0.023890922872516901 0.0012967074788873098 0 0.023687833687476158 0.001110883820181546 0 0.023835763363743857 0.00091027418398200409 0 0.023687833687476158 0.001110883820181546 0 0.023835763363743857 0.00091027418398200409 0 0.023744785323965605 0.00090216567505753897 0 0.02305762613217038 -0.00020118366213442882 0 0.023052787826443301 -0.00020309408588252824 0 0.023835763363743857 0.00091027418398200409 0 0.023763927634001026 0.0009184182228817577 0 0.024031821767870269 0.00074713554103264339 0 0.023763927634001026 0.0009184182228817577 0 0.024031821767870269 0.00074713554103264339 0 0.024427914440793425 0.00024578795879871498 0 0.023052787826443301 -0.00020309408588252824 0 0.023748926097732069 -5.3568878308137956e-05 0 0.024979676396285372 -3.5034195959962379e-05 0 0.024984426275166973 -3.106099569870896e-05 0 0.024980178298667874 -2.2325137173951625e-05 0 0.024477363787034485 0.00061354204654506654 0 0.024031821767870269 0.00074713554103264339 0 0.024427914440793425 0.00024578795879871498 0 0.024477363787034485 0.00061354204654506654 0 0.024031821767870269 0.00074713554103264339 0 0.024553640974228436 0.00099166654577655003 0 0.024988477291728779 -2.5703362846777229e-05 0 0.024984426275166973 -3.106099569870896e-05 0 0.024980178298667874 -2.2325137173951625e-05 0 0.024986594223858103 1.1193661650365842e-05 0 0.024990481917140751 1.761081294817639e-05 0 0.024993645370652001 5.4907123936872607e-06 0 0.022763160334895841 -0.00020593125868844869 0 0.023369967257377246 -0.00024275765312141477 0 0.024985041030918979 -3.5138665216607725e-05 0 0.024988477291728779 -2.5703362846777229e-05 0 0.024984426275166973 -3.106099569870896e-05 0 0.024990281124756146 -2.0850112681253984e-07 0 0.024993645370652001 5.4907123936872607e-06 0 0.024993445086781044 -8.7657500871791651e-06 0 0.024988477291728779 -2.5703362846777229e-05 0 0.024993445086781044 -8.7657500871791651e-06 0 0.024980178298667874 -2.2325137173951625e-05 0 0.023369967257377246 -0.00024275765312141477 0 0.023554588745536703 -0.00024318402392530092 0 0.023748926097732069 -5.3568878308137956e-05 0 0.023987914896732018 -7.1434649813017435e-05 0 0.024980178298667874 -2.2325137173951625e-05 0 0.024981741488950829 -1.2845464794351039e-05 0 0.024955747632578931 -1.2715570110071784e-05 0 0.024993445086781044 -8.7657500871791651e-06 0 0.024980178298667874 -2.2325137173951625e-05 0 0.024981741488950829 -1.2845464794351039e-05 0 0.024993445086781044 -8.7657500871791651e-06 0 0.024988239429156824 -4.2348015956900621e-06 0 0.024981741488950829 -1.2845464794351039e-05 0 0.024988239429156824 -4.2348015956900621e-06 0 0.025000047891647507 2.5978191441046847e-08 0 0.024999774226893534 -8.7688742889576304e-08 0 0.024988239429156824 -4.2348015956900621e-06 0 0.024981741488950829 -1.2845464794351039e-05 0 0.024955747632578931 -1.2715570110071784e-05 0 0.024988239429156824 -4.2348015956900621e-06 0 0.024955747632578931 -1.2715570110071784e-05 0 0.024999774226893534 -8.7688742889576304e-08 0 0.024995830797425771 -2.7902324898470351e-06 0 0.024993445086781044 -8.7657500871791651e-06 0 0.025000047891647507 2.5978191441046847e-08 0 0.024993445086781044 -8.7657500871791651e-06 0 0.024988239429156824 -4.2348015956900621e-06 0 0.025000047891647507 2.5978191441046847e-08 0 0.024979832396459224 1.6625313498566656e-05 0 0.02499999180288888 6.5921476600288271e-08 0 0.024989128543337857 2.4928243255441363e-05 0 0.024979832396459224 1.6625313498566656e-05 0 0.02499999180288888 6.5921476600288271e-08 0 0.024960236469947963 3.0767036088651245e-05 0 0.02499999180288888 6.5921476600288271e-08 0 0.024999774226893534 -8.7688742889576304e-08 0 0.024989128543337857 2.4928243255441363e-05 0 0.024955747632578931 -1.2715570110071784e-05 0 0.024999774226893534 -8.7688742889576304e-08 0 0.024989128543337857 2.4928243255441363e-05 0 0.024724424766901298 0.00016118411800824538 0 0.024651877278451806 0.00031181052484616619 0 0.024427914440793425 0.00024578795879871498 0 0.024955747632578931 -1.2715570110071784e-05 0 0.024989128543337857 2.4928243255441363e-05 0 0.024427914440793425 0.00024578795879871498 0 0.024989128543337857 2.4928243255441363e-05 0 0.024869294580972805 0.00055582706505633613 0 0.024989128543337857 2.4928243255441363e-05 0 0.024967018650549549 -3.6169855304140425e-05 0 0.025030162646785762 -0.00010050899856858818 0 0.024979832396459224 1.6625313498566656e-05 0 0.024989128543337857 2.4928243255441363e-05 0 0.024967018650549549 -3.6169855304140425e-05 0 0.024979832396459224 1.6625313498566656e-05 0 0.024967018650549549 -3.6169855304140425e-05 0 0.024960236469947963 3.0767036088651245e-05 0 0.024967018650549549 -3.6169855304140425e-05 0 0.024928685509686306 -9.7616175479313855e-05 0 0.025030162646785762 -0.00010050899856858818 0 0.024928685509686306 -9.7616175479313855e-05 0 0.025030162646785762 -0.00010050899856858818 0 0.024935240927832392 -0.00016214111369916193 0 0.024477363787034485 0.00061354204654506654 0 0.024427914440793425 0.00024578795879871498 0 0.024869294580972805 0.00055582706505633613 0 0.024477363787034485 0.00061354204654506654 0 0.024869294580972805 0.00055582706505633613 0 0.024553640974228436 0.00099166654577655003 0 0.024414519406898146 0.00067980616844747778 0 0.024651877278451806 0.00031181052484616619 0 0.024834728128191954 0.0014552546665439982 0 0.024869294580972805 0.00055582706505633613 0 0.024553640974228436 0.00099166654577655003 0 0.025030834010345723 -0.00023445609811591054 0 0.025030162646785762 -0.00010050899856858818 0 0.024958799285965758 -0.00023085920314009812 0 0.024834728128191954 0.0014552546665439982 0 0.024433230166690675 0.0015721592302621414 0 0.024553640974228436 0.00099166654577655003 0 0.025030162646785762 -0.00010050899856858818 0 0.024935240927832392 -0.00016214111369916193 0 0.024958799285965758 -0.00023085920314009812 0 0.024935240927832392 -0.00016214111369916193 0 0.024958799285965758 -0.00023085920314009812 0 0.024917450261419997 -0.00022184941525582111 0 0.02436610709071365 0.0004460079097812215 0 0.024382423715287115 0.00046827443420600407 0 0.024524783861549233 0.00018987657645196435 0 0.024382423715287115 0.00046827443420600407 0 0.024882901294882728 -0.00020766338267998554 0 0.024819780174694803 -0.00019397621701463567 0 0.024896412589842778 -0.00026439161760298622 0 0.024917450261419997 -0.00022184941525582111 0 0.024882901294882728 -0.00020766338267998554 0 0.024896412589842778 -0.00026439161760298622 0 0.024312682265353606 0.00029654152250918923 0 0.0242831825397564 0.00026757473814765603 0 0.02418404080014171 0.00040456574373100561 0 0.024935240927832392 -0.00016214111369916193 0 0.024917450261419997 -0.00022184941525582111 0 0.024882901294882728 -0.00020766338267998554 0 0.024882901294882728 -0.00020766338267998554 0 0.024853894801035382 -0.00017880350946455534 0 0.02487547325846607 -0.00014728488882154991 0 0.024882901294882728 -0.00020766338267998554 0 0.024853894801035382 -0.00017880350946455534 0 0.024819780174694803 -0.00019397621701463567 0 0.024838729759962784 -0.00016432455853487705 0 0.024853894801035382 -0.00017880350946455534 0 0.024819780174694803 -0.00019397621701463567 0 0.024838729759962784 -0.00016432455853487705 0 0.024853894801035382 -0.00017880350946455534 0 0.02487547325846607 -0.00014728488882154991 0 0.024935240927832392 -0.00016214111369916193 0 0.024882901294882728 -0.00020766338267998554 0 0.02487547325846607 -0.00014728488882154991 0 0.02430826634152192 0.0004747298308977187 0 0.024234650783857246 0.00055571051388896941 0 0.024312682265353606 0.00029654152250918923 0 0.024415422739266269 0.00028023581344388581 0 0.024285657825751178 0.00036576678898505492 0 0.024415422739266269 0.00028023581344388581 0 0.024257166695694683 0.00046143350026943956 0 0.024055707598527928 0.00042647623030941614 0 0.0242831825397564 0.00026757473814765603 0 0.024335477322868965 0.00025946540004187372 0 0.024363850472618898 0.0002230514150844232 0 0.024312682265353606 0.00029654152250918923 0 0.0242831825397564 0.00026757473814765603 0 0.024335477322868965 0.00025946540004187372 0 0.024312682265353606 0.00029654152250918923 0 0.024335477322868965 0.00025946540004187372 0 0.024415422739266269 0.00028023581344388581 0 0.024335477322868965 0.00025946540004187372 0 0.024363850472618898 0.0002230514150844232 0 0.024415422739266269 0.00028023581344388581 0 0.0242831825397564 0.00026757473814765603 0 0.024363850472618898 0.0002230514150844232 0 0.024402404775753558 0.00013907327363721207 0 0.024819780174694803 -0.00019397621701463567 0 0.024801501260042727 -0.0001290205433348198 0 0.024689746621164185 -0.00010286412478584216 0 0.024524783861549233 0.00018987657645196435 0 0.024551388452848762 0.00011071612406733208 0 0.024838729759962784 -0.00016432455853487705 0 0.024819780174694803 -0.00019397621701463567 0 0.024801501260042727 -0.0001290205433348198 0 0.024801501260042727 -0.0001290205433348198 0 0.024794055506693096 -7.2429896718054907e-05 0 0.024689746621164185 -0.00010286412478584216 0 0.024928685509686306 -9.7616175479313855e-05 0 0.024935240927832392 -0.00016214111369916193 0 0.02487547325846607 -0.00014728488882154991 0 0.024838729759962784 -0.00016432455853487705 0 0.024801501260042727 -0.0001290205433348198 0 0.02487547325846607 -0.00014728488882154991 0 0.024801501260042727 -0.0001290205433348198 0 0.02487547325846607 -0.00014728488882154991 0 0.024875492638643283 -8.0713448532676019e-05 0 0.024801501260042727 -0.0001290205433348198 0 0.024794055506693096 -7.2429896718054907e-05 0 0.024875492638643283 -8.0713448532676019e-05 0 0.024967018650549549 -3.6169855304140425e-05 0 0.024928685509686306 -9.7616175479313855e-05 0 0.024875492638643283 -8.0713448532676019e-05 0 0.024928685509686306 -9.7616175479313855e-05 0 0.02487547325846607 -0.00014728488882154991 0 0.024875492638643283 -8.0713448532676019e-05 0 0.024885122358355296 -2.5989583737347062e-05 0 0.024769045805337103 -3.3290616996827811e-06 0 0.024960236469947963 3.0767036088651245e-05 0 0.024967018650549549 -3.6169855304140425e-05 0 0.024875492638643283 -8.0713448532676019e-05 0 0.024885122358355296 -2.5989583737347062e-05 0 0.024967018650549549 -3.6169855304140425e-05 0 0.024885122358355296 -2.5989583737347062e-05 0 0.024960236469947963 3.0767036088651245e-05 0 0.024794055506693096 -7.2429896718054907e-05 0 0.024875492638643283 -8.0713448532676019e-05 0 0.024885122358355296 -2.5989583737347062e-05 0 0.024794055506693096 -7.2429896718054907e-05 0 0.024689746621164185 -0.00010286412478584216 0 0.024769045805337103 -3.3290616996827811e-06 0 0.024769045805337103 -3.3290616996827811e-06 0 0.024630224451547847 0.00012125877954687206 0 0.024960236469947963 3.0767036088651245e-05 0 0.024794055506693096 -7.2429896718054907e-05 0 0.024885122358355296 -2.5989583737347062e-05 0 0.024769045805337103 -3.3290616996827811e-06 0 0.024689746621164185 -0.00010286412478584216 0 0.024655458357835846 2.115180025781197e-05 0 0.024769045805337103 -3.3290616996827811e-06 0 0.024655458357835846 2.115180025781197e-05 0 0.024769045805337103 -3.3290616996827811e-06 0 0.024630224451547847 0.00012125877954687206 0 0.024999957506143495 -3.6894481216280968e-09 0 0.025003460248947409 8.8141628682733204e-06 0 0.024960236469947963 3.0767036088651245e-05 0 0.024832109166360892 3.990885569521952e-05 0 0.024871283354214825 3.9201823993040256e-05 0 0.02499999180288888 6.5921476600288271e-08 0 0.024999957506143495 -3.6894481216280968e-09 0 0.024960236469947963 3.0767036088651245e-05 0 0.024999826159955787 6.5505277336330753e-08 0 0.025000090974270413 -2.293399560340102e-08 0 0.025011586876110409 -7.3501746041424126e-06 0 0.024630224451547847 0.00012125877954687206 0 0.024502754415346429 5.4936920256446306e-05 0 0.024539962916481632 7.287797297575426e-05 0 0.025003460248947409 8.8141628682733204e-06 0 0.025000090974270413 -2.293399560340102e-08 0 0.025011586876110409 -7.3501746041424126e-06 0 0.024832109166360892 3.990885569521952e-05 0 0.024813435359690647 3.1236511414233773e-05 0 0.024999957506143495 -3.6894481216280968e-09 0 0.025003460248947409 8.8141628682733204e-06 0 0.025000090974270413 -2.293399560340102e-08 0 0.024551388452848762 0.00011071612406733208 0 0.024550530684586722 0.00010118259296711806 0 0.024689746621164185 -0.00010286412478584216 0 0.024655458357835846 2.115180025781197e-05 0 0.024541570853410914 7.3052668253558532e-05 0 0.02439553730897627 0.00014514702805842991 0 0.024352929014905447 0.0002188911128565473 0 0.024630224451547847 0.00012125877954687206 0 0.024539962916481632 7.287797297575426e-05 0 0.024541570853410914 7.3052668253558532e-05 0 0.024539962916481632 7.287797297575426e-05 0 0.024541570853410914 7.3052668253558532e-05 0 0.024498871723769709 0.00011135577185360831 0 0.024402404775753558 0.00013907327363721207 0 0.024541570853410914 7.3052668253558532e-05 0 0.024498871723769709 0.00011135577185360831 0 0.024539962916481632 7.287797297575426e-05 0 0.024536329094701315 0.00015252293690779911 0 0.024499266598959648 0.00019961917466415261 0 0.024539962916481632 7.287797297575426e-05 0 0.024498871723769709 0.00011135577185360831 0 0.024492872275002339 0.00016755179343103482 0 0.024655458357835846 2.115180025781197e-05 0 0.024630224451547847 0.00012125877954687206 0 0.024541570853410914 7.3052668253558532e-05 0 0.024502754415346429 5.4936920256446306e-05 0 0.024539962916481632 7.287797297575426e-05 0 0.024538078370424064 0.00011531176819332397 0 0.024539962916481632 7.287797297575426e-05 0 0.024536329094701315 0.00015252293690779911 0 0.024538078370424064 0.00011531176819332397 0 0.024596876822684757 0.00012836294878331973 0 0.024502754415346429 5.4936920256446306e-05 0 0.024538078370424064 0.00011531176819332397 0 0.024596876822684757 0.00012836294878331973 0 0.024538078370424064 0.00011531176819332397 0 0.024559999439855724 0.00017134994498710165 0 0.024536329094701315 0.00015252293690779911 0 0.024538078370424064 0.00011531176819332397 0 0.024559999439855724 0.00017134994498710165 0 0.024536329094701315 0.00015252293690779911 0 0.024559999439855724 0.00017134994498710165 0 0.024546677881854568 0.00020656184719729741 0 0.024536329094701315 0.00015252293690779911 0 0.024546677881854568 0.00020656184719729741 0 0.024499266598959648 0.00019961917466415261 0 0.024546677881854568 0.00020656184719729741 0 0.024499266598959648 0.00019961917466415261 0 0.024536470285043147 0.00023151919198600946 0 0.024363850472618898 0.0002230514150844232 0 0.024402404775753558 0.00013907327363721207 0 0.024492872275002339 0.00016755179343103482 0 0.024363850472618898 0.0002230514150844232 0 0.024492872275002339 0.00016755179343103482 0 0.024415422739266269 0.00028023581344388581 0 0.024402404775753558 0.00013907327363721207 0 0.024498871723769709 0.00011135577185360831 0 0.024492872275002339 0.00016755179343103482 0 0.024352929014905447 0.0002188911128565473 0 0.024217143079831943 0.00042513533963692551 0 0.024499266598959648 0.00019961917466415261 0 0.024536470285043147 0.00023151919198600946 0 0.024500423900553969 0.00025458941620063911 0 0.024492872275002339 0.00016755179343103482 0 0.024415422739266269 0.00028023581344388581 0 0.024447753833441013 0.00043159033661564501 0 0.024415422739266269 0.00028023581344388581 0 0.024447753833441013 0.00043159033661564501 0 0.024257166695694683 0.00046143350026943956 0 0.024557371738903346 0.00022386394939834895 0 0.024546677881854568 0.00020656184719729741 0 0.024536470285043147 0.00023151919198600946 0 0.024563631472631967 0.00022193758662759631 0 0.024536470285043147 0.00023151919198600946 0 0.024533050022411417 0.00027406204963068768 0 0.024152526974489837 0.00053736066303441445 0 0.024028087711337083 0.00069685075898846436 0 0.024536470285043147 0.00023151919198600946 0 0.024533050022411417 0.00027406204963068768 0 0.024500423900553969 0.00025458941620063911 0 0.023368167005276688 0.00095276793042755649 0 0.023164248757077958 0.0012231824553250357 0 0.023383043804688558 0.0012467555711855205 0 0.02369558826466291 0.0010275810089408375 0 0.023368167005276688 0.00095276793042755649 0 0.023383043804688558 0.0012467555711855205 0 0.023914573443620708 0.00091353741602740975 0 0.024217143079831943 0.00042513533963692551 0 0.024028087711337083 0.00069685075898846436 0 0.023914573443620708 0.00091353741602740975 0 0.024533050022411417 0.00027406204963068768 0 0.024491231942619752 0.00031484331492374071 0 0.024500423900553969 0.00025458941620063911 0 0.024394268338186843 0.00084934014398242068 0 0.024447753833441013 0.00043159033661564501 0 0.024255752081114933 0.00061988163334456491 0 0.024447753833441013 0.00043159033661564501 0 0.024257166695694683 0.00046143350026943956 0 0.024255752081114933 0.00061988163334456491 0 0.024257166695694683 0.00046143350026943956 0 0.024055707598527928 0.00042647623030941614 0 0.02410692225610676 0.00058254066964167034 0 0.024257166695694683 0.00046143350026943956 0 0.02410692225610676 0.00058254066964167034 0 0.024255752081114933 0.00061988163334456491 0 0.024165599119469441 0.00072520636906088151 0 0.024234650783857246 0.00055571051388896941 0 0.02369709252545573 0.00064328166025437363 0 0.024055707598527928 0.00042647623030941614 0 0.023936831803844424 0.00062937044786019302 0 0.024312682265353606 0.00029654152250918923 0 0.024285657825751178 0.00036576678898505492 0 0.024204531869893173 0.00038693207656725225 0 0.024155350452055201 0.00045428906419709331 0 0.024285657825751178 0.00036576678898505492 0 0.024204531869893173 0.00038693207656725225 0 0.024055707598527928 0.00042647623030941614 0 0.02410692225610676 0.00058254066964167034 0 0.023936831803844424 0.00062937044786019302 0 0.024165599119469441 0.00072520636906088151 0 0.024382423715287115 0.00046827443420600407 0 0.023936831803844424 0.00062937044786019302 0 0.023767196803760455 0.00073000747429614681 0 0.023909449579199028 0.00087125877661192047 0 0.02369709252545573 0.00064328166025437363 0 0.023936831803844424 0.00062937044786019302 0 0.023767196803760455 0.00073000747429614681 0 0.023936831803844424 0.00062937044786019302 0 0.023909449579199028 0.00087125877661192047 0 0.024123571669075718 0.00079612010559842496 0 0.023744938761717387 0.00086875651068130718 0 0.023767196803760455 0.00073000747429614681 0 0.023909449579199028 0.00087125877661192047 0 0.024394268338186843 0.00084934014398242068 0 0.024255752081114933 0.00061988163334456491 0 0.024123571669075718 0.00079612010559842496 0 0.02410692225610676 0.00058254066964167034 0 0.024255752081114933 0.00061988163334456491 0 0.024123571669075718 0.00079612010559842496 0 0.02410692225610676 0.00058254066964167034 0 0.023936831803844424 0.00062937044786019302 0 0.024123571669075718 0.00079612010559842496 0 0.023199354809061396 0.0014631896817582923 0 0.023240787988232231 0.0014851051159175998 0 0.023202397445377648 0.0014431476563238157 0 0.023914573443620708 0.00091353741602740975 0 0.023671757204458646 0.0012185666527963165 0 0.023909449579199028 0.00087125877661192047 0 0.024123571669075718 0.00079612010559842496 0 0.024046199653128243 0.0011479467256324503 0 0.024394268338186843 0.00084934014398242068 0 0.024123571669075718 0.00079612010559842496 0 0.024046199653128243 0.0011479467256324503 0 0.023660717340594974 0.0012285591765769655 0 0.023739272926966488 0.0010344639773321655 0 0.024046199653128243 0.0011479467256324503 0 0.023739272926966488 0.0010344639773321655 0 0.023909449579199028 0.00087125877661192047 0 0.024046199653128243 0.0011479467256324503 0 0.023739272926966488 0.0010344639773321655 0 0.023744938761717387 0.00086875651068130718 0 0.023909449579199028 0.00087125877661192047 0 0.023240787988232231 0.0014851051159175998 0 0.023274570658529153 0.0015034900996385792 0 0.023334325140056813 0.0015255451532939868 0 0.023660717340594974 0.0012285591765769655 0 0.024046199653128243 0.0011479467256324503 0 0.023682031638404981 0.0014097167788655962 0 0.023671757204458646 0.0012185666527963165 0 0.0235531467774555 0.0013652756074470293 0 0.023240787988232231 0.0014851051159175998 0 0.023274570658529153 0.0015034900996385792 0 0.023230803986229846 0.0014998097871519295 0 0.023240787988232231 0.0014851051159175998 0 0.023230803986229846 0.0014998097871519295 0 0.023202397445377648 0.0014431476563238157 0 0.023230803986229846 0.0014998097871519295 0 0.023245294149967555 0.0015208910350096849 0 0.023202397445377648 0.0014431476563238157 0 0.023245294149967555 0.0015208910350096849 0 0.023292415447310127 0.0014098781843654984 0 0.023202397445377648 0.0014431476563238157 0 0.023382121035403013 0.0014423973947706788 0 0.023245294149967555 0.0015208910350096849 0 0.023292415447310127 0.0014098781843654984 0 0.023382121035403013 0.0014423973947706788 0 0.023245294149967555 0.0015208910350096849 0 0.023242901027803943 0.0016079659705607668 0 0.023164248757077958 0.0012231824553250357 0 0.023383043804688558 0.0012467555711855205 0 0.023292415447310127 0.0014098781843654984 0 0.023382121035403013 0.0014423973947706788 0 0.023383043804688558 0.0012467555711855205 0 0.023292415447310127 0.0014098781843654984 0 0.023164248757077958 0.0012231824553250357 0 0.023292415447310127 0.0014098781843654984 0 0.023202397445377648 0.0014431476563238157 0 0.023914573443620708 0.00091353741602740975 0 0.023830894999682429 0.0010835970175028752 0 0.023231368578632259 0.0015153170426490882 0 0.023242901027803943 0.0016079659705607668 0 0.023144837021577217 0.0014573348926311348 0 0.023245294149967555 0.0015208910350096849 0 0.023231368578632259 0.0015153170426490882 0 0.023242901027803943 0.0016079659705607668 0 0.023230803986229846 0.0014998097871519295 0 0.023245294149967555 0.0015208910350096849 0 0.023231368578632259 0.0015153170426490882 0 0.023274570658529153 0.0015034900996385792 0 0.023230803986229846 0.0014998097871519295 0 0.023266326790657547 0.0014992203439065789 0 0.023230803986229846 0.0014998097871519295 0 0.023231368578632259 0.0015153170426490882 0 0.023266326790657547 0.0014992203439065789 0 0.023274570658529153 0.0015034900996385792 0 0.023304473340990912 0.0015018664032386924 0 0.023334325140056813 0.0015255451532939868 0 0.023304473340990912 0.0015018664032386924 0 0.02335484862040095 0.0014874543646561825 0 0.023334325140056813 0.0015255451532939868 0 0.023274570658529153 0.0015034900996385792 0 0.023266326790657547 0.0014992203439065789 0 0.023304473340990912 0.0015018664032386924 0 0.023266326790657547 0.0014992203439065789 0 0.023304473340990912 0.0015018664032386924 0 0.023318800106316019 0.0014795806468550941 0 0.023266326790657547 0.0014992203439065789 0 0.023318800106316019 0.0014795806468550941 0 0.023288221986153348 0.0014694513298031762 0 0.023304473340990912 0.0015018664032386924 0 0.023318800106316019 0.0014795806468550941 0 0.02335484862040095 0.0014874543646561825 0 0.023318800106316019 0.0014795806468550941 0 0.023288221986153348 0.0014694513298031762 0 0.02335335886631679 0.0014275509924534093 0 0.023318800106316019 0.0014795806468550941 0 0.02335335886631679 0.0014275509924534093 0 0.023377294439716163 0.0014606825122069449 0 0.023318800106316019 0.0014795806468550941 0 0.023377294439716163 0.0014606825122069449 0 0.02335484862040095 0.0014874543646561825 0 0.023231368578632259 0.0015153170426490882 0 0.023266326790657547 0.0014992203439065789 0 0.023288221986153348 0.0014694513298031762 0 0.023231368578632259 0.0015153170426490882 0 0.023288221986153348 0.0014694513298031762 0 0.023278135597134913 0.0013941823762544552 0 0.023288221986153348 0.0014694513298031762 0 0.023278135597134913 0.0013941823762544552 0 0.02335335886631679 0.0014275509924534093 0 0.023278135597134913 0.0013941823762544552 0 0.023244519833274298 0.0012767374564355855 0 0.023201767668395698 0.0013863101309928077 0 0.02323210381892617 0.0013409396088333882 0 0.023193486346259607 0.001275500909653608 0 0.02335335886631679 0.0014275509924534093 0 0.023350329576481532 0.0013495478161846654 0 0.023397646199325918 0.0014060357246734854 0 0.023278135597134913 0.0013941823762544552 0 0.02335335886631679 0.0014275509924534093 0 0.023387207205213215 0.0012618741379910676 0 0.023278135597134913 0.0013941823762544552 0 0.023387207205213215 0.0012618741379910676 0 0.023244519833274298 0.0012767374564355855 0 0.023387207205213215 0.0012618741379910676 0 0.023244519833274298 0.0012767374564355855 0 0.023269550617045734 0.0011807710807766726 0 0.023244519833274298 0.0012767374564355855 0 0.023108585320558067 0.0012242164995529125 0 0.023201767668395698 0.0013863101309928077 0 0.023244519833274298 0.0012767374564355855 0 0.023108585320558067 0.0012242164995529125 0 0.023269550617045734 0.0011807710807766726 0 0.023231368578632259 0.0015153170426490882 0 0.023278135597134913 0.0013941823762544552 0 0.023201767668395698 0.0013863101309928077 0 0.023231368578632259 0.0015153170426490882 0 0.023201767668395698 0.0013863101309928077 0 0.023144837021577217 0.0014573348926311348 0 0.023108585320558067 0.0012242164995529125 0 0.023201767668395698 0.0013863101309928077 0 0.023144837021577217 0.0014573348926311348 0 0.022978607251452784 0.0012642116267675542 0 0.023108585320558067 0.0012242164995529125 0 0.023144837021577217 0.0014573348926311348 0 0.022978607251452784 0.0012642116267675542 0 0.023108585320558067 0.0012242164995529125 0 0.022965216985123417 0.0010305378609361379 0 0.023108585320558067 0.0012242164995529125 0 0.022965216985123417 0.0010305378609361379 0 0.023070953773456162 0.00096893860491601954 0 0.023108585320558067 0.0012242164995529125 0 0.023070953773456162 0.00096893860491601954 0 0.023156416923400248 0.00097949182444026506 0 0.023096834424146589 0.0011472792844105426 0 0.023133483761679556 0.0011048612554838307 0 0.023070953773456162 0.00096893860491601954 0 0.02309604197987138 0.00088434704008682574 0 0.023156416923400248 0.00097949182444026506 0 0.023070953773456162 0.00096893860491601954 0 0.02309604197987138 0.00088434704008682574 0 0.023009725408147202 0.00077771613234280243 0 0.022965216985123417 0.0010305378609361379 0 0.023070953773456162 0.00096893860491601954 0 0.023009725408147202 0.00077771613234280243 0 0.022965216985123417 0.0010305378609361379 0 0.022807302788764184 0.00075240669280784132 0 0.02284000162301773 0.0008221799075257165 0 0.022807302788764184 0.00075240669280784132 0 0.02284000162301773 0.0008221799075257165 0 0.022662743950145645 0.00068963943680989449 0 0.02309604197987138 0.00088434704008682574 0 0.023009725408147202 0.00077771613234280243 0 0.023085523493309109 0.00079372717392062751 0 0.022872331225134761 0.00087821215715140296 0 0.022910973711473021 0.00074012937869474978 0 0.022817821804367318 0.00083853511034263808 0 0.022965216985123417 0.0010305378609361379 0 0.02284000162301773 0.0008221799075257165 0 0.022301657722682625 0.00089058717212453162 0 0.02284000162301773 0.0008221799075257165 0 0.022662743950145645 0.00068963943680989449 0 0.022467021982665928 0.00084192104119070051 0 0.02265496781436644 0.0008233085017833882 0 0.022301657722682625 0.00089058717212453162 0 0.022515510221807741 0.0005348898723029627 0 0.022662743950145645 0.00068963943680989449 0 0.022515510221807741 0.0005348898723029627 0 0.022662743950145645 0.00068963943680989449 0 0.022712873233558754 0.00050984876227071771 0 0.022910973711473021 0.00074012937869474978 0 0.023000053878942647 0.00048200432985293318 0 0.022807302788764184 0.00075240669280784132 0 0.022712873233558754 0.00050984876227071771 0 0.022880287000962455 0.00041466794405628792 0 0.022807302788764184 0.00075240669280784132 0 0.022662743950145645 0.00068963943680989449 0 0.022712873233558754 0.00050984876227071771 0 0.023009725408147202 0.00077771613234280243 0 0.023089875126580575 0.00069646664002466897 0 0.023085523493309109 0.00079372717392062751 0 0.022712873233558754 0.00050984876227071771 0 0.022573363108712451 0.00033525274822870476 0 0.022880287000962455 0.00041466794405628792 0 0.022515510221807741 0.0005348898723029627 0 0.022712873233558754 0.00050984876227071771 0 0.022573363108712451 0.00033525274822870476 0 0.02237801463387409 0.00035150772248313059 0 0.022515510221807741 0.0005348898723029627 0 0.022573363108712451 0.00033525274822870476 0 0.023176025347926413 0.00047074751822950465 0 0.023137184110340232 0.00060256730865862278 0 0.023240555090029851 0.00059187678865637618 0 0.023176025347926413 0.00047074751822950465 0 0.023240555090029851 0.00059187678865637618 0 0.023277727107152403 0.00050326664963296953 0 0.023240555090029851 0.00059187678865637618 0 0.023277727107152403 0.00050326664963296953 0 0.023289828345741181 0.00056220835080182598 0 0.023176025347926413 0.00047074751822950465 0 0.023277727107152403 0.00050326664963296953 0 0.023298487761991851 0.0003990170895043816 0 0.023176025347926413 0.00047074751822950465 0 0.02302968482514655 0.00050562514366346155 0 0.023137184110340232 0.00060256730865862278 0 0.023137184110340232 0.00060256730865862278 0 0.023148757059253761 0.00070149755904561615 0 0.023189462551966539 0.00067164717816226168 0 0.023009725408147202 0.00077771613234280243 0 0.02302968482514655 0.00050562514366346155 0 0.023089875126580575 0.00069646664002466897 0 0.023137184110340232 0.00060256730865862278 0 0.023089875126580575 0.00069646664002466897 0 0.023148757059253761 0.00070149755904561615 0 0.02302968482514655 0.00050562514366346155 0 0.023137184110340232 0.00060256730865862278 0 0.023089875126580575 0.00069646664002466897 0 0.023089875126580575 0.00069646664002466897 0 0.023085523493309109 0.00079372717392062751 0 0.023139598317663143 0.00077980003958688757 0 0.023089875126580575 0.00069646664002466897 0 0.023148757059253761 0.00070149755904561615 0 0.023139598317663143 0.00077980003958688757 0 0.023148757059253761 0.00070149755904561615 0 0.023189513771570431 0.00075350413801396441 0 0.023139598317663143 0.00077980003958688757 0 0.023189513771570431 0.00075350413801396441 0 0.02322677157066905 0.00071771923011296624 0 0.023230024433724576 0.0007700060789334436 0 0.02322677157066905 0.00071771923011296624 0 0.023268194939175767 0.0006943902881528523 0 0.023230024433724576 0.0007700060789334436 0 0.02322677157066905 0.00071771923011296624 0 0.023189462551966539 0.00067164717816226168 0 0.023249440817680048 0.00067180288768507539 0 0.023189513771570431 0.00075350413801396441 0 0.02322677157066905 0.00071771923011296624 0 0.023189462551966539 0.00067164717816226168 0 0.023148757059253761 0.00070149755904561615 0 0.023189513771570431 0.00075350413801396441 0 0.023189462551966539 0.00067164717816226168 0 0.023137184110340232 0.00060256730865862278 0 0.023189462551966539 0.00067164717816226168 0 0.023240555090029851 0.00059187678865637618 0 0.023240555090029851 0.00059187678865637618 0 0.023234403241266039 0.00064910021118282243 0 0.023298896235388881 0.00061355534868365032 0 0.023240555090029851 0.00059187678865637618 0 0.023249440817680048 0.00067180288768507539 0 0.023269782363396871 0.00069284211498019598 0 0.022955243654201408 0.0010425592629571142 0 0.022947679069417821 0.0010840268756483395 0 0.023189462551966539 0.00067164717816226168 0 0.023240555090029851 0.00059187678865637618 0 0.023249440817680048 0.00067180288768507539 0 0.022947679069417821 0.0010840268756483395 0 0.022867080433362202 0.0012196769161779896 0 0.02322677157066905 0.00071771923011296624 0 0.023249440817680048 0.00067180288768507539 0 0.023268194939175767 0.0006943902881528523 0 0.022947762807496074 0.0010827172873175714 0 0.022947679069417821 0.0010840268756483395 0 0.022947679069417821 0.0010840268756483395 0 0.023048772221421432 0.0011253869888776108 0 0.022984507034672204 0.001113717753898796 0 0.022983437180776237 0.0012952011737329731 0 0.02307468628624371 0.0012320228687460976 0 0.023198205588919288 0.00083817722109497453 0 0.023274238497797656 0.0008402642628182361 0 0.023156416923400248 0.00097949182444026506 0 0.023268194939175767 0.0006943902881528523 0 0.023230024433724576 0.0007700060789334436 0 0.023274238497797656 0.0008402642628182361 0 0.023048772221421432 0.0011253869888776108 0 0.022867080433362202 0.0012196769161779896 0 0.023230024433724576 0.0007700060789334436 0 0.023198205588919288 0.00083817722109497453 0 0.023274238497797656 0.0008402642628182361 0 0.023189513771570431 0.00075350413801396441 0 0.023230024433724576 0.0007700060789334436 0 0.023198205588919288 0.00083817722109497453 0 0.023085523493309109 0.00079372717392062751 0 0.023139598317663143 0.00077980003958688757 0 0.023135530475911475 0.00085744413891691157 0 0.023189513771570431 0.00075350413801396441 0 0.023198205588919288 0.00083817722109497453 0 0.023139598317663143 0.00077980003958688757 0 0.023198205588919288 0.00083817722109497453 0 0.023139598317663143 0.00077980003958688757 0 0.023135530475911475 0.00085744413891691157 0 0.023198205588919288 0.00083817722109497453 0 0.023135530475911475 0.00085744413891691157 0 0.023156416923400248 0.00097949182444026506 0 0.02309604197987138 0.00088434704008682574 0 0.023135530475911475 0.00085744413891691157 0 0.023156416923400248 0.00097949182444026506 0 0.02309604197987138 0.00088434704008682574 0 0.023085523493309109 0.00079372717392062751 0 0.023135530475911475 0.00085744413891691157 0 0.023350329576481532 0.0013495478161846654 0 0.02334801455975968 0.0012607425687823565 0 0.023382778230785269 0.0013113901507601203 0 0.023193486346259607 0.001275500909653608 0 0.023048772221421432 0.0011253869888776108 0 0.023048772221421432 0.0011253869888776108 0 0.023133483761679556 0.0011048612554838307 0 0.023387207205213215 0.0012618741379910676 0 0.023390073520245778 0.0010995479752997164 0 0.023269550617045734 0.0011807710807766726 0 0.022467582982553181 0.0014035124556516243 0 0.022759217310674342 0.0012437156198241378 0 0.023382778230785269 0.0013113901507601203 0 0.023425929963988866 0.0013103900632127374 0 0.02340660867556953 0.0013527637217269838 0 0.023382778230785269 0.0013113901507601203 0 0.023425929963988866 0.0013103900632127374 0 0.023377161825308381 0.0012716146311121696 0 0.021736925498628375 0.00089694714497833982 0 0.021406378388380665 0.00098219500713953261 0 0.021443694017650734 0.00051560269631907747 0 0.021736925498628375 0.00089694714497833982 0 0.021597792796346136 0.001250146800840011 0 0.021406378388380665 0.00098219500713953261 0 0.021736925498628375 0.00089694714497833982 0 0.021597792796346136 0.001250146800840011 0 0.02180211230371145 0.0013102101391173086 0 0.021597792796346136 0.001250146800840011 0 0.021346914677265311 0.001470656629741887 0 0.021406378388380665 0.00098219500713953261 0 0.02180211230371145 0.0013102101391173086 0 0.021656153107453842 0.0014851587443085773 0 0.021892010704782583 0.0015390775020419759 0 0.021597792796346136 0.001250146800840011 0 0.02180211230371145 0.0013102101391173086 0 0.021656153107453842 0.0014851587443085773 0 0.021597792796346136 0.001250146800840011 0 0.021656153107453842 0.0014851587443085773 0 0.021346914677265311 0.001470656629741887 0 0.021736925498628375 0.00089694714497833982 0 0.02180211230371145 0.0013102101391173086 0 0.022034967687391275 0.0012894397499274856 0 0.023425929963988866 0.0013103900632127374 0 0.023384783919644499 0.0012570538132583458 0 0.023377161825308381 0.0012716146311121696 0 0.023384828011818702 0.0012568523021161573 0 0.023377161825308381 0.0012716146311121696 0 0.02337381426930794 0.001242484571046084 0 0.02334801455975968 0.0012607425687823565 0 0.023382778230785269 0.0013113901507601203 0 0.023377161825308381 0.0012716146311121696 0 0.02334801455975968 0.0012607425687823565 0 0.023377161825308381 0.0012716146311121696 0 0.02337381426930794 0.001242484571046084 0 0.022759217310674342 0.0012437156198241378 0 0.022769031703738316 0.0012370226405301586 0 0.02180211230371145 0.0013102101391173086 0 0.022034967687391275 0.0012894397499274856 0 0.021892010704782583 0.0015390775020419759 0 0.022759217310674342 0.0012437156198241378 0 0.022606751455881518 0.0013010145039873363 0 0.022867080433362202 0.0012196769161779896 0 0.022606751455881518 0.0013010145039873363 0 0.022642896656149082 0.0012633535211691515 0 0.02259803186709982 0.0012045143889510958 0 0.022720907731787546 0.001119421272290917 0 0.022759217310674342 0.0012437156198241378 0 0.022867080433362202 0.0012196769161779896 0 0.023234403241266039 0.00064910021118282243 0 0.023295968220840464 0.000740344141987669 0 0.023304706855004204 0.00066658177804251927 0 0.023295968220840464 0.000740344141987669 0 0.023304706855004204 0.00066658177804251927 0 0.023379491552878901 0.00068911837190248088 0 0.023234403241266039 0.00064910021118282243 0 0.023304706855004204 0.00066658177804251927 0 0.023298896235388881 0.00061355534868365032 0 0.023359733425325029 0.00059586135878069661 0 0.023379491552878901 0.00068911837190248088 0 0.023472647313045894 0.00046461404661500794 0 0.023240555090029851 0.00059187678865637618 0 0.023298896235388881 0.00061355534868365032 0 0.023289828345741181 0.00056220835080182598 0 0.023304706855004204 0.00066658177804251927 0 0.023298896235388881 0.00061355534868365032 0 0.023359733425325029 0.00059586135878069661 0 0.023298896235388881 0.00061355534868365032 0 0.023289828345741181 0.00056220835080182598 0 0.023347368232472281 0.00053715687464742925 0 0.023298896235388881 0.00061355534868365032 0 0.023359733425325029 0.00059586135878069661 0 0.023347368232472281 0.00053715687464742925 0 0.023304706855004204 0.00066658177804251927 0 0.023359733425325029 0.00059586135878069661 0 0.023379491552878901 0.00068911837190248088 0 0.022606751455881518 0.0013010145039873363 0 0.022253208148343855 0.0014217071063604423 0 0.022606751455881518 0.0013010145039873363 0 0.022272524278314061 0.0015012425794109238 0 0.021656153107453842 0.0014851587443085773 0 0.021892010704782583 0.0015390775020419759 0 0.021570072264006285 0.0017872243911955877 0 0.022238205030277094 0.0013242916541711973 0 0.021570072264006285 0.0017872243911955877 0 0.021811471118184642 0.0021615079082700763 0 0.021656153107453842 0.0014851587443085773 0 0.021570072264006285 0.0017872243911955877 0 0.021346914677265311 0.001470656629741887 0 0.021811471118184642 0.0021615079082700763 0 0.021202364248734912 0.0023993495297340594 0 0.021390338288911796 0.0031618784828167166 0 0.021811471118184642 0.0021615079082700763 0 0.021202364248734912 0.0023993495297340594 0 0.021376062844601331 0.0019700280903573167 0 0.021570072264006285 0.0017872243911955877 0 0.021811471118184642 0.0021615079082700763 0 0.021376062844601331 0.0019700280903573167 0 0.023472647313045894 0.00046461404661500794 0 0.023387324514500415 0.00044836558933555328 0 0.023465984347378604 0.00043556223224433971 0 0.023387324514500415 0.00044836558933555328 0 0.023277727107152403 0.00050326664963296953 0 0.023298487761991851 0.0003990170895043816 0 0.023387324514500415 0.00044836558933555328 0 0.023277727107152403 0.00050326664963296953 0 0.023347368232472281 0.00053715687464742925 0 0.023277727107152403 0.00050326664963296953 0 0.023289828345741181 0.00056220835080182598 0 0.023347368232472281 0.00053715687464742925 0 0.023359733425325029 0.00059586135878069661 0 0.023472647313045894 0.00046461404661500794 0 0.023347368232472281 0.00053715687464742925 0 0.023472647313045894 0.00046461404661500794 0 0.023387324514500415 0.00044836558933555328 0 0.023347368232472281 0.00053715687464742925 0 0.020071745668685897 0.0018473739250696149 0 0.020604218225899956 0.0023372290043965978 0 0.020922888254844969 0.001746437796709127 0 0.020071745668685897 0.0018473739250696149 0 0.019921025613754174 0.0025186367184516661 0 0.020604218225899956 0.0023372290043965978 0 0.019921025613754174 0.0025186367184516661 0 0.020604218225899956 0.0023372290043965978 0 0.020577103434547283 0.0029711118883910316 0 0.020604218225899956 0.0023372290043965978 0 0.021202364248734912 0.0023993495297340594 0 0.020577103434547283 0.0029711118883910316 0 0.021202364248734912 0.0023993495297340594 0 0.021376062844601331 0.0019700280903573167 0 0.020922888254844969 0.001746437796709127 0 0.020604218225899956 0.0023372290043965978 0 0.021202364248734912 0.0023993495297340594 0 0.020922888254844969 0.001746437796709127 0 0.020922888254844969 0.001746437796709127 0 0.02122499283020059 0.001559051614464606 0 0.021441303292689024 0.0014620659100586205 0 0.021376062844601331 0.0019700280903573167 0 0.020922888254844969 0.001746437796709127 0 0.02122499283020059 0.001559051614464606 0 0.021570072264006285 0.0017872243911955877 0 0.021376062844601331 0.0019700280903573167 0 0.02122499283020059 0.001559051614464606 0 0.021570072264006285 0.0017872243911955877 0 0.02122499283020059 0.001559051614464606 0 0.021346914677265311 0.001470656629741887 0 0.020944437437307374 0.0014525125585701131 0 0.020863095545907637 0.0012043818110349838 0 0.020922888254844969 0.001746437796709127 0 0.020317811645434121 0.00051724433417197539 0 0.019832069537733657 0.0011244587258481785 0 0.020071745668685897 0.0018473739250696149 0 0.020922888254844969 0.001746437796709127 0 0.019832069537733657 0.0011244587258481785 0 0.020317811645434121 0.00051724433417197539 0 0.019822659997876333 0.00060757076922060918 0 0.019832069537733657 0.0011244587258481785 0 0.021441303292689024 0.0014620659100586205 0 0.021348717182825171 0.0015056360010363239 0 0.021513097496776459 0.0016830312908800889 0 0.020317811645434121 0.00051724433417197539 0 0.019838628397497109 4.3476129993517275e-05 0 0.019822659997876333 0.00060757076922060918 0 0.021892800850913621 0.0015282362122648711 0 0.021981287512749564 0.0015608492294633728 0 0.021346914677265311 0.001470656629741887 0 0.021348717182825171 0.0015056360010363239 0 0.021245824054862111 0.0016488246359200685 0 0.02122499283020059 0.001559051614464606 0 0.021346914677265311 0.001470656629741887 0 0.021348717182825171 0.0015056360010363239 0 0.02122499283020059 0.001559051614464606 0 0.021441303292689024 0.0014620659100586205 0 0.021348717182825171 0.0015056360010363239 0 0.021245824054862111 0.0016488246359200685 0 0.02143049725762514 0.0018717367143934291 0 0.021513097496776459 0.0016830312908800889 0 0.021348717182825171 0.0015056360010363239 0 0.021245824054862111 0.0016488246359200685 0 0.021513097496776459 0.0016830312908800889 0 0.021981287512749564 0.0015608492294633728 0 0.022269474687886162 0.0018387924560619709 0 0.021245824054862111 0.0016488246359200685 0 0.02143049725762514 0.0018717367143934291 0 0.021177014143979794 0.0021050668076371334 0 0.02143049725762514 0.0018717367143934291 0 0.021513097496776459 0.0016830312908800889 0 0.021675783552806662 0.0019131594814850124 0 0.021441303292689024 0.0014620659100586205 0 0.021513097496776459 0.0016830312908800889 0 0.021931237126814652 0.0018128923582047716 0 0.020863095545907637 0.0012043818110349838 0 0.020721436804679496 0.00089013255516951482 0 0.020317811645434121 0.00051724433417197539 0 0.019857312425754947 -0.00044120285584446737 0 0.019838628397497109 4.3476129993517275e-05 0 0.021513097496776459 0.0016830312908800889 0 0.021931237126814652 0.0018128923582047716 0 0.021675783552806662 0.0019131594814850124 0 0.021931237126814652 0.0018128923582047716 0 0.021675783552806662 0.0019131594814850124 0 0.021890292400023218 0.0021311762031867333 0 0.021675783552806662 0.0019131594814850124 0 0.02161964350054215 0.0021425046996913872 0 0.021890292400023218 0.0021311762031867333 0 0.02161964350054215 0.0021425046996913872 0 0.021890292400023218 0.0021311762031867333 0 0.021923769619069267 0.0023903357742679353 0 0.021890292400023218 0.0021311762031867333 0 0.021923769619069267 0.0023903357742679353 0 0.022321267970263674 0.0024076308042290263 0 0.02161964350054215 0.0021425046996913872 0 0.021923769619069267 0.0023903357742679353 0 0.021618058573175551 0.0026331278814961433 0 0.021923769619069267 0.0023903357742679353 0 0.022120676937431794 0.0027104763603677464 0 0.022321267970263674 0.0024076308042290263 0 0.021923769619069267 0.0023903357742679353 0 0.022120676937431794 0.0027104763603677464 0 0.021618058573175551 0.0026331278814961433 0 0.022294027747274486 0.0024088904557572018 0 0.022269474687886162 0.0018387924560619709 0 0.022332921959863389 0.003091184623082843 0 0.02235355929009121 0.0031132587440914207 0 0.022354485206051766 0.0030639906193738187 0 0.02161964350054215 0.0021425046996913872 0 0.021618058573175551 0.0026331278814961433 0 0.021177014143979794 0.0021050668076371334 0 0.02143049725762514 0.0018717367143934291 0 0.02161964350054215 0.0021425046996913872 0 0.021177014143979794 0.0021050668076371334 0 0.02143049725762514 0.0018717367143934291 0 0.021675783552806662 0.0019131594814850124 0 0.02161964350054215 0.0021425046996913872 0 0.022467582982553181 0.0014035124556516243 0 0.022269474687886162 0.0018387924560619709 0 0.023425929963988866 0.0013103900632127374 0 0.023467838334617439 0.0013641839285001083 0 0.02340660867556953 0.0013527637217269838 0 0.023467838334617439 0.0013641839285001083 0 0.02340660867556953 0.0013527637217269838 0 0.023397646199325918 0.0014060357246734854 0 0.023350329576481532 0.0013495478161846654 0 0.023382778230785269 0.0013113901507601203 0 0.02340660867556953 0.0013527637217269838 0 0.023350329576481532 0.0013495478161846654 0 0.02340660867556953 0.0013527637217269838 0 0.023397646199325918 0.0014060357246734854 0 0.023467838334617439 0.0013641839285001083 0 0.023432409141304331 0.0014399021772093243 0 0.023453823973640573 0.0014734070361827321 0 0.023467838334617439 0.0013641839285001083 0 0.023397646199325918 0.0014060357246734854 0 0.023432409141304331 0.0014399021772093243 0 0.022269474687886162 0.0018387924560619709 0 0.022750207646893606 0.0021698993441332049 0 0.023453823973640573 0.0014734070361827321 0 0.023461926598654526 0.0014688327303164555 0 0.023491758225355944 0.0014220965959217463 0 0.023432409141304331 0.0014399021772093243 0 0.023453823973640573 0.0014734070361827321 0 0.023461926598654526 0.0014688327303164555 0 0.023397646199325918 0.0014060357246734854 0 0.023432409141304331 0.0014399021772093243 0 0.023377294439716163 0.0014606825122069449 0 0.02335335886631679 0.0014275509924534093 0 0.023397646199325918 0.0014060357246734854 0 0.023377294439716163 0.0014606825122069449 0 0.023461926598654526 0.0014688327303164555 0 0.023377294439716163 0.0014606825122069449 0 0.02335484862040095 0.0014874543646561825 0 0.023432409141304331 0.0014399021772093243 0 0.023461926598654526 0.0014688327303164555 0 0.023377294439716163 0.0014606825122069449 0 0.023461926598654526 0.0014688327303164555 0 0.02335484862040095 0.0014874543646561825 0 0.023334325140056813 0.0015255451532939868 0 0.023515716717773735 0.0014074697640620568 0 0.0235531467774555 0.0013652756074470293 0 0.023461926598654526 0.0014688327303164555 0 0.023603688882371156 0.0013949947167586102 0 0.023682031638404981 0.0014097167788655962 0 0.023524141510201418 0.0013707588339958174 0 0.023603688882371156 0.0013949947167586102 0 0.023491758225355944 0.0014220965959217463 0 0.023467243137799864 0.0013748618224173332 0 0.023453823973640573 0.0014734070361827321 0 0.023491758225355944 0.0014220965959217463 0 0.023461926598654526 0.0014688327303164555 0 0.023603688882371156 0.0013949947167586102 0 0.023491758225355944 0.0014220965959217463 0 0.023138633929173535 0.0021197716620419806 0 0.022750207646893606 0.0021698993441332049 0 0.023467243137799864 0.0013748618224173332 0 0.023524141510201418 0.0013707588339958174 0 0.023491758225355944 0.0014220965959217463 0 0.02233111371955775 0.0030860311238777999 0 0.022354485206051766 0.0030639906193738187 0 0.022358718551762101 0.003057693124936514 0 0.022373798562382721 0.0030842154651632946 0 0.02233111371955775 0.0030860311238777999 0 0.022358718551762101 0.003057693124936514 0 0.022373798562382721 0.0030842154651632946 0 0.022358718551762101 0.003057693124936514 0 0.022384434049122895 0.0030655045839949615 0 0.022358718551762101 0.003057693124936514 0 0.022384434049122895 0.0030655045839949615 0 0.022260724773893011 0.003048624648735474 0 0.022525992163725347 0.0030949357431921567 0 0.022384434049122895 0.0030655045839949615 0 0.022357765496520212 0.003103625507411281 0 0.022384434049122895 0.0030655045839949615 0 0.022260724773893011 0.003048624648735474 0 0.022357765496520212 0.003103625507411281 0 0.022358718551762101 0.003057693124936514 0 0.022260724773893011 0.003048624648735474 0 0.022336653738823459 0.0030666608788736957 0 0.022120676937431794 0.0027104763603677464 0 0.021618058573175551 0.0026331278814961433 0 0.022260724773893011 0.003048624648735474 0 0.022332921959863389 0.003091184623082843 0 0.022260724773893011 0.003048624648735474 0 0.022336653738823459 0.0030666608788736957 0 0.022294027747274486 0.0024088904557572018 0 0.022327056790841602 0.0025940394639694525 0 0.022332921959863389 0.003091184623082843 0 0.022354485206051766 0.0030639906193738187 0 0.022336653738823459 0.0030666608788736957 0 0.022354485206051766 0.0030639906193738187 0 0.022358718551762101 0.003057693124936514 0 0.022336653738823459 0.0030666608788736957 0 0.018813173086236021 -0.0012700992938291789 0 0.018333571667134094 -0.0014630545350990843 0 0.01837042811626842 -0.0010095418998639842 0 0.022120676937431794 0.0027104763603677464 0 0.022260724773893011 0.003048624648735474 0 0.022517199483428306 0.0029491753371804702 0 0.020816050755244717 0.0013158367405074903 0 0.020063436225819697 0.00037215431798566002 0 0.022354074300139002 0.0031491675119508754 0 0.022517199483428306 0.0029491753371804702 0 0.022357765496520212 0.003103625507411281 0 0.022260724773893011 0.003048624648735474 0 0.022517199483428306 0.0029491753371804702 0 0.022357765496520212 0.003103625507411281 0 0.022354074300139002 0.0031491675119508754 0 0.022525992163725347 0.0030949357431921567 0 0.022357765496520212 0.003103625507411281 0 0.019480487147023523 -0.00040358763549898141 0 0.020063436225819697 0.00037215431798566002 0 0.020121781374843332 0.00070523735235798572 0 0.020435474926328089 0.00072143089478234697 0 0.02029287187629222 0.0011511788165926001 0 0.018567397947626293 -0.0019048031765053692 0 0.018813173086236021 -0.0012700992938291789 0 0.018333571667134094 -0.0014630545350990843 0 0.017894666045103369 -0.0019357010719060145 0 0.018567397947626293 -0.0019048031765053692 0 0.018333571667134094 -0.0014630545350990843 0 0.017894666045103369 -0.0019357010719060145 0 0.018333571667134094 -0.0014630545350990843 0 0.017905891001366869 -0.0014713438310940666 0 0.017894666045103369 -0.0019357010719060145 0 0.017905891001366869 -0.0014713438310940666 0 0.017434237568043579 -0.0013367269572198443 0 0.018734242507405924 -0.00078227485265302708 0 0.018218831684190789 -0.00068662408592779379 0 0.018005687523572775 -0.001120634382268042 0 0.017601738571457175 -0.00073414479144335784 0 0.017434237568043579 -0.0013367269572198443 0 0.017905891001366869 -0.0014713438310940666 0 0.018005687523572775 -0.001120634382268042 0 0.017434237568043579 -0.0013367269572198443 0 0.018333571667134094 -0.0014630545350990843 0 0.018005687523572775 -0.001120634382268042 0 0.01837042811626842 -0.0010095418998639842 0 0.018333571667134094 -0.0014630545350990843 0 0.017905891001366869 -0.0014713438310940666 0 0.018005687523572775 -0.001120634382268042 0 0.01837042811626842 -0.0010095418998639842 0 0.018110704241156919 -0.00063863616365622761 0 0.018585921644003075 -0.00055172691176296287 0 0.018005687523572775 -0.001120634382268042 0 0.01837042811626842 -0.0010095418998639842 0 0.018110704241156919 -0.00063863616365622761 0 0.018005687523572775 -0.001120634382268042 0 0.018110704241156919 -0.00063863616365622761 0 0.017601738571457175 -0.00073414479144335784 0 0.018110704241156919 -0.00063863616365622761 0 0.017601738571457175 -0.00073414479144335784 0 0.017721910768230816 -0.00018716948849906685 0 0.018110704241156919 -0.00063863616365622761 0 0.018216518167839153 -0.00027254816711725998 0 0.018585921644003075 -0.00055172691176296287 0 0.018110704241156919 -0.00063863616365622761 0 0.018216518167839153 -0.00027254816711725998 0 0.017721910768230816 -0.00018716948849906685 0 0.018783182416979752 -0.0010613585945711099 0 0.019110573733376938 -0.0005093726794077498 0 0.018874237655801908 -0.00023869160097226343 0 0.018783182416979752 -0.0010613585945711099 0 0.019390154940746005 -0.00075545737620678335 0 0.019110573733376938 -0.0005093726794077498 0 0.019171362268200019 -0.0021870755635462267 0 0.018783182416979752 -0.0010613585945711099 0 0.019501195280178019 -0.0013143154613695024 0 0.018813173086236021 -0.0012700992938291789 0 0.01837042811626842 -0.0010095418998639842 0 0.018585921644003075 -0.00055172691176296287 0 0.020063436225819697 0.00037215431798566002 0 0.019407262031871795 -0.00037259614925505471 0 0.020063436225819697 0.00037215431798566002 0 0.020502065560424974 0.00065827393423184609 0 0.022120676937431794 0.0027104763603677464 0 0.022517199483428306 0.0029491753371804702 0 0.022321267970263674 0.0024076308042290263 0 0.021931237126814652 0.0018128923582047716 0 0.021890292400023218 0.0021311762031867333 0 0.022321267970263674 0.0024076308042290263 0 0.020721436804679496 0.00089013255516951482 0 0.020502065560424974 0.00065827393423184609 0 0.018783182416979752 -0.0010613585945711099 0 0.019501195280178019 -0.0013143154613695024 0 0.019390154940746005 -0.00075545737620678335 0 0.019857312425754947 -0.00044120285584446737 0 0.019501195280178019 -0.0013143154613695024 0 0.019390154940746005 -0.00075545737620678335 0 0.019857312425754947 -0.00044120285584446737 0 0.019390154940746005 -0.00075545737620678335 0 0.019339543900354965 -0.00024431843566034595 0 0.019857312425754947 -0.00044120285584446737 0 0.019339543900354965 -0.00024431843566034595 0 0.019838628397497109 4.3476129993517275e-05 0 0.019339543900354965 -0.00024431843566034595 0 0.019838628397497109 4.3476129993517275e-05 0 0.018602708701670145 0.00038808696531893243 0 0.019390154940746005 -0.00075545737620678335 0 0.019339543900354965 -0.00024431843566034595 0 0.019110573733376938 -0.0005093726794077498 0 0.018783182416979752 -0.0010613585945711099 0 0.018874237655801908 -0.00023869160097226343 0 0.018389308905188029 0.0001788134625456709 0 0.019407262031871795 -0.00037259614925505471 0 0.019081265577745827 -9.9017090153552271e-05 0 0.019339543900354965 -0.00024431843566034595 0 0.018874237655801908 -0.00023869160097226343 0 0.018602708701670145 0.00038808696531893243 0 0.019339543900354965 -0.00024431843566034595 0 0.019110573733376938 -0.0005093726794077498 0 0.018874237655801908 -0.00023869160097226343 0 0.018874237655801908 -0.00023869160097226343 0 0.018602708701670145 0.00038808696531893243 0 0.018389308905188029 0.0001788134625456709 0 0.018312898961499936 0.00035677906953543161 0 0.019012837472664801 0.00055040452415657849 0 0.018581288319575406 0.0010534872846942104 0 0.019306436194960971 0.00077520717418313968 0 0.019012837472664801 0.00055040452415657849 0 0.018581288319575406 0.0010534872846942104 0 0.018312898961499936 0.00035677906953543161 0 0.018581288319575406 0.0010534872846942104 0 0.01779085831405643 0.0010176250327677643 0 0.019011206570404997 7.6439481249707366e-05 0 0.018297786043366807 0.00020107164480705789 0 0.019838628397497109 4.3476129993517275e-05 0 0.018312898961499936 0.00035677906953543161 0 0.019012837472664801 0.00055040452415657849 0 0.019838628397497109 4.3476129993517275e-05 0 0.019306436194960971 0.00077520717418313968 0 0.019822659997876333 0.00060757076922060918 0 0.019838628397497109 4.3476129993517275e-05 0 0.019306436194960971 0.00077520717418313968 0 0.019012837472664801 0.00055040452415657849 0 0.019306436194960971 0.00077520717418313968 0 0.019822659997876333 0.00060757076922060918 0 0.019832069537733657 0.0011244587258481785 0 0.019306436194960971 0.00077520717418313968 0 0.019832069537733657 0.0011244587258481785 0 0.01931234350786213 0.0016619954707113491 0 0.019306436194960971 0.00077520717418313968 0 0.01931234350786213 0.0016619954707113491 0 0.018581288319575406 0.0010534872846942104 0 0.020071745668685897 0.0018473739250696149 0 0.019832069537733657 0.0011244587258481785 0 0.01931234350786213 0.0016619954707113491 0 0.018581288319575406 0.0010534872846942104 0 0.018597394685280669 0.0019158873735486432 0 0.017959828081201879 0.0016526146910461551 0 0.01931234350786213 0.0016619954707113491 0 0.018581288319575406 0.0010534872846942104 0 0.018597394685280669 0.0019158873735486432 0 0.018597394685280669 0.0019158873735486432 0 0.019054970736390762 0.0025410452448063406 0 0.018083151265130389 0.0026627493926801647 0 0.018597394685280669 0.0019158873735486432 0 0.017959828081201879 0.0016526146910461551 0 0.018083151265130389 0.0026627493926801647 0 0.019921025613754174 0.0025186367184516661 0 0.01931234350786213 0.0016619954707113491 0 0.019054970736390762 0.0025410452448063406 0 0.01931234350786213 0.0016619954707113491 0 0.018597394685280669 0.0019158873735486432 0 0.019054970736390762 0.0025410452448063406 0 0.020071745668685897 0.0018473739250696149 0 0.019921025613754174 0.0025186367184516661 0 0.01931234350786213 0.0016619954707113491 0 0.017267252408651623 0.0022152400384210943 0 0.016279526707068902 0.0018846457861823596 0 0.016644866274919345 0.0030833035400631374 0 0.017267252408651623 0.0022152400384210943 0 0.017244156629976935 0.0014385274334735812 0 0.016279526707068902 0.0018846457861823596 0 0.017267252408651623 0.0022152400384210943 0 0.017959828081201879 0.0016526146910461551 0 0.018083151265130389 0.0026627493926801647 0 0.017267252408651623 0.0022152400384210943 0 0.017959828081201879 0.0016526146910461551 0 0.017244156629976935 0.0014385274334735812 0 0.01779085831405643 0.0010176250327677643 0 0.017244156629976935 0.0014385274334735812 0 0.016782047353119629 0.00075473819401602939 0 0.017959828081201879 0.0016526146910461551 0 0.01779085831405643 0.0010176250327677643 0 0.017244156629976935 0.0014385274334735812 0 0.018581288319575406 0.0010534872846942104 0 0.017959828081201879 0.0016526146910461551 0 0.01779085831405643 0.0010176250327677643 0 0.017244156629976935 0.0014385274334735812 0 0.016782047353119629 0.00075473819401602939 0 0.016279526707068902 0.0018846457861823596 0 0.017733019761105015 0.00060579018024029484 0 0.017885281306086777 0.00014475793246122466 0 0.017337143371784079 0.00043894081036835371 0 0.018297786043366807 0.00020107164480705789 0 0.016963629876115157 0.00032987477749856138 0 0.018312898961499936 0.00035677906953543161 0 0.01779085831405643 0.0010176250327677643 0 0.016782047353119629 0.00075473819401602939 0 0.017733019761105015 0.00060579018024029484 0 0.018389308905188029 0.0001788134625456709 0 0.017885281306086777 0.00014475793246122466 0 0.018602708701670145 0.00038808696531893243 0 0.017733019761105015 0.00060579018024029484 0 0.018389308905188029 0.0001788134625456709 0 0.018216518167839153 -0.00027254816711725998 0 0.018585921644003075 -0.00055172691176296287 0 0.018389308905188029 0.0001788134625456709 0 0.018216518167839153 -0.00027254816711725998 0 0.018389308905188029 0.0001788134625456709 0 0.017885281306086777 0.00014475793246122466 0 0.018216518167839153 -0.00027254816711725998 0 0.017885281306086777 0.00014475793246122466 0 0.017721910768230816 -0.00018716948849906685 0 0.017885281306086777 0.00014475793246122466 0 0.017721910768230816 -0.00018716948849906685 0 0.017337143371784079 0.00043894081036835371 0 0.017721910768230816 -0.00018716948849906685 0 0.017157390593092254 0.00014946085489043334 0 0.017211273906195573 -0.00031610913706727183 0 0.017074760780203532 -0.00025979738235730693 0 0.016726323736251641 -0.00017633291643237909 0 0.017721910768230816 -0.00018716948849906685 0 0.017073365152642694 9.2329133192126656e-05 0 0.017337143371784079 0.00043894081036835371 0 0.017157390593092254 0.00014946085489043334 0 0.01650824909721476 0.00049090847094565733 0 0.016438161472523461 -1.3208911087544257e-05 0 0.017157390593092254 0.00014946085489043334 0 0.016438161472523461 -1.3208911087544257e-05 0 0.017211273906195573 -0.00031610913706727183 0 0.016915056597575574 0.00058184465391037852 0 0.016642605750239802 0.00069422645549244686 0 0.016408328484136835 0.00040132035198552676 0 0.016726323736251641 -0.00017633291643237909 0 0.015888428825469873 -7.1777289786845657e-05 0 0.017073365152642694 9.2329133192126656e-05 0 0.016915056597575574 0.00058184465391037852 0 0.016408328484136835 0.00040132035198552676 0 0.016915056597575574 0.00058184465391037852 0 0.016642605750239802 0.00069422645549244686 0 0.016888398033346609 0.0008556862522757485 0 0.017733019761105015 0.00060579018024029484 0 0.017337143371784079 0.00043894081036835371 0 0.016891276734427287 0.00083800419638710107 0 0.017073365152642694 9.2329133192126656e-05 0 0.016915056597575574 0.00058184465391037852 0 0.017337143371784079 0.00043894081036835371 0 0.016915056597575574 0.00058184465391037852 0 0.017337143371784079 0.00043894081036835371 0 0.016891276734427287 0.00083800419638710107 0 0.016963629876115157 0.00032987477749856138 0 0.014660013831272446 0.00039936646906432911 0 0.016782047353119629 0.00075473819401602939 0 0.015290552511215425 0.0011503184285819401 0 0.016279526707068902 0.0018846457861823596 0 0.01472232194314764 0.00041104208066197154 0 0.014660013831272446 0.00039936646906432911 0 0.016642605750239802 0.00069422645549244686 0 0.016888398033346609 0.0008556862522757485 0 0.016381266344625445 0.00080922735867146388 0 0.014660013831272446 0.00039936646906432911 0 0.013663565006638251 0.0011477774879158111 0 0.011514135118694695 0.00045501783829770485 0 0.011550871529347098 2.2931154957483895e-05 0 0.011745607472691268 0.0002489502643771975 0 0.011550871529347098 2.2931154957483895e-05 0 0.01182564945937927 -1.2604760428165823e-06 0 0.011745607472691268 0.0002489502643771975 0 0.01517106153288071 0.0024096672215340566 0 0.016279526707068902 0.0018846457861823596 0 0.015754952052354925 0.0030591361716806871 0 0.015290552511215425 0.0011503184285819401 0 0.01517106153288071 0.0024096672215340566 0 0.016279526707068902 0.0018846457861823596 0 0.01268852403956988 2.6465811039742783e-05 0 0.012698665430803866 -4.8800486421952499e-07 0 0.013122904928155186 4.7929400314394197e-05 0 0.01268852403956988 2.6465811039742783e-05 0 0.01231133305984671 -1.1246123503339846e-05 0 0.012533905262844446 0.00011081625953653983 0 0.01268852403956988 2.6465811039742783e-05 0 0.012698665430803866 -4.8800486421952499e-07 0 0.01231133305984671 -1.1246123503339846e-05 0 0.013687917129750753 -0.00015611757988134818 0 0.014113813975113727 0.00016114654702121877 0 0.01182564945937927 -1.2604760428165823e-06 0 0.012009379977798778 0.00026830776079319604 0 0.011745607472691268 0.0002489502643771975 0 0.01231133305984671 -1.1246123503339846e-05 0 0.01182564945937927 -1.2604760428165823e-06 0 0.012533905262844446 0.00011081625953653983 0 0.011514135118694695 0.00045501783829770485 0 0.011745607472691268 0.0002489502643771975 0 0.012042238565527434 0.00031766183122331349 0 0.014660013831272446 0.00039936646906432911 0 0.014290091160599446 0.00029561306504193393 0 0.016888398033346609 0.0008556862522757485 0 0.016381266344625445 0.00080922735867146388 0 0.015975694756299095 0.001099887646831905 0 0.012009379977798778 0.00026830776079319604 0 0.011745607472691268 0.0002489502643771975 0 0.012042238565527434 0.00031766183122331349 0 0.016642605750239802 0.00069422645549244686 0 0.016381266344625445 0.00080922735867146388 0 0.016359482867777372 0.00065880103871636365 0 0.016381266344625445 0.00080922735867146388 0 0.016080596238700687 0.00075924358144166418 0 0.016359482867777372 0.00065880103871636365 0 0.016381266344625445 0.00080922735867146388 0 0.016080596238700687 0.00075924358144166418 0 0.015975694756299095 0.001099887646831905 0 0.014290091160599446 0.00029561306504193393 0 0.014366659638735362 2.4903142997638262e-05 0 0.01269444082140166 0.00011113709563850317 0 0.013122904928155186 4.7929400314394197e-05 0 0.013311525782139259 0.00037602452547069764 0 0.016080596238700687 0.00075924358144166418 0 0.015975694756299095 0.001099887646831905 0 0.015727731484381936 0.00073350529834335682 0 0.012698665430803866 -4.8800486421952499e-07 0 0.013122904928155186 4.7929400314394197e-05 0 0.013869650165263734 1.2705308200800689e-06 0 0.012533905262844446 0.00011081625953653983 0 0.01269444082140166 0.00011113709563850317 0 0.013122904928155186 4.7929400314394197e-05 0 0.01268852403956988 2.6465811039742783e-05 0 0.012533905262844446 0.00011081625953653983 0 0.013122904928155186 4.7929400314394197e-05 0 0.014113813975113727 0.00016114654702121877 0 0.014290091160599446 0.00029561306504193393 0 0.013122904928155186 4.7929400314394197e-05 0 0.013311525782139259 0.00037602452547069764 0 0.013869650165263734 1.2705308200800689e-06 0 0.014366659638735362 2.4903142997638262e-05 0 0.013873248003367786 8.6057474033877477e-07 0 0.014032511937449215 -1.9095035331834797e-07 0 0.01387218528769253 -1.0934517315594257e-09 0 0.014508381144149249 3.185673911502902e-10 0 0.014987958727548255 0.00082402892544012837 0 0.014513887083283598 2.2108318738979205e-06 0 0.01650824909721476 0.00049090847094565733 0 0.014366659638735362 2.4903142997638262e-05 0 0.014508779156716032 1.9955177707219365e-07 0 0.014513887083283598 2.2108318738979205e-06 0 0.01650824909721476 0.00049090847094565733 0 0.016438161472523461 -1.3208911087544257e-05 0 0.014366659638735362 2.4903142997638262e-05 0 0.015888428825469873 -7.1777289786845657e-05 0 0.016080596238700687 0.00075924358144166418 0 0.015727731484381936 0.00073350529834335682 0 0.016408328484136835 0.00040132035198552676 0 0.016642605750239802 0.00069422645549244686 0 0.016359482867777372 0.00065880103871636365 0 0.016408328484136835 0.00040132035198552676 0 0.016080596238700687 0.00075924358144166418 0 0.016359482867777372 0.00065880103871636365 0 0.016408328484136835 0.00040132035198552676 0 0.014513887083283598 2.2108318738979205e-06 0 0.016438161472523461 -1.3208911087544257e-05 0 0.018201548390522095 -1.1199603580702653e-06 0 0.016438161472523461 -1.3208911087544257e-05 0 0.017941448615000518 1.6374964792049958e-05 0 0.018201548390522095 -1.1199603580702653e-06 0 0.017337995241821547 -0.00022511113533665877 0 0.01768040803203625 -0.00043734500386892922 0 0.016438161472523461 -1.3208911087544257e-05 0 0.017211273906195573 -0.00031610913706727183 0 0.016946116943162941 -0.00070948074553882747 0 0.017601738571457175 -0.00073414479144335784 0 0.017721910768230816 -0.00018716948849906685 0 0.017211273906195573 -0.00031610913706727183 0 0.017601738571457175 -0.00073414479144335784 0 0.017211273906195573 -0.00031610913706727183 0 0.016946116943162941 -0.00070948074553882747 0 0.01768040803203625 -0.00043734500386892922 0 0.018218831684190789 -0.00068662408592779379 0 0.017601738571457175 -0.00073414479144335784 0 0.016946116943162941 -0.00070948074553882747 0 0.017434237568043579 -0.0013367269572198443 0 0.017941448615000518 1.6374964792049958e-05 0 0.018544173572615768 -4.4244084687249772e-05 0 0.018909250136502413 -4.9024086571998082e-05 0 0.019049644104030004 -0.00010999872003500606 0 0.018909250136502413 -4.9024086571998082e-05 0 0.019066298400074157 -9.0169987429733516e-05 0 0.019049644104030004 -0.00010999872003500606 0 0.019133224117819911 -9.2435884994799603e-05 0 0.018909250136502413 -4.9024086571998082e-05 0 0.018544173572615768 -4.4244084687249772e-05 0 0.018909250136502413 -4.9024086571998082e-05 0 0.019066298400074157 -9.0169987429733516e-05 0 0.018544173572615768 -4.4244084687249772e-05 0 0.019066298400074157 -9.0169987429733516e-05 0 0.018938821939782233 -7.1875463982893107e-05 0 0.017941448615000518 1.6374964792049958e-05 0 0.018544173572615768 -4.4244084687249772e-05 0 0.018201548390522095 -1.1199603580702653e-06 0 0.019748987982338994 -6.3751722578307254e-05 0 0.018938821939782233 -7.1875463982893107e-05 0 0.018201548390522095 -1.1199603580702653e-06 0 0.018544173572615768 -4.4244084687249772e-05 0 0.018938821939782233 -7.1875463982893107e-05 0 0.018201548390522095 -1.1199603580702653e-06 0 0.0057141160557379177 0.00028386745139609844 0 0.0058785199372236308 0.00050660306427828755 0 0.0056495512337995405 0.00077840874356654435 0 0.0083070019053511496 0.0011866872326128431 0 0.0085902635909207246 0.001508399665876478 0 0.0059384888107733473 0.00034312117289732861 0 0.0062638949760198378 0.00036434401257371654 0 0.0059100030805695654 0.00029430625332943239 0 0.0062638949760198378 0.00036434401257371654 0 0.0066534959746339392 0.00016970942482633176 0 0.0059100030805695654 0.00029430625332943239 0 0.0059384888107733473 0.00034312117289732861 0 0.0057141160557379177 0.00028386745139609844 0 0.0058785199372236308 0.00050660306427828755 0 0.0059384888107733473 0.00034312117289732861 0 0.0057141160557379177 0.00028386745139609844 0 0.0059100030805695654 0.00029430625332943239 0 0.0058785199372236308 0.00050660306427828755 0 0.0060876763110658538 0.00072133483587531549 0 0.0056495512337995405 0.00077840874356654435 0 0.0058785199372236308 0.00050660306427828755 0 0.0062638949760198378 0.00036434401257371654 0 0.0060876763110658538 0.00072133483587531549 0 0.0059384888107733473 0.00034312117289732861 0 0.0058785199372236308 0.00050660306427828755 0 0.0062638949760198378 0.00036434401257371654 0 0.0062638949760198378 0.00036434401257371654 0 0.0065068402138675459 0.00055856920576534234 0 0.0060876763110658538 0.00072133483587531549 0 0.0062638949760198378 0.00036434401257371654 0 0.0065068402138675459 0.00055856920576534234 0 0.0067653435594692262 0.00029050342112509997 0 0.0065068402138675459 0.00055856920576534234 0 0.0067653435594692262 0.00029050342112509997 0 0.0075194510831635211 0.00022243837563399633 0 0.0062638949760198378 0.00036434401257371654 0 0.0067653435594692262 0.00029050342112509997 0 0.0066534959746339392 0.00016970942482633176 0 0.0067653435594692262 0.00029050342112509997 0 0.0075194510831635211 0.00022243837563399633 0 0.0066534959746339392 0.00016970942482633176 0 0.0077267322176540068 6.6729921050356124e-07 0 0.0066534959746339392 0.00016970942482633176 0 0.0062709055652924138 7.0266274437611791e-07 0 0.0077267322176540068 6.6729921050356124e-07 0 0.0075194510831635211 0.00022243837563399633 0 0.0066534959746339392 0.00016970942482633176 0 0.0066534959746339392 0.00016970942482633176 0 0.0062709055652924138 7.0266274437611791e-07 0 0.0058903103687248477 0.00027598304931184236 0 0.0066534959746339392 0.00016970942482633176 0 0.0058903103687248477 0.00027598304931184236 0 0.0059100030805695654 0.00029430625332943239 0 0.0058903103687248477 0.00027598304931184236 0 0.0054041536142056777 0.00054094229027839039 0 0.0051620425253351074 0.00046392964980983991 0 0.0054041536142056777 0.00054094229027839039 0 0.0057891942716472864 0.00029282745839446221 0 0.0046953060232822474 0.0011489816930085523 0 0.0058903103687248477 0.00027598304931184236 0 0.0059100030805695654 0.00029430625332943239 0 0.0054041536142056777 0.00054094229027839039 0 0.0057141160557379177 0.00028386745139609844 0 0.0059100030805695654 0.00029430625332943239 0 0.0054041536142056777 0.00054094229027839039 0 0.0057141160557379177 0.00028386745139609844 0 0.0054041536142056777 0.00054094229027839039 0 0.0057891942716472864 0.00029282745839446221 0 0.0035959901841422755 0.0022274623280867196 0 0.004476491984085465 0.0042152847769334556 0 0.0046953060232822474 0.0011489816930085523 0 0.0068069264531122617 0.0025394724213202687 0 0.0065576056874472703 0.0020640722870195502 0 0.0035959901841422755 0.0022274623280867196 0 0.0035646154644061638 0.0036063059530103627 0 0.002941869430525673 0.0034780129893452949 0 0.0035646154644061638 0.0036063059530103627 0 0.002941869430525673 0.0034780129893452949 0 0.0032924040974587399 0.0044449431252665738 0 0.0035646154644061638 0.0036063059530103627 0 0.004476491984085465 0.0042152847769334556 0 0.0032924040974587399 0.0044449431252665738 0 0.0035959901841422755 0.0022274623280867196 0 0.0035646154644061638 0.0036063059530103627 0 0.004476491984085465 0.0042152847769334556 0 0.0035959901841422755 0.0022274623280867196 0 0.002941869430525673 0.0034780129893452949 0 0.0019953560899681551 0.0025830700159157763 0 0.002941869430525673 0.0034780129893452949 0 0.0018664158986450383 0.0041888857561690872 0 0.0026375478197607906 0.0043017034058397902 0 0.002941869430525673 0.0034780129893452949 0 0.0026375478197607906 0.0043017034058397902 0 0.0032924040974587399 0.0044449431252665738 0 0.0018664158986450383 0.0041888857561690872 0 0.00090306424141143563 0.0038495595422999153 0 0.0019953560899681551 0.0025830700159157763 0 0.002941869430525673 0.0034780129893452949 0 0.0018664158986450383 0.0041888857561690872 0 0.0019953560899681551 0.0025830700159157763 0 0.0018664158986450383 0.0041888857561690872 0 0.0024865364236405221 0.0050728209342003018 0 0.0016517953536513324 0.0052302888327741583 0 0.0024865364236405221 0.0050728209342003018 0 0.0032924040974587399 0.0044449431252665738 0 0.0032964752015950719 0.0054585273192972817 0 0.0018664158986450383 0.0041888857561690872 0 0.0026375478197607906 0.0043017034058397902 0 0.0024865364236405221 0.0050728209342003018 0 0.0026375478197607906 0.0043017034058397902 0 0.0024865364236405221 0.0050728209342003018 0 0.0032924040974587399 0.0044449431252665738 0 0.0024865364236405221 0.0050728209342003018 0 0.0032964752015950719 0.0054585273192972817 0 0.0023931815373718205 0.0060284094703830469 0 0.0016517953536513324 0.0052302888327741583 0 0.0023931815373718205 0.0060284094703830469 0 0.0012143922418837985 0.0061970890037014604 0 0.0024865364236405221 0.0050728209342003018 0 0.0016517953536513324 0.0052302888327741583 0 0.0023931815373718205 0.0060284094703830469 0 0.0057891942716472864 0.00029282745839446221 0 0.0057866129373303704 0.00023354267638563063 0 0.0057722269845046645 0.0002348657819761861 0 0.0057141160557379177 0.00028386745139609844 0 0.0057891942716472864 0.00029282745839446221 0 0.0057722269845046645 0.0002348657819761861 0 0.0068069264531122617 0.0025394724213202687 0 0.0076574114982750369 0.0033672657570336263 0 0.004476491984085465 0.0042152847769334556 0 0.0032964752015950719 0.0054585273192972817 0 0.0040074058833432999 0.0063791495815919592 0 0.004476491984085465 0.0042152847769334556 0 0.0032924040974587399 0.0044449431252665738 0 0.0032964752015950719 0.0054585273192972817 0 0.0040074058833432999 0.0063791495815919592 0 0.0025643324628231768 0.007188437359579216 0 0.0036573938218288121 0.0083858783153639063 0 0.0076574114982750369 0.0033672657570336263 0 0.0095571601947663249 0.0037883998421074185 0 0.0057866129373303704 0.00023354267638563063 0 0.0057945078069745705 0.00024530586013922398 0 0.0057722269845046645 0.0002348657819761861 0 0.0032964752015950719 0.0054585273192972817 0 0.0040074058833432999 0.0063791495815919592 0 0.0030634610733777496 0.0062690506232640168 0 0.0040074058833432999 0.0063791495815919592 0 0.0030634610733777496 0.0062690506232640168 0 0.0025643324628231768 0.007188437359579216 0 0.0023931815373718205 0.0060284094703830469 0 0.0025643324628231768 0.007188437359579216 0 0.0012143922418837985 0.0061970890037014604 0 0.0032964752015950719 0.0054585273192972817 0 0.0030634610733777496 0.0062690506232640168 0 0.0023931815373718205 0.0060284094703830469 0 0.0030634610733777496 0.0062690506232640168 0 0.0023931815373718205 0.0060284094703830469 0 0.0025643324628231768 0.007188437359579216 0 0.0098077450337676897 0.0038869156925104486 0 0.0089527213194875513 0.005442964577168888 0 0.015154570283253108 0.0062140574491069585 0 0.016129661983539798 0.0054820637495087664 0 0.016635474089013627 0.0062256392623582261 0 0.0025643324628231768 0.007188437359579216 0 0.003458310935576542 0.0085352192779517538 0 0.00091701672322034113 0.0084321804884177967 0 0.0057866129373303704 0.00023354267638563063 0 0.0057945078069745705 0.00024530586013922398 0 0.0057903053322296534 0.00025560926963755719 0 0.0095015028778465821 0.0025794709496501701 0 0.0095571601947663249 0.0037883998421074185 0 0.0095015028778465821 0.0025794709496501701 0 0.010176105089360718 0.0028466787930726055 0 0.0025643324628231768 0.007188437359579216 0 0.0036573938218288121 0.0083858783153639063 0 0.003458310935576542 0.0085352192779517538 0 0.0095571601947663249 0.0037883998421074185 0 0.0098077450337676897 0.0038869156925104486 0 0.0098774158208096898 0.0033009398926331685 0 0.0097998878944155956 0.0038093858509351012 0 0.0092270574958257835 0.0038002689152566551 0 0.0095571601947663249 0.0037883998421074185 0 0.0097714760979767754 0.0037673177815689446 0 0.0097714760979767754 0.0037673177815689446 0 0.0098077450337676897 0.0038869156925104486 0 0.0096901447577403283 0.0034036585677025945 0 0.010081539943100293 0.0031035547275329763 0 0.0097260086481714327 0.0030300412939544157 0 0.0097714760979767754 0.0037673177815689446 0 0.010176105089360718 0.0028466787930726055 0 0.010081539943100293 0.0031035547275329763 0 0.010091775621089965 0.0030363169543960312 0 0.0097260086481714327 0.0030300412939544157 0 0.011148897648072774 0.00049040593019930513 0 0.010521767980836622 0.00048542106423811855 0 0.010892588293014279 0.00012501120324795044 0 0.010176105089360718 0.0028466787930726055 0 0.0096064639651418683 0.0013073718078932739 0 0.0081734400172450896 0.00013444830073582352 0 0.008305793305822224 0.00014581208485708291 0 0.0082492060314955269 6.7487321398317844e-05 0 0.0081859582345353166 6.9742978531754375e-05 0 0.0081734400172450896 0.00013444830073582352 0 0.0082492060314955269 6.7487321398317844e-05 0 0.0095015028778465821 0.0025794709496501701 0 0.0085902635909207246 0.001508399665876478 0 0.0095015028778465821 0.0025794709496501701 0 0.0088800648418092439 0.002211907576456677 0 0.0055230115474518065 0.0018870411294085393 0 0.0062772783861490987 0.0013189797480727687 0 0.0056495512337995405 0.00077840874356654435 0 0.0081859582345353166 6.9742978531754375e-05 0 0.0082492060314955269 6.7487321398317844e-05 0 0.0082550834808512389 2.8441940802350905e-05 0 0.0082492060314955269 6.7487321398317844e-05 0 0.0082550834808512389 2.8441940802350905e-05 0 0.0082943225838434283 -2.3601470818961271e-05 0 0.0065068402138675459 0.00055856920576534234 0 0.0062772783861490987 0.0013189797480727687 0 0.0060876763110658538 0.00072133483587531549 0 0.0062772783861490987 0.0013189797480727687 0 0.0060876763110658538 0.00072133483587531549 0 0.0056495512337995405 0.00077840874356654435 0 0.0077267322176540068 6.6729921050356124e-07 0 0.0082943225838434283 -2.3601470818961271e-05 0 0.0091802118122580358 2.4427167755446528e-07 0 0.0077267322176540068 6.6729921050356124e-07 0 0.0075194510831635211 0.00022243837563399633 0 0.0082943225838434283 -2.3601470818961271e-05 0 0.0075194510831635211 0.00022243837563399633 0 0.0082550834808512389 2.8441940802350905e-05 0 0.0082943225838434283 -2.3601470818961271e-05 0 0.0087601382125379861 0.002032250560695505 0 0.0088800648418092439 0.002211907576456677 0 0.0065068402138675459 0.00055856920576534234 0 0.0075194510831635211 0.00022243837563399633 0 0.0062772783861490987 0.0013189797480727687 0 0.0096064639651418683 0.0013073718078932739 0 0.0091826090150764171 3.8468733721099372e-06 0 0.008305793305822224 0.00014581208485708291 0 0.0082943225838434283 -2.3601470818961271e-05 0 0.0091802118122580358 2.4427167755446528e-07 0 0.008305793305822224 0.00014581208485708291 0 0.0082492060314955269 6.7487321398317844e-05 0 0.0082943225838434283 -2.3601470818961271e-05 0 0.010521767980836622 0.00048542106423811855 0 0.0091839230419535258 1.5322827854958478e-06 0 0.010495523234997533 -2.8988468501583795e-05 0 0.0091839230419535258 1.5322827854958478e-06 0 0.010495523234997533 -2.8988468501583795e-05 0 0.01035426441482629 -6.8814721346567974e-07 0 0.011148897648072774 0.00049040593019930513 0 0.010892588293014279 0.00012501120324795044 0 0.01123617175115379 -0.00013618880902477142 0 0.010521767980836622 0.00048542106423811855 0 0.010495523234997533 -2.8988468501583795e-05 0 0.010892588293014279 0.00012501120324795044 0 0.010495523234997533 -2.8988468501583795e-05 0 0.010892588293014279 0.00012501120324795044 0 0.010990770786138186 -0.00011813719304711848 0 0.010892588293014279 0.00012501120324795044 0 0.010990770786138186 -0.00011813719304711848 0 0.01123617175115379 -0.00013618880902477142 0 0.010495523234997533 -2.8988468501583795e-05 0 0.010990770786138186 -0.00011813719304711848 0 0.011022893910387773 -0.00014628511159660857 0 0.010990770786138186 -0.00011813719304711848 0 0.011251559566723721 -0.00020860752179432081 0 0.01123617175115379 -0.00013618880902477142 0 0.010990770786138186 -0.00011813719304711848 0 0.011251559566723721 -0.00020860752179432081 0 0.011022893910387773 -0.00014628511159660857 0 0.01035426441482629 -6.8814721346567974e-07 0 0.011022893910387773 -0.00014628511159660857 0 0.011526667611397775 -2.1205490857509229e-07 0 0.010495523234997533 -2.8988468501583795e-05 0 0.01035426441482629 -6.8814721346567974e-07 0 0.011022893910387773 -0.00014628511159660857 0 0.011022893910387773 -0.00014628511159660857 0 0.011526667611397775 -2.1205490857509229e-07 0 0.01168563452934729 -0.00016229760591996367 0 0.011251559566723721 -0.00020860752179432081 0 0.01168563452934729 -0.00016229760591996367 0 0.011406299839204347 -0.00023395526620915996 0 0.011251559566723721 -0.00020860752179432081 0 0.011022893910387773 -0.00014628511159660857 0 0.01168563452934729 -0.00016229760591996367 0 0.01231133305984671 -1.1246123503339846e-05 0 0.01182564945937927 -1.2604760428165823e-06 0 0.01168563452934729 -0.00016229760591996367 0 0.01182564945937927 -1.2604760428165823e-06 0 0.01168563452934729 -0.00016229760591996367 0 0.011406299839204347 -0.00023395526620915996 0 0.012698665430803866 -4.8800486421952499e-07 0 0.011526667611397775 -2.1205490857509229e-07 0 0.01168563452934729 -0.00016229760591996367 0 0.012698665430803866 -4.8800486421952499e-07 0 0.01231133305984671 -1.1246123503339846e-05 0 0.01168563452934729 -0.00016229760591996367 0 0.016279526707068902 0.0018846457861823596 0 0.015754952052354925 0.0030591361716806871 0 0.016644866274919345 0.0030833035400631374 0 0.015754952052354925 0.0030591361716806871 0 0.016126514537274629 0.0039622726809206664 0 0.016644866274919345 0.0030833035400631374 0 0.013663565006638251 0.0011477774879158111 0 0.012835823053810905 0.0016868914435675963 0 0.01517106153288071 0.0024096672215340566 0 0.015754952052354925 0.0030591361716806871 0 0.015049793255035035 0.0036556703997584939 0 0.011550871529347098 2.2931154957483895e-05 0 0.01182564945937927 -1.2604760428165823e-06 0 0.011406299839204347 -0.00023395526620915996 0 0.015754952052354925 0.0030591361716806871 0 0.015049793255035035 0.0036556703997584939 0 0.016126514537274629 0.0039622726809206664 0 0.015049793255035035 0.0036556703997584939 0 0.016126514537274629 0.0039622726809206664 0 0.015510380829666697 0.0044713229453580425 0 0.016126514537274629 0.0039622726809206664 0 0.016062060982773321 0.0047710921034983794 0 0.015510380829666697 0.0044713229453580425 0 0.016062060982773321 0.0047710921034983794 0 0.015510380829666697 0.0044713229453580425 0 0.0154089985113813 0.0050081977429974507 0 0.015049793255035035 0.0036556703997584939 0 0.015510380829666697 0.0044713229453580425 0 0.01492927534267772 0.0048830772501755933 0 0.011251559566723721 -0.00020860752179432081 0 0.011406299839204347 -0.00023395526620915996 0 0.01123617175115379 -0.00013618880902477142 0 0.012835823053810905 0.0016868914435675963 0 0.011813481164095184 0.0022800720786440229 0 0.015510380829666697 0.0044713229453580425 0 0.0154089985113813 0.0050081977429974507 0 0.01492927534267772 0.0048830772501755933 0 0.015220251280123505 0.0061367783094739316 0 0.015314020982608161 0.0061385026652327089 0 0.0154089985113813 0.0050081977429974507 0 0.0097714760979767754 0.0037673177815689446 0 0.010646167619091708 0.004271338206919501 0 0.014804222059699322 0.0060549155229559001 0 0.0154089985113813 0.0050081977429974507 0 0.01492927534267772 0.0048830772501755933 0 0.015225597956155549 0.0060613533271729591 0 0.014804222059699322 0.0060549155229559001 0 0.0154089985113813 0.0050081977429974507 0 0.010176105089360718 0.0028466787930726055 0 0.011813481164095184 0.0022800720786440229 0 0.0098077450337676897 0.0038869156925104486 0 0.013197428344433987 0.0034972604260258291 0 0.015314020982608161 0.0061385026652327089 0 0.0154089985113813 0.0050081977429974507 0 0.016206325049810556 0.0054694826398758089 0 0.016062060982773321 0.0047710921034983794 0 0.0154089985113813 0.0050081977429974507 0 0.016206325049810556 0.0054694826398758089 0 0.013197428344433987 0.0034972604260258291 0 0.014225594871535437 0.003368074775092825 0 0.016129661983539798 0.0054820637495087664 0 0.01720677411809873 0.005570483761877027 0 0.016635474089013627 0.0062256392623582261 0 0.016129661983539798 0.0054820637495087664 0 0.01720677411809873 0.005570483761877027 0 0.017089071120905713 0.0048083721371492086 0 0.01720677411809873 0.005570483761877027 0 0.017089071120905713 0.0048083721371492086 0 0.018084975256302285 0.0051344422225383405 0 0.01720677411809873 0.005570483761877027 0 0.018084975256302285 0.0051344422225383405 0 0.018038492850626253 0.0061999163257575943 0 0.017089071120905713 0.0048083721371492086 0 0.018064509915285538 0.0039893356990965967 0 0.018084975256302285 0.0051344422225383405 0 0.016062060982773321 0.0047710921034983794 0 0.016206325049810556 0.0054694826398758089 0 0.017089071120905713 0.0048083721371492086 0 0.016126514537274629 0.0039622726809206664 0 0.016062060982773321 0.0047710921034983794 0 0.017089071120905713 0.0048083721371492086 0 0.016126514537274629 0.0039622726809206664 0 0.017089071120905713 0.0048083721371492086 0 0.017049248279395524 0.0038753190255972712 0 0.016126514537274629 0.0039622726809206664 0 0.017049248279395524 0.0038753190255972712 0 0.016644866274919345 0.0030833035400631374 0 0.017089071120905713 0.0048083721371492086 0 0.017049248279395524 0.0038753190255972712 0 0.018064509915285538 0.0039893356990965967 0 0.017049248279395524 0.0038753190255972712 0 0.018064509915285538 0.0039893356990965967 0 0.01745963180824631 0.0032287390665365562 0 0.017267252408651623 0.0022152400384210943 0 0.01745963180824631 0.0032287390665365562 0 0.018083151265130389 0.0026627493926801647 0 0.018064509915285538 0.0039893356990965967 0 0.01745963180824631 0.0032287390665365562 0 0.018083151265130389 0.0026627493926801647 0 0.017267252408651623 0.0022152400384210943 0 0.01745963180824631 0.0032287390665365562 0 0.016644866274919345 0.0030833035400631374 0 0.017049248279395524 0.0038753190255972712 0 0.01745963180824631 0.0032287390665365562 0 0.016644866274919345 0.0030833035400631374 0 0.019626349576170765 0.0031649267042949173 0 0.018756057476528008 0.0032601364754221455 0 0.019174084039592646 0.0039211004647519551 0 0.019054970736390762 0.0025410452448063406 0 0.019626349576170765 0.0031649267042949173 0 0.018756057476528008 0.0032601364754221455 0 0.019921025613754174 0.0025186367184516661 0 0.019054970736390762 0.0025410452448063406 0 0.019626349576170765 0.0031649267042949173 0 0.019054970736390762 0.0025410452448063406 0 0.018083151265130389 0.0026627493926801647 0 0.018756057476528008 0.0032601364754221455 0 0.018064509915285538 0.0039893356990965967 0 0.018083151265130389 0.0026627493926801647 0 0.018756057476528008 0.0032601364754221455 0 0.018064509915285538 0.0039893356990965967 0 0.019174084039592646 0.0039211004647519551 0 0.019006977989555317 0.0047337677755193248 0 0.018064509915285538 0.0039893356990965967 0 0.018756057476528008 0.0032601364754221455 0 0.019174084039592646 0.0039211004647519551 0 0.019174084039592646 0.0039211004647519551 0 0.019652138406398782 0.004353650488359887 0 0.020134466380084811 0.0036778066918610915 0 0.019626349576170765 0.0031649267042949173 0 0.019174084039592646 0.0039211004647519551 0 0.020134466380084811 0.0036778066918610915 0 0.019174084039592646 0.0039211004647519551 0 0.019652138406398782 0.004353650488359887 0 0.019006977989555317 0.0047337677755193248 0 0.019652138406398782 0.004353650488359887 0 0.019006977989555317 0.0047337677755193248 0 0.019932924890757153 0.0048262023716665863 0 0.019006977989555317 0.0047337677755193248 0 0.019755161899617839 0.0054487305474238716 0 0.019932924890757153 0.0048262023716665863 0 0.018064509915285538 0.0039893356990965967 0 0.019006977989555317 0.0047337677755193248 0 0.018084975256302285 0.0051344422225383405 0 0.018084975256302285 0.0051344422225383405 0 0.018859146147732365 0.0055316489601860306 0 0.018038492850626253 0.0061999163257575943 0 0.019006977989555317 0.0047337677755193248 0 0.018084975256302285 0.0051344422225383405 0 0.018859146147732365 0.0055316489601860306 0 0.019006977989555317 0.0047337677755193248 0 0.018859146147732365 0.0055316489601860306 0 0.019755161899617839 0.0054487305474238716 0 0.018859146147732365 0.0055316489601860306 0 0.019362243179750892 0.0061475605785995631 0 0.019755161899617839 0.0054487305474238716 0 -0.0033229433257959693 0.007864861814882735 0 -0.0026635552201214356 0.0067847770908136904 0 -0.0040094940208828048 0.0068088439583364069 0 -0.0026635552201214356 0.0067847770908136904 0 -0.0037221092952778511 0.0058870276749480076 0 -0.0028021952112169484 0.005756541855019285 0 -0.0026635552201214356 0.0067847770908136904 0 -0.0037221092952778511 0.0058870276749480076 0 -0.0040094940208828048 0.0068088439583364069 0 -0.0026635552201214356 0.0067847770908136904 0 -0.0012115429387683455 0.0068944450691505203 0 -0.0017969574442287851 0.0060294337535830647 0 -0.0026635552201214356 0.0067847770908136904 0 -0.0014393345313202424 0.0081772837631173857 0 -0.0012115429387683455 0.0068944450691505203 0 -0.0026635552201214356 0.0067847770908136904 0 -0.0028021952112169484 0.005756541855019285 0 -0.0017969574442287851 0.0060294337535830647 0 -0.0033229433257959693 0.007864861814882735 0 -0.0026635552201214356 0.0067847770908136904 0 -0.0014393345313202424 0.0081772837631173857 0 0.0081518687902259798 0.0057960591141346151 0 0.0084567983808303288 0.0059595390703046465 0 0.018859146147732365 0.0055316489601860306 0 0.019362243179750892 0.0061475605785995631 0 0.018038492850626253 0.0061999163257575943 0 0.0084567983808303288 0.0059595390703046465 0 0.0089527213194875513 0.005442964577168888 0 -0.0014393345313202424 0.0081772837631173857 0 0.00024728499476523824 0.007189325697484243 0 -0.0012115429387683455 0.0068944450691505203 0 0.01720677411809873 0.005570483761877027 0 0.018038492850626253 0.0061999163257575943 0 0.016635474089013627 0.0062256392623582261 0 -0.0014393345313202424 0.0081772837631173857 0 0.00091701672322034113 0.0084321804884177967 0 0.00024728499476523824 0.007189325697484243 0 0.0025643324628231768 0.007188437359579216 0 0.00091701672322034113 0.0084321804884177967 0 0.00024728499476523824 0.007189325697484243 0 0.0025643324628231768 0.007188437359579216 0 0.00024728499476523824 0.007189325697484243 0 0.0012143922418837985 0.0061970890037014604 0 0.00024728499476523824 0.007189325697484243 0 0.0012143922418837985 0.0061970890037014604 0 -0.00039013120873218984 0.0059956124929182869 0 0.00024728499476523824 0.007189325697484243 0 -0.0012115429387683455 0.0068944450691505203 0 -0.00039013120873218984 0.0059956124929182869 0 -0.0012115429387683455 0.0068944450691505203 0 -0.00039013120873218984 0.0059956124929182869 0 -0.0017969574442287851 0.0060294337535830647 0 -0.00039013120873218984 0.0059956124929182869 0 -0.0012136723741240541 0.005359144217281956 0 -0.0017969574442287851 0.0060294337535830647 0 -0.00039013120873218984 0.0059956124929182869 0 -0.00043133118807106406 0.0050826261673433612 0 0.0006472404904785356 0.0049573854434530442 0 -0.00039013120873218984 0.0059956124929182869 0 -0.00043133118807106406 0.0050826261673433612 0 -0.0012136723741240541 0.005359144217281956 0 -0.00043133118807106406 0.0050826261673433612 0 -0.0012136723741240541 0.005359144217281956 0 -0.0011066950668328298 0.0045674255998216897 0 0.0012143922418837985 0.0061970890037014604 0 -0.00039013120873218984 0.0059956124929182869 0 0.0006472404904785356 0.0049573854434530442 0 0.0016517953536513324 0.0052302888327741583 0 0.0012143922418837985 0.0061970890037014604 0 0.0006472404904785356 0.0049573854434530442 0 -0.00043133118807106406 0.0050826261673433612 0 0.0006472404904785356 0.0049573854434530442 0 -7.7611730404768283e-05 0.0041099950212510018 0 0.0018664158986450383 0.0041888857561690872 0 0.0016517953536513324 0.0052302888327741583 0 0.0006472404904785356 0.0049573854434530442 0 0.00090306424141143563 0.0038495595422999153 0 0.00047393894079563484 0.0028872262100299441 0 0.0019953560899681551 0.0025830700159157763 0 0.0018664158986450383 0.0041888857561690872 0 0.0006472404904785356 0.0049573854434530442 0 0.00090306424141143563 0.0038495595422999153 0 0.0006472404904785356 0.0049573854434530442 0 0.00090306424141143563 0.0038495595422999153 0 -7.7611730404768283e-05 0.0041099950212510018 0 0.00090306424141143563 0.0038495595422999153 0 -7.7611730404768283e-05 0.0041099950212510018 0 0.00047393894079563484 0.0028872262100299441 0 -0.0011066950668328298 0.0045674255998216897 0 -7.7611730404768283e-05 0.0041099950212510018 0 -0.00095711484788116546 0.0033994499488607176 0 -0.00043133118807106406 0.0050826261673433612 0 -0.0011066950668328298 0.0045674255998216897 0 -7.7611730404768283e-05 0.0041099950212510018 0 -7.7611730404768283e-05 0.0041099950212510018 0 -0.00095711484788116546 0.0033994499488607176 0 0.00047393894079563484 0.0028872262100299441 0 -0.0011066950668328298 0.0045674255998216897 0 -0.00095711484788116546 0.0033994499488607176 0 -0.0018558288496436266 0.0043857865104105186 0 -0.0029349772842468618 0.0043858467252424291 0 -0.0033774283740166202 0.0050422403338957781 0 -0.0023170113274997893 0.0051108853006754636 0 -0.00095711484788116546 0.0033994499488607176 0 -0.0018558288496436266 0.0043857865104105186 0 -0.0029349772842468618 0.0043858467252424291 0 -0.0018558288496436266 0.0043857865104105186 0 -0.0029349772842468618 0.0043858467252424291 0 -0.0023170113274997893 0.0051108853006754636 0 -0.0011066950668328298 0.0045674255998216897 0 -0.0018558288496436266 0.0043857865104105186 0 -0.0023170113274997893 0.0051108853006754636 0 -0.0029349772842468618 0.0043858467252424291 0 -0.0033774283740166202 0.0050422403338957781 0 -0.0039011783917962273 0.0042991372561018227 0 -0.0029349772842468618 0.0043858467252424291 0 -0.0039011783917962273 0.0042991372561018227 0 -0.003103342841826842 0.0044582568010960956 0 -0.0033774283740166202 0.0050422403338957781 0 -0.0028021952112169484 0.005756541855019285 0 -0.0023170113274997893 0.0051108853006754636 0 -0.0033774283740166202 0.0050422403338957781 0 -0.0037221092952778511 0.0058870276749480076 0 -0.0028021952112169484 0.005756541855019285 0 -0.0028021952112169484 0.005756541855019285 0 -0.0017969574442287851 0.0060294337535830647 0 -0.0023170113274997893 0.0051108853006754636 0 -0.0012136723741240541 0.005359144217281956 0 -0.0017969574442287851 0.0060294337535830647 0 -0.0023170113274997893 0.0051108853006754636 0 -0.0012136723741240541 0.005359144217281956 0 -0.0011066950668328298 0.0045674255998216897 0 -0.0023170113274997893 0.0051108853006754636 0 -0.0055612404266567519 0.0053809765633570528 0 -0.0049431705581097201 0.0060475825391206146 0 -0.0044422597688780442 0.0051884663373809011 0 -0.0055612404266567519 0.0053809765633570528 0 -0.0049431705581097201 0.0060475825391206146 0 -0.0057743136708566529 0.0060458284261084242 0 -0.0033774283740166202 0.0050422403338957781 0 -0.0037221092952778511 0.0058870276749480076 0 -0.0044422597688780442 0.0051884663373809011 0 -0.0037221092952778511 0.0058870276749480076 0 -0.0049431705581097201 0.0060475825391206146 0 -0.0044422597688780442 0.0051884663373809011 0 -0.0044422597688780442 0.0051884663373809011 0 -0.0039011783917962273 0.0042991372561018227 0 -0.0052937595043624323 0.0044943391957520222 0 -0.0047026658318901383 0.0048341526785490516 0 -0.0053074773446258649 0.0049379176552327509 0 -0.0033774283740166202 0.0050422403338957781 0 -0.0044422597688780442 0.0051884663373809011 0 -0.0039011783917962273 0.0042991372561018227 0 -0.0055612404266567519 0.0053809765633570528 0 -0.0044422597688780442 0.0051884663373809011 0 -0.0052937595043624323 0.0044943391957520222 0 -0.0053074773446258649 0.0049379176552327509 0 -0.0043825401607123166 0.0047572226993383669 0 -0.0055612404266567519 0.0053809765633570528 0 -0.0052937595043624323 0.0044943391957520222 0 -0.0066583896173401094 0.0047498649023539124 0 -0.0068201761050398291 0.0056534365229532566 0 -0.007889426890421717 0.0056772020800979093 0 -0.0072904972985996606 0.0048560865969365626 0 -0.0079448896620964264 0.0050751918109764706 0 -0.0079178450004001241 0.0050947964152984523 0 -0.0079373972612815698 0.0051112609703755935 0 -0.0079448896620964264 0.0050751918109764706 0 -0.0079373972612815698 0.0051112609703755935 0 -0.0080644445549279981 0.0049817578578082193 0 -0.0079448896620964264 0.0050751918109764706 0 -0.0079178450004001241 0.0050947964152984523 0 -0.007906093031611253 0.0050875661616042196 0 -0.0043825401607123166 0.0047572226993383669 0 -0.0045851562368810911 0.0047957198580594416 0 -0.0078324960703006347 0.0052062543475174363 0 -0.0079373972612815698 0.0051112609703755935 0 -0.0078046071243691199 0.0051315927522452565 0 -0.0043825401607123166 0.0047572226993383669 0 -0.0052017077409589885 0.0048915253656054104 0 -0.0078046071243691199 0.0051315927522452565 0 -0.0077389824781193351 0.0050554149066038183 0 -0.0081295418020558181 0.0052494131626491473 0 -0.0078324960703006347 0.0052062543475174363 0 -0.0078046071243691199 0.0051315927522452565 0 -0.0079373290038076607 0.0049101459463792999 0 -0.0043825401607123166 0.0047572226993383669 0 0.00021691774243382341 0.0043744948280325831 0 -0.0078046071243691199 0.0051315927522452565 0 -0.0077389824781193351 0.0050554149066038183 0 -0.0079373290038076607 0.0049101459463792999 0 -0.0077389824781193351 0.0050554149066038183 0 -0.0070090894920580024 0.0045702610517637911 0 -0.0063729356981323893 0.004953998575698647 0 -0.0055612404266567519 0.0053809765633570528 0 -0.0066583896173401094 0.0047498649023539124 0 -0.006126274260738745 0.0055920523840959878 0 -0.0066583896173401094 0.0047498649023539124 0 -0.006126274260738745 0.0055920523840959878 0 -0.0065106640286657332 0.0061900623550182237 0 -0.006126274260738745 0.0055920523840959878 0 -0.0057743136708566529 0.0060458284261084242 0 -0.0065106640286657332 0.0061900623550182237 0 -0.0055612404266567519 0.0053809765633570528 0 -0.006126274260738745 0.0055920523840959878 0 -0.0057743136708566529 0.0060458284261084242 0 0.00021691774243382341 0.0043744948280325831 0 0.008419973173637468 0.0030363591529915849 0 -0.0057743136708566529 0.0060458284261084242 0 -0.0065106640286657332 0.0061900623550182237 0 -0.0056665687294453248 0.0068323737463917332 0 -0.0065106640286657332 0.0061900623550182237 0 -0.0056665687294453248 0.0068323737463917332 0 -0.0063467055542925756 0.007612615022022302 0 -0.0079373290038076607 0.0049101459463792999 0 -0.0074921441384832605 0.0036710000227120725 0 -0.0082592653455778424 0.0026828900407885464 0 -0.0070090894920580024 0.0045702610517637911 0 -0.0070407055983932607 0.00411259498585307 0 -0.0064064711883954194 0.0041776455888371282 0 -0.0077389824781193351 0.0050554149066038183 0 -0.0070090894920580024 0.0045702610517637911 0 -0.0074593864111440877 0.0045482604543510535 0 -0.0070090894920580024 0.0045702610517637911 0 -0.0074593864111440877 0.0045482604543510535 0 -0.0070407055983932607 0.00411259498585307 0 -0.0079373290038076607 0.0049101459463792999 0 -0.0074593864111440877 0.0045482604543510535 0 -0.0074921441384832605 0.0036710000227120725 0 -0.0077389824781193351 0.0050554149066038183 0 -0.0079373290038076607 0.0049101459463792999 0 -0.0074593864111440877 0.0045482604543510535 0 -0.0070407055983932607 0.00411259498585307 0 -0.0064691479015526526 0.0033882850654061831 0 -0.0064064711883954194 0.0041776455888371282 0 -0.0074921441384832605 0.0036710000227120725 0 -0.0070407055983932607 0.00411259498585307 0 -0.0064691479015526526 0.0033882850654061831 0 -0.0074593864111440877 0.0045482604543510535 0 -0.0074921441384832605 0.0036710000227120725 0 -0.0070407055983932607 0.00411259498585307 0 0.0089402797179264568 0.0021159266292388331 0 0.0072649893143024299 0.0012366649300727544 0 -0.0074921441384832605 0.0036710000227120725 0 -0.0071553684302472298 0.0027020224988728186 0 -0.0064691479015526526 0.0033882850654061831 0 -0.0074921441384832605 0.0036710000227120725 0 -0.0071553684302472298 0.0027020224988728186 0 -0.0082592653455778424 0.0026828900407885464 0 0.0089402797179264568 0.0021159266292388331 0 0.014939699123392642 0.002877924373914605 0 0.0089402797179264568 0.0021159266292388331 0 0.008419973173637468 0.0030363591529915849 0 0.011391080027260362 0.00072734875267855528 0 0.012439554494305892 0.00074574041747267194 0 0.012538262449142631 0.0018794014231469367 0 0.008419973173637468 0.0030363591529915849 0 0.0080401184047530858 0.0049541314465327384 0 0.021656093473417053 0.0060543733021640699 0 0.020568681100994978 0.0060805545042200548 0 0.021426879755719243 0.0055523628969958664 0 -0.0056665687294453248 0.0068323737463917332 0 -0.0063467055542925756 0.007612615022022302 0 -0.0048651511443348399 0.0076780984482429085 0 0.008419973173637468 0.0030363591529915849 0 0.014939699123392642 0.002877924373914605 0 -0.0049431705581097201 0.0060475825391206146 0 -0.0056665687294453248 0.0068323737463917332 0 -0.0048651511443348399 0.0076780984482429085 0 -0.0049431705581097201 0.0060475825391206146 0 -0.0057743136708566529 0.0060458284261084242 0 -0.0056665687294453248 0.0068323737463917332 0 -0.0037221092952778511 0.0058870276749480076 0 -0.0049431705581097201 0.0060475825391206146 0 -0.0040094940208828048 0.0068088439583364069 0 -0.0049431705581097201 0.0060475825391206146 0 -0.0048651511443348399 0.0076780984482429085 0 -0.0040094940208828048 0.0068088439583364069 0 0.0081518687902259798 0.0057960591141346151 0 0.0080401184047530858 0.0049541314465327384 0 0.019362243179750892 0.0061475605785995631 0 0.020568681100994978 0.0060805545042200548 0 0.019755161899617839 0.0054487305474238716 0 -0.0033229433257959693 0.007864861814882735 0 -0.0048651511443348399 0.0076780984482429085 0 -0.0040094940208828048 0.0068088439583364069 0 0.020568681100994978 0.0060805545042200548 0 0.019755161899617839 0.0054487305474238716 0 0.020470036373582013 0.0052195710435998374 0 0.019755161899617839 0.0054487305474238716 0 0.020470036373582013 0.0052195710435998374 0 0.019932924890757153 0.0048262023716665863 0 0.020568681100994978 0.0060805545042200548 0 0.020890113201065715 0.0054414431978719287 0 0.021426879755719243 0.0055523628969958664 0 0.020568681100994978 0.0060805545042200548 0 0.020890113201065715 0.0054414431978719287 0 0.020470036373582013 0.0052195710435998374 0 0.020890113201065715 0.0054414431978719287 0 0.020470036373582013 0.0052195710435998374 0 0.021091500379159561 0.0049163993218829848 0 0.021091500379159561 0.0049163993218829848 0 0.020396343987057013 0.0046504634543942207 0 0.020564436370320675 0.004340015796054272 0 0.020470036373582013 0.0052195710435998374 0 0.021091500379159561 0.0049163993218829848 0 0.020396343987057013 0.0046504634543942207 0 0.020036275753554572 0.0032981177869313297 0 0.020059643687189491 0.0032003060980491252 0 0.023394735751003544 0.00058375360027388236 0 0.023350888404156944 0.00053010745360638535 0 0.023406216020078245 0.000517073951101604 0 0.018663616036046604 0.0035902548760204452 0 0.020059643687189491 0.0032003060980491252 0 0.020470036373582013 0.0052195710435998374 0 0.019932924890757153 0.0048262023716665863 0 0.020396343987057013 0.0046504634543942207 0 0.020396343987057013 0.0046504634543942207 0 0.020139910948087297 0.0042313998608271373 0 0.020620096091381188 0.0042784446779597987 0 0.019932924890757153 0.0048262023716665863 0 0.020396343987057013 0.0046504634543942207 0 0.020139910948087297 0.0042313998608271373 0 0.019652138406398782 0.004353650488359887 0 0.019932924890757153 0.0048262023716665863 0 0.020139910948087297 0.0042313998608271373 0 0.019652138406398782 0.004353650488359887 0 0.020134466380084811 0.0036778066918610915 0 0.020139910948087297 0.0042313998608271373 0 0.020134466380084811 0.0036778066918610915 0 0.020798594772327247 0.0043195747017618731 0 0.020728449109981246 0.0035264018562957519 0 0.020134466380084811 0.0036778066918610915 0 0.020139910948087297 0.0042313998608271373 0 0.020620096091381188 0.0042784446779597987 0 0.0201831885941227 0.0033644503864297972 0 0.020059643687189491 0.0032003060980491252 0 0.023350888404156944 0.00053010745360638535 0 0.023406216020078245 0.000517073951101604 0 0.023435114418393778 0.00044338976814523067 0 0.020059643687189491 0.0032003060980491252 0 0.021544020247627922 0.0019228405788235437 0 0.020798594772327247 0.0043195747017618731 0 0.020728449109981246 0.0035264018562957519 0 0.021390338288911796 0.0031618784828167166 0 0.020728449109981246 0.0035264018562957519 0 0.021390338288911796 0.0031618784828167166 0 0.020577103434547283 0.0029711118883910316 0 0.021202364248734912 0.0023993495297340594 0 0.021390338288911796 0.0031618784828167166 0 0.020577103434547283 0.0029711118883910316 0 0.019921025613754174 0.0025186367184516661 0 0.019626349576170765 0.0031649267042949173 0 0.020577103434547283 0.0029711118883910316 0 0.019626349576170765 0.0031649267042949173 0 0.020134466380084811 0.0036778066918610915 0 0.020577103434547283 0.0029711118883910316 0 0.020134466380084811 0.0036778066918610915 0 0.020728449109981246 0.0035264018562957519 0 0.020577103434547283 0.0029711118883910316 0 0.023387055584180323 0.00024649007224210063 0 0.023298487761991851 0.0003990170895043816 0 0.023067563547568795 0.00016518541989118862 0 0.023387055584180323 0.00024649007224210063 0 0.023298487761991851 0.0003990170895043816 0 0.023392507312436434 0.00038036269719673755 0 0.023387324514500415 0.00044836558933555328 0 0.023298487761991851 0.0003990170895043816 0 0.023392507312436434 0.00038036269719673755 0 0.020080573061235455 0.00078641581508535441 0 0.018974888444378012 0.0010598845567059726 0 0.023387324514500415 0.00044836558933555328 0 0.023392507312436434 0.00038036269719673755 0 0.023465984347378604 0.00043556223224433971 0 0.022253208148343855 0.0014217071063604423 0 0.021544020247627922 0.0019228405788235437 0 0.023387055584180323 0.00024649007224210063 0 0.023392507312436434 0.00038036269719673755 0 0.023465984347378604 0.00043556223224433971 0 0.023472647313045894 0.00046461404661500794 0 0.023435114418393778 0.00044338976814523067 0 0.023465984347378604 0.00043556223224433971 0 0.023387055584180323 0.00024649007224210063 0 0.023465984347378604 0.00043556223224433971 0 0.023500791015609025 4.0113329825158132e-05 0 0.023435114418393778 0.00044338976814523067 0 0.023465984347378604 0.00043556223224433971 0 0.023445067843542108 0.00051510460434212209 0 0.023406216020078245 0.000517073951101604 0 0.023435114418393778 0.00044338976814523067 0 0.023445067843542108 0.00051510460434212209 0 0.023387055584180323 0.00024649007224210063 0 0.023277858051706846 7.7404794261605741e-06 0 0.023067563547568795 0.00016518541989118862 0 0.023387055584180323 0.00024649007224210063 0 0.023500791015609025 4.0113329825158132e-05 0 0.023277858051706846 7.7404794261605741e-06 0 0.023277858051706846 7.7404794261605741e-06 0 0.023332658835201508 -0.00019469316216807122 0 0.023132746036602401 -0.00026473352020433123 0 0.023500791015609025 4.0113329825158132e-05 0 0.023277858051706846 7.7404794261605741e-06 0 0.023332658835201508 -0.00019469316216807122 0 0.023500791015609025 4.0113329825158132e-05 0 0.023332658835201508 -0.00019469316216807122 0 0.023445102542137417 -0.00034227427755598866 0 0.018974888444378012 0.0010598845567059726 0 0.014939699123392642 0.002877924373914605 0 0.023394735751003544 0.00058375360027388236 0 0.023445067843542108 0.00051510460434212209 0 0.023426926443220652 0.00064389438460749461 0 0.023394735751003544 0.00058375360027388236 0 0.023406216020078245 0.000517073951101604 0 0.023445067843542108 0.00051510460434212209 0 0.021091500379159561 0.0049163993218829848 0 0.021624692869118188 0.0054954450268737401 0 0.021426879755719243 0.0055523628969958664 0 0.018663616036046604 0.0035902548760204452 0 0.014939699123392642 0.002877924373914605 0 0.020890113201065715 0.0054414431978719287 0 0.021091500379159561 0.0049163993218829848 0 0.021426879755719243 0.0055523628969958664 0 0.021656093473417053 0.0060543733021640699 0 0.021617586645058771 0.0054975424583456958 0 0.021426879755719243 0.0055523628969958664 0 0.014939699123392642 0.002877924373914605 0 0.015140224582095085 0.0028621742591681491 0 0.019612234702496671 0.0011084185384020264 0 0.018980178880190469 0.00049112539285923345 0 0.02016481948186152 0.00017114183853917986 0 0.023332658835201508 -0.00019469316216807122 0 0.023445102542137417 -0.00034227427755598866 0 0.023132746036602401 -0.00026473352020433123 0 0.014939699123392642 0.002877924373914605 0 0.02038081150221675 0.00084798215148500819 0 0.023132746036602401 -0.00026473352020433123 0 0.022800703054843982 -0.00021181994384465548 0 0.023067563547568795 0.00016518541989118862 0 0.023277858051706846 7.7404794261605741e-06 0 0.023132746036602401 -0.00026473352020433123 0 0.023067563547568795 0.00016518541989118862 0 0.02016481948186152 0.00017114183853917986 0 0.021299303647482955 -8.887325380862108e-05 0 0.020904133364258223 0.0010771893762443875 0 0.021299303647482955 -8.887325380862108e-05 0 0.021723396169719356 0.00047322240282972702 0 0.020904133364258223 0.0010771893762443875 0 0.02038081150221675 0.00084798215148500819 0 0.021708672875386407 0.0002625401681810134 0 0.022800703054843982 -0.00021181994384465548 0 0.023067563547568795 0.00016518541989118862 0 0.022668600908788618 2.9593091740255508e-05 0 0.023067563547568795 0.00016518541989118862 0 0.022824076294775512 0.00020477192564325608 0 0.022668600908788618 2.9593091740255508e-05 0 0.022880287000962455 0.00041466794405628792 0 0.023067563547568795 0.00016518541989118862 0 0.022824076294775512 0.00020477192564325608 0 0.023000053878942647 0.00048200432985293318 0 0.02306539414974652 0.00032365961945094601 0 0.023176025347926413 0.00047074751822950465 0 0.02302968482514655 0.00050562514366346155 0 0.023067563547568795 0.00016518541989118862 0 0.023176025347926413 0.00047074751822950465 0 0.023298487761991851 0.0003990170895043816 0 0.023067563547568795 0.00016518541989118862 0 0.022573363108712451 0.00033525274822870476 0 0.022618797066557339 0.00019142450107817853 0 0.022374128507779516 0.00014324310052596533 0 0.022618797066557339 0.00019142450107817853 0 0.022441178124073678 4.3221302200922129e-05 0 0.022374128507779516 0.00014324310052596533 0 0.02237801463387409 0.00035150772248313059 0 0.022573363108712451 0.00033525274822870476 0 0.022374128507779516 0.00014324310052596533 0 0.022880287000962455 0.00041466794405628792 0 0.022824076294775512 0.00020477192564325608 0 0.022618797066557339 0.00019142450107817853 0 0.022573363108712451 0.00033525274822870476 0 0.022880287000962455 0.00041466794405628792 0 0.022618797066557339 0.00019142450107817853 0 0.022618797066557339 0.00019142450107817853 0 0.022668600908788618 2.9593091740255508e-05 0 0.022441178124073678 4.3221302200922129e-05 0 0.022824076294775512 0.00020477192564325608 0 0.022618797066557339 0.00019142450107817853 0 0.022668600908788618 2.9593091740255508e-05 0 0.022441178124073678 4.3221302200922129e-05 0 0.022367129427847743 -1.4853861396160606e-05 0 0.022374128507779516 0.00014324310052596533 0 0.022668600908788618 2.9593091740255508e-05 0 0.022441178124073678 4.3221302200922129e-05 0 0.022335418530695043 -0.00010853777733559209 0 0.022441178124073678 4.3221302200922129e-05 0 0.022335418530695043 -0.00010853777733559209 0 0.022367129427847743 -1.4853861396160606e-05 0 0.022335418530695043 -0.00010853777733559209 0 0.022228493337476774 0.00026155744219820101 0 0.022458892753507251 -1.9321148474385625e-05 0 0.022335418530695043 -0.00010853777733559209 0 0.022011208153643592 0.0002070108385063567 0 0.022228493337476774 0.00026155744219820101 0 0.021708672875386407 0.0002625401681810134 0 0.022010809608610397 0.00012728212833964831 0 0.022800703054843982 -0.00021181994384465548 0 0.022668600908788618 2.9593091740255508e-05 0 0.022335418530695043 -0.00010853777733559209 0 0.021299303647482955 -8.887325380862108e-05 0 0.022335418530695043 -0.00010853777733559209 0 0.022011208153643592 0.0002070108385063567 0 0.021299303647482955 -8.887325380862108e-05 0 0.022011208153643592 0.0002070108385063567 0 0.021723396169719356 0.00047322240282972702 0 0.022011208153643592 0.0002070108385063567 0 0.021723396169719356 0.00047322240282972702 0 0.022048467005465144 0.00052609479045622723 0 0.021723396169719356 0.00047322240282972702 0 0.022048467005465144 0.00052609479045622723 0 0.022035719329361225 0.00096451435554686851 0 0.022228493337476774 0.00026155744219820101 0 0.022200465582049918 0.00082319930531462757 0 0.022458892753507251 -1.9321148474385625e-05 0 0.016276651781825198 0.00020602266448519982 0 0.019440513107149653 -0.00072313917252398515 0 0.022228493337476774 0.00026155744219820101 0 0.022048467005465144 0.00052609479045622723 0 0.022200465582049918 0.00082319930531462757 0 0.016276651781825198 0.00020602266448519982 0 0.020329502479099874 -0.00088571259346763092 0 0.022011208153643592 0.0002070108385063567 0 0.022228493337476774 0.00026155744219820101 0 0.022048467005465144 0.00052609479045622723 0 0.013329015585117662 0.0012411617318300336 0 0.010835056862327774 0.0012418394893228997 0 -0.0023756262756416437 0.0028360369181923148 0 -0.0020807023361573171 0.003606404210142852 0 -0.0003737919665298748 0.0029346382367891025 0 0.02015015506198484 -0.00021065044312206738 0 0.02009692272312336 -0.0001708595076503884 0 0.020409603485507424 -0.00020535486556541403 0 0.022048467005465144 0.00052609479045622723 0 0.022200465582049918 0.00082319930531462757 0 0.022035719329361225 0.00096451435554686851 0 0.016276651781825198 0.00020602266448519982 0 0.013329015585117662 0.0012411617318300336 0 -0.0023756262756416437 0.0028360369181923148 0 -0.0020807023361573171 0.003606404210142852 0 -0.0027229676662542455 0.0030313799284030821 0 -0.0020807023361573171 0.003606404210142852 0 -0.0027993117068021733 0.0042323897160196624 0 -0.0015509880531466922 0.0049696790407076016 0 -0.0020807023361573171 0.003606404210142852 0 -0.0015509880531466922 0.0049696790407076016 0 -0.0003737919665298748 0.0029346382367891025 0 -0.0027993117068021733 0.0042323897160196624 0 -0.0039135723702342232 0.004303856731138922 0 -0.0032061771272141903 0.0050670827419264201 0 -0.0020807023361573171 0.003606404210142852 0 -0.0027993117068021733 0.0042323897160196624 0 -0.002721289301371557 0.0036342290163337535 0 -0.0027993117068021733 0.0042323897160196624 0 -0.002721289301371557 0.0036342290163337535 0 -0.0032784781999158174 0.0037449192871565002 0 -0.0027993117068021733 0.0042323897160196624 0 -0.0032784781999158174 0.0037449192871565002 0 -0.0039135723702342232 0.004303856731138922 0 -0.0032784781999158174 0.0037449192871565002 0 -0.0040556723089853709 0.0035486091384285454 0 -0.0039135723702342232 0.004303856731138922 0 0.013329015585117662 0.0012411617318300336 0 0.0091126643544627659 0.0017092828948529974 0 -0.0023363720244817679 0.0027948078605016581 0 -0.0027229676662542455 0.0030313799284030821 0 -0.0047258661640170443 0.0026993599308872034 0 -0.0032784781999158174 0.0037449192871565002 0 -0.0027229676662542455 0.0030313799284030821 0 -0.0040556723089853709 0.0035486091384285454 0 0.021723396169719356 0.00047322240282972702 0 0.022035719329361225 0.00096451435554686851 0 0.020904133364258223 0.0010771893762443875 0 -0.0020807023361573171 0.003606404210142852 0 -0.002721289301371557 0.0036342290163337535 0 -0.0027229676662542455 0.0030313799284030821 0 -0.002721289301371557 0.0036342290163337535 0 -0.0032784781999158174 0.0037449192871565002 0 -0.0027229676662542455 0.0030313799284030821 0 0.013329015585117662 0.0012411617318300336 0 0.012796637928524137 0.0014936775144472087 0 -0.0027229676662542455 0.0030313799284030821 0 -0.0047258661640170443 0.0026993599308872034 0 -0.0040556723089853709 0.0035486091384285454 0 -0.0047258661640170443 0.0026993599308872034 0 -0.0052869367132513901 0.0040527958128461893 0 -0.0040556723089853709 0.0035486091384285454 0 0.0089402797179264568 0.0021159266292388331 0 0.0091126643544627659 0.0017092828948529974 0 -0.0071620752329710127 0.0026769590065971079 0 -0.0047258661640170443 0.0026993599308872034 0 -0.0064691479015526526 0.0033882850654061831 0 -0.0047258661640170443 0.0026993599308872034 0 -0.0064691479015526526 0.0033882850654061831 0 -0.0052869367132513901 0.0040527958128461893 0 0.019612234702496671 0.0011084185384020264 0 0.02016481948186152 0.00017114183853917986 0 0.020904133364258223 0.0010771893762443875 0 -0.0052869367132513901 0.0040527958128461893 0 -0.0045137735832520834 0.0050759079935169997 0 -0.0063729356981323893 0.004953998575698647 0 -0.0064691479015526526 0.0033882850654061831 0 -0.0052869367132513901 0.0040527958128461893 0 -0.0064064711883954194 0.0041776455888371282 0 -0.0052869367132513901 0.0040527958128461893 0 -0.0064064711883954194 0.0041776455888371282 0 -0.0063729356981323893 0.004953998575698647 0 -0.0070090894920580024 0.0045702610517637911 0 -0.0064064711883954194 0.0041776455888371282 0 -0.0063729356981323893 0.004953998575698647 0 -0.0052869367132513901 0.0040527958128461893 0 -0.0040556723089853709 0.0035486091384285454 0 -0.0039135723702342232 0.004303856731138922 0 -0.0052869367132513901 0.0040527958128461893 0 -0.0039135723702342232 0.004303856731138922 0 -0.0045137735832520834 0.0050759079935169997 0 -0.0066238434330248936 0.0051454641841037017 0 -0.0057889738935571798 0.0051347033212088616 0 -0.0039135723702342232 0.004303856731138922 0 -0.0045137735832520834 0.0050759079935169997 0 -0.0032061771272141903 0.0050670827419264201 0 -0.0045137735832520834 0.0050759079935169997 0 -0.0053219741247705604 0.0057284869983808117 0 -0.0031608860967449934 0.006136418435516898 0 -0.0045137735832520834 0.0050759079935169997 0 -0.0053219741247705604 0.0057284869983808117 0 -0.0063729356981323893 0.004953998575698647 0 -0.0071116275131479223 0.0050681286548075726 0 -0.0066238434330248936 0.0051454641841037017 0 -0.0079373972612815698 0.0051112609703755935 0 -0.0078046071243691199 0.0051315927522452565 0 -0.0081295418020558181 0.0052494131626491473 0 -0.0077389824781193351 0.0050554149066038183 0 -0.0053219741247705604 0.0057284869983808117 0 -0.0063729356981323893 0.004953998575698647 0 -0.0079373972612815698 0.0051112609703755935 0 -0.008232425921555854 0.0050026847284819712 0 -0.0080644445549279981 0.0049817578578082193 0 -0.0079373972612815698 0.0051112609703755935 0 -0.0081295418020558181 0.0052494131626491473 0 -0.008232425921555854 0.0050026847284819712 0 -0.0081295418020558181 0.0052494131626491473 0 -0.008232425921555854 0.0050026847284819712 0 -0.0085137676514334647 0.0051595500801656239 0 -0.008232425921555854 0.0050026847284819712 0 -0.0085137676514334647 0.0051595500801656239 0 -0.0084770480566970056 0.0048956963677969229 0 -0.0057889738935571798 0.0051347033212088616 0 -0.0050025794378330815 0.004815765543428583 0 -0.0085137676514334647 0.0051595500801656239 0 -0.0087215304798675102 0.0048668407104941981 0 -0.0088020497768597702 0.0050553459714063357 0 -0.0031608860967449934 0.006136418435516898 0 -0.0015509880531466922 0.0049696790407076016 0 -0.0012096959788636293 0.0065364388150317386 0 -0.0027993117068021733 0.0042323897160196624 0 -0.0015509880531466922 0.0049696790407076016 0 -0.0032061771272141903 0.0050670827419264201 0 -0.0031608860967449934 0.006136418435516898 0 -0.0015509880531466922 0.0049696790407076016 0 -0.0032061771272141903 0.0050670827419264201 0 -0.0045137735832520834 0.0050759079935169997 0 -0.0031608860967449934 0.006136418435516898 0 -0.0032061771272141903 0.0050670827419264201 0 -0.0086127202539175128 0.0047463291192935114 0 -0.0084966196074171517 0.004681212905448027 0 -0.0084770480566970056 0.0048956963677969229 0 -0.0086127202539175128 0.0047463291192935114 0 -0.0084966196074171517 0.004681212905448027 0 -0.0086205796516909509 0.0045980789889455888 0 -0.0086127202539175128 0.0047463291192935114 0 -0.0087358705219238615 0.0046767128944626216 0 -0.0087215304798675102 0.0048668407104941981 0 -0.0086127202539175128 0.0047463291192935114 0 -0.0087358705219238615 0.0046767128944626216 0 -0.0086205796516909509 0.0045980789889455888 0 -0.0087358705219238615 0.0046767128944626216 0 -0.0087215304798675102 0.0048668407104941981 0 -0.0088639897064080007 0.0047243032484345551 0 -0.0085137676514334647 0.0051595500801656239 0 -0.0087215304798675102 0.0048668407104941981 0 -0.0084770480566970056 0.0048956963677969229 0 -0.0086127202539175128 0.0047463291192935114 0 -0.0087215304798675102 0.0048668407104941981 0 -0.0084770480566970056 0.0048956963677969229 0 -0.008232425921555854 0.0050026847284819712 0 -0.0082016560269706443 0.0048519874953475697 0 -0.0083433088845342503 0.0047942475704584242 0 -0.008232425921555854 0.0050026847284819712 0 -0.0084770480566970056 0.0048956963677969229 0 -0.0083433088845342503 0.0047942475704584242 0 -0.008232425921555854 0.0050026847284819712 0 -0.0080644445549279981 0.0049817578578082193 0 -0.0082016560269706443 0.0048519874953475697 0 -0.0080644445549279981 0.0049817578578082193 0 -0.0082016560269706443 0.0048519874953475697 0 -0.0080928204962747823 0.0047751388422064027 0 -0.0082016560269706443 0.0048519874953475697 0 -0.0080928204962747823 0.0047751388422064027 0 -0.0082564019753213116 0.0047005014743656754 0 -0.0082016560269706443 0.0048519874953475697 0 -0.0082564019753213116 0.0047005014743656754 0 -0.0083433088845342503 0.0047942475704584242 0 -0.0082564019753213116 0.0047005014743656754 0 -0.0083936238999681324 0.0046214598840507853 0 -0.008315391940727954 0.0045670853112107918 0 -0.0080928204962747823 0.0047751388422064027 0 -0.0082564019753213116 0.0047005014743656754 0 -0.0081603049725159776 0.0045861987220611102 0 -0.0084966196074171517 0.004681212905448027 0 -0.0084770480566970056 0.0048956963677969229 0 -0.0083433088845342503 0.0047942475704584242 0 -0.0082564019753213116 0.0047005014743656754 0 -0.0083433088845342503 0.0047942475704584242 0 -0.0083936238999681324 0.0046214598840507853 0 -0.0084966196074171517 0.004681212905448027 0 -0.0083433088845342503 0.0047942475704584242 0 -0.0083936238999681324 0.0046214598840507853 0 -0.0084966196074171517 0.004681212905448027 0 -0.0083936238999681324 0.0046214598840507853 0 -0.008509318973328777 0.0045322685997237246 0 -0.0083936238999681324 0.0046214598840507853 0 -0.008509318973328777 0.0045322685997237246 0 -0.00842676993856286 0.0044864138002809568 0 -0.0083936238999681324 0.0046214598840507853 0 -0.00842676993856286 0.0044864138002809568 0 -0.008315391940727954 0.0045670853112107918 0 -0.008509318973328777 0.0045322685997237246 0 -0.00842676993856286 0.0044864138002809568 0 -0.0084781359499232056 0.0044172275809863234 0 -0.0081603049725159776 0.0045861987220611102 0 -0.0083329244868336361 0.0044877918919019565 0 -0.0081045621225810782 0.0044383992068718981 0 -0.0081603049725159776 0.0045861987220611102 0 -0.008315391940727954 0.0045670853112107918 0 -0.0083329244868336361 0.0044877918919019565 0 -0.0082564019753213116 0.0047005014743656754 0 -0.0081603049725159776 0.0045861987220611102 0 -0.008315391940727954 0.0045670853112107918 0 -0.00842676993856286 0.0044864138002809568 0 -0.008315391940727954 0.0045670853112107918 0 -0.0083329244868336361 0.0044877918919019565 0 -0.0087499977199652912 0.0031509109102825748 0 -0.0083956192724837456 0.0035928740780055562 0 -0.0083329244868336361 0.0044877918919019565 0 -0.0085883840324181213 0.0043698369861822307 0 -0.0081045621225810782 0.0044383992068718981 0 -0.0085883840324181213 0.0043698369861822307 0 -0.0085381809040425381 0.0037856501385569487 0 -0.0081045621225810782 0.0044383992068718981 0 -0.00842676993856286 0.0044864138002809568 0 -0.0083329244868336361 0.0044877918919019565 0 -0.0085883840324181213 0.0043698369861822307 0 -0.0092312124280363155 0.0046182287113373886 0 -0.010507586470806612 0.0044571905035937385 0 -0.0097330992887243884 0.0036486130220072526 0 -0.00842676993856286 0.0044864138002809568 0 -0.0085883840324181213 0.0043698369861822307 0 -0.0084781359499232056 0.0044172275809863234 0 -0.0094804848227492047 0.002944295543853729 0 -0.0095458761056372611 0.0029071340812152052 0 -0.0085883840324181213 0.0043698369861822307 0 -0.0092312124280363155 0.0046182287113373886 0 -0.0091336921445816406 0.0039961730795835338 0 -0.008509318973328777 0.0045322685997237246 0 -0.0084781359499232056 0.0044172275809863234 0 -0.0086282218174054091 0.0044560470459033222 0 -0.0095458761056372611 0.0029071340812152052 0 -0.010242558002963798 0.0027393424731828602 0 -0.0095458761056372611 0.0029071340812152052 0 -0.0095876275951333797 0.0028174487849697504 0 -0.0096770093235319619 0.0021516890746812959 0 -0.010088274773387427 0.0020832226988278077 0 -0.01015545291675987 0.0022673016724624497 0 -0.008509318973328777 0.0045322685997237246 0 -0.0086282218174054091 0.0044560470459033222 0 -0.0086205796516909509 0.0045980789889455888 0 -0.0084966196074171517 0.004681212905448027 0 -0.008509318973328777 0.0045322685997237246 0 -0.0086205796516909509 0.0045980789889455888 0 -0.0086282218174054091 0.0044560470459033222 0 -0.0087538916190629899 0.004532124580343494 0 -0.0088879616185396516 0.0044959508162586868 0 -0.0095876275951333797 0.0028174487849697504 0 -0.0098644622356071718 0.0024326905614145771 0 -0.0087358705219238615 0.0046767128944626216 0 -0.0087538916190629899 0.004532124580343494 0 -0.0088457153871663377 0.0046163683239440947 0 -0.0087358705219238615 0.0046767128944626216 0 -0.0086205796516909509 0.0045980789889455888 0 -0.0087538916190629899 0.004532124580343494 0 -0.0086282218174054091 0.0044560470459033222 0 -0.0086205796516909509 0.0045980789889455888 0 -0.0087538916190629899 0.004532124580343494 0 -0.01015545291675987 0.0022673016724624497 0 -0.010499323054612911 0.0020157221774448554 0 -0.010632863788395409 0.0023828115218242573 0 -0.010088274773387427 0.0020832226988278077 0 -0.01015545291675987 0.0022673016724624497 0 -0.010499323054612911 0.0020157221774448554 0 -0.010242558002963798 0.0027393424731828602 0 -0.010981148541050804 0.0023431039184416973 0 -0.010507586470806612 0.0044571905035937385 0 -0.010722010977499381 0.0034110139156599776 0 -0.011573189241050556 0.0042996652078210627 0 -0.010722010977499381 0.0034110139156599776 0 -0.011573189241050556 0.0042996652078210627 0 -0.011794511324152841 0.003509277566733195 0 -0.010507586470806612 0.0044571905035937385 0 -0.010722010977499381 0.0034110139156599776 0 -0.0097330992887243884 0.0036486130220072526 0 -0.010722010977499381 0.0034110139156599776 0 -0.0094880103153646162 0.0026444488185527189 0 -0.0097330992887243884 0.0036486130220072526 0 -0.010722010977499381 0.0034110139156599776 0 -0.010513446622584863 0.0023780179564629311 0 -0.0094880103153646162 0.0026444488185527189 0 -0.010722010977499381 0.0034110139156599776 0 -0.011354830149708738 0.002796399974248459 0 -0.010513446622584863 0.0023780179564629311 0 -0.010722010977499381 0.0034110139156599776 0 -0.011354830149708738 0.002796399974248459 0 -0.011794511324152841 0.003509277566733195 0 -0.011354830149708738 0.002796399974248459 0 -0.010513446622584863 0.0023780179564629311 0 -0.011274793808552189 0.0019633621436910779 0 -0.010513446622584863 0.0023780179564629311 0 -0.0097051270823938895 0.0020996244907923148 0 -0.010623699794234122 0.0016278323856967068 0 -0.010513446622584863 0.0023780179564629311 0 -0.011274793808552189 0.0019633621436910779 0 -0.010623699794234122 0.0016278323856967068 0 -0.011274793808552189 0.0019633621436910779 0 -0.011290211913917174 0.0013793804212905852 0 -0.010623699794234122 0.0016278323856967068 0 -0.0091716386840811886 0.0019092969729722191 0 -0.0097051270823938895 0.0020996244907923148 0 -0.0098587890140114098 0.001391548901207359 0 -0.0097051270823938895 0.0020996244907923148 0 -0.0098587890140114098 0.001391548901207359 0 -0.010623699794234122 0.0016278323856967068 0 -0.010513446622584863 0.0023780179564629311 0 -0.0097051270823938895 0.0020996244907923148 0 -0.0094880103153646162 0.0026444488185527189 0 -0.0091716386840811886 0.0019092969729722191 0 -0.0097051270823938895 0.0020996244907923148 0 -0.0089683040006475687 0.0024836662237368141 0 -0.0097051270823938895 0.0020996244907923148 0 -0.0094880103153646162 0.0026444488185527189 0 -0.0089683040006475687 0.0024836662237368141 0 -0.0089653912649267538 0.0028885455553178622 0 -0.0087499977199652912 0.0031509109102825748 0 -0.0094880103153646162 0.0026444488185527189 0 -0.0089576228298675516 0.0025924569560990523 0 -0.0089683040006475687 0.0024836662237368141 0 -0.0094880103153646162 0.0026444488185527189 0 -0.0097330992887243884 0.0036486130220072526 0 -0.0085381809040425381 0.0037856501385569487 0 -0.0097330992887243884 0.0036486130220072526 0 -0.0091336921445816406 0.0039961730795835338 0 -0.0085381809040425381 0.0037856501385569487 0 -0.0092312124280363155 0.0046182287113373886 0 -0.0097330992887243884 0.0036486130220072526 0 -0.0091336921445816406 0.0039961730795835338 0 -0.0085883840324181213 0.0043698369861822307 0 -0.0091336921445816406 0.0039961730795835338 0 -0.0085381809040425381 0.0037856501385569487 0 -0.0086534976134084209 0.0025023522803867804 0 -0.0086746646426729586 0.0025001602202857015 0 -0.0081508631582998519 0.0024397818351428856 0 -0.0089576228298675516 0.0025924569560990523 0 -0.0086534976134084209 0.0025023522803867804 0 -0.0089683040006475687 0.0024836662237368141 0 -0.0080295358964733599 0.00057845549689277754 0 -0.0070080722663430611 0.0019154021020606595 0 -0.0081508631582998519 0.0024397818351428856 0 -0.0084215008353057744 0.0016510740595216135 0 -0.008366178309334036 0.0020795501847645772 0 -0.0084215008353057744 0.0016510740595216135 0 -0.008556182199924876 0.001102042770100379 0 -0.0086746646426729586 0.0025001602202857015 0 -0.0089683040006475687 0.0024836662237368141 0 -0.0086613724901270887 0.0021557441577549018 0 -0.0086534976134084209 0.0025023522803867804 0 -0.0086746646426729586 0.0025001602202857015 0 -0.0089683040006475687 0.0024836662237368141 0 -0.0091716386840811886 0.0019092969729722191 0 -0.0089683040006475687 0.0024836662237368141 0 -0.0086613724901270887 0.0021557441577549018 0 -0.0078856869005417309 -0.00030591374778536591 0 -0.0078474145918880217 -0.00026532823830722216 0 -0.0072205163236617846 -0.00021328909139512733 0 -0.0080295358964733599 0.00057845549689277754 0 -0.0078856869005417309 -0.00030591374778536591 0 -0.0072205163236617846 -0.00021328909139512733 0 -0.0078856869005417309 -0.00030591374778536591 0 -0.0078474145918880217 -0.00026532823830722216 0 -0.0080405805837253513 5.6865315224751851e-05 0 -0.008556182199924876 0.001102042770100379 0 -0.0088611919440341139 0.00096693195316398619 0 -0.0078856869005417309 -0.00030591374778536591 0 -0.0080405805837253513 5.6865315224751851e-05 0 -0.0079823662640727527 9.0341439477888984e-05 0 -0.0086613724901270887 0.0021557441577549018 0 -0.0088921476344382931 0.0017383197943329873 0 -0.0086196802235126175 0.0013861708764914022 0 -0.0091716386840811886 0.0019092969729722191 0 -0.0086613724901270887 0.0021557441577549018 0 -0.0088921476344382931 0.0017383197943329873 0 -0.0091716386840811886 0.0019092969729722191 0 -0.0088921476344382931 0.0017383197943329873 0 -0.0091268448135202497 0.0014698226665937136 0 -0.006810943885546609 -0.00048124751854871202 0 -0.0058801136203756963 -0.0004899537310003566 0 -0.0075585100741934943 -0.00050858251741656092 0 -0.0062723262783657913 -0.00054885690691723014 0 -0.0063071069039593169 -0.00084993961308658223 0 -0.0075585100741934943 -0.00050858251741656092 0 -0.0087767371716785565 -0.00027407259451494806 0 -0.0083807259062728626 0.00015321055819660347 0 -0.0075585100741934943 -0.00050858251741656092 0 -0.0078474145918880217 -0.00026532823830722216 0 -0.0080068542582233167 1.0751270402513769e-05 0 -0.0075585100741934943 -0.00050858251741656092 0 -0.0078474145918880217 -0.00026532823830722216 0 -0.0072205163236617846 -0.00021328909139512733 0 -0.0072205163236617846 -0.00021328909139512733 0 -0.0062723262783657913 -0.00054885690691723014 0 -0.0058674774506467416 0.0003489567745361147 0 -0.0075585100741934943 -0.00050858251741656092 0 -0.0072205163236617846 -0.00021328909139512733 0 -0.0062723262783657913 -0.00054885690691723014 0 -0.0072205163236617846 -0.00021328909139512733 0 -0.0058674774506467416 0.0003489567745361147 0 -0.0065945620763788173 0.00093676135987943413 0 -0.0080295358964733599 0.00057845549689277754 0 -0.0072205163236617846 -0.00021328909139512733 0 -0.0065945620763788173 0.00093676135987943413 0 -0.0080295358964733599 0.00057845549689277754 0 -0.0065945620763788173 0.00093676135987943413 0 -0.0070080722663430611 0.0019154021020606595 0 -0.0058674774506467416 0.0003489567745361147 0 -0.0065945620763788173 0.00093676135987943413 0 -0.0051817886479009756 0.0012134780234142281 0 -0.0065945620763788173 0.00093676135987943413 0 -0.0058446202598608768 0.0019857874616181779 0 -0.0051817886479009756 0.0012134780234142281 0 -0.0058446202598608768 0.0019857874616181779 0 -0.0051941142623180524 0.0028729922755839315 0 -0.0046573464253581312 0.0020784326825005073 0 -0.0058446202598608768 0.0019857874616181779 0 -0.0046573464253581312 0.0020784326825005073 0 -0.0051817886479009756 0.0012134780234142281 0 -0.0058446202598608768 0.0019857874616181779 0 -0.0051941142623180524 0.0028729922755839315 0 -0.0064073595131692706 0.0028705542010297345 0 -0.0051941142623180524 0.0028729922755839315 0 -0.0064073595131692706 0.0028705542010297345 0 -0.0059509371262393114 0.0038300908605202965 0 -0.0064073595131692706 0.0028705542010297345 0 -0.0070080722663430611 0.0019154021020606595 0 -0.0074197700640737238 0.0030333899432031341 0 -0.0064073595131692706 0.0028705542010297345 0 -0.0074197700640737238 0.0030333899432031341 0 -0.0069335828064528791 0.0038185089341396757 0 -0.0058446202598608768 0.0019857874616181779 0 -0.0064073595131692706 0.0028705542010297345 0 -0.0070080722663430611 0.0019154021020606595 0 -0.0065945620763788173 0.00093676135987943413 0 -0.0058446202598608768 0.0019857874616181779 0 -0.0070080722663430611 0.0019154021020606595 0 -0.0070080722663430611 0.0019154021020606595 0 -0.0081508631582998519 0.0024397818351428856 0 -0.0074197700640737238 0.0030333899432031341 0 -0.0086534976134084209 0.0025023522803867804 0 -0.0081508631582998519 0.0024397818351428856 0 -0.0086816654241530875 0.0026099228341816068 0 -0.0089576228298675516 0.0025924569560990523 0 -0.0086534976134084209 0.0025023522803867804 0 -0.0086816654241530875 0.0026099228341816068 0 -0.0081508631582998519 0.0024397818351428856 0 -0.0086816654241530875 0.0026099228341816068 0 -0.0081528512440663635 0.0035308315129125752 0 -0.0081603049725159776 0.0045861987220611102 0 -0.0081045621225810782 0.0044383992068718981 0 -0.0078447889536153465 0.0045700269365555254 0 -0.0083956192724837456 0.0035928740780055562 0 -0.0080141863194202762 0.004104951200278528 0 -0.0081508631582998519 0.0024397818351428856 0 -0.0074197700640737238 0.0030333899432031341 0 -0.0081528512440663635 0.0035308315129125752 0 -0.0074197700640737238 0.0030333899432031341 0 -0.0081528512440663635 0.0035308315129125752 0 -0.0069335828064528791 0.0038185089341396757 0 -0.0080141863194202762 0.004104951200278528 0 -0.0077731812036248675 0.0044418050682157022 0 -0.0078447889536153465 0.0045700269365555254 0 -0.0078628425227386771 0.0048091009188984584 0 -0.0072904972985996606 0.0048560865969365626 0 -0.0081528512440663635 0.0035308315129125752 0 -0.0072904972985996606 0.0048560865969365626 0 -0.0069335828064528791 0.0038185089341396757 0 -0.0080928204962747823 0.0047751388422064027 0 -0.0081603049725159776 0.0045861987220611102 0 -0.0078447889536153465 0.0045700269365555254 0 -0.0080928204962747823 0.0047751388422064027 0 -0.0078447889536153465 0.0045700269365555254 0 -0.0078628425227386771 0.0048091009188984584 0 -0.0080928204962747823 0.0047751388422064027 0 -0.0079956581634109247 0.0049295620059269848 0 -0.0078628425227386771 0.0048091009188984584 0 -0.0080644445549279981 0.0049817578578082193 0 -0.0080928204962747823 0.0047751388422064027 0 -0.0079956581634109247 0.0049295620059269848 0 -0.0079956581634109247 0.0049295620059269848 0 -0.0078628425227386771 0.0048091009188984584 0 -0.007906093031611253 0.0050875661616042196 0 -0.0079448896620964264 0.0050751918109764706 0 -0.0079956581634109247 0.0049295620059269848 0 -0.007906093031611253 0.0050875661616042196 0 -0.0079448896620964264 0.0050751918109764706 0 -0.0080644445549279981 0.0049817578578082193 0 -0.0079956581634109247 0.0049295620059269848 0 -0.0078628425227386771 0.0048091009188984584 0 -0.007906093031611253 0.0050875661616042196 0 -0.0072904972985996606 0.0048560865969365626 0 -0.007889426890421717 0.0056772020800979093 0 -0.007906093031611253 0.0050875661616042196 0 -0.0072904972985996606 0.0048560865969365626 0 -0.0051021927751272083 0.0054363727936525717 0 -0.0068201761050398291 0.0056534365229532566 0 -0.0063077899100649464 0.0047747893155880919 0 -0.0072904972985996606 0.0048560865969365626 0 -0.0063077899100649464 0.0047747893155880919 0 -0.0069335828064528791 0.0038185089341396757 0 -0.0068201761050398291 0.0056534365229532566 0 -0.0072904972985996606 0.0048560865969365626 0 -0.0063077899100649464 0.0047747893155880919 0 -0.0051021927751272083 0.0054363727936525717 0 -0.0063077899100649464 0.0047747893155880919 0 -0.0052877289386414131 0.004408640061187844 0 -0.0051021927751272083 0.0054363727936525717 0 -0.0052877289386414131 0.004408640061187844 0 -0.0042280521222773744 0.0043287724503197639 0 -0.0052877289386414131 0.004408640061187844 0 -0.0059509371262393114 0.0038300908605202965 0 -0.0046256982470101521 0.0036985548429019663 0 -0.0063077899100649464 0.0047747893155880919 0 -0.0052877289386414131 0.004408640061187844 0 -0.0059509371262393114 0.0038300908605202965 0 -0.0051941142623180524 0.0028729922755839315 0 -0.0059509371262393114 0.0038300908605202965 0 -0.0046256982470101521 0.0036985548429019663 0 -0.0064073595131692706 0.0028705542010297345 0 -0.0059509371262393114 0.0038300908605202965 0 -0.0069335828064528791 0.0038185089341396757 0 -0.0063077899100649464 0.0047747893155880919 0 -0.0059509371262393114 0.0038300908605202965 0 -0.0069335828064528791 0.0038185089341396757 0 -0.0033062036902116957 0.0039285881452348582 0 -0.0022980582973654885 0.0044005873574004453 0 -0.0024339549872185724 0.0033178911772928977 0 -0.0033062036902116957 0.0039285881452348582 0 -0.0046256982470101521 0.0036985548429019663 0 -0.0042280521222773744 0.0043287724503197639 0 -0.0033062036902116957 0.0039285881452348582 0 -0.0046256982470101521 0.0036985548429019663 0 -0.0037088339820080182 0.0028034382739092092 0 -0.0052877289386414131 0.004408640061187844 0 -0.0046256982470101521 0.0036985548429019663 0 -0.0042280521222773744 0.0043287724503197639 0 -0.0051021927751272083 0.0054363727936525717 0 -0.0042280521222773744 0.0043287724503197639 0 -0.003103342841826842 0.0044582568010960956 0 -0.0033062036902116957 0.0039285881452348582 0 -0.0042280521222773744 0.0043287724503197639 0 -0.003103342841826842 0.0044582568010960956 0 -0.0047026658318901383 0.0048341526785490516 0 -0.0042235318943776474 0.0047394178369102816 0 -0.0033062036902116957 0.0039285881452348582 0 -0.003103342841826842 0.0044582568010960956 0 -0.0022980582973654885 0.0044005873574004453 0 -0.0018162638354187874 0.0035780872218908574 0 -0.0010686981794470467 0.0029237695960005481 0 -0.0029349772842468618 0.0043858467252424291 0 -0.003103342841826842 0.0044582568010960956 0 -0.0022980582973654885 0.0044005873574004453 0 -0.00095711484788116546 0.0033994499488607176 0 -0.00054499191524196499 0.001463176013046581 0 0.00047393894079563484 0.0028872262100299441 0 -0.00095711484788116546 0.0033994499488607176 0 -0.0029349772842468618 0.0043858467252424291 0 -0.00054499191524196499 0.001463176013046581 0 -0.00054499191524196499 0.001463176013046581 0 0.0013510888898773405 0.0014911755304709735 0 0.00047393894079563484 0.0028872262100299441 0 0.0013510888898773405 0.0014911755304709735 0 0.00047393894079563484 0.0028872262100299441 0 0.0019953560899681551 0.0025830700159157763 0 -0.0010686981794470467 0.0029237695960005481 0 0.00021903948675905773 0.0018643897828437531 0 -0.00054499191524196499 0.001463176013046581 0 0.0013510888898773405 0.0014911755304709735 0 0.0016929839678329187 0.00031684996624080971 0 -0.0022980582973654885 0.0044005873574004453 0 -0.0024339549872185724 0.0033178911772928977 0 -0.00039832905358743278 0.0032191269758356494 0 -0.0024339549872185724 0.0033178911772928977 0 -0.00039832905358743278 0.0032191269758356494 0 -0.0021011725308021883 0.0019909811864615322 0 -0.00039832905358743278 0.0032191269758356494 0 -0.00055200190718423159 0.0010991121356869332 0 -0.0021011725308021883 0.0019909811864615322 0 -0.00055200190718423159 0.0010991121356869332 0 -0.0021011725308021883 0.0019909811864615322 0 -0.0020647924232582685 0.0004381888387288096 0 -0.0021011725308021883 0.0019909811864615322 0 -0.0035663796023264419 0.0014810926068831597 0 -0.0037088339820080182 0.0028034382739092092 0 -0.0024339549872185724 0.0033178911772928977 0 -0.0021011725308021883 0.0019909811864615322 0 -0.0037088339820080182 0.0028034382739092092 0 -0.0033062036902116957 0.0039285881452348582 0 -0.0024339549872185724 0.0033178911772928977 0 -0.0037088339820080182 0.0028034382739092092 0 -0.0051941142623180524 0.0028729922755839315 0 -0.0046256982470101521 0.0036985548429019663 0 -0.0037088339820080182 0.0028034382739092092 0 -0.0051941142623180524 0.0028729922755839315 0 -0.0037088339820080182 0.0028034382739092092 0 -0.0046573464253581312 0.0020784326825005073 0 -0.0035663796023264419 0.0014810926068831597 0 -0.0037088339820080182 0.0028034382739092092 0 -0.0046573464253581312 0.0020784326825005073 0 -0.0035663796023264419 0.0014810926068831597 0 -0.0046573464253581312 0.0020784326825005073 0 -0.0051817886479009756 0.0012134780234142281 0 -0.0058674774506467416 0.0003489567745361147 0 -0.0051817886479009756 0.0012134780234142281 0 -0.0043143387841994294 0.00037489223158914872 0 -0.0035663796023264419 0.0014810926068831597 0 -0.0051817886479009756 0.0012134780234142281 0 -0.0043143387841994294 0.00037489223158914872 0 -0.0035663796023264419 0.0014810926068831597 0 -0.0043143387841994294 0.00037489223158914872 0 -0.0020647924232582685 0.0004381888387288096 0 -0.0043143387841994294 0.00037489223158914872 0 -0.0031932028387458007 -0.00096789255690432586 0 -0.0020647924232582685 0.0004381888387288096 0 -0.0062723262783657913 -0.00054885690691723014 0 -0.0058674774506467416 0.0003489567745361147 0 -0.0043143387841994294 0.00037489223158914872 0 -0.0062723262783657913 -0.00054885690691723014 0 -0.0043143387841994294 0.00037489223158914872 0 -0.0031932028387458007 -0.00096789255690432586 0 -0.0062723262783657913 -0.00054885690691723014 0 -0.0031932028387458007 -0.00096789255690432586 0 -0.0045625648834938916 -0.0028467620108170405 0 -0.0031932028387458007 -0.00096789255690432586 0 -0.0045625648834938916 -0.0028467620108170405 0 -0.0020291222634725402 -0.0026513851402406884 0 -0.0058801136203756963 -0.0004899537310003566 0 -0.003640339831254993 -0.00071653184955616474 0 -0.0058551119774713622 -0.00065588988751730552 0 -0.0058801136203756963 -0.0004899537310003566 0 -5.5444641635016494e-05 -0.0020982476281984131 0 -0.0020291222634725402 -0.0026513851402406884 0 -0.0006415400502127283 -0.00093091816942233205 0 -0.0019931285114467351 -0.00069263279027387378 0 -0.003640339831254993 -0.00071653184955616474 0 -0.0031932028387458007 -0.00096789255690432586 0 -0.0020291222634725402 -0.0026513851402406884 0 -0.0006415400502127283 -0.00093091816942233205 0 -0.0006415400502127283 -0.00093091816942233205 0 -0.0020647924232582685 0.0004381888387288096 0 -7.8747286092005267e-05 0.00013103189178307494 0 -0.0031932028387458007 -0.00096789255690432586 0 -0.0006415400502127283 -0.00093091816942233205 0 -0.0020647924232582685 0.0004381888387288096 0 -0.0021011725308021883 0.0019909811864615322 0 -0.0035663796023264419 0.0014810926068831597 0 -0.0020647924232582685 0.0004381888387288096 0 -0.00055200190718423159 0.0010991121356869332 0 -0.0020647924232582685 0.0004381888387288096 0 -7.8747286092005267e-05 0.00013103189178307494 0 -0.00055200190718423159 0.0010991121356869332 0 -7.8747286092005267e-05 0.00013103189178307494 0 0.0018879203519446045 0.0006295757171988338 0 0.00097119641378524979 -0.00034898043804626781 0 0.0022287098192873751 -7.9365897213814647e-05 0 0.0018879203519446045 0.0006295757171988338 0 -7.8747286092005267e-05 0.00013103189178307494 0 0.00097119641378524979 -0.00034898043804626781 0 0.0018879203519446045 0.0006295757171988338 0 0.00097119641378524979 -0.00034898043804626781 0 0.001423012595211903 -0.00049172651126391722 0 0.0022287098192873751 -7.9365897213814647e-05 0 -0.0006415400502127283 -0.00093091816942233205 0 -7.8747286092005267e-05 0.00013103189178307494 0 0.00097119641378524979 -0.00034898043804626781 0 -5.5444641635016494e-05 -0.0020982476281984131 0 -0.0006415400502127283 -0.00093091816942233205 0 0.00088684555705323344 -0.00095800899777069169 0 -0.0006415400502127283 -0.00093091816942233205 0 0.00097119641378524979 -0.00034898043804626781 0 0.00088684555705323344 -0.00095800899777069169 0 0.00097119641378524979 -0.00034898043804626781 0 0.00088684555705323344 -0.00095800899777069169 0 0.001423012595211903 -0.00049172651126391722 0 0.00088684555705323344 -0.00095800899777069169 0 0.0010808052196073158 -0.00071996811637121169 0 0.001423012595211903 -0.00049172651126391722 0 0.00088684555705323344 -0.00095800899777069169 0 0.0011271566227510329 -0.0010468761806356069 0 0.0010808052196073158 -0.00071996811637121169 0 -5.5444641635016494e-05 -0.0020982476281984131 0 0.00088684555705323344 -0.00095800899777069169 0 0.0011271566227510329 -0.0010468761806356069 0 -0.0019931285114467351 -0.00069263279027387378 0 -0.00087229462310869238 -0.00055801165923136564 0 0.00045172436462841733 -3.5641720708240915e-07 0 0.00020909190118567251 -4.8270486629804897e-05 0 0.0009708933212047167 -0.00031689504317714852 0 0.00020909190118567251 -4.8270486629804897e-05 0 0.0010808052196073158 -0.00071996811637121169 0 0.0009708933212047167 -0.00031689504317714852 0 0.0011271566227510329 -0.0010468761806356069 0 0.00020909190118567251 -4.8270486629804897e-05 0 0.0010808052196073158 -0.00071996811637121169 0 -0.00087229462310869238 -0.00055801165923136564 0 -0.00048615150438484155 -0.00047954401175568317 0 -0.001476557706544576 0.0002373764258759538 0 0.00020909190118567251 -4.8270486629804897e-05 0 -0.00065080460767462172 -0.00019498182737867799 0 0.0010808052196073158 -0.00071996811637121169 0 0.001423012595211903 -0.00049172651126391722 0 0.0009708933212047167 -0.00031689504317714852 0 0.001423012595211903 -0.00049172651126391722 0 0.0009708933212047167 -0.00031689504317714852 0 0.0019069553176320946 -6.7074274524420504e-07 0 0.00045172436462841733 -3.5641720708240915e-07 0 0.0009708933212047167 -0.00031689504317714852 0 0.0019069553176320946 -6.7074274524420504e-07 0 0.001423012595211903 -0.00049172651126391722 0 0.0019069553176320946 -6.7074274524420504e-07 0 0.0022287098192873751 -7.9365897213814647e-05 0 0.0019069553176320946 -6.7074274524420504e-07 0 0.0022287098192873751 -7.9365897213814647e-05 0 0.0033613957798015372 1.677384772203629e-07 0 0.0022287098192873751 -7.9365897213814647e-05 0 0.0033613957798015372 1.677384772203629e-07 0 0.0030955003466095195 0.00018000493546863202 0 0.0033613957798015372 1.677384772203629e-07 0 0.0030955003466095195 0.00018000493546863202 0 0.0048165306512409712 4.1576048325166981e-07 0 0.0030955003466095195 0.00018000493546863202 0 0.0048165306512409712 4.1576048325166981e-07 0 0.0036140678620105943 0.00037327918340869986 0 0.0022287098192873751 -7.9365897213814647e-05 0 0.0030955003466095195 0.00018000493546863202 0 0.0018879203519446045 0.0006295757171988338 0 0.0018879203519446045 0.0006295757171988338 0 0.0029061782649537002 0.0007133257719359673 0 0.0036140678620105943 0.00037327918340869986 0 0.0016929839678329187 0.00031684996624080971 0 0.0018879203519446045 0.0006295757171988338 0 0.0029061782649537002 0.0007133257719359673 0 -0.00039832905358743278 0.0032191269758356494 0 -0.00055200190718423159 0.0010991121356869332 0 0.0018879203519446045 0.0006295757171988338 0 0.00021903948675905773 0.0018643897828437531 0 0.00092012899013053451 0.0012607567753852827 0 0.0030955003466095195 0.00018000493546863202 0 0.0018879203519446045 0.0006295757171988338 0 0.0036140678620105943 0.00037327918340869986 0 0.0029061782649537002 0.0007133257719359673 0 0.0046953060232822474 0.0011489816930085523 0 0.0036140678620105943 0.00037327918340869986 0 0.0013510888898773405 0.0014911755304709735 0 0.0016929839678329187 0.00031684996624080971 0 0.0029061782649537002 0.0007133257719359673 0 0.0035959901841422755 0.0022274623280867196 0 0.0029061782649537002 0.0007133257719359673 0 0.0019953560899681551 0.0025830700159157763 0 0.0013510888898773405 0.0014911755304709735 0 0.0029061782649537002 0.0007133257719359673 0 0.0019953560899681551 0.0025830700159157763 0 0.0035959901841422755 0.0022274623280867196 0 0.0029061782649537002 0.0007133257719359673 0 0.0046953060232822474 0.0011489816930085523 0 0.0054041536142056777 0.00054094229027839039 0 0.0046953060232822474 0.0011489816930085523 0 0.0051620425253351074 0.00046392964980983991 0 0.0046953060232822474 0.0011489816930085523 0 0.0051620425253351074 0.00046392964980983991 0 0.0036140678620105943 0.00037327918340869986 0 0.0062709055652924138 7.0266274437611791e-07 0 0.0051620425253351074 0.00046392964980983991 0 0.0048165306512409712 4.1576048325166981e-07 0 0.0062709055652924138 7.0266274437611791e-07 0 0.0058903103687248477 0.00027598304931184236 0 0.0051620425253351074 0.00046392964980983991 0 0.0051620425253351074 0.00046392964980983991 0 0.0048165306512409712 4.1576048325166981e-07 0 0.0036140678620105943 0.00037327918340869986 0 -0.010327919056788867 -0.0038488734343784469 0 -0.010295269123617159 -0.0038574550062653967 0 -0.010333440575311107 -0.0038673565050203803 0 -0.010295269123617159 -0.0038574550062653967 0 -0.010333440575311107 -0.0038673565050203803 0 -0.010282665781672541 -0.0038783590353521948 0 -0.010333440575311107 -0.0038673565050203803 0 -0.010282665781672541 -0.0038783590353521948 0 -0.010323289388705838 -0.0038995574057634568 0 -0.010333440575311107 -0.0038673565050203803 0 -0.010361066258243491 -0.0038514125941726198 0 -0.010387039149622851 -0.0038821041473349406 0 -0.010361066258243491 -0.0038514125941726198 0 -0.010387039149622851 -0.0038821041473349406 0 -0.010398431341694173 -0.0038528773154413469 0 -0.010361066258243491 -0.0038514125941726198 0 -0.010375620439195342 -0.003830197698429873 0 -0.010398431341694173 -0.0038528773154413469 0 -0.010344758305958952 -0.0038393822458382713 0 -0.010361066258243491 -0.0038514125941726198 0 -0.010375620439195342 -0.003830197698429873 0 -0.010327919056788867 -0.0038488734343784469 0 -0.010344758305958952 -0.0038393822458382713 0 -0.010361066258243491 -0.0038514125941726198 0 -0.010327919056788867 -0.0038488734343784469 0 -0.010333440575311107 -0.0038673565050203803 0 -0.010361066258243491 -0.0038514125941726198 0 -0.010375620439195342 -0.003830197698429873 0 -0.010313344057644759 -0.0038277491034760733 0 -0.01040661237741854 -0.0038186480227652563 0 0.0054356568384610554 -0.0033116330029290091 0 0.0053282083623004215 -0.0032746110183374333 0 0.0055385781246259291 -0.0032754576558038139 0 -0.0012677493006394707 -0.0025898565414368868 0 -0.0019054130828860178 -0.0036015628349559238 0 -0.010344758305958952 -0.0038393822458382713 0 -0.010375620439195342 -0.003830197698429873 0 -0.010313344057644759 -0.0038277491034760733 0 0.0054356568384610554 -0.0033116330029290091 0 0.0055015636420059841 -0.0033429809110128573 0 0.0054603561171719089 -0.0033715183503793046 0 0.0054356568384610554 -0.0033116330029290091 0 0.0053962148438090728 -0.0033816187835825069 0 0.0054603561171719089 -0.0033715183503793046 0 0.0054356568384610554 -0.0033116330029290091 0 0.0053768639190089704 -0.0033049180770315044 0 0.0053282083623004215 -0.0032746110183374333 0 0.0054356568384610554 -0.0033116330029290091 0 0.0053768639190089704 -0.0033049180770315044 0 0.0053962148438090728 -0.0033816187835825069 0 0.0053768639190089704 -0.0033049180770315044 0 0.0053567831065787982 -0.0033442972677420429 0 0.0053962148438090728 -0.0033816187835825069 0 0.0053768639190089704 -0.0033049180770315044 0 0.0053567831065787982 -0.0033442972677420429 0 0.0053471913359604689 -0.0033027688344984276 0 0.0053291002365294833 -0.003297136107398381 0 0.0053282083623004215 -0.0032746110183374333 0 0.0052465665003439011 -0.0032617945591886543 0 0.0053567831065787982 -0.0033442972677420429 0 0.0053291002365294833 -0.003297136107398381 0 0.0053471913359604689 -0.0033027688344984276 0 0.0053768639190089704 -0.0033049180770315044 0 0.0053471913359604689 -0.0033027688344984276 0 0.0053282083623004215 -0.0032746110183374333 0 0.0053291002365294833 -0.003297136107398381 0 0.0053471913359604689 -0.0033027688344984276 0 0.0053282083623004215 -0.0032746110183374333 0 -0.010327919056788867 -0.0038488734343784469 0 -0.010295269123617159 -0.0038574550062653967 0 -0.010313344057644759 -0.0038277491034760733 0 -0.010327919056788867 -0.0038488734343784469 0 -0.010344758305958952 -0.0038393822458382713 0 -0.010313344057644759 -0.0038277491034760733 0 -0.0012677493006394707 -0.0025898565414368868 0 0.0056278321139243493 -0.00074712476564210467 0 -0.010295269123617159 -0.0038574550062653967 0 -0.010313344057644759 -0.0038277491034760733 0 -0.010232267303090877 -0.0038776468691187511 0 0.0056278321139243493 -0.00074712476564210467 0 0.01049642367715125 -0.0022866854594661016 0 0.0053291002365294833 -0.003297136107398381 0 0.0052465665003439011 -0.0032617945591886543 0 0.0053049366739470576 -0.0033312986710988227 0 0.019912917435276557 -0.00067597672427693802 0 0.02009102521929923 -0.00050307429239674522 0 0.020230966915489829 -0.00061793036311308684 0 0.0056278321139243493 -0.00074712476564210467 0 0.011847221366745164 0.00035250785449763493 0 0.0056278321139243493 -0.00074712476564210467 0 0.00076244226293671158 0.00071123943829282826 0 -0.010232267303090877 -0.0038776468691187511 0 -0.010246800925667009 -0.0039038874621197713 0 -0.010272577904570071 -0.0039360209268493639 0 -0.010232267303090877 -0.0038776468691187511 0 -0.010282665781672541 -0.0038783590353521948 0 -0.010246800925667009 -0.0039038874621197713 0 -0.010295269123617159 -0.0038574550062653967 0 -0.010232267303090877 -0.0038776468691187511 0 -0.010282665781672541 -0.0038783590353521948 0 -0.010282665781672541 -0.0038783590353521948 0 -0.010246800925667009 -0.0039038874621197713 0 -0.010323289388705838 -0.0038995574057634568 0 -0.010246800925667009 -0.0039038874621197713 0 -0.010279654330641945 -0.0039187040555873614 0 -0.010323289388705838 -0.0038995574057634568 0 -0.010246800925667009 -0.0039038874621197713 0 -0.010201453315250441 -0.0038778123336030085 0 -0.010294553933368924 -0.0038982310258918536 0 -0.010246800925667009 -0.0039038874621197713 0 -0.010272577904570071 -0.0039360209268493639 0 -0.010294553933368924 -0.0038982310258918536 0 -0.010201453315250441 -0.0038778123336030085 0 -0.010294553933368924 -0.0038982310258918536 0 -0.010379061743450038 -0.0037551436543875535 0 -0.010201453315250441 -0.0038778123336030085 0 -0.010279654330641945 -0.0039187040555873614 0 -0.010300890513432085 -0.0040022318261599974 0 -0.010246800925667009 -0.0039038874621197713 0 -0.010201453315250441 -0.0038778123336030085 0 -0.010279654330641945 -0.0039187040555873614 0 -0.010279654330641945 -0.0039187040555873614 0 -0.010386350842308146 -0.0039851705220710397 0 -0.010300890513432085 -0.0040022318261599974 0 -0.010279654330641945 -0.0039187040555873614 0 -0.010386350842308146 -0.0039851705220710397 0 -0.010323289388705838 -0.0038995574057634568 0 -0.010333440575311107 -0.0038673565050203803 0 -0.010323289388705838 -0.0038995574057634568 0 -0.010387039149622851 -0.0038821041473349406 0 -0.010323289388705838 -0.0038995574057634568 0 -0.010387039149622851 -0.0038821041473349406 0 -0.010433812704875742 -0.0039347693998671752 0 -0.010386350842308146 -0.0039851705220710397 0 -0.010323289388705838 -0.0038995574057634568 0 -0.010433812704875742 -0.0039347693998671752 0 -0.010386350842308146 -0.0039851705220710397 0 -0.010433812704875742 -0.0039347693998671752 0 -0.010486741573832737 -0.0039991921723670732 0 -0.010433812704875742 -0.0039347693998671752 0 -0.01052613717753609 -0.0039517529557467779 0 -0.010486741573832737 -0.0039991921723670732 0 -0.01064924230974096 -0.004536911749659569 0 -0.010508451239522727 -0.0045179287464174964 0 -0.010600033330240104 -0.0044400565047331298 0 -0.01064924230974096 -0.004536911749659569 0 -0.010508451239522727 -0.0045179287464174964 0 -0.010596602034510351 -0.0046974901809392691 0 -0.01052613717753609 -0.0039517529557467779 0 -0.010451248180975981 -0.0038895936269890542 0 -0.01050481382559377 -0.0038677546868642046 0 -0.0078679806240639881 -0.0039836905151966369 0 -0.0051906096856782439 -0.0045255247435876311 0 -0.010433812704875742 -0.0039347693998671752 0 -0.01052613717753609 -0.0039517529557467779 0 -0.010451248180975981 -0.0038895936269890542 0 -0.010387039149622851 -0.0038821041473349406 0 -0.010433812704875742 -0.0039347693998671752 0 -0.010451248180975981 -0.0038895936269890542 0 -0.0018691739661227389 -0.0034480529885878171 0 -0.0016817419369021314 -0.0038330733588386227 0 -0.010468924880033063 -0.004508230166033033 0 -0.010508451239522727 -0.0045179287464174964 0 -0.010494147048063765 -0.0044720990423801283 0 -0.010468924880033063 -0.004508230166033033 0 -0.010508451239522727 -0.0045179287464174964 0 -0.010522305739611803 -0.0044605339164520263 0 -0.010508451239522727 -0.0045179287464174964 0 -0.010494147048063765 -0.0044720990423801283 0 -0.010373842826371514 -0.0044296670254400806 0 -0.0073371173136028908 -0.0055566943198485158 0 -0.0051906096856782439 -0.0045255247435876311 0 0.0058064335032400145 -0.0020065163149194029 0 0.0054746832776389701 -0.0026014911098527185 0 0.0058275264701452617 -0.0025112872890872633 0 0.0054746832776389701 -0.0026014911098527185 0 0.0058275264701452617 -0.0025112872890872633 0 0.0057352416830060478 -0.0028593251173150308 0 0.0060041817545146096 -0.0027521508019471806 0 0.0058275264701452617 -0.0025112872890872633 0 0.0057352416830060478 -0.0028593251173150308 0 0.0054746832776389701 -0.0026014911098527185 0 0.0057352416830060478 -0.0028593251173150308 0 0.0054858168237057374 -0.0030104425783152537 0 0.0059976011067390655 -0.0029879326278046433 0 0.0057352416830060478 -0.0028593251173150308 0 0.005719447349376708 -0.0032250384501346886 0 0.0057352416830060478 -0.0028593251173150308 0 0.0054858168237057374 -0.0030104425783152537 0 0.005719447349376708 -0.0032250384501346886 0 -0.0016817419369021314 -0.0038330733588386227 0 -0.00077291744283081707 -0.0040899440382413908 0 -0.010494147048063765 -0.0044720990423801283 0 -0.010405999989386064 -0.0043290305085038816 0 -0.010373842826371514 -0.0044296670254400806 0 0.0054746832776389701 -0.0026014911098527185 0 0.0054858168237057374 -0.0030104425783152537 0 0.00512048470713862 -0.0032363843597738896 0 0.0053656035970865408 -0.0031656319464693486 0 0.0056807056586659077 -0.0033640901762820525 0 0.005863637800595344 -0.0031646108849132581 0 -0.00077291744283081707 -0.0040899440382413908 0 0.0040173558492946244 -0.003720450267806685 0 0.0054858168237057374 -0.0030104425783152537 0 0.00512048470713862 -0.0032363843597738896 0 0.005719447349376708 -0.0032250384501346886 0 0.0053656035970865408 -0.0031656319464693486 0 0.0051451313269056474 -0.0035925524834630276 0 0.005483895622397773 -0.0034742097424837765 0 0.0053656035970865408 -0.0031656319464693486 0 0.0056807056586659077 -0.0033640901762820525 0 0.005483895622397773 -0.0034742097424837765 0 0.0056807056586659077 -0.0033640901762820525 0 0.0058819765160350338 -0.0034059356255578669 0 0.005863637800595344 -0.0031646108849132581 0 0.006089240189775252 -0.0032894371921139177 0 0.0058819765160350338 -0.0034059356255578669 0 0.005863637800595344 -0.0031646108849132581 0 -0.010451248180975981 -0.0038895936269890542 0 -0.010450015017721598 -0.0038440737933802755 0 -0.01050481382559377 -0.0038677546868642046 0 -0.010450015017721598 -0.0038440737933802755 0 -0.010398431341694173 -0.0038528773154413469 0 -0.01043056532037525 -0.0037982352433923528 0 -0.010375620439195342 -0.003830197698429873 0 -0.010398431341694173 -0.0038528773154413469 0 -0.01040661237741854 -0.0038186480227652563 0 -0.0031350414122817472 -0.0028572127285162404 0 -0.0019054130828860178 -0.0036015628349559238 0 -0.010451248180975981 -0.0038895936269890542 0 -0.010450015017721598 -0.0038440737933802755 0 -0.010398431341694173 -0.0038528773154413469 0 -0.010387039149622851 -0.0038821041473349406 0 -0.010451248180975981 -0.0038895936269890542 0 -0.010398431341694173 -0.0038528773154413469 0 -0.0051906096856782439 -0.0045255247435876311 0 -0.0025502612836246158 -0.0039377088713947461 0 -0.010450015017721598 -0.0038440737933802755 0 -0.01050481382559377 -0.0038677546868642046 0 -0.010452795258836588 -0.003799441859903132 0 -0.010405999989386064 -0.0043290305085038816 0 -0.010373842826371514 -0.0044296670254400806 0 -0.010378117199642913 -0.0043284087191530693 0 -0.0051906096856782439 -0.0045255247435876311 0 -0.0022386728768816555 -0.0038876618705952657 0 -0.0038871014527955112 -0.0039019643062115526 0 -0.0038780381816529538 -0.0039289232855344155 0 -0.0039003342485996345 -0.0039286813439356966 0 -0.00077291744283081707 -0.0040899440382413908 0 0.0012593995984130732 -0.0036802803502464605 0 -0.00043476940646763266 -0.0040443918573393016 0 -0.00030698321638163812 -0.0040544311259895034 0 -0.00034129045592396406 -0.0041112311752617842 0 -0.00060053498587536432 -0.0041185184129970036 0 -0.00053442383361163319 -0.0041169421855281095 0 -0.00045381195948871004 -0.0038384066886424984 0 -0.00053442383361163319 -0.0041169421855281095 0 -0.00043476940646763266 -0.0040443918573393016 0 -0.00045381195948871004 -0.0038384066886424984 0 -0.00053442383361163319 -0.0041169421855281095 0 -0.00043476940646763266 -0.0040443918573393016 0 -0.00034129045592396406 -0.0041112311752617842 0 -0.0025502612836246158 -0.0039377088713947461 0 -0.0022386728768816555 -0.0038876618705952657 0 -0.00077291744283081707 -0.0040899440382413908 0 -0.0025502612836246158 -0.0039377088713947461 0 -0.00043476940646763266 -0.0040443918573393016 0 -0.00030698321638163812 -0.0040544311259895034 0 -0.00045381195948871004 -0.0038384066886424984 0 0.005560143764139964 -0.0033035885491713313 0 0.0055385781246259291 -0.0032754576558038139 0 0.0055015636420059841 -0.0033429809110128573 0 -0.0011609481800795469 -0.0035665949276769784 0 -0.0022386728768816555 -0.0038876618705952657 0 -0.0022386728768816555 -0.0038876618705952657 0 -0.0019054130828860178 -0.0036015628349559238 0 -0.010450015017721598 -0.0038440737933802755 0 -0.010452795258836588 -0.003799441859903132 0 -0.01043056532037525 -0.0037982352433923528 0 -0.00065659050862893343 -0.0042424220036167718 0 -2.7305720020623558e-05 -0.0031801949018247615 0 -0.001385277910259366 -0.00320107786152546 0 -0.0011609481800795469 -0.0035665949276769784 0 -0.0019054130828860178 -0.0036015628349559238 0 0.0054356568384610554 -0.0033116330029290091 0 0.0055385781246259291 -0.0032754576558038139 0 0.0055015636420059841 -0.0033429809110128573 0 0.0055015636420059841 -0.0033429809110128573 0 0.0055079989398454689 -0.0034540452917105609 0 0.0054603561171719089 -0.0033715183503793046 0 0.0056375909996403519 -0.0033003283901184418 0 0.0055360783058815794 -0.0034911286273658589 0 0.0056482287817961789 -0.0034891442819260884 0 0.005560143764139964 -0.0033035885491713313 0 0.0055015636420059841 -0.0033429809110128573 0 0.0055079989398454689 -0.0034540452917105609 0 -0.0011609481800795469 -0.0035665949276769784 0 0.0016757865355752537 -0.0025129517991465005 0 0.0055360783058815794 -0.0034911286273658589 0 0.0056482287817961789 -0.0034891442819260884 0 0.0056008351396362585 -0.0035870299779659346 0 0.0056375909996403519 -0.0033003283901184418 0 0.0056482287817961789 -0.0034891442819260884 0 0.00576393900923823 -0.0034669678678578299 0 -0.0011609481800795469 -0.0035665949276769784 0 0.0012593995984130732 -0.0036802803502464605 0 0.0012593995984130732 -0.0036802803502464605 0 0.003662261720385519 -0.0041720199163589426 0 0.0056482287817961789 -0.0034891442819260884 0 0.00576393900923823 -0.0034669678678578299 0 0.0057121944486090105 -0.0035987716643690747 0 0.0012593995984130732 -0.0036802803502464605 0 0.0017146616074743041 -0.0033549001886062735 0 0.0057121944486090105 -0.0035987716643690747 0 0.0057975663851116029 -0.0037172215369236598 0 0.0059024011367373929 -0.0036332611644315053 0 0.0057776850451132858 -0.0034624617327802727 0 0.0057121944486090105 -0.0035987716643690747 0 0.0059024011367373929 -0.0036332611644315053 0 0.0057975663851116029 -0.0037172215369236598 0 0.0059024011367373929 -0.0036332611644315053 0 0.0058411613043415998 -0.0038475573851693024 0 0.0057121944486090105 -0.0035987716643690747 0 0.0057975663851116029 -0.0037172215369236598 0 0.0057315996933432964 -0.0037820648593834675 0 0.0057121944486090105 -0.0035987716643690747 0 0.0055972175867264077 -0.0037162979414175081 0 0.0057315996933432964 -0.0037820648593834675 0 0.0055972175867264077 -0.0037162979414175081 0 0.0055375362639909281 -0.0036168473522013435 0 0.0056008351396362585 -0.0035870299779659346 0 0.0055972175867264077 -0.0037162979414175081 0 0.0055375362639909281 -0.0036168473522013435 0 0.0054178248994182403 -0.0036779251505847242 0 0.0055360783058815794 -0.0034911286273658589 0 0.0055375362639909281 -0.0036168473522013435 0 0.0056008351396362585 -0.0035870299779659346 0 0.0056482287817961789 -0.0034891442819260884 0 0.0057121944486090105 -0.0035987716643690747 0 0.0056008351396362585 -0.0035870299779659346 0 0.0057121944486090105 -0.0035987716643690747 0 0.0055972175867264077 -0.0037162979414175081 0 0.0056008351396362585 -0.0035870299779659346 0 0.006208054230127498 -0.0036514154868186304 0 0.0058037984371037887 -0.0036069250860878018 0 0.0060260676009296736 -0.0038345516578830053 0 0.006113026642575404 -0.0034807895594695581 0 0.0058819765160350338 -0.0034059356255578669 0 0.0058037984371037887 -0.0036069250860878018 0 0.0056807056586659077 -0.0033640901762820525 0 0.0058819765160350338 -0.0034059356255578669 0 0.0058037984371037887 -0.0036069250860878018 0 0.0058037984371037887 -0.0036069250860878018 0 0.0055254728754318061 -0.0037101883185631018 0 0.0057696499453837001 -0.0039202307157456869 0 0.0051451313269056474 -0.0035925524834630276 0 0.0055254728754318061 -0.0037101883185631018 0 0.005366487535947994 -0.0039013983403382723 0 0.0051451313269056474 -0.0035925524834630276 0 0.0055254728754318061 -0.0037101883185631018 0 0.005483895622397773 -0.0034742097424837765 0 0.0058037984371037887 -0.0036069250860878018 0 0.0055254728754318061 -0.0037101883185631018 0 0.005483895622397773 -0.0034742097424837765 0 0.0056807056586659077 -0.0033640901762820525 0 0.0058037984371037887 -0.0036069250860878018 0 0.005483895622397773 -0.0034742097424837765 0 0.005366487535947994 -0.0039013983403382723 0 0.0057696499453837001 -0.0039202307157456869 0 0.0055862820882280461 -0.0042150093613311226 0 0.0055254728754318061 -0.0037101883185631018 0 0.005366487535947994 -0.0039013983403382723 0 0.0057696499453837001 -0.0039202307157456869 0 0.003662261720385519 -0.0041720199163589426 0 0.0051781497597540201 -0.0041899015169703886 0 0.0061277286028769201 -0.004058188448812468 0 0.0057696499453837001 -0.0039202307157456869 0 0.0060260676009296736 -0.0038345516578830053 0 0.0061277286028769201 -0.004058188448812468 0 0.0057696499453837001 -0.0039202307157456869 0 0.0055862820882280461 -0.0042150093613311226 0 0.0058037984371037887 -0.0036069250860878018 0 0.0057696499453837001 -0.0039202307157456869 0 0.0060260676009296736 -0.0038345516578830053 0 0.0065004798171659096 -0.003932135797796151 0 0.0063249122202910235 -0.0038748111477122024 0 0.0063926950844095569 -0.0039897015238286922 0 0.006099800016483972 -0.0039647207703984253 0 0.0051781497597540201 -0.0041899015169703886 0 0.0065985196418913792 -0.0038432578186028501 0 0.0065004798171659096 -0.003932135797796151 0 0.0063249122202910235 -0.0038748111477122024 0 0.0062648403445274576 -0.0037916672857596749 0 0.006165111621006328 -0.004073471360714829 0 0.0063926950844095569 -0.0039897015238286922 0 0.0059024011367373929 -0.0036332611644315053 0 0.0060146742993801633 -0.003796041776013425 0 0.0058411613043415998 -0.0038475573851693024 0 0.0062648403445274576 -0.0037916672857596749 0 0.006165111621006328 -0.004073471360714829 0 0.0059913083457067522 -0.0038543402773038625 0 0.0051781497597540201 -0.0041899015169703886 0 0.0052968178053195529 -0.0042364026023639862 0 0.0051781497597540201 -0.0041899015169703886 0 0.0055784348291156175 -0.0040448550276377913 0 0.0059679949823269289 -0.0042738575133988424 0 0.0063730137642183243 -0.0042527566051127619 0 0.006165111621006328 -0.004073471360714829 0 0.0063730137642183243 -0.0042527566051127619 0 0.006165111621006328 -0.004073471360714829 0 0.0063926950844095569 -0.0039897015238286922 0 0.0066085608895586076 -0.0042698890424941113 0 0.0063730137642183243 -0.0042527566051127619 0 0.0065408112656406064 -0.0040767707472824976 0 0.0063730137642183243 -0.0042527566051127619 0 0.0063926950844095569 -0.0039897015238286922 0 0.0065408112656406064 -0.0040767707472824976 0 0.0065004798171659096 -0.003932135797796151 0 0.0063926950844095569 -0.0039897015238286922 0 0.0065408112656406064 -0.0040767707472824976 0 0.0055972175867264077 -0.0037162979414175081 0 0.0055870760910719033 -0.0039126277251865481 0 0.0054178248994182403 -0.0036779251505847242 0 0.0056935254383878456 -0.0039201269477259814 0 0.0056536887466807663 -0.0038302176342264334 0 0.0057315996933432964 -0.0037820648593834675 0 0.0056935254383878456 -0.0039201269477259814 0 0.0055870760910719033 -0.0039126277251865481 0 0.0056536887466807663 -0.0038302176342264334 0 0.0055972175867264077 -0.0037162979414175081 0 0.0055870760910719033 -0.0039126277251865481 0 0.0056536887466807663 -0.0038302176342264334 0 0.0055972175867264077 -0.0037162979414175081 0 0.0056536887466807663 -0.0038302176342264334 0 0.0057315996933432964 -0.0037820648593834675 0 0.0057975663851116029 -0.0037172215369236598 0 0.0057315996933432964 -0.0037820648593834675 0 0.0058411613043415998 -0.0038475573851693024 0 0.0056935254383878456 -0.0039201269477259814 0 0.0057315996933432964 -0.0037820648593834675 0 0.0058411613043415998 -0.0038475573851693024 0 0.0056405182528548418 -0.0040178097862023877 0 0.0055784348291156175 -0.0040448550276377913 0 0.0059679949823269289 -0.0042738575133988424 0 0.006165111621006328 -0.004073471360714829 0 0.0059913083457067522 -0.0038543402773038625 0 0.0059679949823269289 -0.0042738575133988424 0 0.0056935254383878456 -0.0039201269477259814 0 0.0059913083457067522 -0.0038543402773038625 0 0.0059679949823269289 -0.0042738575133988424 0 0.0056935254383878456 -0.0039201269477259814 0 0.0055870760910719033 -0.0039126277251865481 0 0.012275661958409609 -0.0021124345428049553 0 0.012302448769567953 -0.0021034663310548242 0 0.018577801246588824 6.9240501593354162e-06 0 0.01892915455099712 -0.00034186834777226991 0 0.018969662306166594 -5.0687836997499173e-05 0 0.01892915455099712 -0.00034186834777226991 0 0.018969662306166594 -5.0687836997499173e-05 0 0.019167599795688692 -0.00025513826567456939 0 0.019120501683196782 0.00019819530095202981 0 0.018969662306166594 -5.0687836997499173e-05 0 0.019167599795688692 -0.00025513826567456939 0 0.019467683515283919 0.00021091739171567192 0 0.019350964728228757 6.3164225048674842e-06 0 0.019561849752449643 -7.0538412017805773e-05 0 0.019467683515283919 0.00021091739171567192 0 0.019561849752449643 -7.0538412017805773e-05 0 0.019715216278091766 8.8487644672747783e-05 0 0.019561849752449643 -7.0538412017805773e-05 0 0.019450974412790322 -0.00030813166709779758 0 0.019743792030336393 -0.00019723107610317543 0 0.019561849752449643 -7.0538412017805773e-05 0 0.019743792030336393 -0.00019723107610317543 0 0.019715216278091766 8.8487644672747783e-05 0 0.012302448769567953 -0.0021034663310548242 0 0.012362458171241186 -0.0020826604329971061 0 0.019350964728228757 6.3164225048674842e-06 0 0.019561849752449643 -7.0538412017805773e-05 0 0.019450974412790322 -0.00030813166709779758 0 0.01892915455099712 -0.00034186834777226991 0 0.019167599795688692 -0.00025513826567456939 0 0.019225140933997263 -0.00066319600056864779 0 0.0055870760910719033 -0.0039126277251865481 0 0.0053491713831895346 -0.0036387183099925347 0 0.0054178248994182403 -0.0036779251505847242 0 0.015770169407522475 -0.00086684706688289681 0 0.012362458171241186 -0.0020826604329971061 0 0.0055360783058815794 -0.0034911286273658589 0 0.0055375362639909281 -0.0036168473522013435 0 0.0054178248994182403 -0.0036779251505847242 0 0.0055079989398454689 -0.0034540452917105609 0 0.0054099912208908649 -0.0035215650747539707 0 0.0054178248994182403 -0.0036779251505847242 0 0.0016757865355752537 -0.0025129517991465005 0 0.0023926897438723009 -0.0024193638034196497 0 0.012362458171241186 -0.0020826604329971061 0 0.010777151606799071 -0.0023281369807186636 0 0.0054099912208908649 -0.0035215650747539707 0 0.0053491713831895346 -0.0036387183099925347 0 0.0053230167048706339 -0.0034548646481545355 0 0.0054099912208908649 -0.0035215650747539707 0 0.0053491713831895346 -0.0036387183099925347 0 0.0054178248994182403 -0.0036779251505847242 0 0.019450974412790322 -0.00030813166709779758 0 0.019694407596622263 -0.00050200007257439328 0 0.019743792030336393 -0.00019723107610317543 0 0.012362458171241186 -0.0020826604329971061 0 0.01049642367715125 -0.0022866854594661016 0 0.0053928680749868018 -0.0034044090139916687 0 0.0053652875950005174 -0.0033424467063091221 0 0.0053049366739470576 -0.0033312986710988227 0 0.0053291002365294833 -0.003297136107398381 0 0.0053652875950005174 -0.0033424467063091221 0 0.0053049366739470576 -0.0033312986710988227 0 0.0053567831065787982 -0.0033442972677420429 0 0.0053291002365294833 -0.003297136107398381 0 0.0053230167048706339 -0.0034548646481545355 0 0.010279732209180556 -0.0023952642234488166 0 0.010777151606799071 -0.0023281369807186636 0 0.0053567831065787982 -0.0033442972677420429 0 0.0053230167048706339 -0.0034548646481545355 0 0.0053962148438090728 -0.0033816187835825069 0 0.0055079989398454689 -0.0034540452917105609 0 0.0053962148438090728 -0.0033816187835825069 0 0.0054603561171719089 -0.0033715183503793046 0 0.0055079989398454689 -0.0034540452917105609 0 0.0054099912208908649 -0.0035215650747539707 0 0.0053962148438090728 -0.0033816187835825069 0 0.0054099912208908649 -0.0035215650747539707 0 0.0053230167048706339 -0.0034548646481545355 0 0.0053962148438090728 -0.0033816187835825069 0 0.019912917435276557 -0.00067597672427693802 0 0.02009102521929923 -0.00050307429239674522 0 0.019694407596622263 -0.00050200007257439328 0 0.02009102521929923 -0.00050307429239674522 0 0.019694407596622263 -0.00050200007257439328 0 0.020024423308012337 -0.00032202432316457054 0 0.019694407596622263 -0.00050200007257439328 0 0.020024423308012337 -0.00032202432316457054 0 0.019743792030336393 -0.00019723107610317543 0 0.020024423308012337 -0.00032202432316457054 0 0.020009313050479666 -3.6813697641809849e-05 0 0.020186871369063341 -0.00017406828719353449 0 0.020024423308012337 -0.00032202432316457054 0 0.019743792030336393 -0.00019723107610317543 0 0.020009313050479666 -3.6813697641809849e-05 0 0.019743792030336393 -0.00019723107610317543 0 0.019715216278091766 8.8487644672747783e-05 0 0.020009313050479666 -3.6813697641809849e-05 0 0.019922751759247074 0.00019357255786836016 0 0.019715216278091766 8.8487644672747783e-05 0 0.020009313050479666 -3.6813697641809849e-05 0 0.020168209665775066 0.0002970645925670462 0 0.019922751759247074 0.00019357255786836016 0 0.020009313050479666 -3.6813697641809849e-05 0 0.020168209665775066 0.0002970645925670462 0 0.020009313050479666 -3.6813697641809849e-05 0 0.020353690425176232 -3.9016207518861728e-05 0 0.020353690425176232 -3.9016207518861728e-05 0 0.020186871369063341 -0.00017406828719353449 0 0.02034664133970698 -0.00028762994693816608 0 0.020009313050479666 -3.6813697641809849e-05 0 0.020353690425176232 -3.9016207518861728e-05 0 0.020186871369063341 -0.00017406828719353449 0 0.020353690425176232 -3.9016207518861728e-05 0 0.020552417894775646 -0.00016672957985495968 0 0.02034664133970698 -0.00028762994693816608 0 0.020353690425176232 -3.9016207518861728e-05 0 0.02066719837276295 4.5331866219142012e-05 0 0.020552417894775646 -0.00016672957985495968 0 0.020494556789922944 0.0002687402477804542 0 0.020353690425176232 -3.9016207518861728e-05 0 0.02066719837276295 4.5331866219142012e-05 0 0.020685194629721754 -0.00019458425464580578 0 0.020781982276017033 -0.0003117071796273702 0 0.02066719837276295 4.5331866219142012e-05 0 0.02063911570309401 -0.00016827960711776656 0 0.020552417894775646 -0.00016672957985495968 0 0.021253319423631581 0.00039416974000343878 0 0.02066719837276295 4.5331866219142012e-05 0 0.021205538466572759 -0.00021306656696214442 0 0.02063911570309401 -0.00016827960711776656 0 0.020580357224134659 -0.00032343070181747066 0 0.020640952235316517 -0.00029404906892866172 0 0.02063911570309401 -0.00016827960711776656 0 0.020552417894775646 -0.00016672957985495968 0 0.020580357224134659 -0.00032343070181747066 0 0.020552417894775646 -0.00016672957985495968 0 0.020580357224134659 -0.00032343070181747066 0 0.02034664133970698 -0.00028762994693816608 0 0.020580357224134659 -0.00032343070181747066 0 0.020363661768354264 -0.00044591908468744989 0 0.020474540801017103 -0.00050778445260680615 0 0.02009102521929923 -0.00050307429239674522 0 0.020363661768354264 -0.00044591908468744989 0 0.02034664133970698 -0.00028762994693816608 0 0.020024423308012337 -0.00032202432316457054 0 0.020186871369063341 -0.00017406828719353449 0 0.02034664133970698 -0.00028762994693816608 0 0.02009102521929923 -0.00050307429239674522 0 0.020024423308012337 -0.00032202432316457054 0 0.02034664133970698 -0.00028762994693816608 0 0.020580357224134659 -0.00032343070181747066 0 0.020363661768354264 -0.00044591908468744989 0 0.02034664133970698 -0.00028762994693816608 0 0.022367129427847743 -1.4853861396160606e-05 0 0.022117923324618108 -3.5329250934242017e-06 0 0.022458892753507251 -1.9321148474385625e-05 0 0.022367129427847743 -1.4853861396160606e-05 0 0.022374128507779516 0.00014324310052596533 0 0.022117923324618108 -3.5329250934242017e-06 0 0.022150517848703057 0.00027118025842088358 0 0.02237801463387409 0.00035150772248313059 0 0.022374128507779516 0.00014324310052596533 0 0.021719870308878401 0.00021785816169795751 0 0.022150517848703057 0.00027118025842088358 0 0.022117923324618108 -3.5329250934242017e-06 0 0.022150517848703057 0.00027118025842088358 0 0.022374128507779516 0.00014324310052596533 0 0.022117923324618108 -3.5329250934242017e-06 0 0.021719870308878401 0.00021785816169795751 0 0.021205538466572759 -0.00021306656696214442 0 0.021631899457829624 -0.00042681359824965832 0 0.021719870308878401 0.00021785816169795751 0 0.021983938493911961 -0.00025429938112409814 0 0.021631899457829624 -0.00042681359824965832 0 0.021983938493911961 -0.00025429938112409814 0 0.021631899457829624 -0.00042681359824965832 0 0.021944906479378457 -0.00055979728011978013 0 0.021363737181685365 -0.00026399602559911301 0 0.02126309982727205 -0.00052711260087648826 0 0.020781982276017033 -0.0003117071796273702 0 0.020854469233843525 -0.00053094488205802535 0 0.020580357224134659 -0.00032343070181747066 0 0.020640952235316517 -0.00029404906892866172 0 0.020612259703279033 -0.0003371103491729616 0 0.020580357224134659 -0.00032343070181747066 0 0.020612259703279033 -0.0003371103491729616 0 0.020593817221866033 -0.0003976632044449489 0 0.020612259703279033 -0.0003371103491729616 0 0.020557339539380003 -0.00036602785262273939 0 0.020517747549078317 -0.00031082620557272133 0 0.020612259703279033 -0.0003371103491729616 0 0.020517747549078317 -0.00031082620557272133 0 0.020574807176784959 -0.00028916326246051561 0 0.020640952235316517 -0.00029404906892866172 0 0.020612259703279033 -0.0003371103491729616 0 0.020557339539380003 -0.00036602785262273939 0 0.020854469233843525 -0.00053094488205802535 0 0.020625951133532796 -0.00074782805925820563 0 0.02126309982727205 -0.00052711260087648826 0 0.020329502479099874 -0.00088571259346763092 0 0.021983938493911961 -0.00025429938112409814 0 0.021944906479378457 -0.00055979728011978013 0 0.022120283060398902 -0.00055394912281109016 0 0.020625951133532796 -0.00074782805925820563 0 0.019440513107149653 -0.00072313917252398515 0 0.020557339539380003 -0.00036602785262273939 0 0.020517747549078317 -0.00031082620557272133 0 0.020368963250541886 -0.00033621686509295893 0 0.020517747549078317 -0.00031082620557272133 0 0.020368963250541886 -0.00033621686509295893 0 0.020409603485507424 -0.00020535486556541403 0 0.021944906479378457 -0.00055979728011978013 0 0.022116517074435491 -0.00063819437579504972 0 0.022120283060398902 -0.00055394912281109016 0 0.022178385418039917 -0.00070164832671201739 0 0.022116517074435491 -0.00063819437579504972 0 0.022120283060398902 -0.00055394912281109016 0 0.022335418530695043 -0.00010853777733559209 0 0.022367129427847743 -1.4853861396160606e-05 0 0.022458892753507251 -1.9321148474385625e-05 0 -0.0015509880531466922 0.0049696790407076016 0 -0.0003737919665298748 0.0029346382367891025 0 0.00038233619871002813 0.0050988497817506754 0 0.02015015506198484 -0.00021065044312206738 0 0.020368963250541886 -0.00033621686509295893 0 0.020409603485507424 -0.00020535486556541403 0 -0.0003737919665298748 0.0029346382367891025 0 0.0013200456472970913 0.0042790641402897407 0 0.0015166232793735709 0.0030162281877726908 0 0.020517747549078317 -0.00031082620557272133 0 0.020409603485507424 -0.00020535486556541403 0 0.020574807176784959 -0.00028916326246051561 0 0.010835056862327774 0.0012418394893228997 0 0.011136150600907063 0.0012117260978822839 0 -0.0003737919665298748 0.0029346382367891025 0 0.0013200456472970913 0.0042790641402897407 0 0.00038233619871002813 0.0050988497817506754 0 0.0013200456472970913 0.0042790641402897407 0 0.0015166232793735709 0.0030162281877726908 0 0.0033613662026919159 0.0030671458524060254 0 0.020612259703279033 -0.0003371103491729616 0 0.020574807176784959 -0.00028916326246051561 0 0.020593817221866033 -0.0003976632044449489 0 0.011136150600907063 0.0012117260978822839 0 0.011879862474586042 0.001103080570319459 0 0.0013200456472970913 0.0042790641402897407 0 0.0033613662026919159 0.0030671458524060254 0 0.0034009177419831609 0.0045787898858745506 0 0.0020589776045358897 0.0052975057443857927 0 0.0034009177419831609 0.0045787898858745506 0 0.0037452524863586844 0.0059430871631170924 0 0.0013200456472970913 0.0042790641402897407 0 0.0020589776045358897 0.0052975057443857927 0 0.0034009177419831609 0.0045787898858745506 0 0.0037452524863586844 0.0059430871631170924 0 0.0039184157300738969 0.0069583539850110879 0 0.0024122782177838442 0.007379785029440253 0 0.0020589776045358897 0.0052975057443857927 0 0.0037452524863586844 0.0059430871631170924 0 0.0024122782177838442 0.007379785029440253 0 0.0020589776045358897 0.0052975057443857927 0 0.0010982644671210867 0.0062829058728711834 0 0.0024122782177838442 0.007379785029440253 0 0.0010982644671210867 0.0062829058728711834 0 0.00062641034691405357 0.0069355212392064125 0 0.0024122782177838442 0.007379785029440253 0 0.0013200456472970913 0.0042790641402897407 0 0.0020589776045358897 0.0052975057443857927 0 0.00038233619871002813 0.0050988497817506754 0 0.0020589776045358897 0.0052975057443857927 0 0.00038233619871002813 0.0050988497817506754 0 0.0010982644671210867 0.0062829058728711834 0 0.00038233619871002813 0.0050988497817506754 0 0.0010982644671210867 0.0062829058728711834 0 0.00045464774240081435 0.006078668760795808 0 0.00038233619871002813 0.0050988497817506754 0 0.00045464774240081435 0.006078668760795808 0 -0.0001846657739700441 0.0060736332474228818 0 0.0010982644671210867 0.0062829058728711834 0 0.00062641034691405357 0.0069355212392064125 0 0.00045464774240081435 0.006078668760795808 0 0.00062641034691405357 0.0069355212392064125 0 0.00045464774240081435 0.006078668760795808 0 -0.0001846657739700441 0.0060736332474228818 0 0.00062641034691405357 0.0069355212392064125 0 -0.0001846657739700441 0.0060736332474228818 0 -0.0012096959788636293 0.0065364388150317386 0 -0.0047511870451774811 0.0037971609311211138 0 -0.0050025794378330815 0.004815765543428583 0 -0.0015509880531466922 0.0049696790407076016 0 0.00038233619871002813 0.0050988497817506754 0 -0.0001846657739700441 0.0060736332474228818 0 -0.0015509880531466922 0.0049696790407076016 0 -0.0001846657739700441 0.0060736332474228818 0 -0.0012096959788636293 0.0065364388150317386 0 0.0061222261780507917 0.0041720685354992883 0 0.0076362812028990491 0.0043022635084443575 0 0.0064955777650584573 0.0054824119254579372 0 0.0061222261780507917 0.0041720685354992883 0 0.0076362812028990491 0.0043022635084443575 0 0.00698015339543776 0.0031225144647392062 0 0.0087650282186085456 0.0031340236790095995 0 0.0076362812028990491 0.0043022635084443575 0 0.00698015339543776 0.0031225144647392062 0 0.02009102521929923 -0.00050307429239674522 0 0.020363661768354264 -0.00044591908468744989 0 0.020230966915489829 -0.00061793036311308684 0 0.0061222261780507917 0.0041720685354992883 0 0.00698015339543776 0.0031225144647392062 0 0.0051801679252473677 0.0030996778630638074 0 0.011847221366745164 0.00035250785449763493 0 0.012438446077219056 0.00086013398085409078 0 0.020363661768354264 -0.00044591908468744989 0 0.020230966915489829 -0.00061793036311308684 0 0.020474540801017103 -0.00050778445260680615 0 0.020580357224134659 -0.00032343070181747066 0 0.020593817221866033 -0.0003976632044449489 0 0.020474540801017103 -0.00050778445260680615 0 0.011879862474586042 0.001103080570319459 0 0.012438446077219056 0.00086013398085409078 0 0.0033613662026919159 0.0030671458524060254 0 0.0051801679252473677 0.0030996778630638074 0 0.0034009177419831609 0.0045787898858745506 0 0.0051801679252473677 0.0030996778630638074 0 0.0034009177419831609 0.0045787898858745506 0 0.0049895499345380548 0.0049476215552489346 0 0.0061222261780507917 0.0041720685354992883 0 0.0051801679252473677 0.0030996778630638074 0 0.0049895499345380548 0.0049476215552489346 0 0.0034009177419831609 0.0045787898858745506 0 0.0049895499345380548 0.0049476215552489346 0 0.0037452524863586844 0.0059430871631170924 0 0.0037452524863586844 0.0059430871631170924 0 0.0053384001844421873 0.0066682012389943672 0 0.0039184157300738969 0.0069583539850110879 0 0.0049895499345380548 0.0049476215552489346 0 0.0037452524863586844 0.0059430871631170924 0 0.0053384001844421873 0.0066682012389943672 0 -0.0034818570798649481 0.00068829349453718993 0 -0.0016181135105575086 0.00085945481979929296 0 -0.010744099489848382 -0.0037174805240489696 0 -0.01047583466796031 -0.0039222770462085414 0 -0.010604661095690263 -0.0036327594634845044 0 0.0061222261780507917 0.0041720685354992883 0 0.0049895499345380548 0.0049476215552489346 0 0.0064955777650584573 0.0054824119254579372 0 0.0049895499345380548 0.0049476215552489346 0 0.0053384001844421873 0.0066682012389943672 0 0.0064955777650584573 0.0054824119254579372 0 -0.010272577904570071 -0.0039360209268493639 0 -0.01047583466796031 -0.0039222770462085414 0 -0.010294553933368924 -0.0038982310258918536 0 0.00076244226293671158 0.00071123943829282826 0 -0.0016181135105575086 0.00085945481979929296 0 -0.01047583466796031 -0.0039222770462085414 0 -0.010379061743450038 -0.0037551436543875535 0 -0.010604661095690263 -0.0036327594634845044 0 -0.01047583466796031 -0.0039222770462085414 0 -0.010294553933368924 -0.0038982310258918536 0 -0.010379061743450038 -0.0037551436543875535 0 -0.010379061743450038 -0.0037551436543875535 0 -0.01047649981076243 -0.0035379643274456619 0 -0.010217865387595266 -0.0034251361266289227 0 -0.010379061743450038 -0.0037551436543875535 0 -0.01047649981076243 -0.0035379643274456619 0 -0.010604661095690263 -0.0036327594634845044 0 -0.01008826467266348 -0.004106934236885719 0 -0.010095467620845979 -0.004181127400708415 0 -0.010105418203334734 -0.0041511561364987598 0 -0.010217865387595266 -0.0034251361266289227 0 -0.010524781881754377 -0.0032131654635541231 0 -0.0104683356365535 -0.0025058610055766943 0 -0.010505356440761723 -0.0037428773141272745 0 -0.010934138796516989 -0.0034838036551075374 0 -0.01047649981076243 -0.0035379643274456619 0 -0.010217865387595266 -0.0034251361266289227 0 -0.010524781881754377 -0.0032131654635541231 0 -0.01047649981076243 -0.0035379643274456619 0 -0.010524781881754377 -0.0032131654635541231 0 -0.010690704158822955 -0.0034662711371523736 0 -0.011189215624761741 -0.0029628269442689009 0 -0.010743467462875553 -0.0029809097603396358 0 -0.010690704158822955 -0.0034662711371523736 0 -0.010524781881754377 -0.0032131654635541231 0 -0.010743467462875553 -0.0029809097603396358 0 -0.010690704158822955 -0.0034662711371523736 0 -0.010744099489848382 -0.0037174805240489696 0 -0.010604661095690263 -0.0036327594634845044 0 -0.010740424214802081 -0.0034574515276750866 0 -0.010690704158822955 -0.0034662711371523736 0 -0.010604661095690263 -0.0036327594634845044 0 -0.010740424214802081 -0.0034574515276750866 0 -0.01047649981076243 -0.0035379643274456619 0 -0.010690704158822955 -0.0034662711371523736 0 -0.010604661095690263 -0.0036327594634845044 0 0.0053384001844421873 0.0066682012389943672 0 0.0039184157300738969 0.0069583539850110879 0 0.0041733979734808338 0.0078445237743346632 0 -0.005685032296338554 0.00014058625624729132 0 -0.0077318078013685586 -0.0006835716129026246 0 -0.0034818570798649481 0.00068829349453718993 0 -0.005685032296338554 0.00014058625624729132 0 -0.010744099489848382 -0.0037174805240489696 0 -0.010926973982330114 -0.00350940041011905 0 -0.010740424214802081 -0.0034574515276750866 0 0.0039184157300738969 0.0069583539850110879 0 0.0041733979734808338 0.0078445237743346632 0 0.0024122782177838442 0.007379785029440253 0 -0.010768483481709579 -0.0034330478455011099 0 -0.01076697557715196 -0.0034293161463446629 0 -0.010768704441825733 -0.0034060674652530046 0 -0.010498829825830608 -0.0011434032220358791 0 -0.0096960856436468061 0.00040571194491696711 0 -0.005685032296338554 0.00014058625624729132 0 -0.0096960856436468061 0.00040571194491696711 0 -0.011774673844467815 -0.0032983049167261578 0 -0.012255969013900176 -0.002914939832552213 0 -0.01279649199980531 -0.0029877535615377973 0 -0.011774673844467815 -0.0032983049167261578 0 -0.01175956166302808 -0.0027747387798280998 0 -0.012255969013900176 -0.002914939832552213 0 -0.011189215624761741 -0.0029628269442689009 0 -0.010690704158822955 -0.0034662711371523736 0 -0.011774673844467815 -0.0032983049167261578 0 -0.010690704158822955 -0.0034662711371523736 0 -0.010740424214802081 -0.0034574515276750866 0 -0.01076697557715196 -0.0034293161463446629 0 -0.010768483481709579 -0.0034330478455011099 0 -0.010740424214802081 -0.0034574515276750866 0 -0.01076697557715196 -0.0034293161463446629 0 -0.010523930983999149 -0.001599094973322889 0 -0.010498829825830608 -0.0011434032220358791 0 -0.011189215624761741 -0.0029628269442689009 0 -0.011774673844467815 -0.0032983049167261578 0 -0.01175956166302808 -0.0027747387798280998 0 -0.011189215624761741 -0.0029628269442689009 0 -0.01175956166302808 -0.0027747387798280998 0 -0.011379684033606079 -0.002565658959756887 0 -0.01175956166302808 -0.0027747387798280998 0 -0.011685416521770159 -0.0023573182889159105 0 -0.011379684033606079 -0.002565658959756887 0 -0.01175956166302808 -0.0027747387798280998 0 -0.011685416521770159 -0.0023573182889159105 0 -0.012178759795230802 -0.0024112490128832338 0 -0.011685416521770159 -0.0023573182889159105 0 -0.011379684033606079 -0.002565658959756887 0 -0.011412039860274857 -0.0021408198708080892 0 -0.012437092064357653 -0.0024639297984331409 0 -0.01306559183868663 -0.0030341953529621347 0 -0.012993483536365041 -0.002113773155980137 0 -0.011457361268024956 -0.0013781968868371861 0 -0.0096960856436468061 0.00040571194491696711 0 -0.012255969013900176 -0.002914939832552213 0 -0.012178759795230802 -0.0024112490128832338 0 -0.01279649199980531 -0.0029877535615377973 0 -0.01175956166302808 -0.0027747387798280998 0 -0.012255969013900176 -0.002914939832552213 0 -0.012178759795230802 -0.0024112490128832338 0 -0.012752557809596233 -0.0016479431362218769 0 -0.01210594533693022 -0.0019063020814075258 0 -0.013218352808642475 -0.0019515320814920056 0 -0.012437092064357653 -0.0024639297984331409 0 -0.01210594533693022 -0.0019063020814075258 0 -0.012993483536365041 -0.002113773155980137 0 -0.012553163802614776 -0.00049661246997423857 0 -0.012513623715696445 -0.00024275861377872187 0 -0.012752557809596233 -0.0016479431362218769 0 -0.01210594533693022 -0.0019063020814075258 0 -0.012178244614911017 -0.0014982135504160803 0 -0.011379684033606079 -0.002565658959756887 0 -0.011412039860274857 -0.0021408198708080892 0 -0.011023223148627291 -0.0021334688683346658 0 -0.011685416521770159 -0.0023573182889159105 0 -0.011412039860274857 -0.0021408198708080892 0 -0.011653391533273808 -0.0018042724681553888 0 -0.012437092064357653 -0.0024639297984331409 0 -0.01210594533693022 -0.0019063020814075258 0 -0.011653391533273808 -0.0018042724681553888 0 -0.011685416521770159 -0.0023573182889159105 0 -0.012178759795230802 -0.0024112490128832338 0 -0.011653391533273808 -0.0018042724681553888 0 -0.011457361268024956 -0.0013781968868371861 0 -0.011669434345924736 -0.0016144399846371202 0 -0.01210594533693022 -0.0019063020814075258 0 -0.011726414937853204 -0.0015024475162988625 0 -0.012178244614911017 -0.0014982135504160803 0 -0.01210594533693022 -0.0019063020814075258 0 -0.011653391533273808 -0.0018042724681553888 0 -0.011726414937853204 -0.0015024475162988625 0 -0.011653391533273808 -0.0018042724681553888 0 -0.011358515055151053 -0.0017819728201568343 0 -0.011726414937853204 -0.0015024475162988625 0 -0.011412039860274857 -0.0021408198708080892 0 -0.011653391533273808 -0.0018042724681553888 0 -0.011358515055151053 -0.0017819728201568343 0 -0.010934138796516989 -0.0034838036551075374 0 -0.011921592273217801 -0.0030819941665161518 0 -0.011358515055151053 -0.0017819728201568343 0 -0.011023223148627291 -0.0021334688683346658 0 -0.011000599664413031 -0.0012761115490754541 0 -0.011023223148627291 -0.0021334688683346658 0 -0.0104683356365535 -0.0025058610055766943 0 -0.011000599664413031 -0.0012761115490754541 0 -0.010095467620845979 -0.004181127400708415 0 -0.010104838885440162 -0.0041775965706151007 0 -0.010113124394842563 -0.0041739124732822486 0 -0.011412039860274857 -0.0021408198708080892 0 -0.011358515055151053 -0.0017819728201568343 0 -0.011023223148627291 -0.0021334688683346658 0 -0.010104546346138062 -0.0041794706694579841 0 -0.010095467620845979 -0.004181127400708415 0 -0.010109981333596292 -0.0041758338114924977 0 -0.010104546346138062 -0.0041794706694579841 0 -0.010095467620845979 -0.004181127400708415 0 -0.010104838885440162 -0.0041775965706151007 0 -0.010104546346138062 -0.0041794706694579841 0 -0.010104838885440162 -0.0041775965706151007 0 -0.010109020815829322 -0.0041808543951752063 0 -0.010095467620845979 -0.004181127400708415 0 -0.010109981333596292 -0.0041758338114924977 0 -0.010105418203334734 -0.0041511561364987598 0 -0.010524781881754377 -0.0032131654635541231 0 -0.010743467462875553 -0.0029809097603396358 0 -0.0104683356365535 -0.0025058610055766943 0 -0.010743467462875553 -0.0029809097603396358 0 -0.0104683356365535 -0.0025058610055766943 0 -0.010920107327789287 -0.0026151183714482533 0 -0.011189215624761741 -0.0029628269442689009 0 -0.011379684033606079 -0.002565658959756887 0 -0.010920107327789287 -0.0026151183714482533 0 -0.011189215624761741 -0.0029628269442689009 0 -0.010743467462875553 -0.0029809097603396358 0 -0.010920107327789287 -0.0026151183714482533 0 -0.011379684033606079 -0.002565658959756887 0 -0.011023223148627291 -0.0021334688683346658 0 -0.010920107327789287 -0.0026151183714482533 0 -0.011023223148627291 -0.0021334688683346658 0 -0.0104683356365535 -0.0025058610055766943 0 -0.010920107327789287 -0.0026151183714482533 0 -0.0088639897064080007 0.0047243032484345551 0 -0.0089512813577648578 0.0048351141288589259 0 -0.0089801061084178145 0.0046549305072335128 0 -0.0087358705219238615 0.0046767128944626216 0 -0.0088457153871663377 0.0046163683239440947 0 -0.0088639897064080007 0.0047243032484345551 0 -0.0088457153871663377 0.0046163683239440947 0 -0.0088639897064080007 0.0047243032484345551 0 -0.0089801061084178145 0.0046549305072335128 0 -0.0087215304798675102 0.0048668407104941981 0 -0.0088639897064080007 0.0047243032484345551 0 -0.0089512813577648578 0.0048351141288589259 0 -0.0087215304798675102 0.0048668407104941981 0 -0.0088020497768597702 0.0050553459714063357 0 -0.0089512813577648578 0.0048351141288589259 0 -0.0090702548151952479 0.0049665872504474342 0 -0.0088020497768597702 0.0050553459714063357 0 -0.0089512813577648578 0.0048351141288589259 0 -0.0089512813577648578 0.0048351141288589259 0 -0.009098642264722229 0.004827076708380831 0 -0.0091113920976609135 0.0047271838149830995 0 -0.0090702548151952479 0.0049665872504474342 0 -0.009098642264722229 0.004827076708380831 0 -0.0092781967979216548 0.0047806569032845725 0 -0.0090702548151952479 0.0049665872504474342 0 -0.0089512813577648578 0.0048351141288589259 0 -0.009098642264722229 0.004827076708380831 0 -0.0089512813577648578 0.0048351141288589259 0 -0.0091113920976609135 0.0047271838149830995 0 -0.0089801061084178145 0.0046549305072335128 0 -0.0091113920976609135 0.0047271838149830995 0 -0.0089801061084178145 0.0046549305072335128 0 -0.0091685191393424403 0.0045537191321191094 0 -0.0099432943151905144 0.0030385161724314578 0 -0.010287996392388183 0.0020858069666730397 0 -0.0092535646270094345 0.00463222318183628 0 -0.0095280443505757588 0.0045435346986653947 0 -0.00917952605481623 0.0044743156151305996 0 -0.0091113920976609135 0.0047271838149830995 0 -0.0092535646270094345 0.00463222318183628 0 -0.00917952605481623 0.0044743156151305996 0 -0.0092535646270094345 0.00463222318183628 0 -0.0092781967979216548 0.0047806569032845725 0 -0.0095280443505757588 0.0045435346986653947 0 -0.0091113920976609135 0.0047271838149830995 0 -0.0092535646270094345 0.00463222318183628 0 -0.0092781967979216548 0.0047806569032845725 0 -0.0047511870451774811 0.0037971609311211138 0 -0.0030072846207776778 0.0030414544533705632 0 -0.0048793512952295878 0.0028405102233670858 0 -0.0058381892648133732 0.0019263883927579382 0 -0.0063592940839426156 0.0024112903739516803 0 -0.0047511870451774811 0.0037971609311211138 0 -0.0070889736360088594 0.0024937060006631549 0 -0.009098642264722229 0.004827076708380831 0 -0.0091113920976609135 0.0047271838149830995 0 -0.0092781967979216548 0.0047806569032845725 0 -0.005685032296338554 0.00014058625624729132 0 -0.0030072846207776778 0.0030414544533705632 0 -0.0058381892648133732 0.0019263883927579382 0 -0.0063592940839426156 0.0024112903739516803 0 -0.0067463010865074459 0.001680211443616826 0 -0.0078295948401906432 0.0019873680278543575 0 -0.0063592940839426156 0.0024112903739516803 0 -0.0067463010865074459 0.001680211443616826 0 -0.0070889736360088594 0.0024937060006631549 0 -0.0096960856436468061 0.00040571194491696711 0 -0.0058381892648133732 0.0019263883927579382 0 -0.0067463010865074459 0.001680211443616826 0 -0.006838698768827838 0.00098395968382426497 0 -0.0078295948401906432 0.0019873680278543575 0 -0.0067463010865074459 0.001680211443616826 0 -0.006838698768827838 0.00098395968382426497 0 -0.0096960856436468061 0.00040571194491696711 0 -0.011367144024235406 0.00078892722898992091 0 -0.01306559183868663 -0.0030341953529621347 0 -0.012993483536365041 -0.002113773155980137 0 -0.013806878422331664 -0.0022737232102541366 0 -0.010134081391054109 0.00072368371253826052 0 -0.011075986457941981 0.0016748091266906794 0 -0.010800268080344386 0.0011478360525176245 0 -0.012513623715696445 -0.00024275861377872187 0 -0.011367144024235406 0.00078892722898992091 0 -0.013218352808642475 -0.0019515320814920056 0 -0.013315970601206218 -0.0017443949500463329 0 -0.013296668791192501 -0.0017570124277054826 0 -0.012752557809596233 -0.0016479431362218769 0 -0.013218352808642475 -0.0019515320814920056 0 -0.013394543660872411 -0.0016655140825775523 0 -0.013218352808642475 -0.0019515320814920056 0 -0.013394543660872411 -0.0016655140825775523 0 -0.013296668791192501 -0.0017570124277054826 0 -0.013394543660872411 -0.0016655140825775523 0 -0.013296668791192501 -0.0017570124277054826 0 -0.013136790705239203 -0.0018458803877358634 0 -0.013296668791192501 -0.0017570124277054826 0 -0.013310476413363201 -0.0017350086759123759 0 -0.013136790705239203 -0.0018458803877358634 0 -0.011712516690386032 0.001174890802340301 0 -0.011871949161013041 0.0013367705031357105 0 -0.011650744697023509 0.0013697041337333757 0 -0.011389409779377167 0.00085700980655556446 0 -0.012792849967588489 0.00046538248635647714 0 -0.013315970601206218 -0.0017443949500463329 0 -0.013296668791192501 -0.0017570124277054826 0 -0.013310476413363201 -0.0017350086759123759 0 -0.011187282824645857 0.0022278140445820818 0 -0.01117383569092038 0.002269146205532513 0 -0.010909232957433856 0.001949050666805669 0 -0.011389409779377167 0.00085700980655556446 0 -0.011200569362929435 0.00098910127384795629 0 -0.01104718336374734 0.00024917153165650703 0 -0.011895496350665807 0.0011067089088865115 0 -0.012252392908360351 6.5037459607151854e-06 0 -0.011367144024235406 0.00078892722898992091 0 -0.011200569362929435 0.00098910127384795629 0 -0.011367144024235406 0.00078892722898992091 0 -0.011389409779377167 0.00085700980655556446 0 -0.011200569362929435 0.00098910127384795629 0 -0.010287996392388183 0.0020858069666730397 0 -0.0112051423931645 0.0016489478138371318 0 -0.010800268080344386 0.0011478360525176245 0 -0.011413793711679955 0.0010040317024036793 0 -0.010134081391054109 0.00072368371253826052 0 -0.010800268080344386 0.0011478360525176245 0 -0.011413793711679955 0.0010040317024036793 0 -0.0096960856436468061 0.00040571194491696711 0 -0.010287996392388183 0.0020858069666730397 0 -0.011075986457941981 0.0016748091266906794 0 -0.0112051423931645 0.0016489478138371318 0 -0.010800268080344386 0.0011478360525176245 0 -0.011200569362929435 0.00098910127384795629 0 -0.0098644622356071718 0.0024326905614145771 0 -0.010287996392388183 0.0020858069666730397 0 -0.0098644622356071718 0.0024326905614145771 0 -0.010143676774825748 0.0020756208391064881 0 -0.010169206210888218 0.0019957988843900417 0 -0.010333869055452968 0.0020403298518315541 0 -0.0089801061084178145 0.0046549305072335128 0 -0.0091685191393424403 0.0045537191321191094 0 -0.0088988431499820806 0.0044938203825554534 0 -0.01117383569092038 0.002269146205532513 0 -0.010632863788395409 0.0023828115218242573 0 -0.010909232957433856 0.001949050666805669 0 -0.011389409779377167 0.00085700980655556446 0 -0.011822393099182423 0.0015909882107452155 0 -0.010499323054612911 0.0020157221774448554 0 -0.010632863788395409 0.0023828115218242573 0 -0.010909232957433856 0.001949050666805669 0 -0.0095474274171135649 0.0026239441771552813 0 -0.0098644622356071718 0.0024326905614145771 0 -0.0088457153871663377 0.0046163683239440947 0 -0.0089801061084178145 0.0046549305072335128 0 -0.0088988431499820806 0.0044938203825554534 0 -0.0087538916190629899 0.004532124580343494 0 -0.0088457153871663377 0.0046163683239440947 0 -0.0088988431499820806 0.0044938203825554534 0 -0.011354830149708738 0.002796399974248459 0 -0.012188399386525217 0.0030312894631826476 0 -0.011794511324152841 0.003509277566733195 0 -0.012188399386525217 0.0030312894631826476 0 -0.011794511324152841 0.003509277566733195 0 -0.012458789935269582 0.0034990308613059898 0 -0.011573189241050556 0.0042996652078210627 0 -0.011794511324152841 0.003509277566733195 0 -0.012342164167203235 0.003927259928252623 0 -0.011573189241050556 0.0042996652078210627 0 -0.012342164167203235 0.003927259928252623 0 -0.012561477392970786 0.0041475582903245335 0 -0.010981148541050804 0.0023431039184416973 0 -0.011822393099182423 0.0015909882107452155 0 -0.011794511324152841 0.003509277566733195 0 -0.012342164167203235 0.003927259928252623 0 -0.012458789935269582 0.0034990308613059898 0 -0.012342164167203235 0.003927259928252623 0 -0.012742367657940653 0.00381638350609266 0 -0.012458789935269582 0.0034990308613059898 0 -0.012342164167203235 0.003927259928252623 0 -0.012553401092569935 0.0041212766750657985 0 -0.012742367657940653 0.00381638350609266 0 -0.011912971543846627 0.0017164453739205671 0 -0.011822393099182423 0.0015909882107452155 0 -0.012742367657940653 0.00381638350609266 0 -0.012458789935269582 0.0034990308613059898 0 -0.012938806876806284 0.0035526951802895149 0 -0.012458789935269582 0.0034990308613059898 0 -0.012777799816534546 0.0031494187565160826 0 -0.012938806876806284 0.0035526951802895149 0 -0.012188399386525217 0.0030312894631826476 0 -0.012458789935269582 0.0034990308613059898 0 -0.012777799816534546 0.0031494187565160826 0 -0.012188399386525217 0.0030312894631826476 0 -0.012777799816534546 0.0031494187565160826 0 -0.0128755192055419 0.0027195617458015148 0 -0.012777799816534546 0.0031494187565160826 0 -0.012938806876806284 0.0035526951802895149 0 -0.013687988114011755 0.002995501084513789 0 -0.012938806876806284 0.0035526951802895149 0 -0.013381100635706782 0.0039643533940030475 0 -0.013687988114011755 0.002995501084513789 0 -0.012553401092569935 0.0041212766750657985 0 -0.012742367657940653 0.00381638350609266 0 -0.013381100635706782 0.0039643533940030475 0 -0.011822393099182423 0.0015909882107452155 0 -0.012792849967588489 0.00046538248635647714 0 -0.012742367657940653 0.00381638350609266 0 -0.012938806876806284 0.0035526951802895149 0 -0.013381100635706782 0.0039643533940030475 0 -0.013394543660872411 -0.0016655140825775523 0 -0.013136790705239203 -0.0018458803877358634 0 -0.013779514350447292 -0.0022196614733708468 0 -0.015970004554635143 -0.0025039317266007601 0 -0.015679990818768606 -0.0024638340561483852 0 -0.015835425436974936 -0.0020377656949062046 0 -0.012792849967588489 0.00046538248635647714 0 -0.014119886747148891 -0.00035066502501100445 0 -0.015679990818768606 -0.0024638340561483852 0 -0.015835425436974936 -0.0020377656949062046 0 -0.015578035762627375 -0.002183366114559934 0 -0.012792849967588489 0.00046538248635647714 0 -0.013971732162504219 0.00031023413131608349 0 -0.013971732162504219 0.00031023413131608349 0 -0.014564822695259598 0.00022803655107581566 0 -0.015835425436974936 -0.0020377656949062046 0 -0.015766719255565938 -0.0015750339452063008 0 -0.015491858694677117 -0.0019388866481535342 0 -0.013687988114011755 0.002995501084513789 0 -0.014011550536522243 0.0022788215270510364 0 -0.013362214555956643 0.002370343704114812 0 -0.014011550536522243 0.0022788215270510364 0 -0.013362214555956643 0.002370343704114812 0 -0.013374898816536567 0.0018544277930769102 0 -0.013362214555956643 0.002370343704114812 0 -0.012595509978966494 0.0021284169166176439 0 -0.013374898816536567 0.0018544277930769102 0 -0.012777799816534546 0.0031494187565160826 0 -0.013687988114011755 0.002995501084513789 0 -0.0128755192055419 0.0027195617458015148 0 -0.013687988114011755 0.002995501084513789 0 -0.013362214555956643 0.002370343704114812 0 -0.0128755192055419 0.0027195617458015148 0 -0.012188399386525217 0.0030312894631826476 0 -0.0128755192055419 0.0027195617458015148 0 -0.011938963834588498 0.0024128909786023307 0 -0.012558778791880807 0.0022918468004798683 0 -0.012306427123543254 0.0018547239039847692 0 -0.0128755192055419 0.0027195617458015148 0 -0.011938963834588498 0.0024128909786023307 0 -0.012102190331311673 0.0015747974909574446 0 -0.013362214555956643 0.002370343704114812 0 -0.0128755192055419 0.0027195617458015148 0 -0.012595509978966494 0.0021284169166176439 0 -0.011274793808552189 0.0019633621436910779 0 -0.012102190331311673 0.0015747974909574446 0 -0.011290211913917174 0.0013793804212905852 0 -0.011274793808552189 0.0019633621436910779 0 -0.011938963834588498 0.0024128909786023307 0 -0.012102190331311673 0.0015747974909574446 0 -0.011354830149708738 0.002796399974248459 0 -0.012188399386525217 0.0030312894631826476 0 -0.011938963834588498 0.0024128909786023307 0 -0.011354830149708738 0.002796399974248459 0 -0.011274793808552189 0.0019633621436910779 0 -0.011938963834588498 0.0024128909786023307 0 -0.015030206134374068 -0.0023074398643807121 0 -0.015185053814375146 -0.0022216199907207318 0 -0.014985729166746368 -0.0020841869646473295 0 -0.015030206134374068 -0.0023074398643807121 0 -0.014740343770621158 -0.0022085718513837459 0 -0.014985729166746368 -0.0020841869646473295 0 -0.013595077122188839 -0.0027127979187407066 0 -0.014180631468854874 -0.0024332480935245911 0 -0.013591378729546019 -0.0027453026559324362 0 -0.013595077122188839 -0.0027127979187407066 0 -0.012704640477144534 -0.0030088451600979527 0 -0.012684022778436636 -0.0030032121902266429 0 -0.01269187598465314 -0.0030142938153160915 0 -0.012684022778436636 -0.0030032121902266429 0 -0.01269187598465314 -0.0030142938153160915 0 -0.012681956343273158 -0.0030165258716149004 0 -0.01269187598465314 -0.0030142938153160915 0 -0.012689635956780965 -0.003025832467302507 0 -0.012701759479347558 -0.0030158615609701981 0 -0.012681956343273158 -0.0030165258716149004 0 -0.012689635956780965 -0.003025832467302507 0 -0.012673051489871247 -0.0030301254867263418 0 -0.011660978477131675 -0.0034401797525879787 0 -0.011692294379492476 -0.0037126359387249833 0 -0.01269187598465314 -0.0030142938153160915 0 -0.012681956343273158 -0.0030165258716149004 0 -0.012689635956780965 -0.003025832467302507 0 -0.012689635956780965 -0.003025832467302507 0 -0.012701759479347558 -0.0030158615609701981 0 -0.012706814320888646 -0.0030207616106402934 0 -0.011660978477131675 -0.0034401797525879787 0 -0.011921592273217801 -0.0030819941665161518 0 -0.012704640477144534 -0.0030088451600979527 0 -0.01269187598465314 -0.0030142938153160915 0 -0.012701759479347558 -0.0030158615609701981 0 -0.012704640477144534 -0.0030088451600979527 0 -0.012701759479347558 -0.0030158615609701981 0 -0.012709226277117373 -0.0030159479979131655 0 -0.012701759479347558 -0.0030158615609701981 0 -0.012709226277117373 -0.0030159479979131655 0 -0.012706814320888646 -0.0030207616106402934 0 -0.011931383369897203 -0.0030735720757659878 0 -0.011921592273217801 -0.0030819941665161518 0 -0.011000599664413031 -0.0012761115490754541 0 -0.011726414937853204 -0.0015024475162988625 0 -0.012007071980130835 -0.0010101790384484911 0 -0.012709226277117373 -0.0030159479979131655 0 -0.012706901105208866 -0.0030199189588150589 0 -0.012727029184155889 -0.0030131028631685485 0 -0.012704640477144534 -0.0030088451600979527 0 -0.012709226277117373 -0.0030159479979131655 0 -0.012727029184155889 -0.0030131028631685485 0 -0.013591378729546019 -0.0027453026559324362 0 -0.013099419086965243 -0.0026791542522643531 0 -0.011921592273217801 -0.0030819941665161518 0 -0.013099419086965243 -0.0026791542522643531 0 -0.011358515055151053 -0.0017819728201568343 0 -0.011000599664413031 -0.0012761115490754541 0 -0.011726414937853204 -0.0015024475162988625 0 -0.011726414937853204 -0.0015024475162988625 0 -0.012007071980130835 -0.0010101790384484911 0 -0.012178244614911017 -0.0014982135504160803 0 -0.015353588028550141 -0.0023691387004927148 0 -0.015345949401624828 -0.0023200037521449958 0 -0.015185053814375146 -0.0022216199907207318 0 -0.015417437317767471 -0.0023464834714906498 0 -0.015353588028550141 -0.0023691387004927148 0 -0.015345949401624828 -0.0023200037521449958 0 -0.013116766297744917 -0.0026758183334714817 0 -0.013099419086965243 -0.0026791542522643531 0 -0.015679990818768606 -0.0024638340561483852 0 -0.015257231902813539 -0.0023879772243893499 0 -0.015426583566612292 -0.0022967361249459682 0 -0.013394543660872411 -0.0016655140825775523 0 -0.013779514350447292 -0.0022196614733708468 0 -0.015257231902813539 -0.0023879772243893499 0 -0.013394543660872411 -0.0016655140825775523 0 -0.015417437317767471 -0.0023464834714906498 0 -0.015257231902813539 -0.0023879772243893499 0 -0.012752557809596233 -0.0016479431362218769 0 -0.013394543660872411 -0.0016655140825775523 0 -0.012007071980130835 -0.0010101790384484911 0 -0.013394543660872411 -0.0016655140825775523 0 -0.015417437317767471 -0.0023464834714906498 0 -0.015603578548686265 -0.0022971882613858994 0 -0.014119886747148891 -0.00035066502501100445 0 -0.014504032539523747 -0.00059981994776772229 0 -0.013231548846144308 -0.0024404857138074711 0 -0.013099419086965243 -0.0026791542522643531 0 -0.012752557809596233 -0.0016479431362218769 0 -0.012007071980130835 -0.0010101790384484911 0 -0.012178244614911017 -0.0014982135504160803 0 -0.015417437317767471 -0.0023464834714906498 0 -0.015345949401624828 -0.0023200037521449958 0 -0.015257231902813539 -0.0023879772243893499 0 -0.015345949401624828 -0.0023200037521449958 0 -0.015257231902813539 -0.0023879772243893499 0 -0.015426583566612292 -0.0022967361249459682 0 -0.015679990818768606 -0.0024638340561483852 0 -0.015426583566612292 -0.0022967361249459682 0 -0.015578035762627375 -0.002183366114559934 0 -0.015835425436974936 -0.0020377656949062046 0 -0.015578035762627375 -0.002183366114559934 0 -0.015491858694677117 -0.0019388866481535342 0 -0.015426583566612292 -0.0022967361249459682 0 -0.015578035762627375 -0.002183366114559934 0 -0.015398026307158476 -0.0021924079133331322 0 -0.015345949401624828 -0.0023200037521449958 0 -0.015426583566612292 -0.0022967361249459682 0 -0.015398026307158476 -0.0021924079133331322 0 -0.015398026307158476 -0.0021924079133331322 0 -0.015325563094161235 -0.0020821788022992106 0 -0.015491858694677117 -0.0019388866481535342 0 -0.015578035762627375 -0.002183366114559934 0 -0.015398026307158476 -0.0021924079133331322 0 -0.015491858694677117 -0.0019388866481535342 0 -0.015030206134374068 -0.0023074398643807121 0 -0.015353588028550141 -0.0023691387004927148 0 -0.015185053814375146 -0.0022216199907207318 0 -0.015185053814375146 -0.0022216199907207318 0 -0.015325563094161235 -0.0020821788022992106 0 -0.015213624313391905 -0.0019507667282357523 0 -0.015345949401624828 -0.0023200037521449958 0 -0.015398026307158476 -0.0021924079133331322 0 -0.015185053814375146 -0.0022216199907207318 0 -0.015398026307158476 -0.0021924079133331322 0 -0.015185053814375146 -0.0022216199907207318 0 -0.015325563094161235 -0.0020821788022992106 0 -0.015325563094161235 -0.0020821788022992106 0 -0.015213624313391905 -0.0019507667282357523 0 -0.015491858694677117 -0.0019388866481535342 0 -0.015213624313391905 -0.0019507667282357523 0 -0.015491858694677117 -0.0019388866481535342 0 -0.015302866392184601 -0.0015629900546150566 0 -0.015766719255565938 -0.0015750339452063008 0 -0.015491858694677117 -0.0019388866481535342 0 -0.015302866392184601 -0.0015629900546150566 0 -0.015302866392184601 -0.0015629900546150566 0 -0.014918440029107111 -0.0016935858164730049 0 -0.014762574141560509 -0.0011911344303802216 0 -0.015213624313391905 -0.0019507667282357523 0 -0.015302866392184601 -0.0015629900546150566 0 -0.014918440029107111 -0.0016935858164730049 0 -0.015185053814375146 -0.0022216199907207318 0 -0.015213624313391905 -0.0019507667282357523 0 -0.014985729166746368 -0.0020841869646473295 0 -0.015213624313391905 -0.0019507667282357523 0 -0.014918440029107111 -0.0016935858164730049 0 -0.014985729166746368 -0.0020841869646473295 0 -0.014454330135407525 -0.0024889260102173945 0 -0.014574397262066345 -0.0019148811053847105 0 -0.014228123427114639 -0.0021389828356218133 0 -0.014918440029107111 -0.0016935858164730049 0 -0.014985729166746368 -0.0020841869646473295 0 -0.014574397262066345 -0.0019148811053847105 0 -0.014454330135407525 -0.0024889260102173945 0 -0.014985729166746368 -0.0020841869646473295 0 -0.014574397262066345 -0.0019148811053847105 0 -0.014607510806245746 -0.0015805948095242816 0 -0.014143509820440082 -0.0015506549408657786 0 -0.014762574141560509 -0.0011911344303802216 0 -0.014918440029107111 -0.0016935858164730049 0 -0.014607510806245746 -0.0015805948095242816 0 -0.014762574141560509 -0.0011911344303802216 0 -0.014574397262066345 -0.0019148811053847105 0 -0.014607510806245746 -0.0015805948095242816 0 -0.014143509820440082 -0.0015506549408657786 0 -0.014918440029107111 -0.0016935858164730049 0 -0.014574397262066345 -0.0019148811053847105 0 -0.014607510806245746 -0.0015805948095242816 0 -0.014848026357551251 -0.0015044482923773745 0 -0.014514036364004211 -0.0014549973465373225 0 -0.014459418372485443 -0.0016341250942455623 0 -0.014848026357551251 -0.0015044482923773745 0 -0.014514036364004211 -0.0014549973465373225 0 -0.014685506019362153 -0.0013339421364270232 0 -0.014848026357551251 -0.0015044482923773745 0 -0.014459418372485443 -0.0016341250942455623 0 -0.014499282633006554 -0.0018557328340985436 0 -0.013375139481723936 -0.0025438221246148907 0 -0.01389548515786157 -0.0020872242227496563 0 -0.013404183559726206 -0.0030342983982679919 0 -0.014334627303654104 -0.0016426630764013216 0 -0.0135575663500894 -0.0022932750489148401 0 -0.014143509820440082 -0.0015506549408657786 0 -0.013187584990657473 -0.00225688293548116 0 -0.013459293908920348 -0.002216256187753961 0 -0.013080937164624431 -0.002306092347279856 0 -0.013375139481723936 -0.0025438221246148907 0 -0.013029380639590103 -0.002892484052297228 0 -0.013080937164624431 -0.002306092347279856 0 -0.013375139481723936 -0.0025438221246148907 0 -0.013459293908920348 -0.002216256187753961 0 -0.0135575663500894 -0.0022932750489148401 0 -0.013548667436275409 -0.0022938617652111522 0 -0.013375139481723936 -0.0025438221246148907 0 -0.013459293908920348 -0.002216256187753961 0 -0.01389548515786157 -0.0020872242227496563 0 -0.014228123427114639 -0.0021389828356218133 0 -0.01389548515786157 -0.0020872242227496563 0 -0.014017592883631125 -0.0023850060593651281 0 -0.014143509820440082 -0.0015506549408657786 0 -0.013459293908920348 -0.002216256187753961 0 -0.01389548515786157 -0.0020872242227496563 0 -0.014574397262066345 -0.0019148811053847105 0 -0.014143509820440082 -0.0015506549408657786 0 -0.014228123427114639 -0.0021389828356218133 0 -0.014143509820440082 -0.0015506549408657786 0 -0.014228123427114639 -0.0021389828356218133 0 -0.01389548515786157 -0.0020872242227496563 0 -0.013603933951535549 -0.0026342153224036468 0 -0.012764247466285667 -0.0030236803098683948 0 -0.013009215010978256 -0.0025690186295666225 0 -0.013247572577778604 -0.0023426204122854351 0 -0.013603933951535549 -0.0026342153224036468 0 -0.01347761975032187 -0.0019929807411113195 0 -0.013247572577778604 -0.0023426204122854351 0 -0.013009215010978256 -0.0025690186295666225 0 -0.012880289822430901 -0.0021712194505069588 0 -0.013247572577778604 -0.0023426204122854351 0 -0.013603933951535549 -0.0026342153224036468 0 -0.013009215010978256 -0.0025690186295666225 0 -0.014514036364004211 -0.0014549973465373225 0 -0.014114274967937157 -0.0015856072788595294 0 -0.014447212228392747 -0.0011718252338580419 0 -0.014514036364004211 -0.0014549973465373225 0 -0.014459418372485443 -0.0016341250942455623 0 -0.014114274967937157 -0.0015856072788595294 0 -0.014459418372485443 -0.0016341250942455623 0 -0.014114274967937157 -0.0015856072788595294 0 -0.01430438866439615 -0.0017658390561197832 0 -0.014499282633006554 -0.0018557328340985436 0 -0.01430438866439615 -0.0017658390561197832 0 -0.014142944862226975 -0.0019431470638501039 0 -0.012859312601233661 -0.0026401441685205813 0 -0.012154157751651887 -0.0028148612378793517 0 -0.012423067759157504 -0.0030524525557884064 0 -0.014114274967937157 -0.0015856072788595294 0 -0.01430438866439615 -0.0017658390561197832 0 -0.014142944862226975 -0.0019431470638501039 0 -0.0135575663500894 -0.0022932750489148401 0 -0.013118960389547204 -0.0025265665390820824 0 -0.014459418372485443 -0.0016341250942455623 0 -0.014499282633006554 -0.0018557328340985436 0 -0.01430438866439615 -0.0017658390561197832 0 -0.0135575663500894 -0.0022932750489148401 0 -0.013289398434601307 -0.0025142440475858841 0 -0.013598260013984079 -0.0020719201372661586 0 -0.01258043402212672 -0.0028232243898305832 0 -0.014114274967937157 -0.0015856072788595294 0 -0.014142944862226975 -0.0019431470638501039 0 -0.013775956996022657 -0.0020270280996700237 0 -0.013603933951535549 -0.0026342153224036468 0 -0.012808434004132481 -0.0036682842122793629 0 -0.012764247466285667 -0.0030236803098683948 0 -0.013118960389547204 -0.0025265665390820824 0 -0.01258043402212672 -0.0028232243898305832 0 -0.012154157751651887 -0.0028148612378793517 0 -0.011717568970102014 -0.0031767131984594154 0 -0.011410441334149767 -0.0031059463441487261 0 -0.011590968280254958 -0.0034368817691575186 0 -0.011717568970102014 -0.0031767131984594154 0 -0.011947559121646318 -0.0032001422525368174 0 -0.011590968280254958 -0.0034368817691575186 0 -0.011947559121646318 -0.0032001422525368174 0 -0.01184053061997388 -0.0035181450006573738 0 -0.011590968280254958 -0.0034368817691575186 0 -0.011717568970102014 -0.0031767131984594154 0 -0.011488151703638778 -0.0033115654684846888 0 -0.012154157751651887 -0.0028148612378793517 0 -0.011717568970102014 -0.0031767131984594154 0 -0.011947559121646318 -0.0032001422525368174 0 -0.011947559121646318 -0.0032001422525368174 0 -0.01184053061997388 -0.0035181450006573738 0 -0.012131917328432785 -0.0033938080873786667 0 -0.011947559121646318 -0.0032001422525368174 0 -0.012131917328432785 -0.0033938080873786667 0 -0.012423067759157504 -0.0030524525557884064 0 -0.012131917328432785 -0.0033938080873786667 0 -0.012423067759157504 -0.0030524525557884064 0 -0.012417987585577345 -0.0035288287339216486 0 -0.012154157751651887 -0.0028148612378793517 0 -0.011947559121646318 -0.0032001422525368174 0 -0.012423067759157504 -0.0030524525557884064 0 -0.013080937164624431 -0.002306092347279856 0 -0.012423067759157504 -0.0030524525557884064 0 -0.013029380639590103 -0.002892484052297228 0 -0.012423067759157504 -0.0030524525557884064 0 -0.012913178191267525 -0.0033725784774807379 0 -0.013029380639590103 -0.002892484052297228 0 -0.012423067759157504 -0.0030524525557884064 0 -0.012913178191267525 -0.0033725784774807379 0 -0.012417987585577345 -0.0035288287339216486 0 -0.012913178191267525 -0.0033725784774807379 0 -0.012581876743212908 -0.0040098095374344108 0 -0.012417987585577345 -0.0035288287339216486 0 -0.012581876743212908 -0.0040098095374344108 0 -0.012417987585577345 -0.0035288287339216486 0 -0.012100837661040535 -0.0037992825480427255 0 -0.012131917328432785 -0.0033938080873786667 0 -0.012417987585577345 -0.0035288287339216486 0 -0.012100837661040535 -0.0037992825480427255 0 -0.012100837661040535 -0.0037992825480427255 0 -0.011470812502034218 -0.0042691465801846821 0 -0.011503778262853471 -0.0039598141897143327 0 -0.012581876743212908 -0.0040098095374344108 0 -0.012100837661040535 -0.0037992825480427255 0 -0.011470812502034218 -0.0042691465801846821 0 -0.01184053061997388 -0.0035181450006573738 0 -0.012131917328432785 -0.0033938080873786667 0 -0.012100837661040535 -0.0037992825480427255 0 -0.01184053061997388 -0.0035181450006573738 0 -0.012100837661040535 -0.0037992825480427255 0 -0.011784589037726166 -0.0037506623029378268 0 -0.012100837661040535 -0.0037992825480427255 0 -0.011784589037726166 -0.0037506623029378268 0 -0.011503778262853471 -0.0039598141897143327 0 -0.011784589037726166 -0.0037506623029378268 0 -0.011535651671349918 -0.0037402785985371102 0 -0.011503778262853471 -0.0039598141897143327 0 -0.01184053061997388 -0.0035181450006573738 0 -0.011784589037726166 -0.0037506623029378268 0 -0.011535651671349918 -0.0037402785985371102 0 -0.011590968280254958 -0.0034368817691575186 0 -0.01184053061997388 -0.0035181450006573738 0 -0.011535651671349918 -0.0037402785985371102 0 -0.012954138404963305 -0.0028359562503822255 0 -0.012778342179555998 -0.0031821853890787763 0 -0.01389548515786157 -0.0020872242227496563 0 -0.014059395698896122 -0.0026926935958278692 0 -0.014017592883631125 -0.0023850060593651281 0 -0.012684022778436636 -0.0030032121902266429 0 -0.012681956343273158 -0.0030165258716149004 0 -0.012671305464230474 -0.003009824050872449 0 -0.013595077122188839 -0.0027127979187407066 0 -0.012778342179555998 -0.0031821853890787763 0 -0.013595077122188839 -0.0027127979187407066 0 -0.013706149099011262 -0.002716510266288641 0 -0.014387331647552265 -0.0025206351323873617 0 -0.014059395698896122 -0.0026926935958278692 0 -0.014017592883631125 -0.0023850060593651281 0 -0.014454330135407525 -0.0024889260102173945 0 -0.014228123427114639 -0.0021389828356218133 0 -0.014017592883631125 -0.0023850060593651281 0 -0.01389548515786157 -0.0020872242227496563 0 -0.0140914703489355 -0.0033786197639931546 0 -0.013404183559726206 -0.0030342983982679919 0 -0.012913178191267525 -0.0033725784774807379 0 -0.0140914703489355 -0.0033786197639931546 0 -0.013404183559726206 -0.0030342983982679919 0 -0.012913178191267525 -0.0033725784774807379 0 -0.013404183559726206 -0.0030342983982679919 0 -0.013029380639590103 -0.002892484052297228 0 -0.013375139481723936 -0.0025438221246148907 0 -0.013404183559726206 -0.0030342983982679919 0 -0.013029380639590103 -0.002892484052297228 0 -0.012913178191267525 -0.0033725784774807379 0 -0.012581876743212908 -0.0040098095374344108 0 -0.0140914703489355 -0.0033786197639931546 0 -0.012300630961622231 -0.0037045582830433819 0 -0.012778342179555998 -0.0031821853890787763 0 -0.012052341542313841 -0.0039863303231590531 0 -0.012595862132330304 -0.003713748873772525 0 -0.012382966211772753 -0.0039672828879107969 0 -0.012382966211772753 -0.0039672828879107969 0 -0.012307988602042179 -0.0040837658458049838 0 -0.012669676019129049 -0.0041297302522060155 0 -0.012052341542313841 -0.0039863303231590531 0 -0.012382966211772753 -0.0039672828879107969 0 -0.012307988602042179 -0.0040837658458049838 0 -0.012778342179555998 -0.0031821853890787763 0 -0.011692294379492476 -0.0037126359387249833 0 -0.012681956343273158 -0.0030165258716149004 0 -0.012671305464230474 -0.003009824050872449 0 -0.012673051489871247 -0.0030301254867263418 0 -0.012595862132330304 -0.003713748873772525 0 -0.012382966211772753 -0.0039672828879107969 0 -0.012669676019129049 -0.0041297302522060155 0 -0.010104546346138062 -0.0041794706694579841 0 -0.010109020815829322 -0.0041808543951752063 0 -0.010109981333596292 -0.0041758338114924977 0 -0.010142657872828741 -0.0044111218014431025 0 -0.010119106682995703 -0.0042923241759138748 0 -0.010227939172498051 -0.0043336022996700776 0 -0.011692294379492476 -0.0037126359387249833 0 -0.011316097594684079 -0.0039091070226171375 0 -0.011316097594684079 -0.0039091070226171375 0 -0.011196099406304174 -0.0039500898063601821 0 -0.010119106682995703 -0.0042923241759138748 0 -0.010184424449015244 -0.0041956429811765483 0 -0.010105418203334734 -0.0041511561364987598 0 -0.010119106682995703 -0.0042923241759138748 0 -0.010198414735559371 -0.0042658276384447231 0 -0.010184424449015244 -0.0041956429811765483 0 -0.010119106682995703 -0.0042923241759138748 0 -0.010198414735559371 -0.0042658276384447231 0 -0.010227939172498051 -0.0043336022996700776 0 -0.01025949341052314 -0.0042417615655745144 0 -0.010309464331939567 -0.0042889892177056617 0 -0.010326497908126205 -0.0042108361830259251 0 -0.010198414735559371 -0.0042658276384447231 0 -0.010184424449015244 -0.0041956429811765483 0 -0.01025949341052314 -0.0042417615655745144 0 -0.010198414735559371 -0.0042658276384447231 0 -0.01025949341052314 -0.0042417615655745144 0 -0.010227939172498051 -0.0043336022996700776 0 -0.01025949341052314 -0.0042417615655745144 0 -0.010309464331939567 -0.0042889892177056617 0 -0.010227939172498051 -0.0043336022996700776 0 -0.011692294379492476 -0.0037126359387249833 0 -0.011255007583110257 -0.0040702229850097882 0 -0.010309464331939567 -0.0042889892177056617 0 -0.010227939172498051 -0.0043336022996700776 0 -0.010327790102960836 -0.0043828070235886933 0 -0.010142657872828741 -0.0044111218014431025 0 -0.010227939172498051 -0.0043336022996700776 0 -0.010327790102960836 -0.0043828070235886933 0 -0.012307988602042179 -0.0040837658458049838 0 -0.012669676019129049 -0.0041297302522060155 0 -0.012125770734097322 -0.0042498698731712053 0 -0.012052341542313841 -0.0039863303231590531 0 -0.012307988602042179 -0.0040837658458049838 0 -0.012125770734097322 -0.0042498698731712053 0 -0.011255007583110257 -0.0040702229850097882 0 -0.01106627804005334 -0.0042186459728846921 0 -0.012052341542313841 -0.0039863303231590531 0 -0.012125770734097322 -0.0042498698731712053 0 -0.011802531754900984 -0.0042232029614530419 0 -0.012125770734097322 -0.0042498698731712053 0 -0.011802531754900984 -0.0042232029614530419 0 -0.011555894023483542 -0.0043864881573127132 0 -0.012052341542313841 -0.0039863303231590531 0 -0.011802531754900984 -0.0042232029614530419 0 -0.011470812502034218 -0.0042691465801846821 0 -0.010327790102960836 -0.0043828070235886933 0 -0.010542348338668447 -0.004380190194398976 0 -0.010469427061025884 -0.0043210754520217306 0 -0.012300630961622231 -0.0037045582830433819 0 -0.0119054938385054 -0.0039595258452534456 0 -0.011802531754900984 -0.0042232029614530419 0 -0.011555894023483542 -0.0043864881573127132 0 -0.011470812502034218 -0.0042691465801846821 0 -0.01050723823037685 -0.0042481837000370613 0 -0.010398873895460065 -0.0042708005437933584 0 -0.010374235049297352 -0.0041246142680559034 0 -0.010469427061025884 -0.0043210754520217306 0 -0.01050723823037685 -0.0042481837000370613 0 -0.010597478283881391 -0.0043138751791175654 0 -0.010542348338668447 -0.004380190194398976 0 -0.010469427061025884 -0.0043210754520217306 0 -0.010597478283881391 -0.0043138751791175654 0 -0.010469427061025884 -0.0043210754520217306 0 -0.01050723823037685 -0.0042481837000370613 0 -0.010398873895460065 -0.0042708005437933584 0 -0.010327790102960836 -0.0043828070235886933 0 -0.010469427061025884 -0.0043210754520217306 0 -0.010398873895460065 -0.0042708005437933584 0 -0.010309464331939567 -0.0042889892177056617 0 -0.010327790102960836 -0.0043828070235886933 0 -0.010398873895460065 -0.0042708005437933584 0 -0.010309464331939567 -0.0042889892177056617 0 -0.010398873895460065 -0.0042708005437933584 0 -0.010326497908126205 -0.0042108361830259251 0 -0.010326497908126205 -0.0042108361830259251 0 -0.010374235049297352 -0.0041246142680559034 0 -0.010260655580133234 -0.0041174401113673797 0 -0.010398873895460065 -0.0042708005437933584 0 -0.010326497908126205 -0.0042108361830259251 0 -0.010374235049297352 -0.0041246142680559034 0 -0.010374235049297352 -0.0041246142680559034 0 -0.010300890513432085 -0.0040022318261599974 0 -0.010260655580133234 -0.0041174401113673797 0 -0.01050723823037685 -0.0042481837000370613 0 -0.010374235049297352 -0.0041246142680559034 0 -0.010493478356511347 -0.0040994889627239692 0 -0.010386350842308146 -0.0039851705220710397 0 -0.010374235049297352 -0.0041246142680559034 0 -0.010493478356511347 -0.0040994889627239692 0 -0.010386350842308146 -0.0039851705220710397 0 -0.010493478356511347 -0.0040994889627239692 0 -0.010486741573832737 -0.0039991921723670732 0 -0.010386350842308146 -0.0039851705220710397 0 -0.010374235049297352 -0.0041246142680559034 0 -0.010300890513432085 -0.0040022318261599974 0 -0.010201453315250441 -0.0038778123336030085 0 -0.010300890513432085 -0.0040022318261599974 0 -0.010260655580133234 -0.0041174401113673797 0 -0.010201453315250441 -0.0038778123336030085 0 -0.010379061743450038 -0.0037551436543875535 0 -0.010217865387595266 -0.0034251361266289227 0 -0.010201453315250441 -0.0038778123336030085 0 -0.01008826467266348 -0.004106934236885719 0 -0.010164573772735868 -0.004100546719408015 0 -0.010201453315250441 -0.0038778123336030085 0 -0.010164573772735868 -0.004100546719408015 0 -0.010260655580133234 -0.0041174401113673797 0 -0.010393517146753977 -0.003828392152357024 0 -0.010505356440761723 -0.0037428773141272745 0 -0.01008826467266348 -0.004106934236885719 0 -0.010164573772735868 -0.004100546719408015 0 -0.010105418203334734 -0.0041511561364987598 0 -0.010184424449015244 -0.0041956429811765483 0 -0.010164573772735868 -0.004100546719408015 0 -0.010105418203334734 -0.0041511561364987598 0 -0.010184424449015244 -0.0041956429811765483 0 -0.010164573772735868 -0.004100546719408015 0 -0.010260655580133234 -0.0041174401113673797 0 -0.010184424449015244 -0.0041956429811765483 0 -0.01025949341052314 -0.0042417615655745144 0 -0.010260655580133234 -0.0041174401113673797 0 -0.01025949341052314 -0.0042417615655745144 0 -0.010326497908126205 -0.0042108361830259251 0 -0.010260655580133234 -0.0041174401113673797 0 -0.010570536186201197 -0.0043841252090792305 0 -0.010682890173387971 -0.0043365096650784356 0 -0.010640238767938981 -0.0042953261232805294 0 -0.010570536186201197 -0.0043841252090792305 0 -0.010640238767938981 -0.0042953261232805294 0 -0.010470891238820008 -0.0043205545747880356 0 -0.010570536186201197 -0.0043841252090792305 0 -0.010600033330240104 -0.0044400565047331298 0 -0.010682890173387971 -0.0043365096650784356 0 -0.010570536186201197 -0.0043841252090792305 0 -0.010474089632846472 -0.0044217897163519385 0 -0.010470891238820008 -0.0043205545747880356 0 -0.01034147712895817 -0.0044018557215049388 0 -0.010474089632846472 -0.0044217897163519385 0 -0.010470891238820008 -0.0043205545747880356 0 -0.010570536186201197 -0.0043841252090792305 0 -0.010474089632846472 -0.0044217897163519385 0 -0.010522305739611803 -0.0044605339164520263 0 -0.01034147712895817 -0.0044018557215049388 0 -0.010468924880033063 -0.004508230166033033 0 -0.010474089632846472 -0.0044217897163519385 0 -0.010468924880033063 -0.004508230166033033 0 -0.010474089632846472 -0.0044217897163519385 0 -0.010522305739611803 -0.0044605339164520263 0 -0.010508451239522727 -0.0045179287464174964 0 -0.010522305739611803 -0.0044605339164520263 0 -0.010600033330240104 -0.0044400565047331298 0 -0.010570536186201197 -0.0043841252090792305 0 -0.010522305739611803 -0.0044605339164520263 0 -0.010600033330240104 -0.0044400565047331298 0 -0.010600033330240104 -0.0044400565047331298 0 -0.010701364572554443 -0.0043953839420105972 0 -0.010682890173387971 -0.0043365096650784356 0 -0.0078679806240639881 -0.0039836905151966369 0 -0.0090317306293915666 -0.0039948247331020393 0 -0.01064924230974096 -0.004536911749659569 0 -0.010600033330240104 -0.0044400565047331298 0 -0.010701364572554443 -0.0043953839420105972 0 -0.01052613717753609 -0.0039517529557467779 0 -0.010586371713851874 -0.0040653279493651608 0 -0.010486741573832737 -0.0039991921723670732 0 -0.010493478356511347 -0.0040994889627239692 0 -0.010586371713851874 -0.0040653279493651608 0 -0.010486741573832737 -0.0039991921723670732 0 -0.0090317306293915666 -0.0039948247331020393 0 -0.0093586376277358888 -0.0040384037233651615 0 -0.01050723823037685 -0.0042481837000370613 0 -0.010493478356511347 -0.0040994889627239692 0 -0.010664630726516024 -0.0042726916325115123 0 -0.010493478356511347 -0.0040994889627239692 0 -0.010586371713851874 -0.0040653279493651608 0 -0.010664630726516024 -0.0042726916325115123 0 -0.010701364572554443 -0.0043953839420105972 0 -0.010682890173387971 -0.0043365096650784356 0 -0.010664630726516024 -0.0042726916325115123 0 -0.010682890173387971 -0.0043365096650784356 0 -0.010801217615430493 -0.0043204115361069146 0 -0.010640238767938981 -0.0042953261232805294 0 -0.010682890173387971 -0.0043365096650784356 0 -0.010801217615430493 -0.0043204115361069146 0 -0.010664630726516024 -0.0042726916325115123 0 -0.010801217615430493 -0.0043204115361069146 0 -0.010664630726516024 -0.0042726916325115123 0 -0.010597478283881391 -0.0043138751791175654 0 -0.010542348338668447 -0.004380190194398976 0 -0.010801217615430493 -0.0043204115361069146 0 -0.010597478283881391 -0.0043138751791175654 0 -0.01050723823037685 -0.0042481837000370613 0 -0.010664630726516024 -0.0042726916325115123 0 -0.010597478283881391 -0.0043138751791175654 0 -0.011555894023483542 -0.0043864881573127132 0 -0.010801217615430493 -0.0043204115361069146 0 -0.01122687343802488 -0.004224146660024619 0 -0.01106627804005334 -0.0042186459728846921 0 -0.010971481085735958 -0.0042590939864861396 0 -0.011555894023483542 -0.0043864881573127132 0 -0.011470812502034218 -0.0042691465801846821 0 -0.01122687343802488 -0.004224146660024619 0 -0.01122687343802488 -0.004224146660024619 0 -0.011287232044213228 -0.0040825701694930661 0 -0.011035372478490305 -0.0040654805875288622 0 -0.011470812502034218 -0.0042691465801846821 0 -0.01122687343802488 -0.004224146660024619 0 -0.011287232044213228 -0.0040825701694930661 0 -0.011470812502034218 -0.0042691465801846821 0 -0.011287232044213228 -0.0040825701694930661 0 -0.011503778262853471 -0.0039598141897143327 0 -0.010801217615430493 -0.0043204115361069146 0 -0.011035372478490305 -0.0040654805875288622 0 -0.01079816369897758 -0.0040125206007156191 0 -0.010801217615430493 -0.0043204115361069146 0 -0.01079816369897758 -0.0040125206007156191 0 -0.01068283780889992 -0.0041682561969375066 0 -0.010801217615430493 -0.0043204115361069146 0 -0.01122687343802488 -0.004224146660024619 0 -0.011035372478490305 -0.0040654805875288622 0 -0.01079816369897758 -0.0040125206007156191 0 -0.01068283780889992 -0.0041682561969375066 0 -0.010647310403730594 -0.0040091986011155604 0 -0.01068283780889992 -0.0041682561969375066 0 -0.010531874699292069 -0.0041957049906515467 0 -0.010647310403730594 -0.0040091986011155604 0 -0.010801217615430493 -0.0043204115361069146 0 -0.01068283780889992 -0.0041682561969375066 0 -0.010640238767938981 -0.0042953261232805294 0 -0.01068283780889992 -0.0041682561969375066 0 -0.010640238767938981 -0.0042953261232805294 0 -0.010531874699292069 -0.0041957049906515467 0 -0.010640238767938981 -0.0042953261232805294 0 -0.010470891238820008 -0.0043205545747880356 0 -0.010531874699292069 -0.0041957049906515467 0 -0.010470891238820008 -0.0043205545747880356 0 -0.010408133922497186 -0.0042092747064120545 0 -0.010531874699292069 -0.0041957049906515467 0 -0.010340232836228562 -0.0042700164513870412 0 -0.010470891238820008 -0.0043205545747880356 0 -0.010408133922497186 -0.0042092747064120545 0 -0.010408133922497186 -0.0042092747064120545 0 -0.010531874699292069 -0.0041957049906515467 0 -0.01042874438657047 -0.0041000522906627203 0 -0.01042874438657047 -0.0041000522906627203 0 -0.010486014754319041 -0.0039662539886643842 0 -0.010647310403730594 -0.0040091986011155604 0 -0.010531874699292069 -0.0041957049906515467 0 -0.01042874438657047 -0.0041000522906627203 0 -0.010647310403730594 -0.0040091986011155604 0 -0.010486014754319041 -0.0039662539886643842 0 -0.010647310403730594 -0.0040091986011155604 0 -0.010786887591649637 -0.0037634403637533975 0 -0.010486014754319041 -0.0039662539886643842 0 -0.010786887591649637 -0.0037634403637533975 0 -0.010462083278199539 -0.0037534210882999739 0 -0.01079816369897758 -0.0040125206007156191 0 -0.010786887591649637 -0.0037634403637533975 0 -0.010950995139901434 -0.0037914522556271699 0 -0.01079816369897758 -0.0040125206007156191 0 -0.010647310403730594 -0.0040091986011155604 0 -0.010786887591649637 -0.0037634403637533975 0 -0.01144706958947158 -0.0033174058242490547 0 -0.011758849768478146 -0.0031932420066111589 0 -0.010786887591649637 -0.0037634403637533975 0 -0.011820626858776644 -0.0038160984493053824 0 -0.011385132384856327 -0.0033174589910043065 0 -0.010786887591649637 -0.0037634403637533975 0 -0.010876119330810161 -0.0033200009016767767 0 -0.011385132384856327 -0.0033174589910043065 0 -0.010786887591649637 -0.0037634403637533975 0 -0.010566084023193742 -0.0034637669368700482 0 -0.010876119330810161 -0.0033200009016767767 0 -0.010566084023193742 -0.0034637669368700482 0 -0.010381005062050934 -0.0035530205318939864 0 -0.010462083278199539 -0.0037534210882999739 0 -0.010320064695908663 -0.0033550464853823515 0 -0.010566084023193742 -0.0034637669368700482 0 -0.010381005062050934 -0.0035530205318939864 0 -0.010786887591649637 -0.0037634403637533975 0 -0.010566084023193742 -0.0034637669368700482 0 -0.010462083278199539 -0.0037534210882999739 0 -0.011590968280254958 -0.0034368817691575186 0 -0.011353212717231302 -0.0036296867942759914 0 -0.011535651671349918 -0.0037402785985371102 0 -0.011353212717231302 -0.0036296867942759914 0 -0.011535651671349918 -0.0037402785985371102 0 -0.011213722176151538 -0.003850334835075912 0 -0.011287232044213228 -0.0040825701694930661 0 -0.011503778262853471 -0.0039598141897143327 0 -0.011213722176151538 -0.003850334835075912 0 -0.011535651671349918 -0.0037402785985371102 0 -0.011503778262853471 -0.0039598141897143327 0 -0.011213722176151538 -0.003850334835075912 0 -0.011287232044213228 -0.0040825701694930661 0 -0.011035372478490305 -0.0040654805875288622 0 -0.011213722176151538 -0.003850334835075912 0 -0.011353212717231302 -0.0036296867942759914 0 -0.011213722176151538 -0.003850334835075912 0 -0.011182111202779838 -0.0036158416493792048 0 -0.011213722176151538 -0.003850334835075912 0 -0.010950995139901434 -0.0037914522556271699 0 -0.011182111202779838 -0.0036158416493792048 0 -0.011035372478490305 -0.0040654805875288622 0 -0.011213722176151538 -0.003850334835075912 0 -0.010950995139901434 -0.0037914522556271699 0 -0.011035372478490305 -0.0040654805875288622 0 -0.01079816369897758 -0.0040125206007156191 0 -0.010950995139901434 -0.0037914522556271699 0 -0.010786887591649637 -0.0037634403637533975 0 -0.010950995139901434 -0.0037914522556271699 0 -0.010960753194358174 -0.0035346007684823313 0 -0.010950995139901434 -0.0037914522556271699 0 -0.010960753194358174 -0.0035346007684823313 0 -0.011182111202779838 -0.0036158416493792048 0 -0.011758849768478146 -0.0031932420066111589 0 -0.01258043402212672 -0.0028232243898305832 0 -0.010960753194358174 -0.0035346007684823313 0 -0.011303354406707575 -0.0033655162330293287 0 -0.01137792659798475 -0.0032307416695379746 0 -0.010960753194358174 -0.0035346007684823313 0 -0.011182111202779838 -0.0036158416493792048 0 -0.011303354406707575 -0.0033655162330293287 0 -0.011820626858776644 -0.0038160984493053824 0 -0.012808434004132481 -0.0036682842122793629 0 -0.012381134689954663 -0.0034223894503982492 0 -0.011182111202779838 -0.0036158416493792048 0 -0.011303354406707575 -0.0033655162330293287 0 -0.011386565954209773 -0.0034719038955065436 0 -0.011717568970102014 -0.0031767131984594154 0 -0.011410441334149767 -0.0031059463441487261 0 -0.011488151703638778 -0.0033115654684846888 0 -0.012538705403822428 -0.0028628775605634943 0 -0.01258043402212672 -0.0028232243898305832 0 -0.011303354406707575 -0.0033655162330293287 0 -0.011410441334149767 -0.0031059463441487261 0 -0.011488151703638778 -0.0033115654684846888 0 -0.011590968280254958 -0.0034368817691575186 0 -0.011488151703638778 -0.0033115654684846888 0 -0.011386565954209773 -0.0034719038955065436 0 -0.011303354406707575 -0.0033655162330293287 0 -0.011488151703638778 -0.0033115654684846888 0 -0.011386565954209773 -0.0034719038955065436 0 -0.011353212717231302 -0.0036296867942759914 0 -0.011182111202779838 -0.0036158416493792048 0 -0.011386565954209773 -0.0034719038955065436 0 -0.011590968280254958 -0.0034368817691575186 0 -0.011353212717231302 -0.0036296867942759914 0 -0.011386565954209773 -0.0034719038955065436 0 -0.012808434004132481 -0.0036682842122793629 0 -0.012764247466285667 -0.0030236803098683948 0 -0.012381134689954663 -0.0034223894503982492 0 -0.012764247466285667 -0.0030236803098683948 0 -0.012381134689954663 -0.0034223894503982492 0 -0.01213181935783832 -0.0031780974345146772 0 -0.012764247466285667 -0.0030236803098683948 0 -0.01213181935783832 -0.0031780974345146772 0 -0.012438727129306494 -0.0027009504573520665 0 -0.01213181935783832 -0.0031780974345146772 0 -0.011726279880047154 -0.002803019133074687 0 -0.012438727129306494 -0.0027009504573520665 0 -0.011820626858776644 -0.0038160984493053824 0 -0.012381134689954663 -0.0034223894503982492 0 -0.01213181935783832 -0.0031780974345146772 0 -0.011820626858776644 -0.0038160984493053824 0 -0.01213181935783832 -0.0031780974345146772 0 -0.011385132384856327 -0.0033174589910043065 0 -0.01213181935783832 -0.0031780974345146772 0 -0.011726279880047154 -0.002803019133074687 0 -0.011385132384856327 -0.0033174589910043065 0 -0.011726279880047154 -0.002803019133074687 0 -0.012225523474861905 -0.002278217547210643 0 -0.011421969188508891 -0.0021096786856792944 0 -0.011726279880047154 -0.002803019133074687 0 -0.012225523474861905 -0.002278217547210643 0 -0.012438727129306494 -0.0027009504573520665 0 -0.012225523474861905 -0.002278217547210643 0 -0.012438727129306494 -0.0027009504573520665 0 -0.012880289822430901 -0.0021712194505069588 0 -0.012438727129306494 -0.0027009504573520665 0 -0.013009215010978256 -0.0025690186295666225 0 -0.012880289822430901 -0.0021712194505069588 0 -0.012764247466285667 -0.0030236803098683948 0 -0.012438727129306494 -0.0027009504573520665 0 -0.013009215010978256 -0.0025690186295666225 0 -0.010663936172028935 -0.0031048805310890156 0 -0.010423573936282932 -0.0030809629145286035 0 -0.010715210512449884 -0.002648564570496093 0 -0.010663936172028935 -0.0031048805310890156 0 -0.011013005856157101 -0.002899645531767461 0 -0.010715210512449884 -0.002648564570496093 0 -0.010663936172028935 -0.0031048805310890156 0 -0.010423573936282932 -0.0030809629145286035 0 -0.010485939440496474 -0.0032510255257315627 0 -0.010320064695908663 -0.0033550464853823515 0 -0.010423573936282932 -0.0030809629145286035 0 -0.010485939440496474 -0.0032510255257315627 0 -0.010320064695908663 -0.0033550464853823515 0 -0.010566084023193742 -0.0034637669368700482 0 -0.010485939440496474 -0.0032510255257315627 0 -0.010566084023193742 -0.0034637669368700482 0 -0.010663936172028935 -0.0031048805310890156 0 -0.010485939440496474 -0.0032510255257315627 0 -0.010566084023193742 -0.0034637669368700482 0 -0.010663936172028935 -0.0031048805310890156 0 -0.010876119330810161 -0.0033200009016767767 0 -0.010876119330810161 -0.0033200009016767767 0 -0.011385132384856327 -0.0033174589910043065 0 -0.011013005856157101 -0.002899645531767461 0 -0.011726279880047154 -0.002803019133074687 0 -0.011385132384856327 -0.0033174589910043065 0 -0.011013005856157101 -0.002899645531767461 0 -0.010663936172028935 -0.0031048805310890156 0 -0.010876119330810161 -0.0033200009016767767 0 -0.011013005856157101 -0.002899645531767461 0 -0.011068804562179792 -0.0034606989619215081 0 -0.010897334703609516 -0.0039460564057481494 0 -0.0080305964892655457 -0.0095390900141229546 0 -0.0081151424932678472 -0.0084122282660037059 0 -0.0094090933366096051 -0.0088290612379047853 0 -0.011726279880047154 -0.002803019133074687 0 -0.011013005856157101 -0.002899645531767461 0 -0.011421969188508891 -0.0021096786856792944 0 -0.0090989358282452838 -0.0050680408484278299 0 -0.010897334703609516 -0.0039460564057481494 0 -0.011013005856157101 -0.002899645531767461 0 -0.010715210512449884 -0.002648564570496093 0 -0.011247627286635673 -0.0023673075359529928 0 -0.0067700883553179552 -0.0094300676088949799 0 -0.0080305964892655457 -0.0095390900141229546 0 -0.0070079109702240183 -0.0087984356556410331 0 -0.0067700883553179552 -0.0094300676088949799 0 -0.006909926906620757 -0.0099059768360541534 0 -0.0080305964892655457 -0.0095390900141229546 0 -0.0074324295035725725 -0.0057629151943650418 0 -0.0090989358282452838 -0.0050680408484278299 0 -0.0066792401356276397 -0.010186604272568007 0 -0.006909926906620757 -0.0099059768360541534 0 -0.0080305964892655457 -0.0095390900141229546 0 -0.0080305964892655457 -0.0095390900141229546 0 -0.0081151424932678472 -0.0084122282660037059 0 -0.0070079109702240183 -0.0087984356556410331 0 -0.010190429052979819 -0.0029601705968967042 0 -0.010423573936282932 -0.0030809629145286035 0 -0.010715210512449884 -0.002648564570496093 0 -0.0081151424932678472 -0.0084122282660037059 0 -0.0070079109702240183 -0.0087984356556410331 0 -0.0062413062256632037 -0.0079517699024715342 0 -0.0081151424932678472 -0.0084122282660037059 0 -0.0082653512589219279 -0.0072692439851575457 0 -0.0062413062256632037 -0.0079517699024715342 0 -0.0094090933366096051 -0.0088290612379047853 0 -0.0090402708937147441 -0.00762732252568843 0 -0.010206638793170179 -0.0070699693490146945 0 -0.0081151424932678472 -0.0084122282660037059 0 -0.0094090933366096051 -0.0088290612379047853 0 -0.0090402708937147441 -0.00762732252568843 0 -0.0081151424932678472 -0.0084122282660037059 0 -0.0090402708937147441 -0.00762732252568843 0 -0.0082653512589219279 -0.0072692439851575457 0 -0.0090402708937147441 -0.00762732252568843 0 -0.0091937966987977269 -0.0065702587283986615 0 -0.0082653512589219279 -0.0072692439851575457 0 -0.0090402708937147441 -0.00762732252568843 0 -0.0091937966987977269 -0.0065702587283986615 0 -0.010206638793170179 -0.0070699693490146945 0 -0.0082653512589219279 -0.0072692439851575457 0 -0.0076386873978737746 -0.0060715078183319424 0 -0.0062413062256632037 -0.0079517699024715342 0 -0.0091937966987977269 -0.0065702587283986615 0 -0.0082653512589219279 -0.0072692439851575457 0 -0.0076386873978737746 -0.0060715078183319424 0 -0.012880289822430901 -0.0021712194505069588 0 -0.012638271989005802 -0.0016173656448029304 0 -0.01347761975032187 -0.0019929807411113195 0 -0.012225523474861905 -0.002278217547210643 0 -0.012880289822430901 -0.0021712194505069588 0 -0.012638271989005802 -0.0016173656448029304 0 -0.013424789580061708 -0.0017815279679772519 0 -0.013696685469592141 -0.0016390257310313924 0 -0.013557098592773643 -0.0015127296859630726 0 -0.010897334703609516 -0.0039460564057481494 0 -0.011446045485613683 -0.003955917004326839 0 -0.012225523474861905 -0.002278217547210643 0 -0.011421969188508891 -0.0021096786856792944 0 -0.012638271989005802 -0.0016173656448029304 0 -0.010897334703609516 -0.0039460564057481494 0 -0.012899974971648779 -0.0023706261689555291 0 -0.0091937966987977269 -0.0065702587283986615 0 -0.010206638793170179 -0.0070699693490146945 0 -0.0098291767622583036 -0.0059051659653325365 0 -0.013696685469592141 -0.0016390257310313924 0 -0.013557098592773643 -0.0015127296859630726 0 -0.013684945324580524 -0.0015474694739679047 0 -0.013557098592773643 -0.0015127296859630726 0 -0.013684945324580524 -0.0015474694739679047 0 -0.013562802174998395 -0.0014810294223217987 0 -0.013684945324580524 -0.0015474694739679047 0 -0.013806261784465777 -0.0014417745467192272 0 -0.013831478070340974 -0.0015389873302395455 0 -0.013696685469592141 -0.0016390257310313924 0 -0.013684945324580524 -0.0015474694739679047 0 -0.013831478070340974 -0.0015389873302395455 0 -0.013562802174998395 -0.0014810294223217987 0 -0.013551900285615599 -0.0016472668797890353 0 -0.01296995255283854 -0.0020479026331638715 0 -0.013562802174998395 -0.0014810294223217987 0 -0.014020605996532544 -0.00074705676737747771 0 -0.013953106181853926 -0.0011851190344905364 0 -0.013806261784465777 -0.0014417745467192272 0 -0.013562802174998395 -0.0014810294223217987 0 -0.013953106181853926 -0.0011851190344905364 0 -0.013684945324580524 -0.0015474694739679047 0 -0.013806261784465777 -0.0014417745467192272 0 -0.013562802174998395 -0.0014810294223217987 0 -0.011446045485613683 -0.003955917004326839 0 -0.011942726396597705 -0.0034268335581708015 0 -0.013557098592773643 -0.0015127296859630726 0 -0.013562802174998395 -0.0014810294223217987 0 -0.013551900285615599 -0.0016472668797890353 0 -0.010206638793170179 -0.0070699693490146945 0 -0.010958431520965522 -0.0053842187533171019 0 -0.0098291767622583036 -0.0059051659653325365 0 -0.010958431520965522 -0.0053842187533171019 0 -0.0098291767622583036 -0.0059051659653325365 0 -0.0098820650430885525 -0.0050878860264251856 0 -0.0098820650430885525 -0.0050878860264251856 0 -0.010200777749102488 -0.0041970310291915384 0 -0.010542875699960845 -0.0048512772930814057 0 -0.0098820650430885525 -0.0050878860264251856 0 -0.010200777749102488 -0.0041970310291915384 0 -0.0090531527651540235 -0.0043712573363827037 0 -0.010200777749102488 -0.0041970310291915384 0 -0.010542875699960845 -0.0048512772930814057 0 -0.010919274877966867 -0.0043008244949157368 0 -0.010958431520965522 -0.0053842187533171019 0 -0.010542875699960845 -0.0048512772930814057 0 -0.010919274877966867 -0.0043008244949157368 0 -0.010958431520965522 -0.0053842187533171019 0 -0.0098820650430885525 -0.0050878860264251856 0 -0.010542875699960845 -0.0048512772930814057 0 -0.013551900285615599 -0.0016472668797890353 0 -0.013032542296324218 -0.0021746496498470064 0 -0.01296995255283854 -0.0020479026331638715 0 -0.013580784362350291 -0.0015214176643895414 0 -0.01364388946700652 -0.0014394036270060655 0 -0.011942726396597705 -0.0034268335581708015 0 -0.012275348641966647 -0.0028974159576746366 0 -0.010958431520965522 -0.0053842187533171019 0 -0.010919274877966867 -0.0043008244949157368 0 -0.011724764251111137 -0.0038315646020793525 0 -0.0076386873978737746 -0.0060715078183319424 0 -0.0078953000232678087 -0.0046551259961673044 0 -0.0061250655512795427 -0.0053615364267995957 0 -0.0076386873978737746 -0.0060715078183319424 0 -0.0088811036183002109 -0.00542483023554021 0 -0.0078953000232678087 -0.0046551259961673044 0 -0.0091937966987977269 -0.0065702587283986615 0 -0.0076386873978737746 -0.0060715078183319424 0 -0.0088811036183002109 -0.00542483023554021 0 -0.0091937966987977269 -0.0065702587283986615 0 -0.0098291767622583036 -0.0059051659653325365 0 -0.0088811036183002109 -0.00542483023554021 0 -0.0098291767622583036 -0.0059051659653325365 0 -0.0098820650430885525 -0.0050878860264251856 0 -0.0088811036183002109 -0.00542483023554021 0 -0.0090531527651540235 -0.0043712573363827037 0 -0.0078953000232678087 -0.0046551259961673044 0 -0.0085400040714179153 -0.0033167058644879145 0 -0.0088811036183002109 -0.00542483023554021 0 -0.0090531527651540235 -0.0043712573363827037 0 -0.0078953000232678087 -0.0046551259961673044 0 -0.0098820650430885525 -0.0050878860264251856 0 -0.0088811036183002109 -0.00542483023554021 0 -0.0090531527651540235 -0.0043712573363827037 0 -0.0078953000232678087 -0.0046551259961673044 0 -0.0085400040714179153 -0.0033167058644879145 0 -0.0070379789709387386 -0.0034984003563535062 0 -0.0077184135451194517 -0.0024268573693709021 0 -0.0085400040714179153 -0.0033167058644879145 0 -0.0070379789709387386 -0.0034984003563535062 0 -0.0077184135451194517 -0.0024268573693709021 0 -0.0075329410653580346 -0.001436664829522245 0 -0.0089765866108672768 -0.0017316301948396614 0 -0.0077184135451194517 -0.0024268573693709021 0 -0.0085400040714179153 -0.0033167058644879145 0 -0.0089765866108672768 -0.0017316301948396614 0 -0.0085400040714179153 -0.0033167058644879145 0 -0.0097891810983493314 -0.0031849030301294491 0 -0.0089765866108672768 -0.0017316301948396614 0 -0.0097891810983493314 -0.0031849030301294491 0 -0.010235486188527895 -0.0023130640399994626 0 -0.0089765866108672768 -0.0017316301948396614 0 -0.0090531527651540235 -0.0043712573363827037 0 -0.0085400040714179153 -0.0033167058644879145 0 -0.0097891810983493314 -0.0031849030301294491 0 -0.010200777749102488 -0.0041970310291915384 0 -0.0090531527651540235 -0.0043712573363827037 0 -0.0097891810983493314 -0.0031849030301294491 0 -0.010200777749102488 -0.0041970310291915384 0 -0.010747958759764507 -0.0036062742473769939 0 -0.0097891810983493314 -0.0031849030301294491 0 -0.010200777749102488 -0.0041970310291915384 0 -0.010919274877966867 -0.0043008244949157368 0 -0.010747958759764507 -0.0036062742473769939 0 -0.010747958759764507 -0.0036062742473769939 0 -0.0097891810983493314 -0.0031849030301294491 0 -0.010767250392546734 -0.002857156551126993 0 -0.010919274877966867 -0.0043008244949157368 0 -0.010747958759764507 -0.0036062742473769939 0 -0.0111700503233211 -0.0037506333593116865 0 -0.010919274877966867 -0.0043008244949157368 0 -0.011724764251111137 -0.0038315646020793525 0 -0.0111700503233211 -0.0037506333593116865 0 -0.011724764251111137 -0.0038315646020793525 0 -0.0111700503233211 -0.0037506333593116865 0 -0.011284171070249338 -0.003262463670101723 0 -0.010747958759764507 -0.0036062742473769939 0 -0.0111700503233211 -0.0037506333593116865 0 -0.011284171070249338 -0.003262463670101723 0 -0.010747958759764507 -0.0036062742473769939 0 -0.011284171070249338 -0.003262463670101723 0 -0.010767250392546734 -0.002857156551126993 0 -0.011724764251111137 -0.0038315646020793525 0 -0.011284171070249338 -0.003262463670101723 0 -0.011821505974598624 -0.0028252440011728723 0 -0.011724764251111137 -0.0038315646020793525 0 -0.011821505974598624 -0.0028252440011728723 0 -0.012636562024375173 -0.0022464663992889425 0 -0.011821505974598624 -0.0028252440011728723 0 -0.011452305871225395 -0.0026161135068585974 0 -0.01185485304643078 -0.0021274427945541402 0 -0.011284171070249338 -0.003262463670101723 0 -0.011452305871225395 -0.0026161135068585974 0 -0.010767250392546734 -0.002857156551126993 0 -0.011452305871225395 -0.0026161135068585974 0 -0.01110492342309651 -0.0021621745643510526 0 -0.010767250392546734 -0.002857156551126993 0 -0.011284171070249338 -0.003262463670101723 0 -0.011821505974598624 -0.0028252440011728723 0 -0.011452305871225395 -0.0026161135068585974 0 -0.011452305871225395 -0.0026161135068585974 0 -0.01110492342309651 -0.0021621745643510526 0 -0.01185485304643078 -0.0021274427945541402 0 -0.01110492342309651 -0.0021621745643510526 0 -0.01185485304643078 -0.0021274427945541402 0 -0.011667220941481661 -0.001530917871595913 0 -0.011821505974598624 -0.0028252440011728723 0 -0.01185485304643078 -0.0021274427945541402 0 -0.012636562024375173 -0.0022464663992889425 0 -0.010235486188527895 -0.0023130640399994626 0 -0.010603690356729463 -0.0015197570336279915 0 -0.0089765866108672768 -0.0017316301948396614 0 -0.0097891810983493314 -0.0031849030301294491 0 -0.010767250392546734 -0.002857156551126993 0 -0.010235486188527895 -0.0023130640399994626 0 -0.01110492342309651 -0.0021621745643510526 0 -0.010767250392546734 -0.002857156551126993 0 -0.010235486188527895 -0.0023130640399994626 0 -0.01110492342309651 -0.0021621745643510526 0 -0.010235486188527895 -0.0023130640399994626 0 -0.010603690356729463 -0.0015197570336279915 0 -0.0099289672712144384 -0.00080704331446820551 0 -0.010603690356729463 -0.0015197570336279915 0 -0.011590165694240298 -0.00044842115468425077 0 -0.0099289672712144384 -0.00080704331446820551 0 -0.010603690356729463 -0.0015197570336279915 0 -0.0089765866108672768 -0.0017316301948396614 0 -0.010603690356729463 -0.0015197570336279915 0 -0.011667220941481661 -0.001530917871595913 0 -0.011590165694240298 -0.00044842115468425077 0 -0.011667220941481661 -0.001530917871595913 0 -0.011590165694240298 -0.00044842115468425077 0 -0.01275529191012308 -0.0012029382300606797 0 -0.01185485304643078 -0.0021274427945541402 0 -0.011667220941481661 -0.001530917871595913 0 -0.012410515750874889 -0.0018098064120192401 0 -0.01110492342309651 -0.0021621745643510526 0 -0.010603690356729463 -0.0015197570336279915 0 -0.011667220941481661 -0.001530917871595913 0 -0.0099289672712144384 -0.00080704331446820551 0 -0.0091308855387625832 -3.8799866342551597e-05 0 -0.01039515128491373 0.00063238769238850643 0 -0.0099289672712144384 -0.00080704331446820551 0 -0.011590165694240298 -0.00044842115468425077 0 -0.01039515128491373 0.00063238769238850643 0 -0.0091308855387625832 -3.8799866342551597e-05 0 -0.0078484686650877687 -0.00027085418172508594 0 -0.0089765866108672768 -0.0017316301948396614 0 -0.0091308855387625832 -3.8799866342551597e-05 0 -0.0078484686650877687 -0.00027085418172508594 0 -0.0090468122187021723 0.0013338671394701412 0 -0.0078484686650877687 -0.00027085418172508594 0 -0.0075329410653580346 -0.001436664829522245 0 -0.0089765866108672768 -0.0017316301948396614 0 -0.0099289672712144384 -0.00080704331446820551 0 -0.0091308855387625832 -3.8799866342551597e-05 0 -0.0089765866108672768 -0.0017316301948396614 0 -0.015263471399545651 -4.8303112497270791e-05 0 -0.015431151018324145 0.00015302186229138845 0 -0.015055209064182911 0.00017866928103783472 0 -0.015538622623376247 -1.1673193093825609e-05 0 -0.015667574083855895 0.00017354086832657294 0 -0.015431151018324145 0.00015302186229138845 0 -0.015263471399545651 -4.8303112497270791e-05 0 -0.015538622623376247 -1.1673193093825609e-05 0 -0.015431151018324145 0.00015302186229138845 0 -0.015263471399545651 -4.8303112497270791e-05 0 -0.015538622623376247 -1.1673193093825609e-05 0 -0.015431000778997641 -0.00028305999201171209 0 -0.015538622623376247 -1.1673193093825609e-05 0 -0.015745244747113262 -5.0792355553660466e-05 0 -0.015431000778997641 -0.00028305999201171209 0 -0.015538622623376247 -1.1673193093825609e-05 0 -0.015745244747113262 -5.0792355553660466e-05 0 -0.015824834389345978 0.00011763925786529455 0 -0.015745244747113262 -5.0792355553660466e-05 0 -0.015824834389345978 0.00011763925786529455 0 -0.016005425453610184 0.00012274527606231169 0 -0.015538622623376247 -1.1673193093825609e-05 0 -0.015824834389345978 0.00011763925786529455 0 -0.015667574083855895 0.00017354086832657294 0 -0.015824834389345978 0.00011763925786529455 0 -0.015667574083855895 0.00017354086832657294 0 -0.015885155456164115 0.00028177964939343878 0 -0.015667574083855895 0.00017354086832657294 0 -0.015885155456164115 0.00028177964939343878 0 -0.015686669463651295 0.00029860675121270021 0 -0.015824834389345978 0.00011763925786529455 0 -0.015885155456164115 0.00028177964939343878 0 -0.016003563933344608 0.00023821438940434806 0 -0.015885155456164115 0.00028177964939343878 0 -0.016038261280974471 0.00039831019293170536 0 -0.015878760812412438 0.00039223196630533273 0 -0.015885155456164115 0.00028177964939343878 0 -0.01604507000291568 0.00032165640111867075 0 -0.016038261280974471 0.00039831019293170536 0 -0.015885155456164115 0.00028177964939343878 0 -0.01604507000291568 0.00032165640111867075 0 -0.016003563933344608 0.00023821438940434806 0 -0.015885155456164115 0.00028177964939343878 0 -0.015686669463651295 0.00029860675121270021 0 -0.015878760812412438 0.00039223196630533273 0 -0.015502458898402401 0.00033905317125885515 0 -0.015431151018324145 0.00015302186229138845 0 -0.015055209064182911 0.00017866928103783472 0 -0.015686669463651295 0.00029860675121270021 0 -0.015502458898402401 0.00033905317125885515 0 -0.015735961352382838 0.00048367905826561547 0 -0.015502458898402401 0.00033905317125885515 0 -0.015055209064182911 0.00017866928103783472 0 -0.015400712125981906 0.00067848766306195991 0 -0.015686669463651295 0.00029860675121270021 0 -0.015502458898402401 0.00033905317125885515 0 -0.015431151018324145 0.00015302186229138845 0 -0.015667574083855895 0.00017354086832657294 0 -0.015686669463651295 0.00029860675121270021 0 -0.015431151018324145 0.00015302186229138845 0 -0.013964478852457836 -0.00091224940191913986 0 -0.013142824576680319 -0.00021412105749435881 0 -0.014016643929706729 0.00036074814976576043 0 -0.014447776585799816 -0.00029715796862501466 0 -0.0148028006767253 0.00026613035486458059 0 -0.013964478852457836 -0.00091224940191913986 0 -0.013142824576680319 -0.00021412105749435881 0 -0.01275529191012308 -0.0012029382300606797 0 -0.011590165694240298 -0.00044842115468425077 0 -0.013142824576680319 -0.00021412105749435881 0 -0.012740581651388744 0.00067119518901418828 0 -0.011590165694240298 -0.00044842115468425077 0 -0.013142824576680319 -0.00021412105749435881 0 -0.01275529191012308 -0.0012029382300606797 0 -0.013964478852457836 -0.00091224940191913986 0 -0.01275529191012308 -0.0012029382300606797 0 -0.012843520180621704 -0.0023591562600206208 0 -0.01275529191012308 -0.0012029382300606797 0 -0.012410515750874889 -0.0018098064120192401 0 -0.012843520180621704 -0.0023591562600206208 0 -0.011667220941481661 -0.001530917871595913 0 -0.01275529191012308 -0.0012029382300606797 0 -0.012410515750874889 -0.0018098064120192401 0 -0.014447776585799816 -0.00029715796862501466 0 -0.01391707317374947 -0.0010884139014632965 0 -0.015055209064182911 0.00017866928103783472 0 -0.014939728979493578 -0.00015289660780544684 0 -0.014583782544573381 -0.0002150007630106073 0 -0.015263471399545651 -4.8303112497270791e-05 0 -0.015055209064182911 0.00017866928103783472 0 -0.014939728979493578 -0.00015289660780544684 0 -0.015263471399545651 -4.8303112497270791e-05 0 -0.014939728979493578 -0.00015289660780544684 0 -0.015018975193637736 -0.00035435972024037423 0 -0.014939728979493578 -0.00015289660780544684 0 -0.014768927431242704 -0.00037138444111541687 0 -0.014583782544573381 -0.0002150007630106073 0 -0.014939728979493578 -0.00015289660780544684 0 -0.014768927431242704 -0.00037138444111541687 0 -0.015018975193637736 -0.00035435972024037423 0 -0.013032542296324218 -0.0021746496498470064 0 -0.012636562024375173 -0.0022464663992889425 0 -0.012843520180621704 -0.0023591562600206208 0 -0.012410515750874889 -0.0018098064120192401 0 -0.012636562024375173 -0.0022464663992889425 0 -0.012843520180621704 -0.0023591562600206208 0 -0.01185485304643078 -0.0021274427945541402 0 -0.012410515750874889 -0.0018098064120192401 0 -0.012636562024375173 -0.0022464663992889425 0 -0.013032542296324218 -0.0021746496498470064 0 -0.012843520180621704 -0.0023591562600206208 0 -0.01296995255283854 -0.0020479026331638715 0 -0.012275348641966647 -0.0028974159576746366 0 -0.01243354780422634 -0.0025863506993806635 0 -0.014583782544573381 -0.0002150007630106073 0 -0.014536466690949114 -0.00057536934150718272 0 -0.014020605996532544 -0.00074705676737747771 0 -0.01391707317374947 -0.0010884139014632965 0 -0.01364388946700652 -0.0014394036270060655 0 -0.014768927431242704 -0.00037138444111541687 0 -0.014583782544573381 -0.0002150007630106073 0 -0.014536466690949114 -0.00057536934150718272 0 -0.015018975193637736 -0.00035435972024037423 0 -0.014812108233080339 -0.0005623143661283329 0 -0.014997235224232049 -0.00058725523790663803 0 -0.014768927431242704 -0.00037138444111541687 0 -0.015018975193637736 -0.00035435972024037423 0 -0.014812108233080339 -0.0005623143661283329 0 -0.014768927431242704 -0.00037138444111541687 0 -0.014536466690949114 -0.00057536934150718272 0 -0.014812108233080339 -0.0005623143661283329 0 -0.014536466690949114 -0.00057536934150718272 0 -0.014812108233080339 -0.0005623143661283329 0 -0.014649089441826201 -0.00076456506914482803 0 -0.014812108233080339 -0.0005623143661283329 0 -0.014934339521414996 -0.00073586286008620104 0 -0.014649089441826201 -0.00076456506914482803 0 -0.014812108233080339 -0.0005623143661283329 0 -0.014997235224232049 -0.00058725523790663803 0 -0.014934339521414996 -0.00073586286008620104 0 -0.014997235224232049 -0.00058725523790663803 0 -0.015173657514619656 -0.00053257113631347496 0 -0.015138891838149735 -0.00071210663030449003 0 -0.014997235224232049 -0.00058725523790663803 0 -0.015138891838149735 -0.00071210663030449003 0 -0.014934339521414996 -0.00073586286008620104 0 -0.015173657514619656 -0.00053257113631347496 0 -0.015375311062166408 -0.00051494610587260545 0 -0.015328977561902716 -0.00068394400915821913 0 -0.015173657514619656 -0.00053257113631347496 0 -0.015328977561902716 -0.00068394400915821913 0 -0.015138891838149735 -0.00071210663030449003 0 -0.015173657514619656 -0.00053257113631347496 0 -0.015431000778997641 -0.00028305999201171209 0 -0.015375311062166408 -0.00051494610587260545 0 -0.015018975193637736 -0.00035435972024037423 0 -0.014997235224232049 -0.00058725523790663803 0 -0.015173657514619656 -0.00053257113631347496 0 -0.015263471399545651 -4.8303112497270791e-05 0 -0.015018975193637736 -0.00035435972024037423 0 -0.015431000778997641 -0.00028305999201171209 0 -0.015018975193637736 -0.00035435972024037423 0 -0.015173657514619656 -0.00053257113631347496 0 -0.015431000778997641 -0.00028305999201171209 0 -0.015431000778997641 -0.00028305999201171209 0 -0.015559680835922235 -0.00050031408645141782 0 -0.015775665520723337 -0.00023024294538859477 0 -0.015745244747113262 -5.0792355553660466e-05 0 -0.015431000778997641 -0.00028305999201171209 0 -0.015775665520723337 -0.00023024294538859477 0 -0.015431000778997641 -0.00028305999201171209 0 -0.015559680835922235 -0.00050031408645141782 0 -0.015375311062166408 -0.00051494610587260545 0 -0.015559680835922235 -0.00050031408645141782 0 -0.015375311062166408 -0.00051494610587260545 0 -0.015328977561902716 -0.00068394400915821913 0 -0.015559680835922235 -0.00050031408645141782 0 -0.015328977561902716 -0.00068394400915821913 0 -0.015470722508619599 -0.00074711643745406975 0 -0.015559680835922235 -0.00050031408645141782 0 -0.015470722508619599 -0.00074711643745406975 0 -0.015550608686051237 -0.00074565237932322265 0 -0.015470722508619599 -0.00074711643745406975 0 -0.015540610438865477 -0.00081984016896325404 0 -0.015358893124236632 -0.00084649222459567584 0 -0.015470722508619599 -0.00074711643745406975 0 -0.015540610438865477 -0.00081984016896325404 0 -0.015550608686051237 -0.00074565237932322265 0 -0.015540610438865477 -0.00081984016896325404 0 -0.015358893124236632 -0.00084649222459567584 0 -0.015274816897566454 -0.0010417491790402761 0 -0.015328977561902716 -0.00068394400915821913 0 -0.015470722508619599 -0.00074711643745406975 0 -0.015358893124236632 -0.00084649222459567584 0 -0.015328977561902716 -0.00068394400915821913 0 -0.015138891838149735 -0.00071210663030449003 0 -0.015146460738488472 -0.00089460615926823537 0 -0.015328977561902716 -0.00068394400915821913 0 -0.015358893124236632 -0.00084649222459567584 0 -0.015146460738488472 -0.00089460615926823537 0 -0.014934339521414996 -0.00073586286008620104 0 -0.015146460738488472 -0.00089460615926823537 0 -0.014798496893575049 -0.0009603800516742269 0 -0.015138891838149735 -0.00071210663030449003 0 -0.014934339521414996 -0.00073586286008620104 0 -0.015146460738488472 -0.00089460615926823537 0 -0.015146460738488472 -0.00089460615926823537 0 -0.014972699120655159 -0.001170141702609424 0 -0.014798496893575049 -0.0009603800516742269 0 -0.015146460738488472 -0.00089460615926823537 0 -0.015274816897566454 -0.0010417491790402761 0 -0.014972699120655159 -0.001170141702609424 0 -0.015358893124236632 -0.00084649222459567584 0 -0.015146460738488472 -0.00089460615926823537 0 -0.015274816897566454 -0.0010417491790402761 0 -0.015274816897566454 -0.0010417491790402761 0 -0.014972699120655159 -0.001170141702609424 0 -0.015316851755614551 -0.00137750894823886 0 -0.014972699120655159 -0.001170141702609424 0 -0.015316851755614551 -0.00137750894823886 0 -0.014707844868838969 -0.0015517633304602812 0 -0.014835456082038593 -0.0010806203427460154 0 -0.014452586551701617 -0.0012488081492774902 0 -0.015540610438865477 -0.00081984016896325404 0 -0.015274816897566454 -0.0010417491790402761 0 -0.015316851755614551 -0.00137750894823886 0 -0.014756916826243999 -0.00080119769412988879 0 -0.014975755933546071 -0.00095558097638888037 0 -0.015038677443281561 -0.00077164790740639978 0 -0.015540610438865477 -0.00081984016896325404 0 -0.01567073716501342 -0.00064007171177839879 0 -0.015502970660452899 -0.00066811390103428063 0 -0.014835456082038593 -0.0010806203427460154 0 -0.015121766594276507 -0.00095854128437517449 0 -0.015067396467057141 -0.00090235253235090222 0 -0.014835456082038593 -0.0010806203427460154 0 -0.014020605996532544 -0.00074705676737747771 0 -0.01419309458916485 -0.00098041060844329827 0 -0.013953106181853926 -0.0011851190344905364 0 -0.01419309458916485 -0.00098041060844329827 0 -0.014180306568536976 -0.0011440693333676928 0 -0.013953106181853926 -0.0011851190344905364 0 -0.014020605996532544 -0.00074705676737747771 0 -0.014354918430839532 -0.00081126380753262085 0 -0.01419309458916485 -0.00098041060844329827 0 -0.014536466690949114 -0.00057536934150718272 0 -0.014020605996532544 -0.00074705676737747771 0 -0.014354918430839532 -0.00081126380753262085 0 -0.01419309458916485 -0.00098041060844329827 0 -0.014439457579758666 -0.00101963549738516 0 -0.014180306568536976 -0.0011440693333676928 0 -0.014354918430839532 -0.00081126380753262085 0 -0.01419309458916485 -0.00098041060844329827 0 -0.014439457579758666 -0.00101963549738516 0 -0.014439457579758666 -0.00101963549738516 0 -0.014798496893575049 -0.0009603800516742269 0 -0.014607766570863627 -0.0012117872438689287 0 -0.014439457579758666 -0.00101963549738516 0 -0.014649089441826201 -0.00076456506914482803 0 -0.014798496893575049 -0.0009603800516742269 0 -0.014536466690949114 -0.00057536934150718272 0 -0.014354918430839532 -0.00081126380753262085 0 -0.014649089441826201 -0.00076456506914482803 0 -0.014354918430839532 -0.00081126380753262085 0 -0.014439457579758666 -0.00101963549738516 0 -0.014649089441826201 -0.00076456506914482803 0 -0.014934339521414996 -0.00073586286008620104 0 -0.014649089441826201 -0.00076456506914482803 0 -0.014798496893575049 -0.0009603800516742269 0 -0.014972699120655159 -0.001170141702609424 0 -0.014798496893575049 -0.0009603800516742269 0 -0.014607766570863627 -0.0012117872438689287 0 -0.014972699120655159 -0.001170141702609424 0 -0.014607766570863627 -0.0012117872438689287 0 -0.014707844868838969 -0.0015517633304602812 0 -0.014607766570863627 -0.0012117872438689287 0 -0.014203622026984287 -0.0013221214937128723 0 -0.014707844868838969 -0.0015517633304602812 0 -0.014439457579758666 -0.00101963549738516 0 -0.014607766570863627 -0.0012117872438689287 0 -0.014203622026984287 -0.0013221214937128723 0 -0.014203622026984287 -0.0013221214937128723 0 -0.013831478070340974 -0.0015389873302395455 0 -0.014707844868838969 -0.0015517633304602812 0 -0.014439457579758666 -0.00101963549738516 0 -0.014180306568536976 -0.0011440693333676928 0 -0.014203622026984287 -0.0013221214937128723 0 -0.014180306568536976 -0.0011440693333676928 0 -0.014203622026984287 -0.0013221214937128723 0 -0.01399571584383732 -0.0013378029589472314 0 -0.013806261784465777 -0.0014417745467192272 0 -0.01399571584383732 -0.0013378029589472314 0 -0.013831478070340974 -0.0015389873302395455 0 -0.014203622026984287 -0.0013221214937128723 0 -0.01399571584383732 -0.0013378029589472314 0 -0.013831478070340974 -0.0015389873302395455 0 -0.013806261784465777 -0.0014417745467192272 0 -0.01399571584383732 -0.0013378029589472314 0 -0.013953106181853926 -0.0011851190344905364 0 -0.014180306568536976 -0.0011440693333676928 0 -0.01399571584383732 -0.0013378029589472314 0 -0.013953106181853926 -0.0011851190344905364 0 -0.014261200302165877 -0.0013123868575281932 0 -0.014452586551701617 -0.0012488081492774902 0 -0.012899974971648779 -0.0023706261689555291 0 -0.013386435926714887 -0.0019937876241478843 0 -0.013696685469592141 -0.0016390257310313924 0 -0.013831478070340974 -0.0015389873302395455 0 -0.013849972078438699 -0.0014644212213323939 0 -0.013831478070340974 -0.0015389873302395455 0 -0.013849972078438699 -0.0014644212213323939 0 -0.013958974904532743 -0.0013593562463712038 0 -0.012638271989005802 -0.0016173656448029304 0 -0.013849972078438699 -0.0014644212213323939 0 -0.013471945790227738 -0.0016792277368836222 0 -0.013849972078438699 -0.0014644212213323939 0 -0.013471945790227738 -0.0016792277368836222 0 -0.013813722299643278 -0.0016430062959494191 0 -0.013813722299643278 -0.0016430062959494191 0 -0.013958974904532743 -0.0013593562463712038 0 -0.014135724755973883 -0.0018136172725398438 0 -0.013849972078438699 -0.0014644212213323939 0 -0.013813722299643278 -0.0016430062959494191 0 -0.013958974904532743 -0.0013593562463712038 0 -0.013813722299643278 -0.0016430062959494191 0 -0.014135724755973883 -0.0018136172725398438 0 -0.01347761975032187 -0.0019929807411113195 0 -0.013603933951535549 -0.0026342153224036468 0 -0.014135724755973883 -0.0018136172725398438 0 -0.01347761975032187 -0.0019929807411113195 0 -0.013598260013984079 -0.0020719201372661586 0 -0.014245772246312509 -0.001542990950755728 0 -0.012638271989005802 -0.0016173656448029304 0 -0.013471945790227738 -0.0016792277368836222 0 -0.01347761975032187 -0.0019929807411113195 0 -0.013471945790227738 -0.0016792277368836222 0 -0.013813722299643278 -0.0016430062959494191 0 -0.01347761975032187 -0.0019929807411113195 0 -0.013247572577778604 -0.0023426204122854351 0 -0.012880289822430901 -0.0021712194505069588 0 -0.01347761975032187 -0.0019929807411113195 0 -0.014756916826243999 -0.00080119769412988879 0 -0.014975755933546071 -0.00095558097638888037 0 -0.014814577903653921 -0.0011410482933215534 0 -0.014975755933546071 -0.00095558097638888037 0 -0.014814577903653921 -0.0011410482933215534 0 -0.015164669926523039 -0.0011596042063789838 0 -0.014756916826243999 -0.00080119769412988879 0 -0.014447212228392747 -0.0011718252338580419 0 -0.014814577903653921 -0.0011410482933215534 0 -0.014835456082038593 -0.0010806203427460154 0 -0.014245772246312509 -0.001542990950755728 0 -0.01448959159401377 -0.0012667982746976782 0 -0.013958974904532743 -0.0013593562463712038 0 -0.014135724755973883 -0.0018136172725398438 0 -0.014514036364004211 -0.0014549973465373225 0 -0.014447212228392747 -0.0011718252338580419 0 -0.014685506019362153 -0.0013339421364270232 0 -0.014447212228392747 -0.0011718252338580419 0 -0.014685506019362153 -0.0013339421364270232 0 -0.014814577903653921 -0.0011410482933215534 0 -0.014848026357551251 -0.0015044482923773745 0 -0.014685506019362153 -0.0013339421364270232 0 -0.014814577903653921 -0.0011410482933215534 0 -0.014848026357551251 -0.0015044482923773745 0 -0.014814577903653921 -0.0011410482933215534 0 -0.015164669926523039 -0.0011596042063789838 0 -0.014334627303654104 -0.0016426630764013216 0 -0.014807836314309087 -0.0012567175489899345 0 -0.014975755933546071 -0.00095558097638888037 0 -0.015164669926523039 -0.0011596042063789838 0 -0.01517812892060276 -0.00091237283817939129 0 -0.014975755933546071 -0.00095558097638888037 0 -0.01517812892060276 -0.00091237283817939129 0 -0.015038677443281561 -0.00077164790740639978 0 -0.014762574141560509 -0.0011911344303802216 0 -0.015323961207946329 -0.00089255225569368575 0 -0.015398119939114999 -0.0011813060711312784 0 -0.015164669926523039 -0.0011596042063789838 0 -0.01517812892060276 -0.00091237283817939129 0 -0.015323961207946329 -0.00089255225569368575 0 -0.014807836314309087 -0.0012567175489899345 0 -0.015013345474577802 -0.0010868271751892026 0 -0.015302866392184601 -0.0015629900546150566 0 -0.014762574141560509 -0.0011911344303802216 0 -0.015398119939114999 -0.0011813060711312784 0 -0.015766719255565938 -0.0015750339452063008 0 -0.015302866392184601 -0.0015629900546150566 0 -0.015398119939114999 -0.0011813060711312784 0 -0.015766719255565938 -0.0015750339452063008 0 -0.015398119939114999 -0.0011813060711312784 0 -0.01566568719429328 -0.0010742399290307335 0 -0.014564822695259598 0.00022803655107581566 0 -0.014930962747318918 8.9602258538088467e-05 0 -0.015323961207946329 -0.00089255225569368575 0 -0.015398119939114999 -0.0011813060711312784 0 -0.01566568719429328 -0.0010742399290307335 0 -0.015323961207946329 -0.00089255225569368575 0 -0.015559866700568295 -0.00074225620773342665 0 -0.015422023607995093 -0.00073524782998521669 0 -0.015323961207946329 -0.00089255225569368575 0 -0.01566568719429328 -0.0010742399290307335 0 -0.015559866700568295 -0.00074225620773342665 0 -0.014930962747318918 8.9602258538088467e-05 0 -0.015200669531034095 -0.00012966839542000717 0 -0.014484130785715858 0.001530233826448354 0 -0.015045753863437594 0.00063315915782894653 0 -0.014213211392146683 0.00077606759392234378 0 -0.015045753863437594 0.00063315915782894653 0 -0.014923347217967441 0.00010170488803580913 0 -0.014213211392146683 0.00077606759392234378 0 -0.015200669531034095 -0.00012966839542000717 0 -0.015378752243295796 -0.00031208909459882702 0 -0.015045753863437594 0.00063315915782894653 0 -0.014923347217967441 0.00010170488803580913 0 -0.015492304125962988 -0.0002889649899650868 0 -0.015559866700568295 -0.00074225620773342665 0 -0.015495881397425805 -0.00067860005262850281 0 -0.015422023607995093 -0.00073524782998521669 0 -0.015559866700568295 -0.00074225620773342665 0 -0.015495881397425805 -0.00067860005262850281 0 -0.015582744188722852 -0.00060744244981026404 0 -0.015495881397425805 -0.00067860005262850281 0 -0.015422023607995093 -0.00073524782998521669 0 -0.015436455677001696 -0.00069001306632496663 0 -0.015422023607995093 -0.00073524782998521669 0 -0.015401454465325964 -0.0007334424544954512 0 -0.015436455677001696 -0.00069001306632496663 0 -0.015401454465325964 -0.0007334424544954512 0 -0.015436455677001696 -0.00069001306632496663 0 -0.015435666572171016 -0.00074557147493770808 0 -0.015401454465325964 -0.0007334424544954512 0 -0.015435666572171016 -0.00074557147493770808 0 -0.015329270744988249 -0.0007605145913705735 0 -0.015436455677001696 -0.00069001306632496663 0 -0.015458704651568546 -0.00070407750991431162 0 -0.015435666572171016 -0.00074557147493770808 0 -0.015458704651568546 -0.00070407750991431162 0 -0.015497570329350646 -0.00076252174968775919 0 -0.015435666572171016 -0.00074557147493770808 0 -0.015540610438865477 -0.00081984016896325404 0 -0.015497570329350646 -0.00076252174968775919 0 -0.015550608686051237 -0.00074565237932322265 0 -0.015458704651568546 -0.00070407750991431162 0 -0.015497570329350646 -0.00076252174968775919 0 -0.015550608686051237 -0.00074565237932322265 0 -0.015540610438865477 -0.00081984016896325404 0 -0.015497570329350646 -0.00076252174968775919 0 -0.015466132260602738 -0.00074933401831873178 0 -0.015497570329350646 -0.00076252174968775919 0 -0.015435666572171016 -0.00074557147493770808 0 -0.015466132260602738 -0.00074933401831873178 0 -0.015121766594276507 -0.00095854128437517449 0 -0.015201705259048121 -0.0009245197464753486 0 -0.015466132260602738 -0.00074933401831873178 0 -0.015502970660452899 -0.00066811390103428063 0 -0.015329270744988249 -0.0007605145913705735 0 -0.01517812892060276 -0.00091237283817939129 0 -0.015038677443281561 -0.00077164790740639978 0 -0.015329270744988249 -0.0007605145913705735 0 -0.015435666572171016 -0.00074557147493770808 0 -0.015466132260602738 -0.00074933401831873178 0 -0.015329270744988249 -0.0007605145913705735 0 -0.015540610438865477 -0.00081984016896325404 0 -0.015466132260602738 -0.00074933401831873178 0 -0.015502970660452899 -0.00066811390103428063 0 -0.01517812892060276 -0.00091237283817939129 0 -0.015323961207946329 -0.00089255225569368575 0 -0.015329270744988249 -0.0007605145913705735 0 -0.015323961207946329 -0.00089255225569368575 0 -0.015422023607995093 -0.00073524782998521669 0 -0.015329270744988249 -0.0007605145913705735 0 -0.015422023607995093 -0.00073524782998521669 0 -0.015401454465325964 -0.0007334424544954512 0 -0.015329270744988249 -0.0007605145913705735 0 -0.012060897531996925 0.0013639338486277663 0 -0.012595509978966494 0.0021284169166176439 0 -0.012845404378136862 0.001462763323974609 0 -0.011911842916141516 0.0011846119536626923 0 -0.012306427123543254 0.0018547239039847692 0 -0.011551494124224416 0.00088241286429142148 0 -0.012102190331311673 0.0015747974909574446 0 -0.011290211913917174 0.0013793804212905852 0 -0.012595509978966494 0.0021284169166176439 0 -0.012845404378136862 0.001462763323974609 0 -0.013374898816536567 0.0018544277930769102 0 -0.012060897531996925 0.0013639338486277663 0 -0.012845404378136862 0.001462763323974609 0 -0.01274429471886971 0.00084673038274092117 0 -0.012845404378136862 0.001462763323974609 0 -0.013374898816536567 0.0018544277930769102 0 -0.013463904689279303 0.0010345921555656465 0 -0.013374898816536567 0.0018544277930769102 0 -0.013857479785691504 0.0014688443341198396 0 -0.013463904689279303 0.0010345921555656465 0 -0.014011550536522243 0.0022788215270510364 0 -0.013374898816536567 0.0018544277930769102 0 -0.013857479785691504 0.0014688443341198396 0 -0.014011550536522243 0.0022788215270510364 0 -0.014484130785715858 0.001530233826448354 0 -0.013857479785691504 0.0014688443341198396 0 -0.014484130785715858 0.001530233826448354 0 -0.013857479785691504 0.0014688443341198396 0 -0.014213211392146683 0.00077606759392234378 0 -0.013857479785691504 0.0014688443341198396 0 -0.014213211392146683 0.00077606759392234378 0 -0.013463904689279303 0.0010345921555656465 0 -0.014213211392146683 0.00077606759392234378 0 -0.014104945625893007 0.00016275064866577382 0 -0.013562333519024731 0.00045029863116936131 0 -0.014923347217967441 0.00010170488803580913 0 -0.014213211392146683 0.00077606759392234378 0 -0.014104945625893007 0.00016275064866577382 0 -0.013998729563146272 0.00046086199391872387 0 -0.014158823039322373 0.00031876088550722643 0 -0.014104945625893007 0.00016275064866577382 0 -0.013562333519024731 0.00045029863116936131 0 -0.013599006586909435 -0.00019050679833095083 0 -0.013466943192051606 0.00042823143340122897 0 -0.012626012125051066 2.226978182511108e-05 0 -0.013480828236266973 -0.00019604308442470019 0 -0.013466943192051606 0.00042823143340122897 0 -0.013463904689279303 0.0010345921555656465 0 -0.01274429471886971 0.00084673038274092117 0 -0.013998729563146272 0.00046086199391872387 0 -0.013945407689249826 0.00059913541608106271 0 -0.014213211392146683 0.00077606759392234378 0 -0.013562333519024731 0.00045029863116936131 0 -0.013463904689279303 0.0010345921555656465 0 -0.012845404378136862 0.001462763323974609 0 -0.013463904689279303 0.0010345921555656465 0 -0.01274429471886971 0.00084673038274092117 0 -0.01274429471886971 0.00084673038274092117 0 -0.012626012125051066 2.226978182511108e-05 0 -0.012079576342050849 0.0006742609982828148 0 -0.013466943192051606 0.00042823143340122897 0 -0.01274429471886971 0.00084673038274092117 0 -0.012626012125051066 2.226978182511108e-05 0 -0.013163731214696226 0.00049019934585187738 0 -0.012495811010917384 0.00062024804525180187 0 -0.013412549399825342 0.00084930453421195196 0 -0.012630000542760037 0.00099935264889932556 0 -0.012633615270092463 0.00061286547998169706 0 -0.012626012125051066 2.226978182511108e-05 0 -0.012079576342050849 0.0006742609982828148 0 -0.011676183599680446 0.00031488414903103093 0 -0.012060897531996925 0.0013639338486277663 0 -0.01274429471886971 0.00084673038274092117 0 -0.012079576342050849 0.0006742609982828148 0 -0.013208781426481336 0.00012759583802228128 0 -0.01295937348749894 0.00037979645827070346 0 -0.012735761558875092 3.8629134635972814e-05 0 -0.013208781426481336 0.00012759583802228128 0 -0.01295937348749894 0.00037979645827070346 0 -0.013571252023078016 0.00035589555644399782 0 -0.013412549399825342 0.00084930453421195196 0 -0.01295937348749894 0.00037979645827070346 0 -0.012633615270092463 0.00061286547998169706 0 -0.013412549399825342 0.00084930453421195196 0 -0.01295937348749894 0.00037979645827070346 0 -0.013571252023078016 0.00035589555644399782 0 -0.013412549399825342 0.00084930453421195196 0 -0.013571252023078016 0.00035589555644399782 0 -0.013934244260897739 0.00069773956317068691 0 -0.013163731214696226 0.00049019934585187738 0 -0.014158823039322373 0.00031876088550722643 0 -0.013571252023078016 0.00035589555644399782 0 -0.013932487171672904 0.00019200529124425156 0 -0.013934244260897739 0.00069773956317068691 0 -0.014596327353385175 8.1531856510260681e-05 0 -0.014158823039322373 0.00031876088550722643 0 -0.016021705438738137 -6.3447987679983526e-05 0 -0.016046652365924043 -0.00046100259258862424 0 -0.015789439696478866 -0.00040301816899229601 0 -0.014923347217967441 0.00010170488803580913 0 -0.014104945625893007 0.00016275064866577382 0 -0.014395149526270244 -0.00034902295666543214 0 -0.014158823039322373 0.00031876088550722643 0 -0.014777460900144333 4.0502098448884244e-05 0 -0.014104945625893007 0.00016275064866577382 0 -0.013599006586909435 -0.00019050679833095083 0 -0.014395149526270244 -0.00034902295666543214 0 -0.016021705438738137 -6.3447987679983526e-05 0 -0.015789439696478866 -0.00040301816899229601 0 -0.015732940473447445 -0.0001651543048693508 0 -0.016021705438738137 -6.3447987679983526e-05 0 -0.015732940473447445 -0.0001651543048693508 0 -0.015810384732824513 5.8704826842210028e-05 0 -0.016021705438738137 -6.3447987679983526e-05 0 -0.015912320294970597 0.00024498290154248404 0 -0.015810384732824513 5.8704826842210028e-05 0 -0.015912320294970597 0.00024498290154248404 0 -0.015810384732824513 5.8704826842210028e-05 0 -0.01589279258029665 0.00029702786888135391 0 -0.014596327353385175 8.1531856510260681e-05 0 -0.014815270820102189 -4.0671833679437209e-05 0 -0.013932487171672904 0.00019200529124425156 0 -0.014036878756171373 -6.9347844709705258e-05 0 -0.01362522455731538 -5.4950406472733883e-05 0 -0.013208781426481336 0.00012759583802228128 0 -0.013571252023078016 0.00035589555644399782 0 -0.01362522455731538 -5.4950406472733883e-05 0 -0.013571252023078016 0.00035589555644399782 0 -0.013932487171672904 0.00019200529124425156 0 -0.01362522455731538 -5.4950406472733883e-05 0 -0.014036878756171373 -6.9347844709705258e-05 0 -0.01362522455731538 -5.4950406472733883e-05 0 -0.013991009788833058 -0.00016734491459724924 0 -0.01362522455731538 -5.4950406472733883e-05 0 -0.013476701473952437 -0.00021434389244358177 0 -0.013052415130350778 -0.00017957115697997663 0 -0.013208781426481336 0.00012759583802228128 0 -0.01362522455731538 -5.4950406472733883e-05 0 -0.013052415130350778 -0.00017957115697997663 0 -0.015478868547369004 -0.00045904008773194218 0 -0.015323843025513503 -0.00046634800000809997 0 -0.015536514956692789 -0.00013829749909313911 0 -0.015478868547369004 -0.00045904008773194218 0 -0.015323843025513503 -0.00046634800000809997 0 -0.015474015181696445 -0.00060020942190520715 0 -0.015559680835922235 -0.00050031408645141782 0 -0.015775665520723337 -0.00023024294538859477 0 -0.01608911030081964 -0.00029141176339721268 0 -0.015775665520723337 -0.00023024294538859477 0 -0.01608911030081964 -0.00029141176339721268 0 -0.016038070564838733 -1.6014249018772041e-06 0 -0.015458704651568546 -0.00070407750991431162 0 -0.015550608686051237 -0.00074565237932322265 0 -0.015323843025513503 -0.00046634800000809997 0 -0.015559680835922235 -0.00050031408645141782 0 -0.015550608686051237 -0.00074565237932322265 0 -0.01608911030081964 -0.00029141176339721268 0 -0.01568149007704071 -0.00040687180094902976 0 -0.015752189242145331 -0.00026065344271998357 0 -0.015458704651568546 -0.00070407750991431162 0 -0.015323843025513503 -0.00046634800000809997 0 -0.015427852754229691 -0.00062571878926238574 0 -0.015436455677001696 -0.00069001306632496663 0 -0.015458704651568546 -0.00070407750991431162 0 -0.015427852754229691 -0.00062571878926238574 0 -0.015436455677001696 -0.00069001306632496663 0 -0.015427852754229691 -0.00062571878926238574 0 -0.015474015181696445 -0.00060020942190520715 0 -0.015323843025513503 -0.00046634800000809997 0 -0.015427852754229691 -0.00062571878926238574 0 -0.015474015181696445 -0.00060020942190520715 0 -0.015495881397425805 -0.00067860005262850281 0 -0.015436455677001696 -0.00069001306632496663 0 -0.015474015181696445 -0.00060020942190520715 0 -0.015495881397425805 -0.00067860005262850281 0 -0.015474015181696445 -0.00060020942190520715 0 -0.015582744188722852 -0.00060744244981026404 0 -0.015478868547369004 -0.00045904008773194218 0 -0.015474015181696445 -0.00060020942190520715 0 -0.015582744188722852 -0.00060744244981026404 0 -0.015789439696478866 -0.00040301816899229601 0 -0.015395811493964727 -0.00033430157461444404 0 -0.015732940473447445 -0.0001651543048693508 0 -0.014923347217967441 0.00010170488803580913 0 -0.014395149526270244 -0.00034902295666543214 0 -0.015395811493964727 -0.00033430157461444404 0 -0.014777460900144333 4.0502098448884244e-05 0 -0.014963295281633563 -3.8244134251344323e-05 0 -0.014923347217967441 0.00010170488803580913 0 -0.015492304125962988 -0.0002889649899650868 0 -0.015395811493964727 -0.00033430157461444404 0 -0.015732940473447445 -0.0001651543048693508 0 -0.015576740159195024 -0.00016741942150952979 0 -0.015810384732824513 5.8704826842210028e-05 0 -0.015395811493964727 -0.00033430157461444404 0 -0.015732940473447445 -0.0001651543048693508 0 -0.015576740159195024 -0.00016741942150952979 0 -0.015478868547369004 -0.00045904008773194218 0 -0.015582744188722852 -0.00060744244981026404 0 -0.015536514956692789 -0.00013829749909313911 0 -0.015492304125962988 -0.0002889649899650868 0 -0.015576740159195024 -0.00016741942150952979 0 -0.015536514956692789 -0.00013829749909313911 0 -0.015492304125962988 -0.0002889649899650868 0 -0.015395811493964727 -0.00033430157461444404 0 -0.015576740159195024 -0.00016741942150952979 0 -0.015378752243295796 -0.00031208909459882702 0 -0.015414844261603985 -0.00028573802581570738 0 -0.015576740159195024 -0.00016741942150952979 0 -0.015726205401685636 6.4858981781401506e-05 0 -0.015536514956692789 -0.00013829749909313911 0 -0.015726205401685636 6.4858981781401506e-05 0 -0.015507622477162034 4.4665102521130386e-05 0 -0.015536514956692789 -0.00013829749909313911 0 -0.015576740159195024 -0.00016741942150952979 0 -0.015726205401685636 6.4858981781401506e-05 0 -0.015810384732824513 5.8704826842210028e-05 0 -0.015726205401685636 6.4858981781401506e-05 0 -0.016034203468767879 0.00032174489435705001 0 -0.01589279258029665 0.00029702786888135391 0 -0.015726205401685636 6.4858981781401506e-05 0 -0.015810384732824513 5.8704826842210028e-05 0 -0.01589279258029665 0.00029702786888135391 0 -0.015726205401685636 6.4858981781401506e-05 0 -0.015507622477162034 4.4665102521130386e-05 0 -0.016034203468767879 0.00032174489435705001 0 -0.016319869070672503 0.00022797438183946373 0 -0.016234833813869965 0.00032383587484692447 0 -0.016034203468767879 0.00032174489435705001 0 -0.015863858122588569 -2.585156041287883e-05 0 -0.015911672222478319 7.0854043203850229e-05 0 -0.016248393822950895 0.00027273027269842927 0 -0.016319869070672503 0.00022797438183946373 0 -0.016234833813869965 0.00032383587484692447 0 -0.01622062992130965 0.0002970666903545569 0 -0.016248393822950895 0.00027273027269842927 0 -0.016234833813869965 0.00032383587484692447 0 -0.01622062992130965 0.0002970666903545569 0 -0.016259355008082899 0.00034804878422904244 0 -0.016234833813869965 0.00032383587484692447 0 -0.016248393822950895 0.00027273027269842927 0 -0.016319869070672503 0.00022797438183946373 0 -0.016176966544505213 0.00019133412322800851 0 -0.01622062992130965 0.0002970666903545569 0 -0.016248393822950895 0.00027273027269842927 0 -0.016176966544505213 0.00019133412322800851 0 -0.015752189242145331 -0.00026065344271998357 0 -0.015863858122588569 -2.585156041287883e-05 0 -0.016319869070672503 0.00022797438183946373 0 -0.016176966544505213 0.00019133412322800851 0 -0.016038070564838733 -1.6014249018772041e-06 0 -0.01608911030081964 -0.00029141176339721268 0 -0.016319869070672503 0.00022797438183946373 0 -0.016038070564838733 -1.6014249018772041e-06 0 -0.015323843025513503 -0.00046634800000809997 0 -0.015507622477162034 4.4665102521130386e-05 0 -0.015536514956692789 -0.00013829749909313911 0 -0.015745244747113262 -5.0792355553660466e-05 0 -0.016038070564838733 -1.6014249018772041e-06 0 -0.016005425453610184 0.00012274527606231169 0 -0.015745244747113262 -5.0792355553660466e-05 0 -0.015775665520723337 -0.00023024294538859477 0 -0.016038070564838733 -1.6014249018772041e-06 0 -0.016176966544505213 0.00019133412322800851 0 -0.016038070564838733 -1.6014249018772041e-06 0 -0.016005425453610184 0.00012274527606231169 0 -0.016176966544505213 0.00019133412322800851 0 -0.016005425453610184 0.00012274527606231169 0 -0.016121127094213577 0.00023306811472260583 0 -0.015824834389345978 0.00011763925786529455 0 -0.016005425453610184 0.00012274527606231169 0 -0.016003563933344608 0.00023821438940434806 0 -0.016005425453610184 0.00012274527606231169 0 -0.016003563933344608 0.00023821438940434806 0 -0.016121127094213577 0.00023306811472260583 0 -0.016003563933344608 0.00023821438940434806 0 -0.016121127094213577 0.00023306811472260583 0 -0.016146229307415522 0.00030310181977332389 0 -0.01622062992130965 0.0002970666903545569 0 -0.016176966544505213 0.00019133412322800851 0 -0.016121127094213577 0.00023306811472260583 0 -0.01622062992130965 0.0002970666903545569 0 -0.016146229307415522 0.00030310181977332389 0 -0.016259355008082899 0.00034804878422904244 0 -0.01622062992130965 0.0002970666903545569 0 -0.016121127094213577 0.00023306811472260583 0 -0.016146229307415522 0.00030310181977332389 0 -0.01604507000291568 0.00032165640111867075 0 -0.016003563933344608 0.00023821438940434806 0 -0.016146229307415522 0.00030310181977332389 0 -0.01604507000291568 0.00032165640111867075 0 -0.016146229307415522 0.00030310181977332389 0 -0.016169658755067418 0.00037079161146668131 0 -0.016169658755067418 0.00037079161146668131 0 -0.016199033771905062 0.00042903652442175482 0 -0.016038261280974471 0.00039831019293170536 0 -0.016169658755067418 0.00037079161146668131 0 -0.016274078844025135 0.0003968141579874706 0 -0.016199033771905062 0.00042903652442175482 0 -0.016169658755067418 0.00037079161146668131 0 -0.016259355008082899 0.00034804878422904244 0 -0.016274078844025135 0.0003968141579874706 0 -0.016146229307415522 0.00030310181977332389 0 -0.016169658755067418 0.00037079161146668131 0 -0.016259355008082899 0.00034804878422904244 0 -0.016274078844025135 0.0003968141579874706 0 -0.016355414219934472 0.00044691869338365418 0 -0.016357902994380398 0.00035698203921156086 0 -0.016259355008082899 0.00034804878422904244 0 -0.016274078844025135 0.0003968141579874706 0 -0.016357902994380398 0.00035698203921156086 0 -0.016274078844025135 0.0003968141579874706 0 -0.016199033771905062 0.00042903652442175482 0 -0.016355414219934472 0.00044691869338365418 0 -0.016355414219934472 0.00044691869338365418 0 -0.016603028991515025 0.00028004385648145569 0 -0.016498283534045487 0.00045587044652491506 0 -0.016355414219934472 0.00044691869338365418 0 -0.016357902994380398 0.00035698203921156086 0 -0.016603028991515025 0.00028004385648145569 0 -0.016357902994380398 0.00035698203921156086 0 -0.016307679236653293 0.00025882067294907742 0 -0.016603028991515025 0.00028004385648145569 0 -0.016307679236653293 0.00025882067294907742 0 -0.016430651819323756 8.3036915753309049e-05 0 -0.016603028991515025 0.00028004385648145569 0 -0.016357902994380398 0.00035698203921156086 0 -0.016234833813869965 0.00032383587484692447 0 -0.016307679236653293 0.00025882067294907742 0 -0.016259355008082899 0.00034804878422904244 0 -0.016357902994380398 0.00035698203921156086 0 -0.016234833813869965 0.00032383587484692447 0 -0.016234833813869965 0.00032383587484692447 0 -0.016034203468767879 0.00032174489435705001 0 -0.016307679236653293 0.00025882067294907742 0 -0.016034203468767879 0.00032174489435705001 0 -0.01589279258029665 0.00029702786888135391 0 -0.016046110113205208 0.00014956622343036076 0 -0.016034203468767879 0.00032174489435705001 0 -0.016046110113205208 0.00014956622343036076 0 -0.016307679236653293 0.00025882067294907742 0 -0.016046110113205208 0.00014956622343036076 0 -0.016307679236653293 0.00025882067294907742 0 -0.016430651819323756 8.3036915753309049e-05 0 -0.016430651819323756 8.3036915753309049e-05 0 -0.016388206496080294 -0.00020367493132414301 0 -0.016759196074282556 -9.6337724307839776e-05 0 -0.016046110113205208 0.00014956622343036076 0 -0.016430651819323756 8.3036915753309049e-05 0 -0.016388206496080294 -0.00020367493132414301 0 -0.016046110113205208 0.00014956622343036076 0 -0.016388206496080294 -0.00020367493132414301 0 -0.016086714280382171 -0.00054934713474255506 0 -0.016388206496080294 -0.00020367493132414301 0 -0.016086714280382171 -0.00054934713474255506 0 -0.01677179140247248 -0.00065243883116345499 0 -0.016388206496080294 -0.00020367493132414301 0 -0.016759196074282556 -9.6337724307839776e-05 0 -0.01677179140247248 -0.00065243883116345499 0 -0.016759196074282556 -9.6337724307839776e-05 0 -0.01716267841413224 -0.00059737273267896815 0 -0.01677179140247248 -0.00065243883116345499 0 -0.016759196074282556 -9.6337724307839776e-05 0 -0.017181136308260785 -0.00025383880844889018 0 -0.01716267841413224 -0.00059737273267896815 0 -0.016759196074282556 -9.6337724307839776e-05 0 -0.017181136308260785 -0.00025383880844889018 0 -0.016810753164071563 0.00039893721666134336 0 -0.016603028991515025 0.00028004385648145569 0 -0.016810753164071563 0.00039893721666134336 0 -0.016498283534045487 0.00045587044652491506 0 -0.016759196074282556 -9.6337724307839776e-05 0 -0.016603028991515025 0.00028004385648145569 0 -0.016810753164071563 0.00039893721666134336 0 -0.016430651819323756 8.3036915753309049e-05 0 -0.016759196074282556 -9.6337724307839776e-05 0 -0.016603028991515025 0.00028004385648145569 0 -0.013640691188529749 -0.00026168602999710188 0 -0.013991009788833058 -0.00016734491459724924 0 -0.014222920700808503 -0.00021156527762610037 0 -0.013640691188529749 -0.00026168602999710188 0 -0.013476701473952437 -0.00021434389244358177 0 -0.013991009788833058 -0.00016734491459724924 0 -0.01362522455731538 -5.4950406472733883e-05 0 -0.013476701473952437 -0.00021434389244358177 0 -0.013991009788833058 -0.00016734491459724924 0 -0.013991009788833058 -0.00016734491459724924 0 -0.014409263293862015 -0.00011906854983307918 0 -0.014222920700808503 -0.00021156527762610037 0 -0.014938882511430334 -0.00020581457755204519 0 -0.014994524570417628 -0.00034818558895176002 0 -0.014036878756171373 -6.9347844709705258e-05 0 -0.013991009788833058 -0.00016734491459724924 0 -0.014409263293862015 -0.00011906854983307918 0 -0.014815270820102189 -4.0671833679437209e-05 0 -0.014938882511430334 -0.00020581457755204519 0 -0.015912320294970597 0.00024498290154248404 0 -0.01589279258029665 0.00029702786888135391 0 -0.0156373307112261 0.00025251225006311543 0 -0.016046110113205208 0.00014956622343036076 0 -0.0156373307112261 0.00025251225006311543 0 -0.015250466914821025 -0.00022972305639730822 0 -0.01589279258029665 0.00029702786888135391 0 -0.016046110113205208 0.00014956622343036076 0 -0.0156373307112261 0.00025251225006311543 0 -0.016046110113205208 0.00014956622343036076 0 -0.016086714280382171 -0.00054934713474255506 0 -0.015250466914821025 -0.00022972305639730822 0 -0.016086714280382171 -0.00054934713474255506 0 -0.015250466914821025 -0.00022972305639730822 0 -0.01547974811061196 -0.0006577162712874474 0 -0.015250466914821025 -0.00022972305639730822 0 -0.01445012532577376 -0.00046477490849582956 0 -0.01547974811061196 -0.0006577162712874474 0 -0.014409263293862015 -0.00011906854983307918 0 -0.015250466914821025 -0.00022972305639730822 0 -0.014222920700808503 -0.00021156527762610037 0 -0.015250466914821025 -0.00022972305639730822 0 -0.014222920700808503 -0.00021156527762610037 0 -0.01445012532577376 -0.00046477490849582956 0 -0.01445012532577376 -0.00046477490849582956 0 -0.014936869458057542 -0.00080232587302955945 0 -0.01547974811061196 -0.0006577162712874474 0 -0.01445012532577376 -0.00046477490849582956 0 -0.014022473906864345 -0.0005885865645873699 0 -0.014484905425248936 -0.00080035200698361361 0 -0.01445012532577376 -0.00046477490849582956 0 -0.014022473906864345 -0.0005885865645873699 0 -0.013873819185418997 -0.00034118941871368399 0 -0.014222920700808503 -0.00021156527762610037 0 -0.01445012532577376 -0.00046477490849582956 0 -0.013873819185418997 -0.00034118941871368399 0 -0.013640691188529749 -0.00026168602999710188 0 -0.014222920700808503 -0.00021156527762610037 0 -0.013873819185418997 -0.00034118941871368399 0 -0.014151896516899673 -0.0014810077315103433 0 -0.014218810381085504 -0.0010689198323776189 0 -0.014544643496945201 -0.0019527677077525566 0 -0.01572549728910105 -0.0010138387663596389 0 -0.016340622144969882 -0.0011879549817395184 0 -0.014151896516899673 -0.0014810077315103433 0 -0.014218810381085504 -0.0010689198323776189 0 -0.013764098016722581 -0.0010116934473316126 0 -0.014022473906864345 -0.0005885865645873699 0 -0.014218810381085504 -0.0010689198323776189 0 -0.013764098016722581 -0.0010116934473316126 0 -0.014022473906864345 -0.0005885865645873699 0 -0.014484905425248936 -0.00080035200698361361 0 -0.014218810381085504 -0.0010689198323776189 0 -0.01445012532577376 -0.00046477490849582956 0 -0.014484905425248936 -0.00080035200698361361 0 -0.014936869458057542 -0.00080232587302955945 0 -0.014484905425248936 -0.00080035200698361361 0 -0.014218810381085504 -0.0010689198323776189 0 -0.014998017032244361 -0.0012305410579157732 0 -0.014484905425248936 -0.00080035200698361361 0 -0.014936869458057542 -0.00080232587302955945 0 -0.014998017032244361 -0.0012305410579157732 0 -0.014218810381085504 -0.0010689198323776189 0 -0.014998017032244361 -0.0012305410579157732 0 -0.014738180145862027 -0.0019785716809304866 0 -0.014936869458057542 -0.00080232587302955945 0 -0.014998017032244361 -0.0012305410579157732 0 -0.015766315796860199 -0.0011471687409426591 0 -0.014998017032244361 -0.0012305410579157732 0 -0.015766315796860199 -0.0011471687409426591 0 -0.015945453116134472 -0.0017770737236121581 0 -0.014936869458057542 -0.00080232587302955945 0 -0.015766315796860199 -0.0011471687409426591 0 -0.01547974811061196 -0.0006577162712874474 0 -0.016086714280382171 -0.00054934713474255506 0 -0.01547974811061196 -0.0006577162712874474 0 -0.016416318428363403 -0.001027721744695343 0 -0.015766315796860199 -0.0011471687409426591 0 -0.01547974811061196 -0.0006577162712874474 0 -0.016416318428363403 -0.001027721744695343 0 -0.015766315796860199 -0.0011471687409426591 0 -0.016416318428363403 -0.001027721744695343 0 -0.016911837411980626 -0.0015428219624507885 0 -0.015766315796860199 -0.0011471687409426591 0 -0.015945453116134472 -0.0017770737236121581 0 -0.016911837411980626 -0.0015428219624507885 0 -0.017581421343261856 -0.0023595667392187704 0 -0.015945453116134472 -0.0017770737236121581 0 -0.016911837411980626 -0.0015428219624507885 0 -0.017465996772305849 -0.0019269983701414638 0 -0.017496200594737599 -0.0017530966066024195 0 -0.017581421343261856 -0.0023595667392187704 0 -0.015945453116134472 -0.0017770737236121581 0 -0.01573287026826399 -0.0030805259874623851 0 -0.014998017032244361 -0.0012305410579157732 0 -0.015945453116134472 -0.0017770737236121581 0 -0.014738180145862027 -0.0019785716809304866 0 -0.016340622144969882 -0.0011879549817395184 0 -0.017496200594737599 -0.0017530966066024195 0 -0.016832479574224016 -0.0011629284416620187 0 -0.017136068982277899 -0.0020241587320549556 0 -0.017454804052618827 -0.0019321139367056797 0 -0.016340622144969882 -0.0011879549817395184 0 -0.017874306948385543 -0.0015496032772248783 0 -0.016625734772844264 -0.00052294991897569164 0 -0.016623981137861552 -0.00053051934247249277 0 -0.016634443926601933 -0.00053738304049609736 0 -0.015945453116134472 -0.0017770737236121581 0 -0.014738180145862027 -0.0019785716809304866 0 -0.01573287026826399 -0.0030805259874623851 0 -0.016623981137861552 -0.00053051934247249277 0 -0.016614229124335037 -0.00052470193146022799 0 -0.016621788761380891 -0.00053709027611669542 0 -0.016625734772844264 -0.00052294991897569164 0 -0.016623981137861552 -0.00053051934247249277 0 -0.016614229124335037 -0.00052470193146022799 0 -0.016617134983167282 -0.0005158585585848418 0 -0.016625734772844264 -0.00052294991897569164 0 -0.016614229124335037 -0.00052470193146022799 0 -0.01569277093238676 -0.00086511834786094372 0 -0.016340622144969882 -0.0011879549817395184 0 -0.0174129258620958 -0.0011667153340024741 0 -0.017927534780968236 -0.0014754099008834674 0 -0.01770699201660577 -0.00088719746127828493 0 -0.017181136308260785 -0.00025383880844889018 0 -0.01716267841413224 -0.00059737273267896815 0 -0.01770699201660577 -0.00088719746127828493 0 -0.0174129258620958 -0.0011667153340024741 0 -0.01716267841413224 -0.00059737273267896815 0 -0.01770699201660577 -0.00088719746127828493 0 -0.0174129258620958 -0.0011667153340024741 0 -0.01716267841413224 -0.00059737273267896815 0 -0.01677179140247248 -0.00065243883116345499 0 -0.016086714280382171 -0.00054934713474255506 0 -0.016416318428363403 -0.001027721744695343 0 -0.01677179140247248 -0.00065243883116345499 0 -0.016416318428363403 -0.001027721744695343 0 -0.01677179140247248 -0.00065243883116345499 0 -0.01700137285302078 -0.0011840820293975945 0 -0.016416318428363403 -0.001027721744695343 0 -0.01700137285302078 -0.0011840820293975945 0 -0.016911837411980626 -0.0015428219624507885 0 -0.0174129258620958 -0.0011667153340024741 0 -0.01700137285302078 -0.0011840820293975945 0 -0.017483641662669892 -0.0015769367931687522 0 -0.0174129258620958 -0.0011667153340024741 0 -0.01677179140247248 -0.00065243883116345499 0 -0.01700137285302078 -0.0011840820293975945 0 -0.01700137285302078 -0.0011840820293975945 0 -0.017483641662669892 -0.0015769367931687522 0 -0.016911837411980626 -0.0015428219624507885 0 -0.017483641662669892 -0.0015769367931687522 0 -0.016911837411980626 -0.0015428219624507885 0 -0.017586316868900973 -0.00192475239176809 0 -0.017581421343261856 -0.0023595667392187704 0 -0.016911837411980626 -0.0015428219624507885 0 -0.017586316868900973 -0.00192475239176809 0 -0.017581421343261856 -0.0023595667392187704 0 -0.017586316868900973 -0.00192475239176809 0 -0.017986003862148558 -0.0020807923069790769 0 -0.017483641662669892 -0.0015769367931687522 0 -0.017967691213420525 -0.0019356980780450099 0 -0.017913177417882075 -0.0017224097984389227 0 -0.017586316868900973 -0.00192475239176809 0 -0.017967691213420525 -0.0019356980780450099 0 -0.017986003862148558 -0.0020807923069790769 0 -0.017483641662669892 -0.0015769367931687522 0 -0.017586316868900973 -0.00192475239176809 0 -0.017967691213420525 -0.0019356980780450099 0 -0.017967691213420525 -0.0019356980780450099 0 -0.018130151158861855 -0.0018847845858576172 0 -0.017913177417882075 -0.0017224097984389227 0 -0.018130151158861855 -0.0018847845858576172 0 -0.017913177417882075 -0.0017224097984389227 0 -0.018176016701962474 -0.0018495251616638204 0 -0.0174129258620958 -0.0011667153340024741 0 -0.017483641662669892 -0.0015769367931687522 0 -0.017913177417882075 -0.0017224097984389227 0 -0.0174129258620958 -0.0011667153340024741 0 -0.017913177417882075 -0.0017224097984389227 0 -0.017927534780968236 -0.0014754099008834674 0 -0.017479271565419244 -0.00011843302287976997 0 -0.017911698913671763 -0.00046695957493958116 0 -0.017913177417882075 -0.0017224097984389227 0 -0.017927534780968236 -0.0014754099008834674 0 -0.018163042645844205 -0.001858199722791455 0 -0.017913177417882075 -0.0017224097984389227 0 -0.018176016701962474 -0.0018495251616638204 0 -0.018163042645844205 -0.001858199722791455 0 -0.017115365319743597 0.001239319784258804 0 -0.017167535191472304 0.0011828693728619744 0 -0.017080122762734698 0.0011158515540592123 0 -0.017167535191472304 0.0011828693728619744 0 -0.017162060866060251 0.001114597697401477 0 -0.017080122762734698 0.0011158515540592123 0 -0.017167535191472304 0.0011828693728619744 0 -0.017243637309872602 0.0011121430365303537 0 -0.017162060866060251 0.001114597697401477 0 -0.017167535191472304 0.0011828693728619744 0 -0.017237387760683676 0.0012128337275524501 0 -0.017243637309872602 0.0011121430365303537 0 -0.017237387760683676 0.0012128337275524501 0 -0.017191243538499483 0.0012770362669117653 0 -0.017266501390925313 0.0012781585061734009 0 -0.017167535191472304 0.0011828693728619744 0 -0.017237387760683676 0.0012128337275524501 0 -0.017191243538499483 0.0012770362669117653 0 -0.017115365319743597 0.001239319784258804 0 -0.017167535191472304 0.0011828693728619744 0 -0.017191243538499483 0.0012770362669117653 0 -0.017191243538499483 0.0012770362669117653 0 -0.017201585482755358 0.0013681874870256688 0 -0.017160502110837028 0.0013541688010728029 0 -0.017115365319743597 0.001239319784258804 0 -0.017191243538499483 0.0012770362669117653 0 -0.017160502110837028 0.0013541688010728029 0 -0.017479271565419244 -0.00011843302287976997 0 -0.017082531774869032 0.00042779995444314586 0 -0.017201585482755358 0.0013681874870256688 0 -0.017170235267290446 0.0014076516742072766 0 -0.017183314432982207 0.0014715853920896057 0 -0.017748580987743401 0.0014732908167491053 0 -0.017914291482744735 0.0013863229434708342 0 -0.017191243538499483 0.0012770362669117653 0 -0.017201585482755358 0.0013681874870256688 0 -0.017266501390925313 0.0012781585061734009 0 -0.017201585482755358 0.0013681874870256688 0 -0.01716960990616441 0.0013597081294362497 0 -0.0171950659057526 0.0013774422435026631 0 -0.017082531774869032 0.00042779995444314586 0 -0.016594674302716703 0.0015250421118312831 0 -0.017201585482755358 0.0013681874870256688 0 -0.017160502110837028 0.0013541688010728029 0 -0.0171950659057526 0.0013774422435026631 0 -0.015556357605110554 0.0027707236888548895 0 -0.01488274946575867 0.0031402258208447185 0 -0.012540822742277658 0.0054353021074995435 0 -0.014472960607444888 0.0055395026559493894 0 -0.012587303315456962 0.0069119241833173967 0 -0.01716960990616441 0.0013597081294362497 0 -0.017123762238479077 0.0014415971129400768 0 -0.017170235267290446 0.0014076516742072766 0 -0.017201585482755358 0.0013681874870256688 0 -0.01716960990616441 0.0013597081294362497 0 -0.017170235267290446 0.0014076516742072766 0 -0.01716960990616441 0.0013597081294362497 0 -0.017123762238479077 0.0014415971129400768 0 -0.017043552162302921 0.0014298916588352153 0 -0.017123762238479077 0.0014415971129400768 0 -0.017170235267290446 0.0014076516742072766 0 -0.017183314432982207 0.0014715853920896057 0 -0.017123762238479077 0.0014415971129400768 0 -0.017183314432982207 0.0014715853920896057 0 -0.017100207684145531 0.0015243007072043922 0 -0.017123762238479077 0.0014415971129400768 0 -0.017043552162302921 0.0014298916588352153 0 -0.017100207684145531 0.0015243007072043922 0 -0.01488274946575867 0.0031402258208447185 0 -0.015203185841941467 0.0028185762716574389 0 -0.01701349966645619 0.0013986805461270676 0 -0.017049248053223304 0.0015237847805738625 0 -0.01695316612848629 0.0014430357123398311 0 -0.017780482727966347 0.0016557871483163617 0 -0.015987270452723735 0.0022027088734549068 0 -0.01701349966645619 0.0013986805461270676 0 -0.017049248053223304 0.0015237847805738625 0 -0.017100207684145531 0.0015243007072043922 0 -0.022365483412498614 1.5148556596087394e-05 0 -0.022426492701228689 2.1424327450825475e-05 0 -0.022426679685884399 6.4783715400132884e-05 0 -0.017049248053223304 0.0015237847805738625 0 -0.017100207684145531 0.0015243007072043922 0 -0.017135802262621073 0.0015926591206403529 0 -0.022365483412498614 1.5148556596087394e-05 0 -0.022204630337948204 -0.00011735736849548975 0 -0.022365194879192134 -0.0001258763919036913 0 -0.017780482727966347 0.0016557871483163617 0 -0.018586103225797797 0.00085359350216919938 0 -0.022365483412498614 1.5148556596087394e-05 0 -0.022421861915826586 -6.6693157161461247e-05 0 -0.022426492701228689 2.1424327450825475e-05 0 -0.022365483412498614 1.5148556596087394e-05 0 -0.022421861915826586 -6.6693157161461247e-05 0 -0.022365194879192134 -0.0001258763919036913 0 -0.017237387760683676 0.0012128337275524501 0 -0.017266501390925313 0.0012781585061734009 0 -0.017317765121532651 0.0011808957957151717 0 -0.017183314432982207 0.0014715853920896057 0 -0.017100207684145531 0.0015243007072043922 0 -0.017135802262621073 0.0015926591206403529 0 -0.017914291482744735 0.0013863229434708342 0 -0.018586103225797797 0.00085359350216919938 0 -0.018586103225797797 0.00085359350216919938 0 -0.018737717984337231 -0.00024882220777401153 0 -0.018803576135861342 -0.00020348637314275349 0 -0.018578877513740572 0.00027630359482009827 0 -0.019305387811070256 0.00024981810273816787 0 -0.017237387760683676 0.0012128337275524501 0 -0.017317765121532651 0.0011808957957151717 0 -0.017243637309872602 0.0011121430365303537 0 -0.018586103225797797 0.00085359350216919938 0 -0.020265818348708033 -0.0003603645149289652 0 -0.022431793345704477 -0.00014585181353878298 0 -0.022365194879192134 -0.0001258763919036913 0 -0.022424872371021864 -0.00021574797770875577 0 -0.022421861915826586 -6.6693157161461247e-05 0 -0.022431793345704477 -0.00014585181353878298 0 -0.022479178309746023 -0.00012651856489018053 0 -0.022421861915826586 -6.6693157161461247e-05 0 -0.022431793345704477 -0.00014585181353878298 0 -0.022365194879192134 -0.0001258763919036913 0 -0.022204630337948204 -0.00011735736849548975 0 -0.022365194879192134 -0.0001258763919036913 0 -0.02233666369162194 -0.00020554723751060834 0 -0.02233666369162194 -0.00020554723751060834 0 -0.022387295038218465 -0.00025891731091834505 0 -0.022294135217109334 -0.00031046815919088069 0 -0.022204630337948204 -0.00011735736849548975 0 -0.02233666369162194 -0.00020554723751060834 0 -0.022294135217109334 -0.00031046815919088069 0 -0.022387295038218465 -0.00025891731091834505 0 -0.022465150896884452 -0.00025984215361643813 0 -0.022412156434738224 -0.00031670003386436254 0 -0.022365194879192134 -0.0001258763919036913 0 -0.02233666369162194 -0.00020554723751060834 0 -0.022424872371021864 -0.00021574797770875577 0 -0.02233666369162194 -0.00020554723751060834 0 -0.022387295038218465 -0.00025891731091834505 0 -0.022424872371021864 -0.00021574797770875577 0 -0.022431793345704477 -0.00014585181353878298 0 -0.022424872371021864 -0.00021574797770875577 0 -0.022467499323510279 -0.00019617229105289529 0 -0.022424872371021864 -0.00021574797770875577 0 -0.022468307271367269 -0.00023326615555415846 0 -0.022467499323510279 -0.00019617229105289529 0 -0.022424872371021864 -0.00021574797770875577 0 -0.022468307271367269 -0.00023326615555415846 0 -0.022465150896884452 -0.00025984215361643813 0 -0.022387295038218465 -0.00025891731091834505 0 -0.022424872371021864 -0.00021574797770875577 0 -0.022465150896884452 -0.00025984215361643813 0 -0.022517320070349081 -0.00026057807247385377 0 -0.022467499323510279 -0.00019617229105289529 0 -0.022479178309746023 -0.00012651856489018053 0 -0.022517320070349081 -0.00026057807247385377 0 -0.022505470257566482 -0.00028472945965745913 0 -0.022504704139419192 -0.00032138736245786317 0 -0.022517320070349081 -0.00026057807247385377 0 -0.022479178309746023 -0.00012651856489018053 0 -0.022533444649689632 -4.3965948403379604e-05 0 -0.019168008194475322 0.0012646963084444864 0 -0.018763165999075938 0.001547738895741202 0 -0.022465150896884452 -0.00025984215361643813 0 -0.022517320070349081 -0.00026057807247385377 0 -0.022535142254968284 -0.0002929290521677728 0 -0.022468307271367269 -0.00023326615555415846 0 -0.022465150896884452 -0.00025984215361643813 0 -0.022517320070349081 -0.00026057807247385377 0 -0.022468307271367269 -0.00023326615555415846 0 -0.022517320070349081 -0.00026057807247385377 0 -0.022467499323510279 -0.00019617229105289529 0 -0.022431793345704477 -0.00014585181353878298 0 -0.022467499323510279 -0.00019617229105289529 0 -0.022479178309746023 -0.00012651856489018053 0 -0.022505470257566482 -0.00028472945965745913 0 -0.022471934291254367 -0.00030359916530465727 0 -0.022504704139419192 -0.00032138736245786317 0 -0.022517320070349081 -0.00026057807247385377 0 -0.022505470257566482 -0.00028472945965745913 0 -0.022524209245371001 -0.00027766172514118534 0 -0.022505470257566482 -0.00028472945965745913 0 -0.022498136775450053 -0.00027497742928551548 0 -0.022524209245371001 -0.00027766172514118534 0 -0.022471934291254367 -0.00030359916530465727 0 -0.022409045229735053 -0.00032772763334490792 0 -0.022454077170115317 -0.00027743115871220638 0 -0.022471934291254367 -0.00030359916530465727 0 -0.022454077170115317 -0.00027743115871220638 0 -0.022498136775450053 -0.00027497742928551548 0 -0.022505470257566482 -0.00028472945965745913 0 -0.022471934291254367 -0.00030359916530465727 0 -0.022498136775450053 -0.00027497742928551548 0 -0.022460461313909101 -0.00033737069504901197 0 -0.022409045229735053 -0.00032772763334490792 0 -0.022454308766164496 -0.00037597889691487799 0 -0.022471934291254367 -0.00030359916530465727 0 -0.022460461313909101 -0.00033737069504901197 0 -0.022409045229735053 -0.00032772763334490792 0 -0.022460461313909101 -0.00033737069504901197 0 -0.022504704139419192 -0.00032138736245786317 0 -0.022475120335582612 -0.00036482176843975528 0 -0.022471934291254367 -0.00030359916530465727 0 -0.022460461313909101 -0.00033737069504901197 0 -0.022504704139419192 -0.00032138736245786317 0 -0.018763165999075938 0.001547738895741202 0 -0.017458968317994927 0.0025012921742367474 0 -0.022426492701228689 2.1424327450825475e-05 0 -0.022533444649689632 -4.3965948403379604e-05 0 -0.02259105378003072 0.00015079297398342526 0 -0.018674244606654247 0.0026186125461486469 0 -0.017458968317994927 0.0025012921742367474 0 -0.022421861915826586 -6.6693157161461247e-05 0 -0.022426492701228689 2.1424327450825475e-05 0 -0.022467282749189011 -5.0895198035045807e-05 0 -0.022426492701228689 2.1424327450825475e-05 0 -0.022467282749189011 -5.0895198035045807e-05 0 -0.022533444649689632 -4.3965948403379604e-05 0 -0.022421861915826586 -6.6693157161461247e-05 0 -0.022479178309746023 -0.00012651856489018053 0 -0.022467282749189011 -5.0895198035045807e-05 0 -0.022479178309746023 -0.00012651856489018053 0 -0.022467282749189011 -5.0895198035045807e-05 0 -0.022533444649689632 -4.3965948403379604e-05 0 -0.01718328516332502 0.0025693255116778614 0 -0.017307525392953719 0.0025856980050486121 0 -0.01731857775833406 0.0023967408890738767 0 -0.022409045229735053 -0.00032772763334490792 0 -0.022401343129084407 -0.00024723711244177814 0 -0.022342352248605632 -0.00026547164238193322 0 -0.017307525392953719 0.0025856980050486121 0 -0.01731857775833406 0.0023967408890738767 0 -0.017382936105561634 0.0024977575392661762 0 -0.018867813573678768 0.00079201177024281963 0 -0.019616690616434201 -0.00011036486630426105 0 -0.022409045229735053 -0.00032772763334490792 0 -0.022401343129084407 -0.00024723711244177814 0 -0.022454077170115317 -0.00027743115871220638 0 -0.018867813573678768 0.00079201177024281963 0 -0.016577704488003477 0.0024834290935275343 0 -0.017307525392953719 0.0025856980050486121 0 -0.017264517603388815 0.0027066341151091807 0 -0.017345857555854036 0.0027090634622027277 0 -0.01718328516332502 0.0025693255116778614 0 -0.017307525392953719 0.0025856980050486121 0 -0.017264517603388815 0.0027066341151091807 0 -0.017264517603388815 0.0027066341151091807 0 -0.017308600257544035 0.0028012866865396216 0 -0.017345857555854036 0.0027090634622027277 0 -0.017264517603388815 0.0027066341151091807 0 -0.017242047754579642 0.0027737457525499527 0 -0.017173462242435308 0.0027420260186756026 0 -0.017264517603388815 0.0027066341151091807 0 -0.017242047754579642 0.0027737457525499527 0 -0.017308600257544035 0.0028012866865396216 0 -0.01718328516332502 0.0025693255116778614 0 -0.017173462242435308 0.0027420260186756026 0 -0.017051778283909913 0.0027330207587171829 0 -0.01718328516332502 0.0025693255116778614 0 -0.017264517603388815 0.0027066341151091807 0 -0.017173462242435308 0.0027420260186756026 0 -0.017173462242435308 0.0027420260186756026 0 -0.017221556962712402 0.0028445771304844358 0 -0.017051778283909913 0.0027330207587171829 0 -0.0086123917569266347 0.0051986846578424813 0 -0.010490079660943008 0.005609534227474392 0 -0.0089155213462781165 0.0042468288269564558 0 -0.015061989978776886 0.0029300701415059137 0 -0.012708783502607674 0.002535639352399025 0 -0.013868057032481574 0.0029461658040528423 0 -0.016577704488003477 0.0024834290935275343 0 -0.017242047754579642 0.0027737457525499527 0 -0.017173462242435308 0.0027420260186756026 0 -0.017221556962712402 0.0028445771304844358 0 -0.017221556962712402 0.0028445771304844358 0 -0.017308600257544035 0.0028012866865396216 0 -0.017391991035528021 0.0029266700251995535 0 -0.017242047754579642 0.0027737457525499527 0 -0.017221556962712402 0.0028445771304844358 0 -0.017308600257544035 0.0028012866865396216 0 -0.015987270452723735 0.0022027088734549068 0 -0.015919788525590343 0.0030450027321854947 0 -0.011567295545987901 0.0064547148572837668 0 -0.010696928441656036 0.005677093286951972 0 -0.011276847048446012 0.0056198201047452266 0 -0.022426679685884399 6.4783715400132884e-05 0 -0.022433434285756393 7.0051314918984198e-05 0 -0.022425628148755788 8.0878877478517141e-05 0 -0.012136352181094299 0.0060298424378647502 0 -0.011567295545987901 0.0064547148572837668 0 -0.011276847048446012 0.0056198201047452266 0 -0.022426492701228689 2.1424327450825475e-05 0 -0.022426679685884399 6.4783715400132884e-05 0 -0.022433434285756393 7.0051314918984198e-05 0 -0.01488274946575867 0.0031402258208447185 0 -0.015987270452723735 0.0022027088734549068 0 -0.022460461313909101 -0.00033737069504901197 0 -0.022475120335582612 -0.00036482176843975528 0 -0.022454308766164496 -0.00037597889691487799 0 -0.017458968317994927 0.0025012921742367474 0 -0.016577704488003477 0.0024834290935275343 0 -0.022433434285756393 7.0051314918984198e-05 0 -0.022427381304031501 7.9191451853664546e-05 0 -0.022425628148755788 8.0878877478517141e-05 0 -0.010419752555932032 0.0064135269360704157 0 -0.010684299179583509 0.0060870261725372238 0 -0.010490079660943008 0.005609534227474392 0 -0.017458968317994927 0.0025012921742367474 0 -0.016101617356735164 0.0028525722243721995 0 -0.01685902624398132 0.0023374885857991839 0 -0.016465192294088112 0.0020678760780229984 0 -0.016657451489003116 0.0018315210476179174 0 -0.016577704488003477 0.0024834290935275343 0 -0.016101617356735164 0.0028525722243721995 0 -0.016101617356735164 0.0028525722243721995 0 -0.015919788525590343 0.0030450027321854947 0 -0.015061989978776886 0.0029300701415059137 0 -0.01280001460356511 0.0028912981376259263 0 -0.010694779249225539 0.0056791049425233024 0 -0.010391965381149228 0.0054108497665930639 0 -0.010872355335918687 0.0054600470999349379 0 -0.010391965381149228 0.0054108497665930639 0 -0.010704402292005227 0.0048958107342093717 0 -0.010872355335918687 0.0054600470999349379 0 -0.015919788525590343 0.0030450027321854947 0 -0.015817744000482446 0.0031440516861309738 0 -0.0086123917569266347 0.0051986846578424813 0 -0.010419752555932032 0.0064135269360704157 0 -0.010490079660943008 0.005609534227474392 0 -0.010391965381149228 0.0054108497665930639 0 -0.010704402292005227 0.0048958107342093717 0 -0.010409107328342814 0.0043332537413130158 0 -0.015562142258639883 0.0035008382842169035 0 -0.015586545417067161 0.0034706385121272775 0 -0.015528551183615139 0.0034189035310841385 0 -0.016101617356735164 0.0028525722243721995 0 -0.015061989978776886 0.0029300701415059137 0 -0.015919788525590343 0.0030450027321854947 0 -0.015061989978776886 0.0029300701415059137 0 -0.01488274946575867 0.0031402258208447185 0 -0.012599105657075454 0.0035724254057926726 0 -0.011276847048446012 0.0056198201047452266 0 -0.010872355335918687 0.0054600470999349379 0 -0.011113225094464243 0.0044765090457584318 0 -0.012136352181094299 0.0060298424378647502 0 -0.011276847048446012 0.0056198201047452266 0 -0.011113225094464243 0.0044765090457584318 0 -0.012540822742277658 0.0054353021074995435 0 -0.012587303315456962 0.0069119241833173967 0 -0.01133830890868655 0.00495578125045428 0 -0.010704402292005227 0.0048958107342093717 0 -0.010872355335918687 0.0054600470999349379 0 -0.011113225094464243 0.0044765090457584318 0 -0.010696928441656036 0.005677093286951972 0 -0.011276847048446012 0.0056198201047452266 0 -0.010872355335918687 0.0054600470999349379 0 -0.012133321214802819 0.0043132884363452821 0 -0.01133830890868655 0.00495578125045428 0 -0.011488137612988098 0.0034783265258218642 0 -0.012540822742277658 0.0054353021074995435 0 -0.012133321214802819 0.0043132884363452821 0 -0.01133830890868655 0.00495578125045428 0 -0.010409107328342814 0.0043332537413130158 0 -0.0097802442300695663 0.0039625271550104511 0 -0.010057193124341002 0.0029069057040584539 0 -0.010704402292005227 0.0048958107342093717 0 -0.011113225094464243 0.0044765090457584318 0 -0.010409107328342814 0.0043332537413130158 0 -0.011113225094464243 0.0044765090457584318 0 -0.010409107328342814 0.0043332537413130158 0 -0.010057193124341002 0.0029069057040584539 0 -0.010391965381149228 0.0054108497665930639 0 -0.010409107328342814 0.0043332537413130158 0 -0.0097802442300695663 0.0039625271550104511 0 -0.012599105657075454 0.0035724254057926726 0 -0.010802536233515448 0.002563243591983809 0 -0.010166851236322147 0.0030473261525398102 0 -0.011488137612988098 0.0034783265258218642 0 -0.010995007520511645 0.0025322242748530375 0 -0.01133830890868655 0.00495578125045428 0 -0.010166851236322147 0.0030473261525398102 0 -0.011488137612988098 0.0034783265258218642 0 -0.011488137612988098 0.0034783265258218642 0 -0.011884195060684293 0.0024828337902913305 0 -0.010995007520511645 0.0025322242748530375 0 -0.011488137612988098 0.0034783265258218642 0 -0.011884195060684293 0.0024828337902913305 0 -0.012686324136757169 0.0033146919403882241 0 -0.012133321214802819 0.0043132884363452821 0 -0.011488137612988098 0.0034783265258218642 0 -0.012686324136757169 0.0033146919403882241 0 -0.0089155213462781165 0.0042468288269564558 0 -0.0080557005104756035 0.0031877856655734768 0 -0.0068792899173140886 0.0040042602205075115 0 -0.013868057032481574 0.0029461658040528423 0 -0.012438520628233226 0.0030106586711203397 0 -0.0086123917569266347 0.0051986846578424813 0 -0.0089155213462781165 0.0042468288269564558 0 -0.0068792899173140886 0.0040042602205075115 0 -0.010404728363000836 0.0055617083903769342 0 -0.0097752844539970851 0.0040283892179940961 0 -0.0089155213462781165 0.0042468288269564558 0 -0.0097752844539970851 0.0040283892179940961 0 -0.0089155213462781165 0.0042468288269564558 0 -0.0089477970494927801 0.0034492475563737733 0 -0.01280001460356511 0.0028912981376259263 0 -0.011998048784166864 0.0025158095990364289 0 -0.0097802442300695663 0.0039625271550104511 0 -0.010057193124341002 0.0029069057040584539 0 -0.0091297512201629419 0.0024918360627784893 0 -0.0097752844539970851 0.0040283892179940961 0 -0.0089477970494927801 0.0034492475563737733 0 -0.0091297512201629419 0.0024918360627784893 0 -0.0089477970494927801 0.0034492475563737733 0 -0.0080557005104756035 0.0031877856655734768 0 -0.0091297512201629419 0.0024918360627784893 0 -0.0089155213462781165 0.0042468288269564558 0 -0.0089477970494927801 0.0034492475563737733 0 -0.0080557005104756035 0.0031877856655734768 0 -0.0080557005104756035 0.0031877856655734768 0 -0.0082254761748141985 0.0019950347326312388 0 -0.0073589411282828183 0.0024141622078088405 0 -0.0080557005104756035 0.0031877856655734768 0 -0.0082254761748141985 0.0019950347326312388 0 -0.0091297512201629419 0.0024918360627784893 0 -0.0082254761748141985 0.0019950347326312388 0 -0.0074660429604747622 0.0010134412833013573 0 -0.0073589411282828183 0.0024141622078088405 0 -0.0082254761748141985 0.0019950347326312388 0 -0.0089458756259197109 0.0013007199449119923 0 -0.0074660429604747622 0.0010134412833013573 0 -0.010802536233515448 0.002563243591983809 0 -0.0094641311194915787 0.0012580264697376149 0 -0.0082254761748141985 0.0019950347326312388 0 -0.0091297512201629419 0.0024918360627784893 0 -0.0089458756259197109 0.0013007199449119923 0 -0.010057193124341002 0.0029069057040584539 0 -0.0091297512201629419 0.0024918360627784893 0 -0.0089458756259197109 0.0013007199449119923 0 -0.0091308855387625832 -3.8799866342551597e-05 0 -0.0090468122187021723 0.0013338671394701412 0 -0.01039515128491373 0.00063238769238850643 0 -0.0088070900376819184 0.0004686432267037759 0 -0.0094641311194915787 0.0012580264697376149 0 -0.0078484686650877687 -0.00027085418172508594 0 -0.0089458756259197109 0.0013007199449119923 0 -0.0074660429604747622 0.0010134412833013573 0 -0.011121346168899472 0.0015559922286283174 0 -0.012214673091558961 0.0015019012889611481 0 -0.011884195060684293 0.0024828337902913305 0 -0.011121346168899472 0.0015559922286283174 0 -0.011884195060684293 0.0024828337902913305 0 -0.010995007520511645 0.0025322242748530375 0 -0.010166851236322147 0.0030473261525398102 0 -0.0090468122187021723 0.0013338671394701412 0 -0.010341645524011981 0.0018130011864957297 0 -0.010166851236322147 0.0030473261525398102 0 -0.010995007520511645 0.0025322242748530375 0 -0.010341645524011981 0.0018130011864957297 0 -0.011121346168899472 0.0015559922286283174 0 -0.010995007520511645 0.0025322242748530375 0 -0.010341645524011981 0.0018130011864957297 0 -0.011121346168899472 0.0015559922286283174 0 -0.010341645524011981 0.0018130011864957297 0 -0.01039515128491373 0.00063238769238850643 0 -0.0090468122187021723 0.0013338671394701412 0 -0.010341645524011981 0.0018130011864957297 0 -0.01039515128491373 0.00063238769238850643 0 -0.011590165694240298 -0.00044842115468425077 0 -0.01039515128491373 0.00063238769238850643 0 -0.011609251248268782 0.00077414957130308396 0 -0.011590165694240298 -0.00044842115468425077 0 -0.011609251248268782 0.00077414957130308396 0 -0.012740581651388744 0.00067119518901418828 0 -0.011121346168899472 0.0015559922286283174 0 -0.01039515128491373 0.00063238769238850643 0 -0.011609251248268782 0.00077414957130308396 0 -0.011121346168899472 0.0015559922286283174 0 -0.012214673091558961 0.0015019012889611481 0 -0.011609251248268782 0.00077414957130308396 0 -0.012214673091558961 0.0015019012889611481 0 -0.011609251248268782 0.00077414957130308396 0 -0.012740581651388744 0.00067119518901418828 0 -0.013142824576680319 -0.00021412105749435881 0 -0.012740581651388744 0.00067119518901418828 0 -0.013483409983313748 0.0008420466791476969 0 -0.012740581651388744 0.00067119518901418828 0 -0.013483409983313748 0.0008420466791476969 0 -0.013118224027824111 0.0014541593887271729 0 -0.012214673091558961 0.0015019012889611481 0 -0.012740581651388744 0.00067119518901418828 0 -0.013118224027824111 0.0014541593887271729 0 -0.012214673091558961 0.0015019012889611481 0 -0.013118224027824111 0.0014541593887271729 0 -0.012809787989441455 0.0022473674522056502 0 -0.013118224027824111 0.0014541593887271729 0 -0.013429368880929523 0.0019745139809496867 0 -0.01399288695749247 0.0015843519882239386 0 -0.013483409983313748 0.0008420466791476969 0 -0.013118224027824111 0.0014541593887271729 0 -0.01399288695749247 0.0015843519882239386 0 -0.013118224027824111 0.0014541593887271729 0 -0.013429368880929523 0.0019745139809496867 0 -0.012809787989441455 0.0022473674522056502 0 -0.013429368880929523 0.0019745139809496867 0 -0.012809787989441455 0.0022473674522056502 0 -0.013754327840352463 0.0025627352795793137 0 -0.012214673091558961 0.0015019012889611481 0 -0.011884195060684293 0.0024828337902913305 0 -0.012809787989441455 0.0022473674522056502 0 -0.014464721166156725 0.0019857084411824409 0 -0.015150236782099992 0.0017342315662795948 0 -0.014841556983234959 0.0026326084186676334 0 -0.014464721166156725 0.0019857084411824409 0 -0.013754327840352463 0.0025627352795793137 0 -0.014841556983234959 0.0026326084186676334 0 -0.013429368880929523 0.0019745139809496867 0 -0.01399288695749247 0.0015843519882239386 0 -0.013754327840352463 0.0025627352795793137 0 -0.014464721166156725 0.0019857084411824409 0 -0.01399288695749247 0.0015843519882239386 0 -0.013754327840352463 0.0025627352795793137 0 -0.01399288695749247 0.0015843519882239386 0 -0.014636612835906308 0.0014066293622021996 0 -0.014441831753332081 0.00097741083195170149 0 -0.014464721166156725 0.0019857084411824409 0 -0.01399288695749247 0.0015843519882239386 0 -0.014636612835906308 0.0014066293622021996 0 -0.014636612835906308 0.0014066293622021996 0 -0.015057931007270093 0.0011170375655227105 0 -0.015150236782099992 0.0017342315662795948 0 -0.014464721166156725 0.0019857084411824409 0 -0.014636612835906308 0.0014066293622021996 0 -0.015150236782099992 0.0017342315662795948 0 -0.014636612835906308 0.0014066293622021996 0 -0.014441831753332081 0.00097741083195170149 0 -0.015057931007270093 0.0011170375655227105 0 -0.014441831753332081 0.00097741083195170149 0 -0.015400712125981906 0.00067848766306195991 0 -0.015057931007270093 0.0011170375655227105 0 -0.014441831753332081 0.00097741083195170149 0 -0.014016643929706729 0.00036074814976576043 0 -0.015400712125981906 0.00067848766306195991 0 -0.013964478852457836 -0.00091224940191913986 0 -0.014016643929706729 0.00036074814976576043 0 -0.015400712125981906 0.00067848766306195991 0 -0.013483409983313748 0.0008420466791476969 0 -0.014441831753332081 0.00097741083195170149 0 -0.014016643929706729 0.00036074814976576043 0 -0.013483409983313748 0.0008420466791476969 0 -0.01399288695749247 0.0015843519882239386 0 -0.014441831753332081 0.00097741083195170149 0 -0.013142824576680319 -0.00021412105749435881 0 -0.013483409983313748 0.0008420466791476969 0 -0.014016643929706729 0.00036074814976576043 0 -0.015502458898402401 0.00033905317125885515 0 -0.015735961352382838 0.00048367905826561547 0 -0.015400712125981906 0.00067848766306195991 0 -0.015735961352382838 0.00048367905826561547 0 -0.01573517758228106 0.00068249391273663177 0 -0.015400712125981906 0.00067848766306195991 0 -0.015735961352382838 0.00048367905826561547 0 -0.015853072678235526 0.00059479373474124976 0 -0.01573517758228106 0.00068249391273663177 0 -0.015853072678235526 0.00059479373474124976 0 -0.01573517758228106 0.00068249391273663177 0 -0.015916652362154986 0.00071979738145676602 0 -0.01573517758228106 0.00068249391273663177 0 -0.015400712125981906 0.00067848766306195991 0 -0.015666189804655978 0.000913297812127437 0 -0.015400712125981906 0.00067848766306195991 0 -0.015057931007270093 0.0011170375655227105 0 -0.015666189804655978 0.000913297812127437 0 -0.016038261280974471 0.00039831019293170536 0 -0.015934256009663545 0.00049048704697990256 0 -0.016116420193868955 0.00050022966333554734 0 -0.01604507000291568 0.00032165640111867075 0 -0.016169658755067418 0.00037079161146668131 0 -0.016038261280974471 0.00039831019293170536 0 -0.015686669463651295 0.00029860675121270021 0 -0.015735961352382838 0.00048367905826561547 0 -0.015878760812412438 0.00039223196630533273 0 -0.016038261280974471 0.00039831019293170536 0 -0.015878760812412438 0.00039223196630533273 0 -0.015934256009663545 0.00049048704697990256 0 -0.015735961352382838 0.00048367905826561547 0 -0.015878760812412438 0.00039223196630533273 0 -0.015934256009663545 0.00049048704697990256 0 -0.016000150572030473 0.00058449990644396702 0 -0.016116420193868955 0.00050022966333554734 0 -0.01616975646879075 0.00057037742551521503 0 -0.015853072678235526 0.00059479373474124976 0 -0.015934256009663545 0.00049048704697990256 0 -0.016000150572030473 0.00058449990644396702 0 -0.015735961352382838 0.00048367905826561547 0 -0.015853072678235526 0.00059479373474124976 0 -0.015934256009663545 0.00049048704697990256 0 -0.015853072678235526 0.00059479373474124976 0 -0.016000150572030473 0.00058449990644396702 0 -0.015916652362154986 0.00071979738145676602 0 -0.015934256009663545 0.00049048704697990256 0 -0.016000150572030473 0.00058449990644396702 0 -0.016116420193868955 0.00050022966333554734 0 -0.016199033771905062 0.00042903652442175482 0 -0.016355414219934472 0.00044691869338365418 0 -0.016116420193868955 0.00050022966333554734 0 -0.016199033771905062 0.00042903652442175482 0 -0.016038261280974471 0.00039831019293170536 0 -0.016116420193868955 0.00050022966333554734 0 -0.01616975646879075 0.00057037742551521503 0 -0.016498283534045487 0.00045587044652491506 0 -0.01613078792857333 0.00057116123844010538 0 -0.016355414219934472 0.00044691869338365418 0 -0.016116420193868955 0.00050022966333554734 0 -0.01616975646879075 0.00057037742551521503 0 -0.016355414219934472 0.00044691869338365418 0 -0.01616975646879075 0.00057037742551521503 0 -0.016498283534045487 0.00045587044652491506 0 -0.016000150572030473 0.00058449990644396702 0 -0.01616975646879075 0.00057037742551521503 0 -0.015916652362154986 0.00071979738145676602 0 -0.01616975646879075 0.00057037742551521503 0 -0.015916652362154986 0.00071979738145676602 0 -0.01613078792857333 0.00057116123844010538 0 -0.016271337648101226 0.0011738350408958987 0 -0.016390592602637453 0.0013791283969993517 0 -0.015666189804655978 0.000913297812127437 0 -0.015916652362154986 0.00071979738145676602 0 -0.01613078792857333 0.00057116123844010538 0 -0.015666189804655978 0.000913297812127437 0 -0.015150236782099992 0.0017342315662795948 0 -0.016049033281767967 0.0026953711150685387 0 -0.015057931007270093 0.0011170375655227105 0 -0.015666189804655978 0.000913297812127437 0 -0.015150236782099992 0.0017342315662795948 0 -0.01573517758228106 0.00068249391273663177 0 -0.015666189804655978 0.000913297812127437 0 -0.015916652362154986 0.00071979738145676602 0 -0.015150236782099992 0.0017342315662795948 0 -0.016049033281767967 0.0026953711150685387 0 -0.014841556983234959 0.0026326084186676334 0 -0.016390592602637453 0.0013791283969993517 0 -0.016594674302716703 0.0015250421118312831 0 -0.016049033281767967 0.0026953711150685387 0 -0.015154645190247203 0.0037518077007806998 0 -0.014841556983234959 0.0026326084186676334 0 -0.016049033281767967 0.0026953711150685387 0 -0.015154645190247203 0.0037518077007806998 0 -0.01643129719261183 0.0041400100586717883 0 -0.016810753164071563 0.00039893721666134336 0 -0.01613078792857333 0.00057116123844010538 0 -0.016326087307517213 0.00090506855386353932 0 -0.016810753164071563 0.00039893721666134336 0 -0.016498283534045487 0.00045587044652491506 0 -0.01613078792857333 0.00057116123844010538 0 -0.01682943651714815 0.0012401484458154891 0 -0.016594674302716703 0.0015250421118312831 0 -0.017181136308260785 -0.00025383880844889018 0 -0.016810753164071563 0.00039893721666134336 0 -0.017720181004394972 -6.3844700955498351e-05 0 -0.017181136308260785 -0.00025383880844889018 0 -0.01770699201660577 -0.00088719746127828493 0 -0.017720181004394972 -6.3844700955498351e-05 0 -0.014472960607444888 0.0055395026559493894 0 -0.015154645190247203 0.0037518077007806998 0 -0.01643129719261183 0.0041400100586717883 0 -0.015556357605110554 0.0027707236888548895 0 -0.016594674302716703 0.0015250421118312831 0 -0.014472960607444888 0.0055395026559493894 0 -0.013026188891311029 0.0044880540796809086 0 -0.013996399902618244 0.0036896046551104619 0 -0.014472960607444888 0.0055395026559493894 0 -0.015154645190247203 0.0037518077007806998 0 -0.013996399902618244 0.0036896046551104619 0 -0.012540822742277658 0.0054353021074995435 0 -0.014472960607444888 0.0055395026559493894 0 -0.013026188891311029 0.0044880540796809086 0 -0.012540822742277658 0.0054353021074995435 0 -0.012133321214802819 0.0043132884363452821 0 -0.013026188891311029 0.0044880540796809086 0 -0.012133321214802819 0.0043132884363452821 0 -0.013026188891311029 0.0044880540796809086 0 -0.012686324136757169 0.0033146919403882241 0 -0.013026188891311029 0.0044880540796809086 0 -0.012686324136757169 0.0033146919403882241 0 -0.013996399902618244 0.0036896046551104619 0 -0.011884195060684293 0.0024828337902913305 0 -0.012809787989441455 0.0022473674522056502 0 -0.012686324136757169 0.0033146919403882241 0 -0.012809787989441455 0.0022473674522056502 0 -0.012686324136757169 0.0033146919403882241 0 -0.013754327840352463 0.0025627352795793137 0 -0.012686324136757169 0.0033146919403882241 0 -0.013754327840352463 0.0025627352795793137 0 -0.013996399902618244 0.0036896046551104619 0 -0.013754327840352463 0.0025627352795793137 0 -0.014841556983234959 0.0026326084186676334 0 -0.013996399902618244 0.0036896046551104619 0 -0.015154645190247203 0.0037518077007806998 0 -0.014841556983234959 0.0026326084186676334 0 -0.013996399902618244 0.0036896046551104619 0 -0.0058620675860482007 -0.00012594727725467967 0 -0.0061456945758605244 -0.00025581724970905669 0 -0.0068036740628106994 -0.0003663527940492451 0 -0.0058620675860482007 -0.00012594727725467967 0 -0.0068036740628106994 -0.0003663527940492451 0 -0.0066589325359677288 -2.8902320303003835e-05 0 -0.0058620675860482007 -0.00012594727725467967 0 -0.0053908440666238554 -1.4666225181826887e-06 0 -0.0039168354146776278 2.543581334814179e-06 0 -0.0058620675860482007 -0.00012594727725467967 0 -0.0053908440666238554 -1.4666225181826887e-06 0 -0.0061456945758605244 -0.00025581724970905669 0 -0.0053908440666238554 -1.4666225181826887e-06 0 -0.0061395428705656712 -0.00018234836830791827 0 -0.0061456945758605244 -0.00025581724970905669 0 -0.0061395428705656712 -0.00018234836830791827 0 -0.0061456945758605244 -0.00025581724970905669 0 -0.0066609718785383886 -0.00054362956901921067 0 -0.0053908440666238554 -1.4666225181826887e-06 0 -0.0061395428705656712 -0.00018234836830791827 0 -0.0068692631108249694 -1.5812812161420031e-07 0 -0.0061456945758605244 -0.00025581724970905669 0 -0.0068036740628106994 -0.0003663527940492451 0 -0.0066609718785383886 -0.00054362956901921067 0 -0.0068036740628106994 -0.0003663527940492451 0 -0.0071982653179091119 -0.00068316359239445248 0 -0.0066609718785383886 -0.00054362956901921067 0 -0.0068036740628106994 -0.0003663527940492451 0 -0.0076686647645316276 -0.00064514070559869318 0 -0.0074630715042167959 -0.00010498423493162471 0 -0.0068036740628106994 -0.0003663527940492451 0 -0.0076686647645316276 -0.00064514070559869318 0 -0.0071982653179091119 -0.00068316359239445248 0 -0.0076686647645316276 -0.00064514070559869318 0 -0.0074630715042167959 -0.00010498423493162471 0 -0.0084225050887348305 -0.00072775762176958178 0 -0.0074630715042167959 -0.00010498423493162471 0 -0.0066589325359677288 -2.8902320303003835e-05 0 -0.0069471138622607649 0.00032184037787045698 0 -0.0068036740628106994 -0.0003663527940492451 0 -0.0074630715042167959 -0.00010498423493162471 0 -0.0066589325359677288 -2.8902320303003835e-05 0 -0.0069471138622607649 0.00032184037787045698 0 -0.0063917755292774523 0.0008759504854440282 0 -0.0060063914075007266 0.0002823077581926278 0 -0.0066589325359677288 -2.8902320303003835e-05 0 -0.0069471138622607649 0.00032184037787045698 0 -0.0060063914075007266 0.0002823077581926278 0 -0.0069471138622607649 0.00032184037787045698 0 -0.0076714731066098493 0.00031938033285421291 0 -0.0071799160341993228 0.00078344462582273858 0 -0.0074630715042167959 -0.00010498423493162471 0 -0.0069471138622607649 0.00032184037787045698 0 -0.0076714731066098493 0.00031938033285421291 0 -0.0074630715042167959 -0.00010498423493162471 0 -0.0076714731066098493 0.00031938033285421291 0 -0.008136384716841959 -3.1457683424215813e-05 0 -0.0071799160341993228 0.00078344462582273858 0 -0.0074199073224722901 0.0012389768337383333 0 -0.0077942590436829665 0.00075911491242244855 0 -0.0076714731066098493 0.00031938033285421291 0 -0.0071799160341993228 0.00078344462582273858 0 -0.0077942590436829665 0.00075911491242244855 0 -0.0071799160341993228 0.00078344462582273858 0 -0.0063917755292774523 0.0008759504854440282 0 -0.0067959928523962316 0.0013137944740025977 0 -0.0069471138622607649 0.00032184037787045698 0 -0.0071799160341993228 0.00078344462582273858 0 -0.0063917755292774523 0.0008759504854440282 0 -0.0063917755292774523 0.0008759504854440282 0 -0.0060063914075007266 0.0002823077581926278 0 -0.0055787717822052647 0.0013784879262633617 0 -0.0063917755292774523 0.0008759504854440282 0 -0.0055787717822052647 0.0013784879262633617 0 -0.0067959928523962316 0.0013137944740025977 0 -0.0058620675860482007 -0.00012594727725467967 0 -0.0066589325359677288 -2.8902320303003835e-05 0 -0.0060063914075007266 0.0002823077581926278 0 -0.0058620675860482007 -0.00012594727725467967 0 -0.0060063914075007266 0.0002823077581926278 0 -0.0039168354146776278 2.543581334814179e-06 0 -0.0039117319625159774 1.0754049464924284e-06 0 -0.0024581059220625443 -3.7818454274193715e-07 0 -0.0021586044079812605 0.00017986335577591781 0 -0.0060063914075007266 0.0002823077581926278 0 -0.0039168354146776278 2.543581334814179e-06 0 -0.0055787717822052647 0.0013784879262633617 0 -0.0039130658232173435 1.648708425523342e-07 0 -0.0039346343275020405 0.00020013197492132952 0 -0.0024581059220625443 -3.7818454274193715e-07 0 -0.0021586044079812605 0.00017986335577591781 0 -0.001546103388605983 -0.00013411845631086666 0 -0.0055787717822052647 0.0013784879262633617 0 -0.0064991379483690988 0.0018705444581577696 0 -0.0067959928523962316 0.0013137944740025977 0 -0.0039346343275020405 0.00020013197492132952 0 -0.0041094689718555706 0.0002937841022060146 0 -0.0021586044079812605 0.00017986335577591781 0 -0.001546103388605983 -0.00013411845631086666 0 -0.0012618308357776444 -4.285301913686068e-05 0 -0.001546103388605983 -0.00013411845631086666 0 -0.0011927426973185576 -0.00017680222354522949 0 -0.0012618308357776444 -4.285301913686068e-05 0 -0.0024581059220625443 -3.7818454274193715e-07 0 -0.001546103388605983 -0.00013411845631086666 0 -0.0010031368924241482 -2.370661020684678e-07 0 -0.001546103388605983 -0.00013411845631086666 0 -0.0010031368924241482 -2.370661020684678e-07 0 -0.00094095675693468231 -0.0001344399683310017 0 -0.001546103388605983 -0.00013411845631086666 0 -0.0011927426973185576 -0.00017680222354522949 0 -0.00094095675693468231 -0.0001344399683310017 0 -0.0011927426973185576 -0.00017680222354522949 0 -0.00094095675693468231 -0.0001344399683310017 0 -0.0011153565893495139 -0.00011412788326404029 0 -0.00094095675693468231 -0.0001344399683310017 0 -0.00017619383477803416 -0.00012299343417322971 0 -0.0011153565893495139 -0.00011412788326404029 0 -0.0018542986257739419 0.00028913121428590129 0 -0.0024092407920798297 0.0001613095212491962 0 -0.00065080460767462172 -0.00019498182737867799 0 -0.00017619383477803416 -0.00012299343417322971 0 -0.0011567740344977731 -0.00091984314771218368 0 0.00020909190118567251 -4.8270486629804897e-05 0 -0.00065080460767462172 -0.00019498182737867799 0 -0.00017619383477803416 -0.00012299343417322971 0 -0.0010031368924241482 -2.370661020684678e-07 0 -0.00094095675693468231 -0.0001344399683310017 0 -0.00017619383477803416 -0.00012299343417322971 0 0.00045172436462841733 -3.5641720708240915e-07 0 0.00020909190118567251 -4.8270486629804897e-05 0 -0.0010031368924241482 -2.370661020684678e-07 0 0.00020909190118567251 -4.8270486629804897e-05 0 -0.0010031368924241482 -2.370661020684678e-07 0 -0.00017619383477803416 -0.00012299343417322971 0 -0.0030528466822138901 0.00025649184926339336 0 -0.001476557706544576 0.0002373764258759538 0 -0.0021260379262031978 -0.00058034255075708693 0 -0.0030528466822138901 0.00025649184926339336 0 -0.0021260379262031978 -0.00058034255075708693 0 -0.0028999117364098092 -0.0010392693954541727 0 -0.001476557706544576 0.0002373764258759538 0 -0.0021260379262031978 -0.00058034255075708693 0 -0.0011567740344977731 -0.00091984314771218368 0 -0.001476557706544576 0.0002373764258759538 0 -0.00065080460767462172 -0.00019498182737867799 0 -0.0011567740344977731 -0.00091984314771218368 0 -0.0021260379262031978 -0.00058034255075708693 0 -0.0011567740344977731 -0.00091984314771218368 0 -0.0022427359028578619 -0.0017057167448390224 0 -0.0011927426973185576 -0.00017680222354522949 0 -0.0011153565893495139 -0.00011412788326404029 0 -0.0011460602804175873 -0.00016769877699822369 0 -0.0024092407920798297 0.0001613095212491962 0 -0.0040992823991019755 -0.00019468379147667098 0 -0.0021260379262031978 -0.00058034255075708693 0 -0.0022427359028578619 -0.0017057167448390224 0 -0.0028999117364098092 -0.0010392693954541727 0 -0.0022927578712357323 -0.0016456512061718911 0 -0.0028999117364098092 -0.0010392693954541727 0 -0.0030773058736613735 -0.0022336150347394999 0 -0.0040992823991019755 -0.00019468379147667098 0 -0.003741413182983616 -0.00052142699429790168 0 -0.0072040675087141921 0.0024681439425474233 0 -0.0072297885666735345 0.0017433116731075417 0 -0.0077522364561866102 0.0020424728812670481 0 -0.0040992823991019755 -0.00019468379147667098 0 -0.0050184840262884429 -0.00016206605781199861 0 -0.0072297885666735345 0.0017433116731075417 0 -0.0077512440789365795 0.0015067510718153728 0 -0.0077522364561866102 0.0020424728812670481 0 -0.0011927426973185576 -0.00017680222354522949 0 -0.0011460602804175873 -0.00016769877699822369 0 -0.0012618308357776444 -4.285301913686068e-05 0 -0.0072040675087141921 0.0024681439425474233 0 -0.0072297885666735345 0.0017433116731075417 0 -0.0064991379483690988 0.0018705444581577696 0 -0.0040992823991019755 -0.00019468379147667098 0 -0.0041094689718555706 0.0002937841022060146 0 -0.0072297885666735345 0.0017433116731075417 0 -0.0064991379483690988 0.0018705444581577696 0 -0.0067959928523962316 0.0013137944740025977 0 -0.0072297885666735345 0.0017433116731075417 0 -0.0074199073224722901 0.0012389768337383333 0 -0.0077512440789365795 0.0015067510718153728 0 -0.0072297885666735345 0.0017433116731075417 0 -0.0067959928523962316 0.0013137944740025977 0 -0.0074199073224722901 0.0012389768337383333 0 -0.0071799160341993228 0.00078344462582273858 0 -0.0067959928523962316 0.0013137944740025977 0 -0.0074199073224722901 0.0012389768337383333 0 -0.0074199073224722901 0.0012389768337383333 0 -0.0078157523560332849 0.0011126962280279035 0 -0.0077942590436829665 0.00075911491242244855 0 -0.0074199073224722901 0.0012389768337383333 0 -0.0078157523560332849 0.0011126962280279035 0 -0.0077512440789365795 0.0015067510718153728 0 -0.0078157523560332849 0.0011126962280279035 0 -0.0081303075501328991 0.0011804223373757417 0 -0.008247175153296437 0.00079089879199776994 0 -0.0081303075501328991 0.0011804223373757417 0 -0.0083545968496079766 0.0015312263730322326 0 -0.0077512440789365795 0.0015067510718153728 0 -0.0058259103403828574 0.00014304932570272921 0 -0.0056780150203029041 -1.5301748534228434e-05 0 -0.0078157523560332849 0.0011126962280279035 0 -0.0081303075501328991 0.0011804223373757417 0 -0.0077512440789365795 0.0015067510718153728 0 -0.0087701684641297174 0.00074301998747855025 0 -0.0086130833025339932 0.00084408580504549723 0 -0.0087092601274652605 0.00069544885806666231 0 -0.0086130833025339932 0.00084408580504549723 0 -0.0087028247641114959 0.00067058797267162092 0 -0.0086044805154690714 0.00054824033933471709 0 -0.0081303075501328991 0.0011804223373757417 0 -0.0086130833025339932 0.00084408580504549723 0 -0.008247175153296437 0.00079089879199776994 0 -0.0056780150203029041 -1.5301748534228434e-05 0 -0.006058133868651447 -0.00011349700863175737 0 -0.0081303075501328991 0.0011804223373757417 0 -0.0082763812102731663 0.001323165660552357 0 -0.0086130833025339932 0.00084408580504549723 0 -0.0086130833025339932 0.00084408580504549723 0 -0.0087092601274652605 0.00069544885806666231 0 -0.0087028247641114959 0.00067058797267162092 0 -0.0087701684641297174 0.00074301998747855025 0 -0.0088127857302883091 0.00057941143424866041 0 -0.0087092601274652605 0.00069544885806666231 0 -0.0038679113476621013 -0.0028236632483741243 0 -0.0037931414269829987 -0.0020960755840757086 0 -0.0046032749525232479 -0.0017793748163404616 0 -0.0056780150203029041 -1.5301748534228434e-05 0 -0.0060827748532896447 -0.00019270464502917496 0 -0.0083545968496079766 0.0015312263730322326 0 -0.0077512440789365795 0.0015067510718153728 0 -0.0077522364561866102 0.0020424728812670481 0 -0.0056780150203029041 -1.5301748534228434e-05 0 -0.0050184840262884429 -0.00016206605781199861 0 -0.0038679113476621013 -0.0028236632483741243 0 -0.0037931414269829987 -0.0020960755840757086 0 -0.0030773058736613735 -0.0022336150347394999 0 -0.0037931414269829987 -0.0020960755840757086 0 -0.0030773058736613735 -0.0022336150347394999 0 -0.0036266376061494651 -0.0015473438175384845 0 -0.0028999117364098092 -0.0010392693954541727 0 -0.0036266376061494651 -0.0015473438175384845 0 -0.0040367942942146212 -0.00076005964503857821 0 -0.0028999117364098092 -0.0010392693954541727 0 -0.0030773058736613735 -0.0022336150347394999 0 -0.0036266376061494651 -0.0015473438175384845 0 -0.0046032749525232479 -0.0017793748163404616 0 -0.0040367942942146212 -0.00076005964503857821 0 -0.0053420659033202571 -0.00072690300740912734 0 -0.0036266376061494651 -0.0015473438175384845 0 -0.0046032749525232479 -0.0017793748163404616 0 -0.0040367942942146212 -0.00076005964503857821 0 -0.0037931414269829987 -0.0020960755840757086 0 -0.0036266376061494651 -0.0015473438175384845 0 -0.0046032749525232479 -0.0017793748163404616 0 -0.0045712548103656542 0.00028420009875788731 0 -0.0040367942942146212 -0.00076005964503857821 0 -0.0053420659033202571 -0.00072690300740912734 0 -0.0030528466822138901 0.00025649184926339336 0 -0.0028999117364098092 -0.0010392693954541727 0 -0.0040367942942146212 -0.00076005964503857821 0 -0.0030528466822138901 0.00025649184926339336 0 -0.0045712548103656542 0.00028420009875788731 0 -0.0040367942942146212 -0.00076005964503857821 0 -0.0087767371716785565 -0.00027407259451494806 0 -0.0089134181652480611 0.00031417254179711855 0 -0.0083807259062728626 0.00015321055819660347 0 -0.0089134181652480611 0.00031417254179711855 0 -0.0086342490367423263 0.00050842509217914394 0 -0.0083807259062728626 0.00015321055819660347 0 -0.0058801136203756963 -0.0004899537310003566 0 -0.0062827714408587561 -0.00015380288737737446 0 -0.0060768497525113714 0.0003224176639862234 0 -0.0045712548103656542 0.00028420009875788731 0 -0.0053420659033202571 -0.00072690300740912734 0 -0.0060827748532896447 -0.00019270464502917496 0 -0.0062827714408587561 -0.00015380288737737446 0 -0.0088127857302883091 0.00057941143424866041 0 -0.0089134181652480611 0.00031417254179711855 0 -0.008769530443910746 0.00055856703793097286 0 -0.0089134181652480611 0.00031417254179711855 0 -0.008769530443910746 0.00055856703793097286 0 -0.0086342490367423263 0.00050842509217914394 0 -0.0086342490367423263 0.00050842509217914394 0 -0.0087403286934558434 0.00066167055891135117 0 -0.0087953874315112816 0.0006143974884138515 0 -0.008769530443910746 0.00055856703793097286 0 -0.0086342490367423263 0.00050842509217914394 0 -0.0087403286934558434 0.00066167055891135117 0 -0.0088127857302883091 0.00057941143424866041 0 -0.008769530443910746 0.00055856703793097286 0 -0.0087092601274652605 0.00069544885806666231 0 -0.008769530443910746 0.00055856703793097286 0 -0.0087403286934558434 0.00066167055891135117 0 -0.0087092601274652605 0.00069544885806666231 0 -0.0087403286934558434 0.00066167055891135117 0 -0.0087028247641114959 0.00067058797267162092 0 -0.0088093769854831853 0.00050922817666362679 0 -0.0087403286934558434 0.00066167055891135117 0 -0.0087092601274652605 0.00069544885806666231 0 -0.0087028247641114959 0.00067058797267162092 0 -0.0087403286934558434 0.00066167055891135117 0 -0.0088093769854831853 0.00050922817666362679 0 -0.0087953874315112816 0.0006143974884138515 0 -0.0088093769854831853 0.00050922817666362679 0 -0.0091061123087195998 0.00037400855674610235 0 -0.0087953874315112816 0.0006143974884138515 0 -0.0088093769854831853 0.00050922817666362679 0 -0.0091273080070299103 2.4040982750654818e-05 0 -0.0091061123087195998 0.00037400855674610235 0 -0.0089495346478469899 -9.5691435864664987e-05 0 -0.0091261653604160914 -0.00030165918713825424 0 -0.0091273080070299103 2.4040982750654818e-05 0 -0.0088093769854831853 0.00050922817666362679 0 -0.0087068283047219835 7.4461129354741658e-05 0 -0.0091273080070299103 2.4040982750654818e-05 0 -0.0087199994459959199 2.0375139384673813e-06 0 -0.0089359587097526481 3.1605773300190822e-05 0 -0.0088093769854831853 0.00050922817666362679 0 -0.0087068283047219835 7.4461129354741658e-05 0 -0.0086044805154690714 0.00054824033933471709 0 -0.0087028247641114959 0.00067058797267162092 0 -0.0088093769854831853 0.00050922817666362679 0 -0.0086044805154690714 0.00054824033933471709 0 -0.0086130833025339932 0.00084408580504549723 0 -0.0086044805154690714 0.00054824033933471709 0 -0.008247175153296437 0.00079089879199776994 0 -0.0086044805154690714 0.00054824033933471709 0 -0.0082503818663948875 0.00041554792701550109 0 -0.008247175153296437 0.00079089879199776994 0 -0.0076714731066098493 0.00031938033285421291 0 -0.0082503818663948875 0.00041554792701550109 0 -0.0077942590436829665 0.00075911491242244855 0 -0.0078157523560332849 0.0011126962280279035 0 -0.0077942590436829665 0.00075911491242244855 0 -0.008247175153296437 0.00079089879199776994 0 -0.0082503818663948875 0.00041554792701550109 0 -0.0077942590436829665 0.00075911491242244855 0 -0.008247175153296437 0.00079089879199776994 0 -0.0076714731066098493 0.00031938033285421291 0 -0.0082503818663948875 0.00041554792701550109 0 -0.008136384716841959 -3.1457683424215813e-05 0 -0.0087068283047219835 7.4461129354741658e-05 0 -0.0086044805154690714 0.00054824033933471709 0 -0.0082503818663948875 0.00041554792701550109 0 -0.0087199994459959199 2.0375139384673813e-06 0 -0.0082663817772076192 -5.7374231421930735e-05 0 -0.0087068283047219835 7.4461129354741658e-05 0 -0.0082503818663948875 0.00041554792701550109 0 -0.008136384716841959 -3.1457683424215813e-05 0 -0.0089495346478469899 -9.5691435864664987e-05 0 -0.008465668331977233 -4.7280338238168086e-05 0 -0.0089583856443367117 -0.00056034079302113963 0 -0.0074630715042167959 -0.00010498423493162471 0 -0.008465668331977233 -4.7280338238168086e-05 0 -0.0084225050887348305 -0.00072775762176958178 0 -0.0079400743564751446 -0.00010184391868654164 0 -0.0082663817772076192 -5.7374231421930735e-05 0 -0.008465668331977233 -4.7280338238168086e-05 0 -0.0084225050887348305 -0.00072775762176958178 0 -0.0089583856443367117 -0.00056034079302113963 0 -0.0089583856443367117 -0.00056034079302113963 0 -0.0092456359154124007 -0.00065643675681511897 0 -0.0092357738667267417 -0.0010159370250026887 0 -0.0092456359154124007 -0.00065643675681511897 0 -0.0091261653604160914 -0.00030165918713825424 0 -0.0094223422100765536 -0.00045513358926139601 0 -0.0089583856443367117 -0.00056034079302113963 0 -0.0092456359154124007 -0.00065643675681511897 0 -0.0091261653604160914 -0.00030165918713825424 0 -0.0091261653604160914 -0.00030165918713825424 0 -0.0094223422100765536 -0.00045513358926139601 0 -0.0091273080070299103 2.4040982750654818e-05 0 -0.0089495346478469899 -9.5691435864664987e-05 0 -0.0089583856443367117 -0.00056034079302113963 0 -0.0091261653604160914 -0.00030165918713825424 0 -0.0094223422100765536 -0.00045513358926139601 0 -0.0099188476451778397 -0.00073341138734466752 0 -0.0096144261302407094 -0.00012659217485842719 0 -0.0094223422100765536 -0.00045513358926139601 0 -0.0096144261302407094 -0.00012659217485842719 0 -0.0091273080070299103 2.4040982750654818e-05 0 -0.0092456359154124007 -0.00065643675681511897 0 -0.0094223422100765536 -0.00045513358926139601 0 -0.009569625135500132 -0.00093824514618564246 0 -0.0094223422100765536 -0.00045513358926139601 0 -0.0099188476451778397 -0.00073341138734466752 0 -0.009569625135500132 -0.00093824514618564246 0 -0.0099188476451778397 -0.00073341138734466752 0 -0.010618073802771235 -0.00055285038118212408 0 -0.010362797325201239 -0.0012144379987793943 0 -0.0099188476451778397 -0.00073341138734466752 0 -0.01008566225181257 -0.00034560323299356822 0 -0.010618073802771235 -0.00055285038118212408 0 -0.01008566225181257 -0.00034560323299356822 0 -0.010186342052434499 8.7551557325436075e-05 0 -0.010618073802771235 -0.00055285038118212408 0 -0.0099188476451778397 -0.00073341138734466752 0 -0.01008566225181257 -0.00034560323299356822 0 -0.0096144261302407094 -0.00012659217485842719 0 -0.010186342052434499 8.7551557325436075e-05 0 -0.0095989972108415679 0.00023176008816000712 0 -0.0096144261302407094 -0.00012659217485842719 0 -0.01008566225181257 -0.00034560323299356822 0 -0.010186342052434499 8.7551557325436075e-05 0 -0.0096144261302407094 -0.00012659217485842719 0 -0.010186342052434499 8.7551557325436075e-05 0 -0.0099652272800099442 0.00038490347778183268 0 -0.010737255186346894 0.00032634396294003412 0 -0.010186342052434499 8.7551557325436075e-05 0 -0.0099652272800099442 0.00038490347778183268 0 -0.0095989972108415679 0.00023176008816000712 0 -0.0099652272800099442 0.00038490347778183268 0 -0.0095989972108415679 0.00023176008816000712 0 -0.0092700511430505762 0.00048587778995318832 0 -0.0095989972108415679 0.00023176008816000712 0 -0.0091061123087195998 0.00037400855674610235 0 -0.0092700511430505762 0.00048587778995318832 0 -0.0095989972108415679 0.00023176008816000712 0 -0.0096144261302407094 -0.00012659217485842719 0 -0.0091061123087195998 0.00037400855674610235 0 -0.0096144261302407094 -0.00012659217485842719 0 -0.0091273080070299103 2.4040982750654818e-05 0 -0.0091061123087195998 0.00037400855674610235 0 -0.0091061123087195998 0.00037400855674610235 0 -0.0088846085977733538 0.00059912918009437019 0 -0.0087953874315112816 0.0006143974884138515 0 -0.0091061123087195998 0.00037400855674610235 0 -0.0088846085977733538 0.00059912918009437019 0 -0.0092700511430505762 0.00048587778995318832 0 -0.0088846085977733538 0.00059912918009437019 0 -0.0084575346665480087 0.00048363319784823348 0 -0.0088784231440502855 0.00070120591144533792 0 -0.0088846085977733538 0.00059912918009437019 0 -0.0088784231440502855 0.00070120591144533792 0 -0.0092700511430505762 0.00048587778995318832 0 -0.0088846085977733538 0.00059912918009437019 0 -0.0087953874315112816 0.0006143974884138515 0 -0.0084575346665480087 0.00048363319784823348 0 -0.0086342490367423263 0.00050842509217914394 0 -0.0084575346665480087 0.00048363319784823348 0 -0.0083807259062728626 0.00015321055819660347 0 -0.0086342490367423263 0.00050842509217914394 0 -0.0087953874315112816 0.0006143974884138515 0 -0.0084575346665480087 0.00048363319784823348 0 -0.0084575346665480087 0.00048363319784823348 0 -0.0084570240168483565 0.00054383634740155209 0 -0.0088784231440502855 0.00070120591144533792 0 -0.0084575346665480087 0.00048363319784823348 0 -0.0081977520971690046 0.00017717357987211138 0 -0.0084570240168483565 0.00054383634740155209 0 -0.0084575346665480087 0.00048363319784823348 0 -0.0081977520971690046 0.00017717357987211138 0 -0.0080068542582233167 1.0751270402513769e-05 0 -0.0078474145918880217 -0.00026532823830722216 0 -0.0081977520971690046 0.00017717357987211138 0 -0.0080068542582233167 1.0751270402513769e-05 0 -0.0084575346665480087 0.00048363319784823348 0 -0.0080068542582233167 1.0751270402513769e-05 0 -0.0083807259062728626 0.00015321055819660347 0 -0.0075585100741934943 -0.00050858251741656092 0 -0.0080068542582233167 1.0751270402513769e-05 0 -0.0083807259062728626 0.00015321055819660347 0 -0.0088611919440341139 0.00096693195316398619 0 -0.0096510404285183957 0.00095566218034124728 0 -0.0091268448135202497 0.0014698226665937136 0 -0.0086196802235126175 0.0013861708764914022 0 -0.009340825632948602 0.00098002352616496382 0 -0.0088921476344382931 0.0017383197943329873 0 -0.0091268448135202497 0.0014698226665937136 0 -0.0086196802235126175 0.0013861708764914022 0 -0.0088503780279854307 0.00096036395209893614 0 -0.0088611919440341139 0.00096693195316398619 0 -0.0078474145918880217 -0.00026532823830722216 0 -0.0081977520971690046 0.00017717357987211138 0 -0.0080405805837253513 5.6865315224751851e-05 0 -0.0081977520971690046 0.00017717357987211138 0 -0.0080405805837253513 5.6865315224751851e-05 0 -0.0084570240168483565 0.00054383634740155209 0 -0.0080405805837253513 5.6865315224751851e-05 0 -0.0080106452800224898 0.0002073997754236172 0 -0.0084570240168483565 0.00054383634740155209 0 -0.0080106452800224898 0.0002073997754236172 0 -0.0089093381577201227 0.0009125085439666646 0 -0.0084570240168483565 0.00054383634740155209 0 -0.0088611919440341139 0.00096693195316398619 0 -0.008852042898630624 0.00085409822478900487 0 -0.0089093381577201227 0.0009125085439666646 0 -0.0084570240168483565 0.00054383634740155209 0 -0.0088784231440502855 0.00070120591144533792 0 -0.0088854528547087953 0.0019892400933637024 0 -0.0089093381577201227 0.0009125085439666646 0 -0.010231715593977892 0.0014625242259588211 0 -0.0089093381577201227 0.0009125085439666646 0 -0.010356934013721066 0.00088388102373181782 0 -0.010231715593977892 0.0014625242259588211 0 -0.0089093381577201227 0.0009125085439666646 0 -0.0096549659175242698 0.00063140729809907489 0 -0.010356934013721066 0.00088388102373181782 0 -0.0089093381577201227 0.0009125085439666646 0 -0.0096549659175242698 0.00063140729809907489 0 -0.0088784231440502855 0.00070120591144533792 0 -0.0096549659175242698 0.00063140729809907489 0 -0.0088784231440502855 0.00070120591144533792 0 -0.0092700511430505762 0.00048587778995318832 0 -0.0099652272800099442 0.00038490347778183268 0 -0.0096549659175242698 0.00063140729809907489 0 -0.0092700511430505762 0.00048587778995318832 0 -0.0099652272800099442 0.00038490347778183268 0 -0.0096549659175242698 0.00063140729809907489 0 -0.010516054916327002 0.00057222540813304677 0 -0.010516054916327002 0.00057222540813304677 0 -0.011046717764020332 0.00077991831650014347 0 -0.010356934013721066 0.00088388102373181782 0 -0.010516054916327002 0.00057222540813304677 0 -0.011046717764020332 0.00077991831650014347 0 -0.011339635681207565 0.00048977134883124141 0 -0.011046717764020332 0.00077991831650014347 0 -0.011469801460016213 0.00079579852818770095 0 -0.011339635681207565 0.00048977134883124141 0 -0.011046717764020332 0.00077991831650014347 0 -0.011174512549996447 0.0011059183337920222 0 -0.010356934013721066 0.00088388102373181782 0 -0.011046717764020332 0.00077991831650014347 0 -0.011174512549996447 0.0011059183337920222 0 -0.011469801460016213 0.00079579852818770095 0 -0.0096549659175242698 0.00063140729809907489 0 -0.010516054916327002 0.00057222540813304677 0 -0.010356934013721066 0.00088388102373181782 0 -0.011174512549996447 0.0011059183337920222 0 -0.010356934013721066 0.00088388102373181782 0 -0.010231715593977892 0.0014625242259588211 0 -0.010372220022344057 0.00078960963714021486 0 -0.0096510404285183957 0.00095566218034124728 0 -0.010294901345409255 0.00062928612381527515 0 -0.009340825632948602 0.00098002352616496382 0 -0.0098587890140114098 0.001391548901207359 0 -0.010294901345409255 0.00062928612381527515 0 -0.0098587890140114098 0.001391548901207359 0 -0.010945784131547035 0.0010012944698916976 0 -0.0091716386840811886 0.0019092969729722191 0 -0.0091268448135202497 0.0014698226665937136 0 -0.0098587890140114098 0.001391548901207359 0 -0.0091268448135202497 0.0014698226665937136 0 -0.009340825632948602 0.00098002352616496382 0 -0.0098587890140114098 0.001391548901207359 0 -0.011290211913917174 0.0013793804212905852 0 -0.010623699794234122 0.0016278323856967068 0 -0.010945784131547035 0.0010012944698916976 0 -0.0098587890140114098 0.001391548901207359 0 -0.010623699794234122 0.0016278323856967068 0 -0.010945784131547035 0.0010012944698916976 0 -0.011551494124224416 0.00088241286429142148 0 -0.011290211913917174 0.0013793804212905852 0 -0.010945784131547035 0.0010012944698916976 0 -0.011551494124224416 0.00088241286429142148 0 -0.010945784131547035 0.0010012944698916976 0 -0.011391623916940413 0.00061445718201604688 0 -0.012060897531996925 0.0013639338486277663 0 -0.012079576342050849 0.0006742609982828148 0 -0.011521238189502039 0.00053069250058446758 0 -0.011911842916141516 0.0011846119536626923 0 -0.011711530490293103 0.00082929685110546441 0 -0.011551494124224416 0.00088241286429142148 0 -0.011391623916940413 0.00061445718201604688 0 -0.011521238189502039 0.00053069250058446758 0 -0.010372220022344057 0.00078960963714021486 0 -0.010690753085159351 0.00069301557905329799 0 -0.010294901345409255 0.00062928612381527515 0 -0.010945784131547035 0.0010012944698916976 0 -0.011391623916940413 0.00061445718201604688 0 -0.011174512549996447 0.0011059183337920222 0 -0.011391623916940413 0.00061445718201604688 0 -0.011469801460016213 0.00079579852818770095 0 -0.011469801460016213 0.00079579852818770095 0 -0.011971418645727171 0.00061731278384680231 0 -0.011339635681207565 0.00048977134883124141 0 -0.011391623916940413 0.00061445718201604688 0 -0.011469801460016213 0.00079579852818770095 0 -0.011521238189502039 0.00053069250058446758 0 -0.011469801460016213 0.00079579852818770095 0 -0.012630000542760037 0.00099935264889932556 0 -0.011971418645727171 0.00061731278384680231 0 -0.011469801460016213 0.00079579852818770095 0 -0.011521238189502039 0.00053069250058446758 0 -0.011676183599680446 0.00031488414903103093 0 -0.012079576342050849 0.0006742609982828148 0 -0.011521238189502039 0.00053069250058446758 0 -0.011676183599680446 0.00031488414903103093 0 -0.012206434682631271 0.00067988491064651833 0 -0.012495811010917384 0.00062024804525180187 0 -0.01295937348749894 0.00037979645827070346 0 -0.012633615270092463 0.00061286547998169706 0 -0.012117258521450076 0.00028544706675391271 0 -0.012633615270092463 0.00061286547998169706 0 -0.012117258521450076 0.00028544706675391271 0 -0.011971418645727171 0.00061731278384680231 0 -0.012630000542760037 0.00099935264889932556 0 -0.012633615270092463 0.00061286547998169706 0 -0.011971418645727171 0.00061731278384680231 0 -0.01295937348749894 0.00037979645827070346 0 -0.012117258521450076 0.00028544706675391271 0 -0.012735761558875092 3.8629134635972814e-05 0 -0.012117258521450076 0.00028544706675391271 0 -0.011971418645727171 0.00061731278384680231 0 -0.011339635681207565 0.00048977134883124141 0 -0.012117258521450076 0.00028544706675391271 0 -0.011339635681207565 0.00048977134883124141 0 -0.011076516535593842 5.2218863992957447e-05 0 -0.011339635681207565 0.00048977134883124141 0 -0.010737255186346894 0.00032634396294003412 0 -0.011076516535593842 5.2218863992957447e-05 0 -0.010516054916327002 0.00057222540813304677 0 -0.011339635681207565 0.00048977134883124141 0 -0.010737255186346894 0.00032634396294003412 0 -0.0099652272800099442 0.00038490347778183268 0 -0.010516054916327002 0.00057222540813304677 0 -0.010737255186346894 0.00032634396294003412 0 -0.010186342052434499 8.7551557325436075e-05 0 -0.011076516535593842 5.2218863992957447e-05 0 -0.010618073802771235 -0.00055285038118212408 0 -0.010186342052434499 8.7551557325436075e-05 0 -0.010737255186346894 0.00032634396294003412 0 -0.011076516535593842 5.2218863992957447e-05 0 -0.012117258521450076 0.00028544706675391271 0 -0.011076516535593842 5.2218863992957447e-05 0 -0.012295739321687699 -0.00035855859909751203 0 -0.011076516535593842 5.2218863992957447e-05 0 -0.010618073802771235 -0.00055285038118212408 0 -0.012295739321687699 -0.00035855859909751203 0 -0.010618073802771235 -0.00055285038118212408 0 -0.012295739321687699 -0.00035855859909751203 0 -0.011276068067116587 -0.0012056008971875448 0 -0.012392429352622745 -0.00036468909171504427 0 -0.012297399703729098 -0.00056219129098116134 0 -0.013052415130350778 -0.00017957115697997663 0 -0.012295739321687699 -0.00035855859909751203 0 -0.013118910712384788 -0.00034195101676308583 0 -0.013476701473952437 -0.00021434389244358177 0 -0.013052415130350778 -0.00017957115697997663 0 -0.013118910712384788 -0.00034195101676308583 0 -0.013208781426481336 0.00012759583802228128 0 -0.013052415130350778 -0.00017957115697997663 0 -0.012735761558875092 3.8629134635972814e-05 0 -0.013052415130350778 -0.00017957115697997663 0 -0.012735761558875092 3.8629134635972814e-05 0 -0.012295739321687699 -0.00035855859909751203 0 -0.012117258521450076 0.00028544706675391271 0 -0.012735761558875092 3.8629134635972814e-05 0 -0.012295739321687699 -0.00035855859909751203 0 -0.013118910712384788 -0.00034195101676308583 0 -0.013362971306909457 -0.00036362637834297889 0 -0.013477619621873899 -0.00033467180414696845 0 -0.013640691188529749 -0.00026168602999710188 0 -0.013118910712384788 -0.00034195101676308583 0 -0.013477619621873899 -0.00033467180414696845 0 -0.013640691188529749 -0.00026168602999710188 0 -0.013476701473952437 -0.00021434389244358177 0 -0.013118910712384788 -0.00034195101676308583 0 -0.012295739321687699 -0.00035855859909751203 0 -0.013118910712384788 -0.00034195101676308583 0 -0.013173545086697505 -0.00038037045825276011 0 -0.010618073802771235 -0.00055285038118212408 0 -0.011276068067116587 -0.0012056008971875448 0 -0.010362797325201239 -0.0012144379987793943 0 -0.011276068067116587 -0.0012056008971875448 0 -0.010658531456282214 -0.0015332616978790206 0 -0.010362797325201239 -0.0012144379987793943 0 -0.012297399703729098 -0.00056219129098116134 0 -0.012180113221686448 -0.00075984586782372172 0 -0.013173545086697505 -0.00038037045825276011 0 -0.013362971306909457 -0.00036362637834297889 0 -0.013558594023759583 -0.00042447889125308538 0 -0.013118910712384788 -0.00034195101676308583 0 -0.013173545086697505 -0.00038037045825276011 0 -0.013362971306909457 -0.00036362637834297889 0 -0.013362971306909457 -0.00036362637834297889 0 -0.013462041881735548 -0.00033484534116600437 0 -0.013558594023759583 -0.00042447889125308538 0 -0.013362971306909457 -0.00036362637834297889 0 -0.013462041881735548 -0.00033484534116600437 0 -0.013486011865070683 -0.00036058228756725893 0 -0.013462041881735548 -0.00033484534116600437 0 -0.013558594023759583 -0.00042447889125308538 0 -0.013569649383132668 -0.00026920621170707155 0 -0.013558594023759583 -0.00042447889125308538 0 -0.013569649383132668 -0.00026920621170707155 0 -0.013832727127621264 -5.9658666485585604e-05 0 -0.013569649383132668 -0.00026920621170707155 0 -0.013661297909311093 -0.00017613760655656443 0 -0.01359228425998851 -0.00024822904684259126 0 -0.013569649383132668 -0.00026920621170707155 0 -0.013661297909311093 -0.00017613760655656443 0 -0.013832727127621264 -5.9658666485585604e-05 0 -0.013462041881735548 -0.00033484534116600437 0 -0.013516671476919666 -0.00031643479978770485 0 -0.013486011865070683 -0.00036058228756725893 0 -0.013462041881735548 -0.00033484534116600437 0 -0.013569649383132668 -0.00026920621170707155 0 -0.013516671476919666 -0.00031643479978770485 0 -0.013569649383132668 -0.00026920621170707155 0 -0.013516671476919666 -0.00031643479978770485 0 -0.01359228425998851 -0.00024822904684259126 0 -0.013516671476919666 -0.00031643479978770485 0 -0.013548833271702056 -0.00036788091410000528 0 -0.01359228425998851 -0.00024822904684259126 0 -0.01354983031844828 -0.00040963615483493595 0 -0.013486011865070683 -0.00036058228756725893 0 -0.013548833271702056 -0.00036788091410000528 0 -0.013516671476919666 -0.00031643479978770485 0 -0.013486011865070683 -0.00036058228756725893 0 -0.013548833271702056 -0.00036788091410000528 0 -0.01354983031844828 -0.00040963615483493595 0 -0.013486011865070683 -0.00036058228756725893 0 -0.013638352947931592 -0.00040555364006842368 0 -0.013486011865070683 -0.00036058228756725893 0 -0.013477619621873899 -0.00033467180414696845 0 -0.013638352947931592 -0.00040555364006842368 0 -0.013362971306909457 -0.00036362637834297889 0 -0.013486011865070683 -0.00036058228756725893 0 -0.013477619621873899 -0.00033467180414696845 0 -0.013873819185418997 -0.00034118941871368399 0 -0.013477619621873899 -0.00033467180414696845 0 -0.013638352947931592 -0.00040555364006842368 0 -0.013640691188529749 -0.00026168602999710188 0 -0.013873819185418997 -0.00034118941871368399 0 -0.013477619621873899 -0.00033467180414696845 0 -0.014022473906864345 -0.0005885865645873699 0 -0.013873819185418997 -0.00034118941871368399 0 -0.013638352947931592 -0.00040555364006842368 0 -0.014022473906864345 -0.0005885865645873699 0 -0.013638352947931592 -0.00040555364006842368 0 -0.01356133898860123 -0.0004919331271800748 0 -0.01354983031844828 -0.00040963615483493595 0 -0.013638352947931592 -0.00040555364006842368 0 -0.01356133898860123 -0.0004919331271800748 0 -0.014022473906864345 -0.0005885865645873699 0 -0.01356133898860123 -0.0004919331271800748 0 -0.013728069249510923 -0.00072652848138301379 0 -0.014914492830934248 -0.00075338835347801294 0 -0.015196502351197969 -0.00058008404393670911 0 -0.01356133898860123 -0.0004919331271800748 0 -0.01345477180755575 -0.00035064184178450349 0 -0.013564211690807199 -0.0003400024181975359 0 -0.015034459078915012 -0.00047215264093112755 0 -0.015196502351197969 -0.00058008404393670911 0 -0.01356133898860123 -0.0004919331271800748 0 -0.013548833271702056 -0.00036788091410000528 0 -0.013564211690807199 -0.0003400024181975359 0 -0.01354983031844828 -0.00040963615483493595 0 -0.01356133898860123 -0.0004919331271800748 0 -0.013548833271702056 -0.00036788091410000528 0 -0.013548833271702056 -0.00036788091410000528 0 -0.013564211690807199 -0.0003400024181975359 0 -0.013601414997924787 -0.00026706843257695833 0 -0.013564211690807199 -0.0003400024181975359 0 -0.013562827246265154 -0.00019886035244107513 0 -0.013601414997924787 -0.00026706843257695833 0 -0.013562827246265154 -0.00019886035244107513 0 -0.013601414997924787 -0.00026706843257695833 0 -0.013635200946723214 -0.00018998446538052562 0 -0.016617134983167282 -0.0005158585585848418 0 -0.016609618325148047 -0.00050964772403092019 0 -0.016605534217154314 -0.00051671461224423343 0 -0.015196502351197969 -0.00058008404393670911 0 -0.015129981918302747 -0.00037874223411062791 0 -0.01345477180755575 -0.00035064184178450349 0 -0.013564211690807199 -0.0003400024181975359 0 -0.013562827246265154 -0.00019886035244107513 0 -0.01569277093238676 -0.00086511834786094372 0 -0.015196502351197969 -0.00058008404393670911 0 -0.016617134983167282 -0.0005158585585848418 0 -0.016605534217154314 -0.00051671461224423343 0 -0.016614229124335037 -0.00052470193146022799 0 -0.016605534217154314 -0.00051671461224423343 0 -0.016614229124335037 -0.00052470193146022799 0 -0.016601427814840489 -0.00052280970744368713 0 -0.013562827246265154 -0.00019886035244107513 0 -0.013616971326333957 -0.00013706748339092643 0 -0.013635200946723214 -0.00018998446538052562 0 -0.015129981918302747 -0.00037874223411062791 0 -0.015101812514832967 -0.00015934196909658121 0 -0.016614229124335037 -0.00052470193146022799 0 -0.016601427814840489 -0.00052280970744368713 0 -0.016609766011622191 -0.00052957518699139189 0 -0.016601427814840489 -0.00052280970744368713 0 -0.016604233586867106 -0.00053102285573755463 0 -0.016609766011622191 -0.00052957518699139189 0 -0.016614229124335037 -0.00052470193146022799 0 -0.016609766011622191 -0.00052957518699139189 0 -0.016621788761380891 -0.00053709027611669542 0 -0.014626813128698575 0.00032234946825444475 0 -0.01519833989278588 0.00028589897004844763 0 -0.014545681074799489 0.00084192836349724048 0 -0.014367860727345153 0.00086770913053136473 0 -0.01442846704487352 0.00083373448026526282 0 -0.014545681074799489 0.00084192836349724048 0 -0.014367860727345153 0.00086770913053136473 0 -0.014535445693844516 0.00084518472872201873 0 -0.013616971326333957 -0.00013706748339092643 0 -0.0136671367690007 -0.00015343476648392696 0 -0.013656642339427301 -9.0629243672110432e-05 0 -0.015101812514832967 -0.00015934196909658121 0 -0.01519833989278588 0.00028589897004844763 0 -0.016601427814840489 -0.00052280970744368713 0 -0.016604233586867106 -0.00053102285573755463 0 -0.016597814945483853 -0.00052742623946908465 0 -0.013616971326333957 -0.00013706748339092643 0 -0.0136671367690007 -0.00015343476648392696 0 -0.013635200946723214 -0.00018998446538052562 0 -0.014626813128698575 0.00032234946825444475 0 -0.014356641533378825 0.00020346503421989358 0 -0.014367860727345153 0.00086770913053136473 0 -0.014003816400222413 0.00072638332372260963 0 -0.014252425687586598 0.00089376040588528573 0 -0.013668201547042137 -0.00017929735962620374 0 -0.013635200946723214 -0.00018998446538052562 0 -0.013642962822433139 -0.00020411922819729892 0 -0.0136671367690007 -0.00015343476648392696 0 -0.013668201547042137 -0.00017929735962620374 0 -0.013635200946723214 -0.00018998446538052562 0 -0.013601414997924787 -0.00026706843257695833 0 -0.013635200946723214 -0.00018998446538052562 0 -0.013642962822433139 -0.00020411922819729892 0 -0.013601414997924787 -0.00026706843257695833 0 -0.013642962822433139 -0.00020411922819729892 0 -0.01359228425998851 -0.00024822904684259126 0 -0.013642962822433139 -0.00020411922819729892 0 -0.01359228425998851 -0.00024822904684259126 0 -0.013676721942688697 -0.00015928422161077844 0 -0.013548833271702056 -0.00036788091410000528 0 -0.013601414997924787 -0.00026706843257695833 0 -0.01359228425998851 -0.00024822904684259126 0 -0.014356641533378825 0.00020346503421989358 0 -0.014287386727240677 9.4117565871345489e-05 0 -0.013668201547042137 -0.00017929735962620374 0 -0.013676721942688697 -0.00015928422161077844 0 -0.013832727127621264 -5.9658666485585604e-05 0 -0.013668201547042137 -0.00017929735962620374 0 -0.013642962822433139 -0.00020411922819729892 0 -0.013676721942688697 -0.00015928422161077844 0 -0.013661297909311093 -0.00017613760655656443 0 -0.01359228425998851 -0.00024822904684259126 0 -0.013676721942688697 -0.00015928422161077844 0 -0.013661297909311093 -0.00017613760655656443 0 -0.013676721942688697 -0.00015928422161077844 0 -0.013832727127621264 -5.9658666485585604e-05 0 -0.014104733660376395 0.00051710474509536442 0 -0.013832727127621264 -5.9658666485585604e-05 0 -0.014088143207972541 -5.7210025086328193e-05 0 -0.014003816400222413 0.00072638332372260963 0 -0.014104733660376395 0.00051710474509536442 0 -0.013832727127621264 -5.9658666485585604e-05 0 -0.014104733660376395 0.00051710474509536442 0 -0.014417956063408344 0.00097225516443279409 0 -0.014088143207972541 -5.7210025086328193e-05 0 -0.012047334696024262 -0.00067606117374018331 0 -0.012133664151962506 -0.00074954648711394968 0 -0.010050999253928732 -0.0017254590938877465 0 -0.010099610760821423 -0.001860439310491079 0 -0.010271600801437079 -0.0017209279704111687 0 -0.014003816400222413 0.00072638332372260963 0 -0.014104733660376395 0.00051710474509536442 0 -0.014252425687586598 0.00089376040588528573 0 -0.014104733660376395 0.00051710474509536442 0 -0.014417956063408344 0.00097225516443279409 0 -0.014252425687586598 0.00089376040588528573 0 -0.014252425687586598 0.00089376040588528573 0 -0.014283829813360573 0.00090771409364575955 0 -0.01442846704487352 0.00083373448026526282 0 -0.014367860727345153 0.00086770913053136473 0 -0.014252425687586598 0.00089376040588528573 0 -0.01442846704487352 0.00083373448026526282 0 -0.014417956063408344 0.00097225516443279409 0 -0.014252425687586598 0.00089376040588528573 0 -0.014283829813360573 0.00090771409364575955 0 -0.014417956063408344 0.00097225516443279409 0 -0.014065450507971816 0.00090582677092206662 0 -0.014283829813360573 0.00090771409364575955 0 -0.014417956063408344 0.00097225516443279409 0 -0.014065450507971816 0.00090582677092206662 0 -0.013243905366043779 0.00087669533069426573 0 -0.014065450507971816 0.00090582677092206662 0 -0.014283829813360573 0.00090771409364575955 0 -0.014374362018040852 0.00069853269821589664 0 -0.014065450507971816 0.00090582677092206662 0 -0.014374362018040852 0.00069853269821589664 0 -0.013243905366043779 0.00087669533069426573 0 -0.014545681074799489 0.00084192836349724048 0 -0.01442846704487352 0.00083373448026526282 0 -0.014583790604262528 0.00084170125184303529 0 -0.014374362018040852 0.00069853269821589664 0 -0.01442846704487352 0.00083373448026526282 0 -0.014583790604262528 0.00084170125184303529 0 -0.014283829813360573 0.00090771409364575955 0 -0.014374362018040852 0.00069853269821589664 0 -0.01442846704487352 0.00083373448026526282 0 -0.010255871035670246 -0.0016137992594571935 0 -0.010271943733561462 -0.0015375948245933762 0 -0.0107212685441322 -0.0016611710561287283 0 -0.010293055034475312 -0.0019507553178599976 0 -0.011364316827345268 -0.0016202324633411128 0 -0.011106327456084052 -0.0014525393542241197 0 -0.0107212685441322 -0.0016611710561287283 0 -0.011364316827345268 -0.0016202324633411128 0 -0.011106327456084052 -0.0014525393542241197 0 -0.011364316827345268 -0.0016202324633411128 0 -0.011345335399654892 -0.0013459987065115892 0 -0.0107212685441322 -0.0016611710561287283 0 -0.010217951623797863 -0.0018703448784312133 0 -0.011629138075053327 -0.0011069721588169881 0 -0.014374362018040852 0.00069853269821589664 0 -0.013243905366043779 0.00087669533069426573 0 -0.012255403204948461 -0.00098432656973959491 0 -0.0107212685441322 -0.0016611710561287283 0 -0.010217951623797863 -0.0018703448784312133 0 -0.010293055034475312 -0.0019507553178599976 0 -0.010099610760821423 -0.001860439310491079 0 -0.010217951623797863 -0.0018703448784312133 0 -0.010081334077504923 -0.0018733890261203097 0 -0.010217951623797863 -0.0018703448784312133 0 -0.010293055034475312 -0.0019507553178599976 0 -0.010081334077504923 -0.0018733890261203097 0 -0.012047334696024262 -0.00067606117374018331 0 -0.011792258825439071 -0.00086309874243152844 0 -0.010293055034475312 -0.0019507553178599976 0 -0.0098837276131970523 -0.0019072119198446679 0 -0.0096749744781685632 -0.0022278433902151338 0 -0.010293055034475312 -0.0019507553178599976 0 -0.0098837276131970523 -0.0019072119198446679 0 -0.010081334077504923 -0.0018733890261203097 0 -0.0098837276131970523 -0.0019072119198446679 0 -0.0097747792992444373 -0.0017590362161755344 0 -0.0095667369003436097 -0.001821434742370197 0 -0.0098837276131970523 -0.0019072119198446679 0 -0.0097747792992444373 -0.0017590362161755344 0 -0.010081334077504923 -0.0018733890261203097 0 -0.0097747792992444373 -0.0017590362161755344 0 -0.010081334077504923 -0.0018733890261203097 0 -0.0099556334603356413 -0.0017610276257955854 0 -0.010099610760821423 -0.001860439310491079 0 -0.010081334077504923 -0.0018733890261203097 0 -0.0099556334603356413 -0.0017610276257955854 0 -0.010050999253928732 -0.0017254590938877465 0 -0.0099556334603356413 -0.0017610276257955854 0 -0.0098355487012161229 -0.0016127922131128391 0 -0.010050999253928732 -0.0017254590938877465 0 -0.010099610760821423 -0.001860439310491079 0 -0.0099556334603356413 -0.0017610276257955854 0 -0.0097747792992444373 -0.0017590362161755344 0 -0.0099556334603356413 -0.0017610276257955854 0 -0.0096692192823258864 -0.0016452612017408589 0 -0.0097747792992444373 -0.0017590362161755344 0 -0.0096692192823258864 -0.0016452612017408589 0 -0.0094647335253510365 -0.0016539665127924424 0 -0.0099556334603356413 -0.0017610276257955854 0 -0.0096692192823258864 -0.0016452612017408589 0 -0.0098355487012161229 -0.0016127922131128391 0 -0.0096692192823258864 -0.0016452612017408589 0 -0.009608532685994365 -0.0014990574830475508 0 -0.0098355487012161229 -0.0016127922131128391 0 -0.009608532685994365 -0.0014990574830475508 0 -0.0098653634007406718 -0.0014864299433581993 0 -0.0098355487012161229 -0.0016127922131128391 0 -0.009608532685994365 -0.0014990574830475508 0 -0.0098653634007406718 -0.0014864299433581993 0 -0.0097605126462178282 -0.0012677983589361103 0 -0.009608532685994365 -0.0014990574830475508 0 -0.0097605126462178282 -0.0012677983589361103 0 -0.0094541523771163802 -0.0012569259041326926 0 -0.0098653634007406718 -0.0014864299433581993 0 -0.010049600005246869 -0.0013926115520387506 0 -0.0097605126462178282 -0.0012677983589361103 0 -0.0098653634007406718 -0.0014864299433581993 0 -0.0098355487012161229 -0.0016127922131128391 0 -0.010070983158820697 -0.0016189361684329571 0 -0.010050999253928732 -0.0017254590938877465 0 -0.0098355487012161229 -0.0016127922131128391 0 -0.010070983158820697 -0.0016189361684329571 0 -0.010070983158820697 -0.0016189361684329571 0 -0.010271600801437079 -0.0017209279704111687 0 -0.010277754828504732 -0.0015376782023640097 0 -0.010050999253928732 -0.0017254590938877465 0 -0.010070983158820697 -0.0016189361684329571 0 -0.010271600801437079 -0.0017209279704111687 0 -0.012180113221686448 -0.00075984586782372172 0 -0.012133664151962506 -0.00074954648711394968 0 -0.013558594023759583 -0.00042447889125308538 0 -0.013832727127621264 -5.9658666485585604e-05 0 -0.014088143207972541 -5.7210025086328193e-05 0 -0.010658531456282214 -0.0015332616978790206 0 -0.010271600801437079 -0.0017209279704111687 0 -0.010277754828504732 -0.0015376782023640097 0 -0.010070983158820697 -0.0016189361684329571 0 -0.010277754828504732 -0.0015376782023640097 0 -0.010049600005246869 -0.0013926115520387506 0 -0.0098653634007406718 -0.0014864299433581993 0 -0.010070983158820697 -0.0016189361684329571 0 -0.010049600005246869 -0.0013926115520387506 0 -0.010277754828504732 -0.0015376782023640097 0 -0.010049600005246869 -0.0013926115520387506 0 -0.010362797325201239 -0.0012144379987793943 0 -0.010049600005246869 -0.0013926115520387506 0 -0.010362797325201239 -0.0012144379987793943 0 -0.0099358874388363119 -0.0011127565143520027 0 -0.010658531456282214 -0.0015332616978790206 0 -0.010277754828504732 -0.0015376782023640097 0 -0.010362797325201239 -0.0012144379987793943 0 -0.0099188476451778397 -0.00073341138734466752 0 -0.010362797325201239 -0.0012144379987793943 0 -0.0099358874388363119 -0.0011127565143520027 0 -0.0099188476451778397 -0.00073341138734466752 0 -0.0099358874388363119 -0.0011127565143520027 0 -0.009569625135500132 -0.00093824514618564246 0 -0.009569625135500132 -0.00093824514618564246 0 -0.0097605126462178282 -0.0012677983589361103 0 -0.0094541523771163802 -0.0012569259041326926 0 -0.0099358874388363119 -0.0011127565143520027 0 -0.009569625135500132 -0.00093824514618564246 0 -0.0097605126462178282 -0.0012677983589361103 0 -0.010049600005246869 -0.0013926115520387506 0 -0.0099358874388363119 -0.0011127565143520027 0 -0.0097605126462178282 -0.0012677983589361103 0 -0.0091553981091439564 -0.0013393166659998893 0 -0.0092357738667267417 -0.0010159370250026887 0 -0.0089781802894789223 -0.0011120904674909772 0 -0.0091553981091439564 -0.0013393166659998893 0 -0.0094541523771163802 -0.0012569259041326926 0 -0.0092357738667267417 -0.0010159370250026887 0 -0.009569625135500132 -0.00093824514618564246 0 -0.0094541523771163802 -0.0012569259041326926 0 -0.0092357738667267417 -0.0010159370250026887 0 -0.0092456359154124007 -0.00065643675681511897 0 -0.009569625135500132 -0.00093824514618564246 0 -0.0092357738667267417 -0.0010159370250026887 0 -0.0089583856443367117 -0.00056034079302113963 0 -0.0092357738667267417 -0.0010159370250026887 0 -0.0089781802894789223 -0.0011120904674909772 0 -0.0084225050887348305 -0.00072775762176958178 0 -0.0089781802894789223 -0.0011120904674909772 0 -0.0086789060171309253 -0.0012320052127093798 0 -0.0084225050887348305 -0.00072775762176958178 0 -0.0089583856443367117 -0.00056034079302113963 0 -0.0089781802894789223 -0.0011120904674909772 0 -0.0084225050887348305 -0.00072775762176958178 0 -0.0086789060171309253 -0.0012320052127093798 0 -0.0082132924388741129 -0.0010179665798489305 0 -0.0086789060171309253 -0.0012320052127093798 0 -0.0089407006245515244 -0.0017199260771415211 0 -0.0084498310211326751 -0.0014446259024840681 0 -0.0086789060171309253 -0.0012320052127093798 0 -0.0089850331341589547 -0.0014417072724742443 0 -0.0089407006245515244 -0.0017199260771415211 0 -0.0086789060171309253 -0.0012320052127093798 0 -0.0084498310211326751 -0.0014446259024840681 0 -0.0082132924388741129 -0.0010179665798489305 0 -0.0089781802894789223 -0.0011120904674909772 0 -0.0086789060171309253 -0.0012320052127093798 0 -0.0089850331341589547 -0.0014417072724742443 0 -0.0091553981091439564 -0.0013393166659998893 0 -0.0089781802894789223 -0.0011120904674909772 0 -0.0089850331341589547 -0.0014417072724742443 0 -0.0089850331341589547 -0.0014417072724742443 0 -0.0091190846452441597 -0.0016138611846841417 0 -0.0089407006245515244 -0.0017199260771415211 0 -0.0091553981091439564 -0.0013393166659998893 0 -0.0089850331341589547 -0.0014417072724742443 0 -0.0091190846452441597 -0.0016138611846841417 0 -0.0089407006245515244 -0.0017199260771415211 0 -0.0091186353909227715 -0.0018996876331002002 0 -0.0088165139837275003 -0.0018683747729731066 0 -0.0089407006245515244 -0.0017199260771415211 0 -0.0091512755073813699 -0.0017339921146764577 0 -0.0091186353909227715 -0.0018996876331002002 0 -0.0091190846452441597 -0.0016138611846841417 0 -0.0089407006245515244 -0.0017199260771415211 0 -0.0091512755073813699 -0.0017339921146764577 0 -0.0091190846452441597 -0.0016138611846841417 0 -0.0091512755073813699 -0.0017339921146764577 0 -0.0092269717809011619 -0.0016297201571545876 0 -0.0091190846452441597 -0.0016138611846841417 0 -0.0092269717809011619 -0.0016297201571545876 0 -0.0093109647922821025 -0.0015024642823303529 0 -0.0092269717809011619 -0.0016297201571545876 0 -0.0093109647922821025 -0.0015024642823303529 0 -0.0094044979953155153 -0.0015977766440831516 0 -0.0091553981091439564 -0.0013393166659998893 0 -0.0091190846452441597 -0.0016138611846841417 0 -0.0093109647922821025 -0.0015024642823303529 0 -0.0091553981091439564 -0.0013393166659998893 0 -0.0094541523771163802 -0.0012569259041326926 0 -0.0093109647922821025 -0.0015024642823303529 0 -0.009608532685994365 -0.0014990574830475508 0 -0.0094541523771163802 -0.0012569259041326926 0 -0.0093109647922821025 -0.0015024642823303529 0 -0.009608532685994365 -0.0014990574830475508 0 -0.0093109647922821025 -0.0015024642823303529 0 -0.0094044979953155153 -0.0015977766440831516 0 -0.0096692192823258864 -0.0016452612017408589 0 -0.009608532685994365 -0.0014990574830475508 0 -0.0094044979953155153 -0.0015977766440831516 0 -0.0094044979953155153 -0.0015977766440831516 0 -0.0094647335253510365 -0.0016539665127924424 0 -0.009279373654181711 -0.0016231389139168457 0 -0.0096692192823258864 -0.0016452612017408589 0 -0.0094044979953155153 -0.0015977766440831516 0 -0.0094647335253510365 -0.0016539665127924424 0 -0.009279373654181711 -0.0016231389139168457 0 -0.0091971686675740988 -0.0016079943615747436 0 -0.0092148007742957408 -0.0016122743440866788 0 -0.0092269717809011619 -0.0016297201571545876 0 -0.009279373654181711 -0.0016231389139168457 0 -0.0092148007742957408 -0.0016122743440866788 0 -0.0092269717809011619 -0.0016297201571545876 0 -0.0094044979953155153 -0.0015977766440831516 0 -0.009279373654181711 -0.0016231389139168457 0 -0.0094647335253510365 -0.0016539665127924424 0 -0.009279373654181711 -0.0016231389139168457 0 -0.0091971686675740988 -0.0016079943615747436 0 -0.0097747792992444373 -0.0017590362161755344 0 -0.0094647335253510365 -0.0016539665127924424 0 -0.0095667369003436097 -0.001821434742370197 0 -0.0094647335253510365 -0.0016539665127924424 0 -0.0091971686675740988 -0.0016079943615747436 0 -0.0095667369003436097 -0.001821434742370197 0 -0.0098837276131970523 -0.0019072119198446679 0 -0.0095667369003436097 -0.001821434742370197 0 -0.0096749744781685632 -0.0022278433902151338 0 -0.0095667369003436097 -0.001821434742370197 0 -0.0093006796123518004 -0.0020008047478131947 0 -0.0096749744781685632 -0.0022278433902151338 0 -0.0091971686675740988 -0.0016079943615747436 0 -0.0095667369003436097 -0.001821434742370197 0 -0.0093006796123518004 -0.0020008047478131947 0 -0.0091971686675740988 -0.0016079943615747436 0 -0.0093006796123518004 -0.0020008047478131947 0 -0.0089217314470492817 -0.0020279405890930974 0 -0.0095554666419621192 -0.0014846590615069999 0 -0.0096988828573293662 -0.0013726759065912954 0 -0.0093006796123518004 -0.0020008047478131947 0 -0.0091667333651220383 -0.0023323579347503125 0 -0.0089217314470492817 -0.0020279405890930974 0 -0.010219294596754835 -0.0013022776189017308 0 -0.010271943733561462 -0.0015375948245933762 0 -0.0093006796123518004 -0.0020008047478131947 0 -0.0091667333651220383 -0.0023323579347503125 0 -0.0096749744781685632 -0.0022278433902151338 0 -0.011319222733312876 -0.001407937456475663 0 -0.011364316827345268 -0.0016202324633411128 0 -0.011323378991621127 -0.0013801037833752197 0 -0.011364316827345268 -0.0016202324633411128 0 -0.011345335399654892 -0.0013459987065115892 0 -0.011323378991621127 -0.0013801037833752197 0 -0.01039247671803312 -0.0007666433744317803 0 -0.01022587685512423 -0.00067471590460792719 0 -0.010162210616191353 -0.00023374543517580966 0 -0.0099763626171910473 -0.00028277571410456349 0 -0.010124167606799303 -0.00075357741467274499 0 -0.0094337695160123525 -0.00044221592349878567 0 -0.009512518649757145 -0.00097564470969538938 0 -0.010124167606799303 -0.00075357741467274499 0 -0.01035999672376005 -0.00074921990428687723 0 -0.01039247671803312 -0.0007666433744317803 0 -0.010219294596754835 -0.0013022776189017308 0 -0.01039247671803312 -0.0007666433744317803 0 -0.0094337695160123525 -0.00044221592349878567 0 -0.0091762277017583167 -0.0010139281224569195 0 -0.009512518649757145 -0.00097564470969538938 0 -0.01039247671803312 -0.0007666433744317803 0 -0.0096988828573293662 -0.0013726759065912954 0 -0.0091667333651220383 -0.0023323579347503125 0 -0.0086480576240173766 -0.0024072017484388 0 -0.0089217314470492817 -0.0020279405890930974 0 -0.0091971686675740988 -0.0016079943615747436 0 -0.0091762277017583167 -0.0010139281224569195 0 -0.0093250994382783284 -0.0013848293247929191 0 -0.0091762277017583167 -0.0010139281224569195 0 -0.009512518649757145 -0.00097564470969538938 0 -0.0093250994382783284 -0.0013848293247929191 0 -0.009512518649757145 -0.00097564470969538938 0 -0.0096355269429074866 -0.0011925872042551657 0 -0.010124167606799303 -0.00075357741467274499 0 -0.009512518649757145 -0.00097564470969538938 0 -0.0096355269429074866 -0.0011925872042551657 0 -0.0093250994382783284 -0.0013848293247929191 0 -0.0096355269429074866 -0.0011925872042551657 0 -0.009376327664140191 -0.0015666664366110932 0 -0.0098499115346377553 -0.0012569876806844417 0 -0.0096355269429074866 -0.0011925872042551657 0 -0.0093250994382783284 -0.0013848293247929191 0 -0.009376327664140191 -0.0015666664366110932 0 -0.0093250994382783284 -0.0013848293247929191 0 -0.0092148007742957408 -0.0016122743440866788 0 -0.009376327664140191 -0.0015666664366110932 0 -0.0091971686675740988 -0.0016079943615747436 0 -0.0093250994382783284 -0.0013848293247929191 0 -0.0092148007742957408 -0.0016122743440866788 0 -0.0091512755073813699 -0.0017339921146764577 0 -0.0092148007742957408 -0.0016122743440866788 0 -0.009376327664140191 -0.0015666664366110932 0 -0.0091512755073813699 -0.0017339921146764577 0 -0.0092269717809011619 -0.0016297201571545876 0 -0.0092148007742957408 -0.0016122743440866788 0 -0.0091512755073813699 -0.0017339921146764577 0 -0.009376327664140191 -0.0015666664366110932 0 -0.0091186353909227715 -0.0018996876331002002 0 -0.009376327664140191 -0.0015666664366110932 0 -0.0097617868128515549 -0.0016125513090564324 0 -0.0098499115346377553 -0.0012569876806844417 0 -0.009376327664140191 -0.0015666664366110932 0 -0.0097617868128515549 -0.0016125513090564324 0 -0.0091186353909227715 -0.0018996876331002002 0 -0.0097617868128515549 -0.0016125513090564324 0 -0.010426392274777502 -0.0010658296874346313 0 -0.010828670542323303 -0.0016557114745383457 0 -0.0097617868128515549 -0.0016125513090564324 0 -0.010828670542323303 -0.0016557114745383457 0 -0.0099108180252754346 -0.0019368945900208542 0 -0.010426392274777502 -0.0010658296874346313 0 -0.0098499115346377553 -0.0012569876806844417 0 -0.010124167606799303 -0.00075357741467274499 0 -0.0097617868128515549 -0.0016125513090564324 0 -0.010426392274777502 -0.0010658296874346313 0 -0.0098499115346377553 -0.0012569876806844417 0 -0.0096355269429074866 -0.0011925872042551657 0 -0.0098499115346377553 -0.0012569876806844417 0 -0.010124167606799303 -0.00075357741467274499 0 -0.010124167606799303 -0.00075357741467274499 0 -0.010818448885738617 -0.0006497256527113345 0 -0.010769257869018166 -0.00037581325335107006 0 -0.010426392274777502 -0.0010658296874346313 0 -0.010818448885738617 -0.0006497256527113345 0 -0.011145789156715597 -0.00072179331195783866 0 -0.010426392274777502 -0.0010658296874346313 0 -0.010124167606799303 -0.00075357741467274499 0 -0.010818448885738617 -0.0006497256527113345 0 -0.010769257869018166 -0.00037581325335107006 0 -0.011390589315547865 -0.00038890059010062187 0 -0.011383649499170619 -0.00014599205713414928 0 -0.010818448885738617 -0.0006497256527113345 0 -0.010769257869018166 -0.00037581325335107006 0 -0.011390589315547865 -0.00038890059010062187 0 -0.010769257869018166 -0.00037581325335107006 0 -0.011383649499170619 -0.00014599205713414928 0 -0.011007788956129132 -3.8530392424280475e-05 0 -0.010769257869018166 -0.00037581325335107006 0 -0.01068009380414863 -0.0001066352994948424 0 -0.011007788956129132 -3.8530392424280475e-05 0 -0.010124167606799303 -0.00075357741467274499 0 -0.010769257869018166 -0.00037581325335107006 0 -0.010433899993033929 -0.00030133299193661094 0 -0.010162210616191353 -0.00023374543517580966 0 -0.010124167606799303 -0.00075357741467274499 0 -0.010433899993033929 -0.00030133299193661094 0 -0.010769257869018166 -0.00037581325335107006 0 -0.010433899993033929 -0.00030133299193661094 0 -0.01068009380414863 -0.0001066352994948424 0 -0.011969053367648157 -0.00016894328908418829 0 -0.011390589315547865 -0.00038890059010062187 0 -0.011678315060291841 -1.3517838969450024e-06 0 -0.011969053367648157 -0.00016894328908418829 0 -0.011678315060291841 -1.3517838969450024e-06 0 -0.012590206603650848 -3.603324412572832e-07 0 -0.011969053367648157 -0.00016894328908418829 0 -0.011390589315547865 -0.00038890059010062187 0 -0.011383649499170619 -0.00014599205713414928 0 -0.011390589315547865 -0.00038890059010062187 0 -0.011145789156715597 -0.00072179331195783866 0 -0.011678315060291841 -1.3517838969450024e-06 0 -0.010818448885738617 -0.0006497256527113345 0 -0.011390589315547865 -0.00038890059010062187 0 -0.011145789156715597 -0.00072179331195783866 0 -0.011675813821802902 2.9060100966658558e-07 0 -0.010477931675392444 -6.2022636024907122e-05 0 -0.010851094676067768 -2.6868286411082511e-07 0 -0.011674959507352766 -5.042874298301678e-07 0 -0.010881193519787793 -0.00042538610771042032 0 -0.011145789156715597 -0.00072179331195783866 0 -0.011678315060291841 -1.3517838969450024e-06 0 -0.011461022448439294 -0.00095798615280519599 0 -0.010477931675392444 -6.2022636024907122e-05 0 -0.010851094676067768 -2.6868286411082511e-07 0 -0.010027799285293957 2.3262497110571573e-07 0 -0.010426392274777502 -0.0010658296874346313 0 -0.011145789156715597 -0.00072179331195783866 0 -0.010828670542323303 -0.0016557114745383457 0 -0.011145789156715597 -0.00072179331195783866 0 -0.011461022448439294 -0.00095798615280519599 0 -0.010828670542323303 -0.0016557114745383457 0 -0.010881193519787793 -0.00042538610771042032 0 -0.010159989793132386 -0.00056015581061366084 0 -0.010477931675392444 -6.2022636024907122e-05 0 -0.010027799285293957 2.3262497110571573e-07 0 -0.010290900029886342 0.00018533618371194852 0 -0.010477931675392444 -6.2022636024907122e-05 0 -0.010480146112883807 0.00020298002125943769 0 -0.010290900029886342 0.00018533618371194852 0 -0.010024109904397454 -2.4796090667581224e-06 0 -0.0093363680412294741 -8.6276791094698035e-05 0 -0.010027799285293957 2.3262497110571573e-07 0 -0.010290900029886342 0.00018533618371194852 0 -0.010121948882093834 0.00035945442682973593 0 -0.010480146112883807 0.00020298002125943769 0 -0.010290900029886342 0.00018533618371194852 0 -0.010353234294302658 0.00039719412247636918 0 -0.010121948882093834 0.00035945442682973593 0 -0.010353234294302658 0.00039719412247636918 0 -0.010148773806948962 0.00063468356085156195 0 -0.0093363680412294741 -8.6276791094698035e-05 0 -0.0085738141977364738 -8.7769621837312416e-05 0 -0.0091957317316540155 -3.2790335387705564e-08 0 -0.008347542413797834 3.2087849607499995e-08 0 -0.0083883373447506127 8.7452248146218593e-07 0 -0.010290900029886342 0.00018533618371194852 0 -0.010121948882093834 0.00035945442682973593 0 -0.010353234294302658 0.00039719412247636918 0 -0.010353234294302658 0.00039719412247636918 0 -0.010148773806948962 0.00063468356085156195 0 -0.010412679322970601 0.00059419092733151331 0 -0.0059857049971951022 -0.0021775183343335936 0 -0.0065168861116130638 -0.0017262698040707292 0 -0.0060561347293535839 -0.0012084619213847394 0 -0.0085738141977364738 -8.7769621837312416e-05 0 -0.0078216443321172408 -0.00069052854628204926 0 -0.0083465029023011093 2.1831135646321198e-07 0 -0.0083081801683863397 6.2620894092405114e-06 0 -0.0072579295821242349 2.0460704510115634e-05 0 -0.0083490732780684349 -1.2656613968907669e-06 0 -0.0085738141977364738 -8.7769621837312416e-05 0 -0.0085738141977364738 -8.7769621837312416e-05 0 -0.0087606273718197937 -0.00049447015515738195 0 -0.0059857049971951022 -0.0021775183343335936 0 -0.0065168861116130638 -0.0017262698040707292 0 -0.0067099646637887259 -0.0022901693766727294 0 -0.0071722660963370825 -0.0019867641425772506 0 -0.0075347923776556275 -0.0016889177672125156 0 -0.0070308732152375699 -0.0015022347961742655 0 -0.0065168861116130638 -0.0017262698040707292 0 -0.0071722660963370825 -0.0019867641425772506 0 -0.0070308732152375699 -0.0015022347961742655 0 -0.0065168861116130638 -0.0017262698040707292 0 -0.0071722660963370825 -0.0019867641425772506 0 -0.0067099646637887259 -0.0022901693766727294 0 -0.0087606273718197937 -0.00049447015515738195 0 -0.0090737724410243636 -0.00084471895602747967 0 -0.0071722660963370825 -0.0019867641425772506 0 -0.0067099646637887259 -0.0022901693766727294 0 -0.007587314642306808 -0.0024085790151378394 0 -0.010353234294302658 0.00039719412247636918 0 -0.010412679322970601 0.00059419092733151331 0 -0.010667455002057099 0.00055612326440410132 0 -0.010480146112883807 0.00020298002125943769 0 -0.010353234294302658 0.00039719412247636918 0 -0.010667455002057099 0.00055612326440410132 0 -0.010159989793132386 -0.00056015581061366084 0 -0.0090737724410243636 -0.00084471895602747967 0 -0.0097617868128515549 -0.0016125513090564324 0 -0.0099108180252754346 -0.0019368945900208542 0 -0.0089971050488714278 -0.0022195429521564571 0 -0.010828670542323303 -0.0016557114745383457 0 -0.0099108180252754346 -0.0019368945900208542 0 -0.010153588150852825 -0.0025443600020158648 0 -0.0099108180252754346 -0.0019368945900208542 0 -0.0089971050488714278 -0.0022195429521564571 0 -0.010153588150852825 -0.0025443600020158648 0 -0.0090523804245567826 -0.00096880100266933538 0 -0.0090737724410243636 -0.00084471895602747967 0 -0.0097617868128515549 -0.0016125513090564324 0 -0.0091186353909227715 -0.0018996876331002002 0 -0.0089971050488714278 -0.0022195429521564571 0 -0.0091186353909227715 -0.0018996876331002002 0 -0.0089971050488714278 -0.0022195429521564571 0 -0.0088165139837275003 -0.0018683747729731066 0 -0.0089971050488714278 -0.0022195429521564571 0 -0.0088165139837275003 -0.0018683747729731066 0 -0.0084323548189404688 -0.0017078927419791922 0 -0.0088165139837275003 -0.0018683747729731066 0 -0.0084323548189404688 -0.0017078927419791922 0 -0.0084498310211326751 -0.0014446259024840681 0 -0.0089407006245515244 -0.0017199260771415211 0 -0.0088165139837275003 -0.0018683747729731066 0 -0.0084498310211326751 -0.0014446259024840681 0 -0.0071722660963370825 -0.0019867641425772506 0 -0.0078286270479351657 -0.0019773901748422131 0 -0.007587314642306808 -0.0024085790151378394 0 -0.0090019791393974244 -0.00095565379104417254 0 -0.0090737724410243636 -0.00084471895602747967 0 -0.0089971050488714278 -0.0022195429521564571 0 -0.0078286270479351657 -0.0019773901748422131 0 -0.0075925285786527059 -0.0024289890973932578 0 -0.0089971050488714278 -0.0022195429521564571 0 -0.0084323548189404688 -0.0017078927419791922 0 -0.0078286270479351657 -0.0019773901748422131 0 -0.0084323548189404688 -0.0017078927419791922 0 -0.0078286270479351657 -0.0019773901748422131 0 -0.0079278912952558175 -0.0016856656902658384 0 -0.0071722660963370825 -0.0019867641425772506 0 -0.0078286270479351657 -0.0019773901748422131 0 -0.0075347923776556275 -0.0016889177672125156 0 -0.0078286270479351657 -0.0019773901748422131 0 -0.0079278912952558175 -0.0016856656902658384 0 -0.0075347923776556275 -0.0016889177672125156 0 -0.0076775130314115708 -0.0013717178135150578 0 -0.0084498310211326751 -0.0014446259024840681 0 -0.0077341944137121511 -0.00099373264944441317 0 -0.0079278912952558175 -0.0016856656902658384 0 -0.0075347923776556275 -0.0016889177672125156 0 -0.0076775130314115708 -0.0013717178135150578 0 -0.0075347923776556275 -0.0016889177672125156 0 -0.0076775130314115708 -0.0013717178135150578 0 -0.0070308732152375699 -0.0015022347961742655 0 -0.0084323548189404688 -0.0017078927419791922 0 -0.0079278912952558175 -0.0016856656902658384 0 -0.0076775130314115708 -0.0013717178135150578 0 -0.0076775130314115708 -0.0013717178135150578 0 -0.0077341944137121511 -0.00099373264944441317 0 -0.0071310692779571151 -0.00092176824267374818 0 -0.0084323548189404688 -0.0017078927419791922 0 -0.0076775130314115708 -0.0013717178135150578 0 -0.0084498310211326751 -0.0014446259024840681 0 -0.0084498310211326751 -0.0014446259024840681 0 -0.0082132924388741129 -0.0010179665798489305 0 -0.0077341944137121511 -0.00099373264944441317 0 -0.0076686647645316276 -0.00064514070559869318 0 -0.0084225050887348305 -0.00072775762176958178 0 -0.0082132924388741129 -0.0010179665798489305 0 -0.0076686647645316276 -0.00064514070559869318 0 -0.0082132924388741129 -0.0010179665798489305 0 -0.0077341944137121511 -0.00099373264944441317 0 -0.0077341944137121511 -0.00099373264944441317 0 -0.0071982653179091119 -0.00068316359239445248 0 -0.0071310692779571151 -0.00092176824267374818 0 -0.0076686647645316276 -0.00064514070559869318 0 -0.0077341944137121511 -0.00099373264944441317 0 -0.0071982653179091119 -0.00068316359239445248 0 -0.0071982653179091119 -0.00068316359239445248 0 -0.0066609718785383886 -0.00054362956901921067 0 -0.0071310692779571151 -0.00092176824267374818 0 -0.0066609718785383886 -0.00054362956901921067 0 -0.0071310692779571151 -0.00092176824267374818 0 -0.0065423855702064042 -0.00079233750579965178 0 -0.0071310692779571151 -0.00092176824267374818 0 -0.0065423855702064042 -0.00079233750579965178 0 -0.0069363499915910424 -0.0011217174372985706 0 -0.0061395428705656712 -0.00018234836830791827 0 -0.0065423855702064042 -0.00079233750579965178 0 -0.0060561347293535839 -0.0012084619213847394 0 -0.0075714024891702751 -0.0007077139959834202 0 -0.0078216443321172408 -0.00069052854628204926 0 -0.0061395428705656712 -0.00018234836830791827 0 -0.0066609718785383886 -0.00054362956901921067 0 -0.0065423855702064042 -0.00079233750579965178 0 -0.0061395428705656712 -0.00018234836830791827 0 -0.0068692631108249694 -1.5812812161420031e-07 0 -0.0072579295821242349 2.0460704510115634e-05 0 -0.0065423855702064042 -0.00079233750579965178 0 -0.0060561347293535839 -0.0012084619213847394 0 -0.0066051891524157224 -0.001256262533386152 0 -0.0083465029023011093 2.1831135646321198e-07 0 -0.0068692631108249694 -1.5812812161420031e-07 0 -0.0072579295821242349 2.0460704510115634e-05 0 -0.0065168861116130638 -0.0017262698040707292 0 -0.0060561347293535839 -0.0012084619213847394 0 -0.0066051891524157224 -0.001256262533386152 0 -0.0065168861116130638 -0.0017262698040707292 0 -0.0070308732152375699 -0.0015022347961742655 0 -0.0066051891524157224 -0.001256262533386152 0 -0.0076775130314115708 -0.0013717178135150578 0 -0.0070308732152375699 -0.0015022347961742655 0 -0.0069363499915910424 -0.0011217174372985706 0 -0.0076775130314115708 -0.0013717178135150578 0 -0.0071310692779571151 -0.00092176824267374818 0 -0.0069363499915910424 -0.0011217174372985706 0 -0.0065423855702064042 -0.00079233750579965178 0 -0.0069363499915910424 -0.0011217174372985706 0 -0.0066051891524157224 -0.001256262533386152 0 -0.0070308732152375699 -0.0015022347961742655 0 -0.0069363499915910424 -0.0011217174372985706 0 -0.0066051891524157224 -0.001256262533386152 0 -0.018093274947004852 -0.00010498662199483876 0 -0.017861841175346768 -7.302196131931799e-05 0 -0.017200004166062256 -7.2702107427129458e-05 0 -0.018093274947004852 -0.00010498662199483876 0 -0.017925357520560643 -2.2758118705440217e-07 0 -0.017200004166062256 -7.2702107427129458e-05 0 -0.017925357520560643 -2.2758118705440217e-07 0 -0.018820734159852581 -0.0001814522515047015 0 -0.019398304753009691 -3.5095962729845623e-07 0 -0.018093274947004852 -0.00010498662199483876 0 -0.017925357520560643 -2.2758118705440217e-07 0 -0.018820734159852581 -0.0001814522515047015 0 -0.018093274947004852 -0.00010498662199483876 0 -0.018752081924565987 -0.00022271951365340046 0 -0.018820734159852581 -0.0001814522515047015 0 -0.018752081924565987 -0.00022271951365340046 0 -0.018726142180309321 -0.00031701055792644479 0 -0.018755756905059557 -0.00022886221830755067 0 -0.018093274947004852 -0.00010498662199483876 0 -0.018752081924565987 -0.00022271951365340046 0 -0.017861841175346768 -7.302196131931799e-05 0 -0.018752081924565987 -0.00022271951365340046 0 -0.018726142180309321 -0.00031701055792644479 0 -0.018782324419865246 -0.0003144289947121661 0 -0.017834436667377385 -0.00055197496204380074 0 -0.017608633759405121 -0.00051999483333015604 0 -0.018782324419865246 -0.0003144289947121661 0 -0.018748201536584914 -0.00036625883474023223 0 -0.018789606507704743 -0.00039747441537635249 0 -0.018726142180309321 -0.00031701055792644479 0 -0.018782324419865246 -0.0003144289947121661 0 -0.018748201536584914 -0.00036625883474023223 0 -0.017608633759405121 -0.00051999483333015604 0 -0.016957422116636846 -0.00037325027832857426 0 -0.018726142180309321 -0.00031701055792644479 0 -0.018748201536584914 -0.00036625883474023223 0 -0.018696284878920215 -0.00039668914778210739 0 -0.018726142180309321 -0.00031701055792644479 0 -0.018696284878920215 -0.00039668914778210739 0 -0.018667818824186642 -0.00036891242572707517 0 -0.015123002037639312 -6.4670085107433392e-05 0 -0.01444494939003099 -0.00054571320283721477 0 -0.018748201536584914 -0.00036625883474023223 0 -0.018696284878920215 -0.00039668914778210739 0 -0.018727735357565837 -0.00043707116667662343 0 -0.018696284878920215 -0.00039668914778210739 0 -0.018727735357565837 -0.00043707116667662343 0 -0.018628646268881065 -0.00040833636379090552 0 -0.018748201536584914 -0.00036625883474023223 0 -0.018789606507704743 -0.00039747441537635249 0 -0.018727735357565837 -0.00043707116667662343 0 -0.016900837435551923 -4.4017327245751976e-05 0 -0.017200004166062256 -7.2702107427129458e-05 0 -0.016070826741554651 -2.0387301276902551e-05 0 -0.017861841175346768 -7.302196131931799e-05 0 -0.016900837435551923 -4.4017327245751976e-05 0 -0.017200004166062256 -7.2702107427129458e-05 0 -0.017925357520560643 -2.2758118705440217e-07 0 -0.017200004166062256 -7.2702107427129458e-05 0 -0.016452526926649239 -3.8183565214350182e-07 0 -0.016452526926649239 -3.8183565214350182e-07 0 -0.016070826741554651 -2.0387301276902551e-05 0 -0.014978385009597046 9.1928969516366034e-07 0 -0.017200004166062256 -7.2702107427129458e-05 0 -0.016452526926649239 -3.8183565214350182e-07 0 -0.016070826741554651 -2.0387301276902551e-05 0 -0.016070826741554651 -2.0387301276902551e-05 0 -0.015499368019619595 9.5043266104022367e-05 0 -0.014978385009597046 9.1928969516366034e-07 0 -0.016070826741554651 -2.0387301276902551e-05 0 -0.015499368019619595 9.5043266104022367e-05 0 -0.016168489172722528 0.00029432388629482039 0 -0.015499368019619595 9.5043266104022367e-05 0 -0.014978385009597046 9.1928969516366034e-07 0 -0.014476301812375435 0.00012981106808423003 0 -0.016957422116636846 -0.00037325027832857426 0 -0.01570528706063733 0.00027531866658925068 0 -0.016900837435551923 -4.4017327245751976e-05 0 -0.016070826741554651 -2.0387301276902551e-05 0 -0.016168489172722528 0.00029432388629482039 0 -0.013275483848418134 0.00081342958318931244 0 -0.013470103919513098 -6.9183130894573438e-05 0 -0.014476301812375435 0.00012981106808423003 0 -0.012828371508765694 0.0010356524911102345 0 -0.012542000120362173 0.0003951947099136304 0 -0.011802175565175949 0.00074223749114352795 0 -0.012828371508765694 0.0010356524911102345 0 -0.012542000120362173 0.0003951947099136304 0 -0.013470103919513098 -6.9183130894573438e-05 0 -0.01570528706063733 0.00027531866658925068 0 -0.015486931275826605 0.00033307438745920387 0 -0.012542000120362173 0.0003951947099136304 0 -0.013470103919513098 -6.9183130894573438e-05 0 -0.013347192317796026 -0.0002602568238581617 0 -0.013470103919513098 -6.9183130894573438e-05 0 -0.014476301812375435 0.00012981106808423003 0 -0.013507068450759472 -6.7176020777136626e-07 0 -0.014978385009597046 9.1928969516366034e-07 0 -0.014476301812375435 0.00012981106808423003 0 -0.013507068450759472 -6.7176020777136626e-07 0 -0.015499368019619595 9.5043266104022367e-05 0 -0.016168489172722528 0.00029432388629482039 0 -0.014476301812375435 0.00012981106808423003 0 -0.01570528706063733 0.00027531866658925068 0 -0.015329145954327982 0.00036887310808138795 0 -0.013470103919513098 -6.9183130894573438e-05 0 -0.013507068450759472 -6.7176020777136626e-07 0 -0.013347192317796026 -0.0002602568238581617 0 -0.013503585843816706 1.46414591608396e-06 0 -0.012153732743612467 0.00022537425376543423 0 -0.01256173691246372 -2.663909821281951e-05 0 -0.013503585843816706 1.46414591608396e-06 0 -0.011700468677330862 0.00078492486494255637 0 -0.012153732743612467 0.00022537425376543423 0 -0.013504272000433352 2.2918736308772185e-07 0 -0.012665672366972117 0.0002567262055193796 0 -0.011700468677330862 0.00078492486494255637 0 -0.01170440569023257 0.00047885588403666682 0 -0.012153732743612467 0.00022537425376543423 0 -0.011700468677330862 0.00078492486494255637 0 -0.01170440569023257 0.00047885588403666682 0 -0.011443698152802896 0.00053858074571049106 0 -0.01160245696481378 0.00029932575044307663 0 -0.01170440569023257 0.00047885588403666682 0 -0.011443698152802896 0.00053858074571049106 0 -0.01160245696481378 0.00029932575044307663 0 -0.012153732743612467 0.00022537425376543423 0 -0.011840535016410695 1.9146305584716185e-05 0 -0.01160245696481378 0.00029932575044307663 0 -0.01170440569023257 0.00047885588403666682 0 -0.012153732743612467 0.00022537425376543423 0 -0.011969053367648157 -0.00016894328908418829 0 -0.011840535016410695 1.9146305584716185e-05 0 -0.011383649499170619 -0.00014599205713414928 0 -0.01160245696481378 0.00029932575044307663 0 -0.011840535016410695 1.9146305584716185e-05 0 -0.011309385582517385 0.00013113553783802973 0 -0.011840535016410695 1.9146305584716185e-05 0 -0.011383649499170619 -0.00014599205713414928 0 -0.011309385582517385 0.00013113553783802973 0 -0.013503585843816706 1.46414591608396e-06 0 -0.012590206603650848 -3.603324412572832e-07 0 -0.01256173691246372 -2.663909821281951e-05 0 -0.011969053367648157 -0.00016894328908418829 0 -0.011840535016410695 1.9146305584716185e-05 0 -0.01256173691246372 -2.663909821281951e-05 0 -0.011969053367648157 -0.00016894328908418829 0 -0.012590206603650848 -3.603324412572832e-07 0 -0.01256173691246372 -2.663909821281951e-05 0 -0.012153732743612467 0.00022537425376543423 0 -0.011840535016410695 1.9146305584716185e-05 0 -0.01256173691246372 -2.663909821281951e-05 0 -0.010926824056383996 0.00021774448468326414 0 -0.010455843968857561 -5.2528337892381734e-05 0 -0.010313916841658381 0.00018168021567978372 0 -0.010162210616191353 -0.00023374543517580966 0 -0.010433899993033929 -0.00030133299193661094 0 -0.010455843968857561 -5.2528337892381734e-05 0 -0.010433899993033929 -0.00030133299193661094 0 -0.010455843968857561 -5.2528337892381734e-05 0 -0.01068009380414863 -0.0001066352994948424 0 -0.010926824056383996 0.00021774448468326414 0 -0.010455843968857561 -5.2528337892381734e-05 0 -0.01068009380414863 -0.0001066352994948424 0 -0.010926824056383996 0.00021774448468326414 0 -0.01068009380414863 -0.0001066352994948424 0 -0.011007788956129132 -3.8530392424280475e-05 0 -0.011383649499170619 -0.00014599205713414928 0 -0.011007788956129132 -3.8530392424280475e-05 0 -0.011309385582517385 0.00013113553783802973 0 -0.010926824056383996 0.00021774448468326414 0 -0.011007788956129132 -3.8530392424280475e-05 0 -0.011309385582517385 0.00013113553783802973 0 -0.010926824056383996 0.00021774448468326414 0 -0.0112946701091048 0.00038825546626471168 0 -0.011211444628770724 0.00046047983463211832 0 -0.010926824056383996 0.00021774448468326414 0 -0.011309385582517385 0.00013113553783802973 0 -0.0112946701091048 0.00038825546626471168 0 -0.01160245696481378 0.00029932575044307663 0 -0.0112946701091048 0.00038825546626471168 0 -0.011443698152802896 0.00053858074571049106 0 -0.01160245696481378 0.00029932575044307663 0 -0.011309385582517385 0.00013113553783802973 0 -0.0112946701091048 0.00038825546626471168 0 -0.0112946701091048 0.00038825546626471168 0 -0.011443698152802896 0.00053858074571049106 0 -0.011211444628770724 0.00046047983463211832 0 -0.011443698152802896 0.00053858074571049106 0 -0.011211444628770724 0.00046047983463211832 0 -0.011338829004894545 0.00044002777597917285 0 -0.010831129141802861 0.00010001035754096793 0 -0.010736048561281099 -7.3008232872260093e-05 0 -0.010926824056383996 0.00021774448468326414 0 -0.011025022749235894 0.00052254951498924773 0 -0.010313916841658381 0.00018168021567978372 0 -0.010926824056383996 0.00021774448468326414 0 -0.011211444628770724 0.00046047983463211832 0 -0.011025022749235894 0.00052254951498924773 0 -0.011025022749235894 0.00052254951498924773 0 -0.01111430023218541 0.00055331338648824445 0 -0.011129352261015031 0.00055966005403323808 0 -0.011211444628770724 0.00046047983463211832 0 -0.011025022749235894 0.00052254951498924773 0 -0.011338829004894545 0.00044002777597917285 0 -0.011025022749235894 0.00052254951498924773 0 -0.01111430023218541 0.00055331338648824445 0 -0.011338829004894545 0.00044002777597917285 0 -0.01111430023218541 0.00055331338648824445 0 -0.011338829004894545 0.00044002777597917285 0 -0.011290267208205373 0.00067454186857678967 0 -0.011700468677330862 0.00078492486494255637 0 -0.011443698152802896 0.00053858074571049106 0 -0.011338829004894545 0.00044002777597917285 0 -0.012542000120362173 0.0003951947099136304 0 -0.013347192317796026 -0.0002602568238581617 0 -0.011338829004894545 0.00044002777597917285 0 -0.012665672366972117 0.0002567262055193796 0 -0.012220509295584662 0.00038981676573164375 0 -0.011338829004894545 0.00044002777597917285 0 -0.011802175565175949 0.00074223749114352795 0 -0.011290267208205373 0.00067454186857678967 0 -0.012542000120362173 0.0003951947099136304 0 -0.011338829004894545 0.00044002777597917285 0 -0.011802175565175949 0.00074223749114352795 0 -0.012828371508765694 0.0010356524911102345 0 -0.011802175565175949 0.00074223749114352795 0 -0.011229961640243166 0.00094401723323255221 0 -0.01570528706063733 0.00027531866658925068 0 -0.015123002037639312 -6.4670085107433392e-05 0 -0.018789606507704743 -0.00039747441537635249 0 -0.018794459299000567 -0.00046243938998636122 0 -0.018727735357565837 -0.00043707116667662343 0 -0.011802175565175949 0.00074223749114352795 0 -0.011290267208205373 0.00067454186857678967 0 -0.011229961640243166 0.00094401723323255221 0 -0.011146095106187083 0.00066553405635990292 0 -0.011229961640243166 0.00094401723323255221 0 -0.011125947128282396 0.0006005424303509333 0 -0.01111430023218541 0.00055331338648824445 0 -0.011146095106187083 0.00066553405635990292 0 -0.011120779588479901 0.00056687230169522355 0 -0.01111430023218541 0.00055331338648824445 0 -0.011146095106187083 0.00066553405635990292 0 -0.011290267208205373 0.00067454186857678967 0 -0.011146095106187083 0.00066553405635990292 0 -0.011290267208205373 0.00067454186857678967 0 -0.011229961640243166 0.00094401723323255221 0 -0.011125947128282396 0.0006005424303509333 0 -0.011120779588479901 0.00056687230169522355 0 -0.011170634006778464 0.00045385175483890586 0 -0.011120779588479901 0.00056687230169522355 0 -0.011170634006778464 0.00045385175483890586 0 -0.011192383381026006 0.0005303330823049128 0 -0.011146095106187083 0.00066553405635990292 0 -0.011125947128282396 0.0006005424303509333 0 -0.011120779588479901 0.00056687230169522355 0 -0.011170634006778464 0.00045385175483890586 0 -0.011312459666646733 0.00043977815076987623 0 -0.011423187079863749 5.3764492410103139e-05 0 -0.011170634006778464 0.00045385175483890586 0 -0.011312459666646733 0.00043977815076987623 0 -0.011192383381026006 0.0005303330823049128 0 -0.011312459666646733 0.00043977815076987623 0 -0.011282366524712583 0.00053624453999640519 0 -0.011192383381026006 0.0005303330823049128 0 -0.011282366524712583 0.00053624453999640519 0 -0.011192383381026006 0.0005303330823049128 0 -0.011223788379055317 0.0005730153204719791 0 -0.011192383381026006 0.0005303330823049128 0 -0.011223788379055317 0.0005730153204719791 0 -0.011129352261015031 0.00055966005403323808 0 -0.011282366524712583 0.00053624453999640519 0 -0.011223788379055317 0.0005730153204719791 0 -0.011306663482689772 0.00058951037699661439 0 -0.011120779588479901 0.00056687230169522355 0 -0.011192383381026006 0.0005303330823049128 0 -0.011129352261015031 0.00055966005403323808 0 -0.01111430023218541 0.00055331338648824445 0 -0.011120779588479901 0.00056687230169522355 0 -0.011129352261015031 0.00055966005403323808 0 -0.011129352261015031 0.00055966005403323808 0 -0.011210202388535883 0.00063791739497309709 0 -0.011102199196136605 0.00067309832246686052 0 -0.011025022749235894 0.00052254951498924773 0 -0.011129352261015031 0.00055966005403323808 0 -0.011102199196136605 0.00067309832246686052 0 -0.011210202388535883 0.00063791739497309709 0 -0.011313302545419389 0.00067874134150672498 0 -0.011306663482689772 0.00058951037699661439 0 -0.011223788379055317 0.0005730153204719791 0 -0.011129352261015031 0.00055966005403323808 0 -0.011210202388535883 0.00063791739497309709 0 -0.011223788379055317 0.0005730153204719791 0 -0.011210202388535883 0.00063791739497309709 0 -0.011306663482689772 0.00058951037699661439 0 -0.011179227982997924 0.00077951751707357533 0 -0.011189485735639078 0.00072850823732797606 0 -0.011313302545419389 0.00067874134150672498 0 -0.011210202388535883 0.00063791739497309709 0 -0.011189485735639078 0.00072850823732797606 0 -0.011313302545419389 0.00067874134150672498 0 -0.01039247671803312 -0.0007666433744317803 0 -0.011301737313176789 -0.00036094462120665413 0 -0.011319222733312876 -0.001407937456475663 0 -0.011340258309785464 -0.001397701187464163 0 -0.011261100013218197 -0.0013653493420724624 0 -0.010162210616191353 -0.00023374543517580966 0 -0.0098176327385981876 -0.00032228582227821683 0 -0.010313916841658381 0.00018168021567978372 0 -0.011179227982997924 0.00077951751707357533 0 -0.011189485735639078 0.00072850823732797606 0 -0.011102199196136605 0.00067309832246686052 0 -0.01039247671803312 -0.0007666433744317803 0 -0.010736048561281099 -7.3008232872260093e-05 0 -0.011210202388535883 0.00063791739497309709 0 -0.011189485735639078 0.00072850823732797606 0 -0.011102199196136605 0.00067309832246686052 0 -0.010162210616191353 -0.00023374543517580966 0 -0.010455843968857561 -5.2528337892381734e-05 0 -0.010313916841658381 0.00018168021567978372 0 -0.011279512193998345 -0.0013330795552180669 0 -0.011323378991621127 -0.0013801037833752197 0 -0.011261100013218197 -0.0013653493420724624 0 -0.011279512193998345 -0.0013330795552180669 0 -0.011345335399654892 -0.0013459987065115892 0 -0.011378231018994616 -0.001263901634213156 0 -0.011279512193998345 -0.0013330795552180669 0 -0.011345335399654892 -0.0013459987065115892 0 -0.011323378991621127 -0.0013801037833752197 0 -0.011319222733312876 -0.001407937456475663 0 -0.011323378991621127 -0.0013801037833752197 0 -0.011261100013218197 -0.0013653493420724624 0 -0.011313302545419389 0.00067874134150672498 0 -0.011306663482689772 0.00058951037699661439 0 -0.01143375863035917 0.00058739796957112838 0 -0.011279512193998345 -0.0013330795552180669 0 -0.011090361026072169 -0.001719435596087045 0 -0.011629138075053327 -0.0011069721588169881 0 -0.011301737313176789 -0.00036094462120665413 0 -0.012051405777145783 0.00013461680787292202 0 -0.011279512193998345 -0.0013330795552180669 0 -0.011261100013218197 -0.0013653493420724624 0 -0.011090361026072169 -0.001719435596087045 0 -0.012262271179238447 0.0012854220610223365 0 -0.011702410480822484 0.00076682257460166943 0 -0.012267859018631345 0.00046685192704231775 0 -0.012051405777145783 0.00013461680787292202 0 -0.011873272381747436 0.00024619665297304999 0 -0.011306663482689772 0.00058951037699661439 0 -0.01143375863035917 0.00058739796957112838 0 -0.011359046938518622 0.00052610369350948149 0 -0.011282366524712583 0.00053624453999640519 0 -0.011306663482689772 0.00058951037699661439 0 -0.011359046938518622 0.00052610369350948149 0 -0.011312459666646733 0.00043977815076987623 0 -0.011282366524712583 0.00053624453999640519 0 -0.011359046938518622 0.00052610369350948149 0 -0.011312459666646733 0.00043977815076987623 0 -0.011756694494622678 0.00026047562897182046 0 -0.011423187079863749 5.3764492410103139e-05 0 -0.011770581561411466 0.00023917080571322775 0 -0.011873272381747436 0.00024619665297304999 0 -0.011312459666646733 0.00043977815076987623 0 -0.011702410480822484 0.00076682257460166943 0 -0.011756694494622678 0.00026047562897182046 0 -0.011756694494622678 0.00026047562897182046 0 -0.012267859018631345 0.00046685192704231775 0 -0.012249032395096511 -0.0002907611126342922 0 -0.011702410480822484 0.00076682257460166943 0 -0.011756694494622678 0.00026047562897182046 0 -0.012267859018631345 0.00046685192704231775 0 -0.011744846351550106 -0.00095414252357051827 0 -0.011123850227631215 -0.0018281672406404883 0 -0.010179685104065798 -0.0012145797728861291 0 -0.011744846351550106 -0.00095414252357051827 0 -0.011123850227631215 -0.0018281672406404883 0 -0.012687388729306992 -0.0021846641087596122 0 -0.011123850227631215 -0.0018281672406404883 0 -0.011398712303966821 -0.002781181275103219 0 -0.012687388729306992 -0.0021846641087596122 0 -0.011123850227631215 -0.0018281672406404883 0 -0.011398712303966821 -0.002781181275103219 0 -0.010013451857150005 -0.0020544421361712406 0 -0.015119449896557056 -0.0012057577495150861 0 -0.014586061304920468 -0.00089737513805597405 0 -0.018350038985780755 -0.00037318610630493942 0 -0.01851563144469108 -0.00041623595106664079 0 -0.018536563787717206 -0.00033098017725154789 0 -0.012288773452403952 -0.0006507401161447489 0 -0.01202733515326986 -0.00070377887302234242 0 -0.011123850227631215 -0.0018281672406404883 0 -0.010013451857150005 -0.0020544421361712406 0 -0.010179685104065798 -0.0012145797728861291 0 -0.011756694494622678 0.00026047562897182046 0 -0.012249032395096511 -0.0002907611126342922 0 -0.011423187079863749 5.3764492410103139e-05 0 -0.01202733515326986 -0.00070377887302234242 0 -0.01444494939003099 -0.00054571320283721477 0 -0.011170634006778464 0.00045385175483890586 0 -0.011423187079863749 5.3764492410103139e-05 0 -0.011111252371683592 0.00037231155290061056 0 -0.010013451857150005 -0.0020544421361712406 0 -0.010179685104065798 -0.0012145797728861291 0 -0.0087171546487696053 -0.0014120115177146855 0 -0.014586061304920468 -0.00089737513805597405 0 -0.01444494939003099 -0.00054571320283721477 0 -0.015801461916834233 -0.00040904572878956572 0 -0.01444494939003099 -0.00054571320283721477 0 -0.011229961640243166 0.00094401723323255221 0 -0.011125947128282396 0.0006005424303509333 0 -0.011111252371683592 0.00037231155290061056 0 -0.018696284878920215 -0.00039668914778210739 0 -0.018637758348541793 -0.00042915846089565857 0 -0.018667818824186642 -0.00036891242572707517 0 -0.011125947128282396 0.0006005424303509333 0 -0.011170634006778464 0.00045385175483890586 0 -0.011111252371683592 0.00037231155290061056 0 -0.018726142180309321 -0.00031701055792644479 0 -0.018667818824186642 -0.00036891242572707517 0 -0.018653197046256856 -0.0003194211231713856 0 -0.018637758348541793 -0.00042915846089565857 0 -0.018667818824186642 -0.00036891242572707517 0 -0.01860927473502972 -0.00037669835274117895 0 -0.018667818824186642 -0.00036891242572707517 0 -0.01860927473502972 -0.00037669835274117895 0 -0.018653197046256856 -0.0003194211231713856 0 -0.01851563144469108 -0.00041623595106664079 0 -0.018637758348541793 -0.00042915846089565857 0 -0.01860927473502972 -0.00037669835274117895 0 -0.01851563144469108 -0.00041623595106664079 0 -0.01860927473502972 -0.00037669835274117895 0 -0.018536563787717206 -0.00033098017725154789 0 -0.01860927473502972 -0.00037669835274117895 0 -0.018536563787717206 -0.00033098017725154789 0 -0.018653197046256856 -0.0003194211231713856 0 -0.018536563787717206 -0.00033098017725154789 0 -0.018653197046256856 -0.0003194211231713856 0 -0.018586686345874424 -0.0002332628083418979 0 -0.018536563787717206 -0.00033098017725154789 0 -0.018586686345874424 -0.0002332628083418979 0 -0.018465983902425279 -0.00026696475340976769 0 -0.018726142180309321 -0.00031701055792644479 0 -0.018653197046256856 -0.0003194211231713856 0 -0.018755756905059557 -0.00022886221830755067 0 -0.018653197046256856 -0.0003194211231713856 0 -0.018755756905059557 -0.00022886221830755067 0 -0.018586686345874424 -0.0002332628083418979 0 -0.018755756905059557 -0.00022886221830755067 0 -0.018586686345874424 -0.0002332628083418979 0 -0.018557699239740801 -5.0784080951130517e-05 0 -0.018586686345874424 -0.0002332628083418979 0 -0.018421990636222157 -0.0001387174914087617 0 -0.018557699239740801 -5.0784080951130517e-05 0 -0.018421990636222157 -0.0001387174914087617 0 -0.018321689523980802 -0.000241351597171512 0 -0.018465983902425279 -0.00026696475340976769 0 -0.018586686345874424 -0.0002332628083418979 0 -0.018421990636222157 -0.0001387174914087617 0 -0.018465983902425279 -0.00026696475340976769 0 -0.018421990636222157 -0.0001387174914087617 0 -0.018321689523980802 -0.000241351597171512 0 -0.018216913126957057 -0.00012815767319534604 0 -0.018350038985780755 -0.00037318610630493942 0 -0.018321689523980802 -0.000241351597171512 0 -0.018465983902425279 -0.00026696475340976769 0 -0.018350038985780755 -0.00037318610630493942 0 -0.018321689523980802 -0.000241351597171512 0 -0.01817061590379673 -0.00030207994105022848 0 -0.018350038985780755 -0.00037318610630493942 0 -0.018536563787717206 -0.00033098017725154789 0 -0.018465983902425279 -0.00026696475340976769 0 -0.015844583602111315 -0.0013790483029252304 0 -0.016802405784641743 -0.001336376656687524 0 -0.013682217062228373 -0.0033987680751875536 0 -0.012853485273669132 -0.0035382045947190532 0 -0.014291725162505833 -0.0043298604879051204 0 -0.013682217062228373 -0.0033987680751875536 0 -0.014172977225018309 -0.0035043013475166769 0 -0.014291725162505833 -0.0043298604879051204 0 -0.013682217062228373 -0.0033987680751875536 0 -0.014172977225018309 -0.0035043013475166769 0 -0.014131468849710022 -0.0028543472453594933 0 -0.013682217062228373 -0.0033987680751875536 0 -0.012853485273669132 -0.0035382045947190532 0 -0.012687388729306992 -0.0021846641087596122 0 -0.015119449896557056 -0.0012057577495150861 0 -0.015844583602111315 -0.0013790483029252304 0 -0.018321689523980802 -0.000241351597171512 0 -0.01817061590379673 -0.00030207994105022848 0 -0.018216913126957057 -0.00012815767319534604 0 -0.01817061590379673 -0.00030207994105022848 0 -0.018216913126957057 -0.00012815767319534604 0 -0.018111148230542592 -0.00021710504184300998 0 -0.018216913126957057 -0.00012815767319534604 0 -0.018099827890209974 -0.00014120945644176903 0 -0.018111148230542592 -0.00021710504184300998 0 -0.01817061590379673 -0.00030207994105022848 0 -0.018111148230542592 -0.00021710504184300998 0 -0.017998433838730316 -0.0002184557272762119 0 -0.018099827890209974 -0.00014120945644176903 0 -0.018111148230542592 -0.00021710504184300998 0 -0.018034833194533435 -0.00017180040224221914 0 -0.018111148230542592 -0.00021710504184300998 0 -0.018034833194533435 -0.00017180040224221914 0 -0.017998433838730316 -0.0002184557272762119 0 -0.018034833194533435 -0.00017180040224221914 0 -0.017998433838730316 -0.0002184557272762119 0 -0.018003110263995144 -0.00019226430434583623 0 -0.018099827890209974 -0.00014120945644176903 0 -0.018034833194533435 -0.00017180040224221914 0 -0.01803709352352861 -0.0001191420738258011 0 -0.01803709352352861 -0.0001191420738258011 0 -0.018005996880048336 -0.00013757292467632111 0 -0.017996137650409375 -0.00010374277532813913 0 -0.018034833194533435 -0.00017180040224221914 0 -0.01803709352352861 -0.0001191420738258011 0 -0.018005996880048336 -0.00013757292467632111 0 -0.014797014826110837 -0.0042624342073580906 0 -0.014291725162505833 -0.0043298604879051204 0 -0.015442698955590077 -0.0045286992528868128 0 -0.018005996880048336 -0.00013757292467632111 0 -0.017993075418223523 -0.00016525877230499721 0 -0.017969264313206501 -0.00012807556841282382 0 -0.018005996880048336 -0.00013757292467632111 0 -0.017969264313206501 -0.00012807556841282382 0 -0.017996137650409375 -0.00010374277532813913 0 -0.016802405784641743 -0.001336376656687524 0 -0.017662616915278692 -0.0014960499849678034 0 -0.01795317067306965 -0.00017686853610985223 0 -0.017998433838730316 -0.0002184557272762119 0 -0.017819785432959166 -0.00012670525414875736 0 -0.01795317067306965 -0.00017686853610985223 0 -0.017928140223450309 -0.00015904962600550075 0 -0.017819785432959166 -0.00012670525414875736 0 -0.016802405784641743 -0.001336376656687524 0 -0.017202284695796429 -0.0011479267443301735 0 -0.014291725162505833 -0.0043298604879051204 0 -0.016165125440275496 -0.0050455113204478695 0 -0.015442698955590077 -0.0045286992528868128 0 -0.018034833194533435 -0.00017180040224221914 0 -0.017993075418223523 -0.00016525877230499721 0 -0.018003110263995144 -0.00019226430434583623 0 -0.018034833194533435 -0.00017180040224221914 0 -0.018005996880048336 -0.00013757292467632111 0 -0.017993075418223523 -0.00016525877230499721 0 -0.017993075418223523 -0.00016525877230499721 0 -0.018003110263995144 -0.00019226430434583623 0 -0.017980931662359135 -0.0001821872479981061 0 -0.017993075418223523 -0.00016525877230499721 0 -0.01796139129744059 -0.00015735380272982667 0 -0.017980931662359135 -0.0001821872479981061 0 -0.017993075418223523 -0.00016525877230499721 0 -0.01796139129744059 -0.00015735380272982667 0 -0.017969264313206501 -0.00012807556841282382 0 -0.01795317067306965 -0.00017686853610985223 0 -0.01796139129744059 -0.00015735380272982667 0 -0.017980931662359135 -0.0001821872479981061 0 -0.01796139129744059 -0.00015735380272982667 0 -0.017969264313206501 -0.00012807556841282382 0 -0.017937173285668889 -0.00013939328834499748 0 -0.017937173285668889 -0.00013939328834499748 0 -0.017898395427202715 -0.00013751779600016179 0 -0.017928807221238418 -0.00011494837367896615 0 -0.017969264313206501 -0.00012807556841282382 0 -0.017937173285668889 -0.00013939328834499748 0 -0.017928807221238418 -0.00011494837367896615 0 -0.017937173285668889 -0.00013939328834499748 0 -0.017898395427202715 -0.00013751779600016179 0 -0.017928140223450309 -0.00015904962600550075 0 -0.017898395427202715 -0.00013751779600016179 0 -0.017888304131754837 -0.00011043303451389259 0 -0.017928807221238418 -0.00011494837367896615 0 -0.01796139129744059 -0.00015735380272982667 0 -0.017937173285668889 -0.00013939328834499748 0 -0.017928140223450309 -0.00015904962600550075 0 -0.01795317067306965 -0.00017686853610985223 0 -0.01796139129744059 -0.00015735380272982667 0 -0.017928140223450309 -0.00015904962600550075 0 -0.01509086892460774 -0.0042868390849526367 0 -0.014797014826110837 -0.0042624342073580906 0 -0.015442698955590077 -0.0045286992528868128 0 -0.015246048438682517 -0.0043150915169078794 0 -0.01509086892460774 -0.0042868390849526367 0 -0.015442698955590077 -0.0045286992528868128 0 -0.015246048438682517 -0.0043150915169078794 0 -0.015437769895953161 -0.0042090067100090589 0 -0.015146856321623478 -0.0040694959131305514 0 -0.01509086892460774 -0.0042868390849526367 0 -0.014869608157691862 -0.0040986428944621497 0 -0.015146856321623478 -0.0040694959131305514 0 -0.015246048438682517 -0.0043150915169078794 0 -0.01509086892460774 -0.0042868390849526367 0 -0.015146856321623478 -0.0040694959131305514 0 -0.01509086892460774 -0.0042868390849526367 0 -0.014797014826110837 -0.0042624342073580906 0 -0.014869608157691862 -0.0040986428944621497 0 -0.014797014826110837 -0.0042624342073580906 0 -0.014618468076419994 -0.0041571269377851565 0 -0.014869608157691862 -0.0040986428944621497 0 -0.014797014826110837 -0.0042624342073580906 0 -0.014618468076419994 -0.0041571269377851565 0 -0.014291725162505833 -0.0043298604879051204 0 -0.014618468076419994 -0.0041571269377851565 0 -0.014291725162505833 -0.0043298604879051204 0 -0.014544031430010434 -0.0040196432579597098 0 -0.017998433838730316 -0.0002184557272762119 0 -0.018003110263995144 -0.00019226430434583623 0 -0.017980931662359135 -0.0001821872479981061 0 -0.01795317067306965 -0.00017686853610985223 0 -0.017998433838730316 -0.0002184557272762119 0 -0.017980931662359135 -0.0001821872479981061 0 -0.017936838996872068 -0.00020468140346941981 0 -0.017819785432959166 -0.00012670525414875736 0 -0.01780502258291216 -0.00014786000808459971 0 -0.016165125440275496 -0.0050455113204478695 0 -0.016291408786708872 -0.0047303106312946274 0 -0.016609927582060605 -0.0047657796966405781 0 -0.01779928359876717 -0.00011467646354159299 0 -0.01780502258291216 -0.00014786000808459971 0 -0.017766102165595075 -9.8898773214858095e-05 0 -0.01779928359876717 -0.00011467646354159299 0 -0.017819785432959166 -0.00012670525414875736 0 -0.01780502258291216 -0.00014786000808459971 0 -0.016165125440275496 -0.0050455113204478695 0 -0.015906497125412901 -0.0047414257352483896 0 -0.016084468229146241 -0.0047099901941283651 0 -0.016165125440275496 -0.0050455113204478695 0 -0.016084468229146241 -0.0047099901941283651 0 -0.016291408786708872 -0.0047303106312946274 0 -0.017898395427202715 -0.00013751779600016179 0 -0.017928140223450309 -0.00015904962600550075 0 -0.017819785432959166 -0.00012670525414875736 0 -0.017898395427202715 -0.00013751779600016179 0 -0.017819785432959166 -0.00012670525414875736 0 -0.017863792850675554 -0.00011597123833061329 0 -0.017898395427202715 -0.00013751779600016179 0 -0.017888304131754837 -0.00011043303451389259 0 -0.017863792850675554 -0.00011597123833061329 0 -0.016165125440275496 -0.0050455113204478695 0 -0.015442698955590077 -0.0045286992528868128 0 -0.015906497125412901 -0.0047414257352483896 0 -0.015442698955590077 -0.0045286992528868128 0 -0.015437769895953161 -0.0042090067100090589 0 -0.015689533387195653 -0.0043309314816265092 0 -0.015246048438682517 -0.0043150915169078794 0 -0.015442698955590077 -0.0045286992528868128 0 -0.015437769895953161 -0.0042090067100090589 0 -0.015689533387195653 -0.0043309314816265092 0 -0.015877896764889599 -0.0045089589834849328 0 -0.015990907270160139 -0.0042192258482416835 0 -0.015442698955590077 -0.0045286992528868128 0 -0.015689533387195653 -0.0043309314816265092 0 -0.015877896764889599 -0.0045089589834849328 0 -0.015442698955590077 -0.0045286992528868128 0 -0.015877896764889599 -0.0045089589834849328 0 -0.015906497125412901 -0.0047414257352483896 0 -0.015877896764889599 -0.0045089589834849328 0 -0.015906497125412901 -0.0047414257352483896 0 -0.016084468229146241 -0.0047099901941283651 0 -0.016084468229146241 -0.0047099901941283651 0 -0.016162757464283337 -0.0045222265405267578 0 -0.016291408786708872 -0.0047303106312946274 0 -0.015877896764889599 -0.0045089589834849328 0 -0.016084468229146241 -0.0047099901941283651 0 -0.016162757464283337 -0.0045222265405267578 0 -0.015877896764889599 -0.0045089589834849328 0 -0.016162757464283337 -0.0045222265405267578 0 -0.015990907270160139 -0.0042192258482416835 0 -0.016162757464283337 -0.0045222265405267578 0 -0.015990907270160139 -0.0042192258482416835 0 -0.016434263647097765 -0.0041794374403407988 0 -0.016162757464283337 -0.0045222265405267578 0 -0.016455973916725656 -0.0045275622600588908 0 -0.016434263647097765 -0.0041794374403407988 0 -0.016455973916725656 -0.0045275622600588908 0 -0.016291408786708872 -0.0047303106312946274 0 -0.016609927582060605 -0.0047657796966405781 0 -0.016162757464283337 -0.0045222265405267578 0 -0.016455973916725656 -0.0045275622600588908 0 -0.016291408786708872 -0.0047303106312946274 0 -0.016434263647097765 -0.0041794374403407988 0 -0.016116447348553588 -0.0038828661650287216 0 -0.016533811244642673 -0.0035853346796824227 0 -0.016116447348553588 -0.0038828661650287216 0 -0.015938230702774472 -0.0034709537637129958 0 -0.016533811244642673 -0.0035853346796824227 0 -0.015990907270160139 -0.0042192258482416835 0 -0.016434263647097765 -0.0041794374403407988 0 -0.016116447348553588 -0.0038828661650287216 0 -0.015990907270160139 -0.0042192258482416835 0 -0.016116447348553588 -0.0038828661650287216 0 -0.015739033430430854 -0.0039832640623936851 0 -0.016116447348553588 -0.0038828661650287216 0 -0.015739033430430854 -0.0039832640623936851 0 -0.015938230702774472 -0.0034709537637129958 0 -0.015739033430430854 -0.0039832640623936851 0 -0.015469832712389867 -0.0035029873133040237 0 -0.015938230702774472 -0.0034709537637129958 0 -0.015437769895953161 -0.0042090067100090589 0 -0.015689533387195653 -0.0043309314816265092 0 -0.015739033430430854 -0.0039832640623936851 0 -0.015689533387195653 -0.0043309314816265092 0 -0.015990907270160139 -0.0042192258482416835 0 -0.015739033430430854 -0.0039832640623936851 0 -0.015437769895953161 -0.0042090067100090589 0 -0.015739033430430854 -0.0039832640623936851 0 -0.015390937735228104 -0.0039271931802084808 0 -0.015437769895953161 -0.0042090067100090589 0 -0.015390937735228104 -0.0039271931802084808 0 -0.015146856321623478 -0.0040694959131305514 0 -0.015390937735228104 -0.0039271931802084808 0 -0.015469832712389867 -0.0035029873133040237 0 -0.015107857598165936 -0.0037375804614791235 0 -0.015739033430430854 -0.0039832640623936851 0 -0.015390937735228104 -0.0039271931802084808 0 -0.015469832712389867 -0.0035029873133040237 0 -0.015469832712389867 -0.0035029873133040237 0 -0.015225533336872345 -0.0030794181484762504 0 -0.015614515871017151 -0.0029261508752371325 0 -0.015469832712389867 -0.0035029873133040237 0 -0.015938230702774472 -0.0034709537637129958 0 -0.015614515871017151 -0.0029261508752371325 0 -0.015938230702774472 -0.0034709537637129958 0 -0.01617435423870979 -0.0031038770826876706 0 -0.016533811244642673 -0.0035853346796824227 0 -0.015938230702774472 -0.0034709537637129958 0 -0.01617435423870979 -0.0031038770826876706 0 -0.015614515871017151 -0.0029261508752371325 0 -0.014172977225018309 -0.0035043013475166769 0 -0.014291725162505833 -0.0043298604879051204 0 -0.01444060719065844 -0.0038220357453956719 0 -0.014745817555860789 -0.0036456209238257876 0 -0.01444060719065844 -0.0038220357453956719 0 -0.014686588034254378 -0.0039171924412062086 0 -0.014489630984963305 -0.0035587821534708722 0 -0.014745817555860789 -0.0036456209238257876 0 -0.01444060719065844 -0.0038220357453956719 0 -0.014172977225018309 -0.0035043013475166769 0 -0.014489630984963305 -0.0035587821534708722 0 -0.01444060719065844 -0.0038220357453956719 0 -0.014291725162505833 -0.0043298604879051204 0 -0.01444060719065844 -0.0038220357453956719 0 -0.014544031430010434 -0.0040196432579597098 0 -0.01444060719065844 -0.0038220357453956719 0 -0.014544031430010434 -0.0040196432579597098 0 -0.014686588034254378 -0.0039171924412062086 0 -0.014618468076419994 -0.0041571269377851565 0 -0.014544031430010434 -0.0040196432579597098 0 -0.014686588034254378 -0.0039171924412062086 0 -0.014618468076419994 -0.0041571269377851565 0 -0.014686588034254378 -0.0039171924412062086 0 -0.014869608157691862 -0.0040986428944621497 0 -0.014869608157691862 -0.0040986428944621497 0 -0.014903574617240584 -0.003907291209689712 0 -0.015146856321623478 -0.0040694959131305514 0 -0.014686588034254378 -0.0039171924412062086 0 -0.014869608157691862 -0.0040986428944621497 0 -0.014903574617240584 -0.003907291209689712 0 -0.015390937735228104 -0.0039271931802084808 0 -0.015146856321623478 -0.0040694959131305514 0 -0.015107857598165936 -0.0037375804614791235 0 -0.014903574617240584 -0.003907291209689712 0 -0.015146856321623478 -0.0040694959131305514 0 -0.015107857598165936 -0.0037375804614791235 0 -0.014745817555860789 -0.0036456209238257876 0 -0.014903574617240584 -0.003907291209689712 0 -0.015107857598165936 -0.0037375804614791235 0 -0.014745817555860789 -0.0036456209238257876 0 -0.015107857598165936 -0.0037375804614791235 0 -0.014994463808043132 -0.0033757203898724954 0 -0.014745817555860789 -0.0036456209238257876 0 -0.014686588034254378 -0.0039171924412062086 0 -0.014903574617240584 -0.003907291209689712 0 -0.014745817555860789 -0.0036456209238257876 0 -0.014994463808043132 -0.0033757203898724954 0 -0.01454973402758747 -0.0032536875747648073 0 -0.015469832712389867 -0.0035029873133040237 0 -0.014994463808043132 -0.0033757203898724954 0 -0.015225533336872345 -0.0030794181484762504 0 -0.015469832712389867 -0.0035029873133040237 0 -0.015107857598165936 -0.0037375804614791235 0 -0.014994463808043132 -0.0033757203898724954 0 -0.014994463808043132 -0.0033757203898724954 0 -0.015225533336872345 -0.0030794181484762504 0 -0.014863529624542257 -0.0030323774362562388 0 -0.014994463808043132 -0.0033757203898724954 0 -0.014863529624542257 -0.0030323774362562388 0 -0.01454973402758747 -0.0032536875747648073 0 -0.014863529624542257 -0.0030323774362562388 0 -0.01454973402758747 -0.0032536875747648073 0 -0.01460294431588717 -0.0027111938824956987 0 -0.014172977225018309 -0.0035043013475166769 0 -0.01454973402758747 -0.0032536875747648073 0 -0.014131468849710022 -0.0028543472453594933 0 -0.014489630984963305 -0.0035587821534708722 0 -0.014745817555860789 -0.0036456209238257876 0 -0.01454973402758747 -0.0032536875747648073 0 -0.014172977225018309 -0.0035043013475166769 0 -0.014489630984963305 -0.0035587821534708722 0 -0.01454973402758747 -0.0032536875747648073 0 -0.01460294431588717 -0.0027111938824956987 0 -0.014238213967557669 -0.0021514476942223288 0 -0.014131468849710022 -0.0028543472453594933 0 -0.01454973402758747 -0.0032536875747648073 0 -0.01460294431588717 -0.0027111938824956987 0 -0.014131468849710022 -0.0028543472453594933 0 -0.014863529624542257 -0.0030323774362562388 0 -0.01460294431588717 -0.0027111938824956987 0 -0.015093436451074983 -0.00264833797469904 0 -0.015225533336872345 -0.0030794181484762504 0 -0.014863529624542257 -0.0030323774362562388 0 -0.015093436451074983 -0.00264833797469904 0 -0.01460294431588717 -0.0027111938824956987 0 -0.015093436451074983 -0.00264833797469904 0 -0.014831711869554764 -0.002143937004188203 0 -0.015093436451074983 -0.00264833797469904 0 -0.014831711869554764 -0.002143937004188203 0 -0.015405045148582345 -0.0023041931966350563 0 -0.014831711869554764 -0.002143937004188203 0 -0.015405045148582345 -0.0023041931966350563 0 -0.015137522483230473 -0.0015891151258402736 0 -0.01460294431588717 -0.0027111938824956987 0 -0.014831711869554764 -0.002143937004188203 0 -0.014238213967557669 -0.0021514476942223288 0 -0.014831711869554764 -0.002143937004188203 0 -0.014238213967557669 -0.0021514476942223288 0 -0.014499798843373941 -0.0016360571154177522 0 -0.01617435423870979 -0.0031038770826876706 0 -0.015993334923347886 -0.0025590371884904174 0 -0.016808593172006354 -0.0029186343122063747 0 -0.01617435423870979 -0.0031038770826876706 0 -0.015993334923347886 -0.0025590371884904174 0 -0.015614515871017151 -0.0029261508752371325 0 -0.015093436451074983 -0.00264833797469904 0 -0.015614515871017151 -0.0029261508752371325 0 -0.015405045148582345 -0.0023041931966350563 0 -0.015993334923347886 -0.0025590371884904174 0 -0.015614515871017151 -0.0029261508752371325 0 -0.015405045148582345 -0.0023041931966350563 0 -0.015225533336872345 -0.0030794181484762504 0 -0.015093436451074983 -0.00264833797469904 0 -0.015614515871017151 -0.0029261508752371325 0 -0.015993334923347886 -0.0025590371884904174 0 -0.015405045148582345 -0.0023041931966350563 0 -0.015784172127474017 -0.0019760377548658373 0 -0.015405045148582345 -0.0023041931966350563 0 -0.015784172127474017 -0.0019760377548658373 0 -0.015137522483230473 -0.0015891151258402736 0 -0.015993334923347886 -0.0025590371884904174 0 -0.015784172127474017 -0.0019760377548658373 0 -0.016521684454139124 -0.0019122848236951689 0 -0.015771612995774023 -0.0013875634598333791 0 -0.016235791868658731 -0.00089477882914195111 0 -0.016521684454139124 -0.0019122848236951689 0 -0.015784172127474017 -0.0019760377548658373 0 -0.015771612995774023 -0.0013875634598333791 0 -0.016521684454139124 -0.0019122848236951689 0 -0.015771612995774023 -0.0013875634598333791 0 -0.015206218409477177 -0.00087980762781092047 0 -0.015137522483230473 -0.0015891151258402736 0 -0.015784172127474017 -0.0019760377548658373 0 -0.015771612995774023 -0.0013875634598333791 0 -0.015137522483230473 -0.0015891151258402736 0 -0.015771612995774023 -0.0013875634598333791 0 -0.015206218409477177 -0.00087980762781092047 0 -0.016235791868658731 -0.00089477882914195111 0 -0.014499798843373941 -0.0016360571154177522 0 -0.015137522483230473 -0.0015891151258402736 0 -0.01457505923688366 -0.0010229700027558782 0 -0.014499798843373941 -0.0016360571154177522 0 -0.01457505923688366 -0.0010229700027558782 0 -0.013939500336425764 -0.0014120067197499735 0 -0.014831711869554764 -0.002143937004188203 0 -0.014499798843373941 -0.0016360571154177522 0 -0.015137522483230473 -0.0015891151258402736 0 -0.015206218409477177 -0.00087980762781092047 0 -0.01457505923688366 -0.0010229700027558782 0 -0.014463035031449028 -0.00027474723473611113 0 -0.015206218409477177 -0.00087980762781092047 0 -0.015137522483230473 -0.0015891151258402736 0 -0.01457505923688366 -0.0010229700027558782 0 -0.01457505923688366 -0.0010229700027558782 0 -0.0141126903477461 -0.00065965318756728967 0 -0.013939500336425764 -0.0014120067197499735 0 -0.0141126903477461 -0.00065965318756728967 0 -0.013514587023738929 -0.00062481557993074744 0 -0.013939500336425764 -0.0014120067197499735 0 -0.013939500336425764 -0.0014120067197499735 0 -0.013647723979105323 -0.0022349796272339629 0 -0.01311387005163631 -0.0014850113908289287 0 -0.013514587023738929 -0.00062481557993074744 0 -0.013939500336425764 -0.0014120067197499735 0 -0.01311387005163631 -0.0014850113908289287 0 -0.014238213967557669 -0.0021514476942223288 0 -0.014499798843373941 -0.0016360571154177522 0 -0.013939500336425764 -0.0014120067197499735 0 -0.013682217062228373 -0.0033987680751875536 0 -0.013647723979105323 -0.0022349796272339629 0 -0.012687388729306992 -0.0021846641087596122 0 -0.014238213967557669 -0.0021514476942223288 0 -0.013939500336425764 -0.0014120067197499735 0 -0.013647723979105323 -0.0022349796272339629 0 -0.013682217062228373 -0.0033987680751875536 0 -0.013647723979105323 -0.0022349796272339629 0 -0.014131468849710022 -0.0028543472453594933 0 -0.014238213967557669 -0.0021514476942223288 0 -0.013647723979105323 -0.0022349796272339629 0 -0.014131468849710022 -0.0028543472453594933 0 -0.011398712303966821 -0.002781181275103219 0 -0.012853485273669132 -0.0035382045947190532 0 -0.012687388729306992 -0.0021846641087596122 0 -0.013647723979105323 -0.0022349796272339629 0 -0.012687388729306992 -0.0021846641087596122 0 -0.01311387005163631 -0.0014850113908289287 0 -0.011744846351550106 -0.00095414252357051827 0 -0.012687388729306992 -0.0021846641087596122 0 -0.01311387005163631 -0.0014850113908289287 0 -0.011744846351550106 -0.00095414252357051827 0 -0.013514587023738929 -0.00062481557993074744 0 -0.01311387005163631 -0.0014850113908289287 0 -0.012288773452403952 -0.0006507401161447489 0 -0.012779426049280224 -0.00060018597201038834 0 -0.012249032395096511 -0.0002907611126342922 0 -0.013514587023738929 -0.00062481557993074744 0 -0.012933089335779732 2.4198908507252665e-05 0 -0.012267859018631345 0.00046685192704231775 0 -0.012249032395096511 -0.0002907611126342922 0 -0.012933089335779732 2.4198908507252665e-05 0 -0.012933089335779732 2.4198908507252665e-05 0 -0.013934463791806155 -4.4198827807504284e-06 0 -0.012954523327223362 0.00078654032976939957 0 -0.012267859018631345 0.00046685192704231775 0 -0.012933089335779732 2.4198908507252665e-05 0 -0.012954523327223362 0.00078654032976939957 0 -0.0141126903477461 -0.00065965318756728967 0 -0.013934463791806155 -4.4198827807504284e-06 0 -0.014463035031449028 -0.00027474723473611113 0 -0.0141126903477461 -0.00065965318756728967 0 -0.013514587023738929 -0.00062481557993074744 0 -0.013934463791806155 -4.4198827807504284e-06 0 -0.013514587023738929 -0.00062481557993074744 0 -0.012933089335779732 2.4198908507252665e-05 0 -0.013934463791806155 -4.4198827807504284e-06 0 -0.013058369871830625 -0.00011050057666092505 0 -0.012757424828419984 6.4334489569668451e-06 0 -0.013934463791806155 -4.4198827807504284e-06 0 -0.014291209093549766 0.00021463141738684466 0 -0.014130410724835092 0.00042948818959880351 0 -0.013934463791806155 -4.4198827807504284e-06 0 -0.014291209093549766 0.00021463141738684466 0 -0.014463035031449028 -0.00027474723473611113 0 -0.014291209093549766 0.00021463141738684466 0 -0.014130410724835092 0.00042948818959880351 0 -0.014443396430904672 0.0004678901195694663 0 -0.013934463791806155 -4.4198827807504284e-06 0 -0.014130410724835092 0.00042948818959880351 0 -0.013886840153710981 0.00039021513796301294 0 -0.014130410724835092 0.00042948818959880351 0 -0.013886840153710981 0.00039021513796301294 0 -0.01411138881913885 0.00066906590360502028 0 -0.014130410724835092 0.00042948818959880351 0 -0.01411138881913885 0.00066906590360502028 0 -0.014444480760799941 0.00070699856298784202 0 -0.014130410724835092 0.00042948818959880351 0 -0.014444480760799941 0.00070699856298784202 0 -0.014443396430904672 0.0004678901195694663 0 -0.013622282147718741 0.00064525214473936114 0 -0.013886840153710981 0.00039021513796301294 0 -0.01411138881913885 0.00066906590360502028 0 -0.012262271179238447 0.0012854220610223365 0 -0.012267859018631345 0.00046685192704231775 0 -0.012954523327223362 0.00078654032976939957 0 -0.012051405777145783 0.00013461680787292202 0 -0.012757424828419984 6.4334489569668451e-06 0 -0.013622282147718741 0.00064525214473936114 0 -0.01411138881913885 0.00066906590360502028 0 -0.01424104981875423 0.00096928572302575674 0 -0.012051405777145783 0.00013461680787292202 0 -0.012975949637964631 0.00029719756786603026 0 -0.011090361026072169 -0.001719435596087045 0 -0.012255403204948461 -0.00098432656973959491 0 -0.011629138075053327 -0.0011069721588169881 0 -0.01411138881913885 0.00066906590360502028 0 -0.014362559922059355 0.0008525636970004828 0 -0.01424104981875423 0.00096928572302575674 0 -0.01411138881913885 0.00066906590360502028 0 -0.014362559922059355 0.0008525636970004828 0 -0.014444480760799941 0.00070699856298784202 0 -0.013534233122065635 0.00056901215530738103 0 -0.012975949637964631 0.00029719756786603026 0 -0.014362559922059355 0.0008525636970004828 0 -0.01424104981875423 0.00096928572302575674 0 -0.014486424580366676 0.0008830048861451391 0 -0.013243905366043779 0.00087669533069426573 0 -0.012255403204948461 -0.00098432656973959491 0 -0.011629138075053327 -0.0011069721588169881 0 -0.011792258825439071 -0.00086309874243152844 0 -0.011636813303772444 -0.0010830381758835273 0 -0.011106327456084052 -0.0014525393542241197 0 -0.0107212685441322 -0.0016611710561287283 0 -0.011629138075053327 -0.0011069721588169881 0 -0.011106327456084052 -0.0014525393542241197 0 -0.011378231018994616 -0.001263901634213156 0 -0.011629138075053327 -0.0011069721588169881 0 -0.011106327456084052 -0.0014525393542241197 0 -0.011345335399654892 -0.0013459987065115892 0 -0.011378231018994616 -0.001263901634213156 0 -0.011279512193998345 -0.0013330795552180669 0 -0.011378231018994616 -0.001263901634213156 0 -0.011629138075053327 -0.0011069721588169881 0 -0.014545681074799489 0.00084192836349724048 0 -0.014583790604262528 0.00084170125184303529 0 -0.014840217787387743 0.00084477062662052934 0 -0.014583790604262528 0.00084170125184303529 0 -0.014486424580366676 0.0008830048861451391 0 -0.01477987890498478 0.00088318850363035208 0 -0.014583790604262528 0.00084170125184303529 0 -0.01477987890498478 0.00088318850363035208 0 -0.014840217787387743 0.00084477062662052934 0 -0.014374362018040852 0.00069853269821589664 0 -0.014583790604262528 0.00084170125184303529 0 -0.014486424580366676 0.0008830048861451391 0 -0.014374362018040852 0.00069853269821589664 0 -0.01424104981875423 0.00096928572302575674 0 -0.014486424580366676 0.0008830048861451391 0 -0.014486424580366676 0.0008830048861451391 0 -0.014512737799692661 0.00085521320227294249 0 -0.014754405176641804 0.00090066239514247288 0 -0.014486424580366676 0.0008830048861451391 0 -0.014754405176641804 0.00090066239514247288 0 -0.01477987890498478 0.00088318850363035208 0 -0.014362559922059355 0.0008525636970004828 0 -0.014486424580366676 0.0008830048861451391 0 -0.014512737799692661 0.00085521320227294249 0 -0.014362559922059355 0.0008525636970004828 0 -0.014512737799692661 0.00085521320227294249 0 -0.014444480760799941 0.00070699856298784202 0 -0.014512737799692661 0.00085521320227294249 0 -0.014444480760799941 0.00070699856298784202 0 -0.014754405176641804 0.00090066239514247288 0 -0.014444480760799941 0.00070699856298784202 0 -0.014754405176641804 0.00090066239514247288 0 -0.014760346145531046 0.00066962837869132333 0 -0.014754405176641804 0.00090066239514247288 0 -0.01477987890498478 0.00088318850363035208 0 -0.015271283813703858 0.0010840922770594661 0 -0.014754405176641804 0.00090066239514247288 0 -0.015271283813703858 0.0010840922770594661 0 -0.014760346145531046 0.00066962837869132333 0 -0.01477987890498478 0.00088318850363035208 0 -0.015271283813703858 0.0010840922770594661 0 -0.014840217787387743 0.00084477062662052934 0 -0.015271283813703858 0.0010840922770594661 0 -0.015129948066198556 0.00043761298649919026 0 -0.016312369967056928 0.00020556132060848019 0 -0.015271283813703858 0.0010840922770594661 0 -0.015129948066198556 0.00043761298649919026 0 -0.014760346145531046 0.00066962837869132333 0 -0.014444480760799941 0.00070699856298784202 0 -0.014760346145531046 0.00066962837869132333 0 -0.014443396430904672 0.0004678901195694663 0 -0.015129948066198556 0.00043761298649919026 0 -0.014760346145531046 0.00066962837869132333 0 -0.014664619931712331 0.00025110882263000485 0 -0.014291209093549766 0.00021463141738684466 0 -0.014664619931712331 0.00025110882263000485 0 -0.014443396430904672 0.0004678901195694663 0 -0.014760346145531046 0.00066962837869132333 0 -0.014664619931712331 0.00025110882263000485 0 -0.014443396430904672 0.0004678901195694663 0 -0.014291209093549766 0.00021463141738684466 0 -0.014664619931712331 0.00025110882263000485 0 -0.014463035031449028 -0.00027474723473611113 0 -0.014664619931712331 0.00025110882263000485 0 -0.014463035031449028 -0.00027474723473611113 0 -0.015240719026381109 -0.0002342243805854609 0 -0.015129948066198556 0.00043761298649919026 0 -0.014664619931712331 0.00025110882263000485 0 -0.015240719026381109 -0.0002342243805854609 0 -0.015206218409477177 -0.00087980762781092047 0 -0.014463035031449028 -0.00027474723473611113 0 -0.015240719026381109 -0.0002342243805854609 0 -0.01457505923688366 -0.0010229700027558782 0 -0.0141126903477461 -0.00065965318756728967 0 -0.014463035031449028 -0.00027474723473611113 0 -0.015240719026381109 -0.0002342243805854609 0 -0.016312369967056928 0.00020556132060848019 0 -0.016235791868658731 -0.00089477882914195111 0 -0.015129948066198556 0.00043761298649919026 0 -0.015240719026381109 -0.0002342243805854609 0 -0.016312369967056928 0.00020556132060848019 0 -0.015206218409477177 -0.00087980762781092047 0 -0.015240719026381109 -0.0002342243805854609 0 -0.016235791868658731 -0.00089477882914195111 0 -0.017110698151163312 -0.0005069251179612435 0 -0.016312369967056928 0.00020556132060848019 0 -0.016235791868658731 -0.00089477882914195111 0 -0.017110698151163312 -0.0005069251179612435 0 -0.018332463170720521 6.5284392467883273e-05 0 -0.016312369967056928 0.00020556132060848019 0 -0.017110698151163312 -0.0005069251179612435 0 -0.018332463170720521 6.5284392467883273e-05 0 -0.01763132987407531 -0.0013689602886363362 0 -0.018332463170720521 6.5284392467883273e-05 0 -0.016312369967056928 0.00020556132060848019 0 -0.017633323330599988 0.0019665124042216511 0 -0.019444735222612877 6.5074457908732193e-05 0 -0.019227249392271103 0.0013545217039950927 0 -0.020210380928055063 0.00083913160248363483 0 -0.017988835048872633 -0.00036655992628372493 0 -0.016895777202767918 0.00025842440729616375 0 -0.015271283813703858 0.0010840922770594661 0 -0.016312369967056928 0.00020556132060848019 0 -0.017633323330599988 0.0019665124042216511 0 -0.015271283813703858 0.0010840922770594661 0 -0.014840217787387743 0.00084477062662052934 0 -0.014273672234553576 0.0010179558580016906 0 -0.016129343738407294 0.0003681023660095769 0 -0.016895777202767918 0.00025842440729616375 0 -0.016895777202767918 0.00025842440729616375 0 -0.01519833989278588 0.00028589897004844763 0 -0.016601962173577227 -0.0005344980262771017 0 -0.016604233586867106 -0.00053102285573755463 0 -0.016597814945483853 -0.00052742623946908465 0 -0.014840217787387743 0.00084477062662052934 0 -0.014273672234553576 0.0010179558580016906 0 -0.014447459116333775 0.00035169104501259424 0 -0.015111419510319598 0.00036033389347667308 0 -0.01519833989278588 0.00028589897004844763 0 -0.014545681074799489 0.00084192836349724048 0 -0.014840217787387743 0.00084477062662052934 0 -0.014535445693844516 0.00084518472872201873 0 -0.016609766011622191 -0.00052957518699139189 0 -0.016611365722462582 -0.00053513485822214314 0 -0.016621788761380891 -0.00053709027611669542 0 -0.018278649635020759 -8.8621179718705647e-05 0 -0.018875566370329645 -0.00084802334916396765 0 -0.016604233586867106 -0.00053102285573755463 0 -0.016609766011622191 -0.00052957518699139189 0 -0.016611365722462582 -0.00053513485822214314 0 -0.019227249392271103 0.0013545217039950927 0 -0.020372708293277818 0.0016353474678352615 0 -0.020210380928055063 0.00083913160248363483 0 -0.016601962173577227 -0.0005344980262771017 0 -0.016604233586867106 -0.00053102285573755463 0 -0.016611365722462582 -0.00053513485822214314 0 -0.016895777202767918 0.00025842440729616375 0 -0.018278649635020759 -8.8621179718705647e-05 0 -0.020372708293277818 0.0016353474678352615 0 -0.021159412588813258 0.00090853306453004374 0 -0.021452657213473798 0.001863086972737152 0 -0.020372708293277818 0.0016353474678352615 0 -0.021159412588813258 0.00090853306453004374 0 -0.020210380928055063 0.00083913160248363483 0 -0.021159412588813258 0.00090853306453004374 0 -0.020210380928055063 0.00083913160248363483 0 -0.020839811223088093 0.00011616493674586593 0 -0.021159412588813258 0.00090853306453004374 0 -0.020839811223088093 0.00011616493674586593 0 -0.021693509708003475 -0.00019480022051016025 0 -0.019444735222612877 6.5074457908732193e-05 0 -0.020210380928055063 0.00083913160248363483 0 -0.020839811223088093 0.00011616493674586593 0 -0.019444735222612877 6.5074457908732193e-05 0 -0.020839811223088093 0.00011616493674586593 0 -0.021249579900070353 -0.00092803077206020639 0 -0.020839811223088093 0.00011616493674586593 0 -0.021249579900070353 -0.00092803077206020639 0 -0.021693509708003475 -0.00019480022051016025 0 -0.021249579900070353 -0.00092803077206020639 0 -0.021851991771521168 -0.00086331764788651348 0 -0.021752834114725565 -0.00074045469323557787 0 -0.021249579900070353 -0.00092803077206020639 0 -0.021905757008406135 -0.00083382648764213194 0 -0.022265321201655898 -0.00078946632956225624 0 -0.02116330828237575 -0.0011876107583161427 0 -0.021016836254130349 -0.0014934616351646279 0 -0.021249579900070353 -0.00092803077206020639 0 -0.021905757008406135 -0.00083382648764213194 0 -0.021851991771521168 -0.00086331764788651348 0 -0.021905757008406135 -0.00083382648764213194 0 -0.022265321201655898 -0.00078946632956225624 0 -0.022165185680906793 -0.00068291380460630048 0 -0.021905757008406135 -0.00083382648764213194 0 -0.022049110014761352 -0.00073585739016213873 0 -0.021851991771521168 -0.00086331764788651348 0 -0.021905757008406135 -0.00083382648764213194 0 -0.022049110014761352 -0.00073585739016213873 0 -0.022165185680906793 -0.00068291380460630048 0 -0.021249579900070353 -0.00092803077206020639 0 -0.020258207857031175 -0.002854519014690725 0 -0.019448656136445655 -0.0017258193528076576 0 -0.020258207857031175 -0.002854519014690725 0 -0.019448656136445655 -0.0017258193528076576 0 -0.018939622343313797 -0.0028980546479241412 0 -0.017988835048872633 -0.00036655992628372493 0 -0.018453580348581258 -0.001135927411295346 0 -0.019444735222612877 6.5074457908732193e-05 0 -0.021249579900070353 -0.00092803077206020639 0 -0.019448656136445655 -0.0017258193528076576 0 -0.019448656136445655 -0.0017258193528076576 0 -0.01763132987407531 -0.0013689602886363362 0 -0.018324515237188314 -0.0022393471773586356 0 -0.018332463170720521 6.5284392467883273e-05 0 -0.019448656136445655 -0.0017258193528076576 0 -0.01763132987407531 -0.0013689602886363362 0 -0.01763132987407531 -0.0013689602886363362 0 -0.016235791868658731 -0.00089477882914195111 0 -0.016521684454139124 -0.0019122848236951689 0 -0.017110698151163312 -0.0005069251179612435 0 -0.01763132987407531 -0.0013689602886363362 0 -0.016235791868658731 -0.00089477882914195111 0 -0.016521684454139124 -0.0019122848236951689 0 -0.017538993722881025 -0.0023974999585753376 0 -0.016808593172006354 -0.0029186343122063747 0 -0.01763132987407531 -0.0013689602886363362 0 -0.016521684454139124 -0.0019122848236951689 0 -0.017538993722881025 -0.0023974999585753376 0 -0.017538993722881025 -0.0023974999585753376 0 -0.017436419688373561 -0.0030163734024734163 0 -0.016808593172006354 -0.0029186343122063747 0 -0.015993334923347886 -0.0025590371884904174 0 -0.016521684454139124 -0.0019122848236951689 0 -0.016808593172006354 -0.0029186343122063747 0 -0.019448656136445655 -0.0017258193528076576 0 -0.018324515237188314 -0.0022393471773586356 0 -0.018939622343313797 -0.0028980546479241412 0 -0.01763132987407531 -0.0013689602886363362 0 -0.017538993722881025 -0.0023974999585753376 0 -0.018324515237188314 -0.0022393471773586356 0 -0.017538993722881025 -0.0023974999585753376 0 -0.018324515237188314 -0.0022393471773586356 0 -0.018007421653802327 -0.0031513425107908282 0 -0.017538993722881025 -0.0023974999585753376 0 -0.017436419688373561 -0.0030163734024734163 0 -0.018007421653802327 -0.0031513425107908282 0 -0.018324515237188314 -0.0022393471773586356 0 -0.018939622343313797 -0.0028980546479241412 0 -0.018007421653802327 -0.0031513425107908282 0 -0.018939622343313797 -0.0028980546479241412 0 -0.018478045784751259 -0.0036112408233966043 0 -0.018007421653802327 -0.0031513425107908282 0 -0.018939622343313797 -0.0028980546479241412 0 -0.018478045784751259 -0.0036112408233966043 0 -0.019111170531780398 -0.0038055344513294662 0 -0.018007421653802327 -0.0031513425107908282 0 -0.017918855742362547 -0.0038481833464552415 0 -0.017293718983654682 -0.0035390892223062425 0 -0.018478045784751259 -0.0036112408233966043 0 -0.018007421653802327 -0.0031513425107908282 0 -0.017918855742362547 -0.0038481833464552415 0 -0.018478045784751259 -0.0036112408233966043 0 -0.017918855742362547 -0.0038481833464552415 0 -0.018392570572171099 -0.0041627166327223384 0 -0.017918855742362547 -0.0038481833464552415 0 -0.017426931761413751 -0.0041939607757084602 0 -0.017908656813507166 -0.0044171679066734139 0 -0.017918855742362547 -0.0038481833464552415 0 -0.018392570572171099 -0.0041627166327223384 0 -0.017908656813507166 -0.0044171679066734139 0 -0.018478045784751259 -0.0036112408233966043 0 -0.018392570572171099 -0.0041627166327223384 0 -0.019111170531780398 -0.0038055344513294662 0 -0.018392570572171099 -0.0041627166327223384 0 -0.018762420840714847 -0.0044868263728967189 0 -0.019111170531780398 -0.0038055344513294662 0 -0.01617435423870979 -0.0031038770826876706 0 -0.016808593172006354 -0.0029186343122063747 0 -0.016533811244642673 -0.0035853346796824227 0 -0.016808593172006354 -0.0029186343122063747 0 -0.016533811244642673 -0.0035853346796824227 0 -0.017293718983654682 -0.0035390892223062425 0 -0.017436419688373561 -0.0030163734024734163 0 -0.018007421653802327 -0.0031513425107908282 0 -0.017293718983654682 -0.0035390892223062425 0 -0.017436419688373561 -0.0030163734024734163 0 -0.016808593172006354 -0.0029186343122063747 0 -0.017293718983654682 -0.0035390892223062425 0 -0.017293718983654682 -0.0035390892223062425 0 -0.017426931761413751 -0.0041939607757084602 0 -0.016933478536344818 -0.0040874953809035977 0 -0.017918855742362547 -0.0038481833464552415 0 -0.017293718983654682 -0.0035390892223062425 0 -0.017426931761413751 -0.0041939607757084602 0 -0.016533811244642673 -0.0035853346796824227 0 -0.017293718983654682 -0.0035390892223062425 0 -0.016933478536344818 -0.0040874953809035977 0 -0.016434263647097765 -0.0041794374403407988 0 -0.016533811244642673 -0.0035853346796824227 0 -0.016933478536344818 -0.0040874953809035977 0 -0.017662616915278692 -0.0014960499849678034 0 -0.019844933395486125 -0.0012184328040796314 0 -0.016165125440275496 -0.0050455113204478695 0 -0.01745474256343045 -0.0051714038525112636 0 -0.016995734018057498 -0.0049495926025053746 0 -0.01780502258291216 -0.00014786000808459971 0 -0.017617784785262002 -9.5929884068246015e-05 0 -0.017766102165595075 -9.8898773214858095e-05 0 -0.016165125440275496 -0.0050455113204478695 0 -0.01745474256343045 -0.0051714038525112636 0 -0.018192188239509931 -0.0057087490361680208 0 -0.016609927582060605 -0.0047657796966405781 0 -0.016754959191814127 -0.0044644902058928399 0 -0.016952721183996936 -0.0047153135335899887 0 -0.016455973916725656 -0.0045275622600588908 0 -0.016609927582060605 -0.0047657796966405781 0 -0.016754959191814127 -0.0044644902058928399 0 -0.016455973916725656 -0.0045275622600588908 0 -0.016434263647097765 -0.0041794374403407988 0 -0.016754959191814127 -0.0044644902058928399 0 -0.016434263647097765 -0.0041794374403407988 0 -0.016933478536344818 -0.0040874953809035977 0 -0.016754959191814127 -0.0044644902058928399 0 -0.016933478536344818 -0.0040874953809035977 0 -0.016754959191814127 -0.0044644902058928399 0 -0.017144950204406779 -0.0045149542754523682 0 -0.016609927582060605 -0.0047657796966405781 0 -0.016952721183996936 -0.0047153135335899887 0 -0.016995734018057498 -0.0049495926025053746 0 -0.016754959191814127 -0.0044644902058928399 0 -0.016952721183996936 -0.0047153135335899887 0 -0.017144950204406779 -0.0045149542754523682 0 -0.016952721183996936 -0.0047153135335899887 0 -0.017187453396303527 -0.0047761490741110484 0 -0.016995734018057498 -0.0049495926025053746 0 -0.017187453396303527 -0.0047761490741110484 0 -0.017144950204406779 -0.0045149542754523682 0 -0.017485993194139536 -0.0047522325770938531 0 -0.017187453396303527 -0.0047761490741110484 0 -0.017485993194139536 -0.0047522325770938531 0 -0.017358680913062328 -0.0049489337421439478 0 -0.016952721183996936 -0.0047153135335899887 0 -0.017187453396303527 -0.0047761490741110484 0 -0.017144950204406779 -0.0045149542754523682 0 -0.017426931761413751 -0.0041939607757084602 0 -0.016933478536344818 -0.0040874953809035977 0 -0.017144950204406779 -0.0045149542754523682 0 -0.017426931761413751 -0.0041939607757084602 0 -0.017144950204406779 -0.0045149542754523682 0 -0.017485993194139536 -0.0047522325770938531 0 -0.017426931761413751 -0.0041939607757084602 0 -0.017485993194139536 -0.0047522325770938531 0 -0.017908656813507166 -0.0044171679066734139 0 -0.017608253281528315 -0.0049953343037090073 0 -0.01745474256343045 -0.0051714038525112636 0 -0.017799836564397209 -0.00511235615294543 0 -0.017485993194139536 -0.0047522325770938531 0 -0.017608253281528315 -0.0049953343037090073 0 -0.01792880097853131 -0.0049027054485060156 0 -0.017485993194139536 -0.0047522325770938531 0 -0.017608253281528315 -0.0049953343037090073 0 -0.017358680913062328 -0.0049489337421439478 0 -0.017608253281528315 -0.0049953343037090073 0 -0.01745474256343045 -0.0051714038525112636 0 -0.017358680913062328 -0.0049489337421439478 0 -0.01745474256343045 -0.0051714038525112636 0 -0.017358680913062328 -0.0049489337421439478 0 -0.016995734018057498 -0.0049495926025053746 0 -0.017187453396303527 -0.0047761490741110484 0 -0.017358680913062328 -0.0049489337421439478 0 -0.016995734018057498 -0.0049495926025053746 0 -0.016165125440275496 -0.0050455113204478695 0 -0.016609927582060605 -0.0047657796966405781 0 -0.016995734018057498 -0.0049495926025053746 0 -0.018707322713189492 -0.004979743865286072 0 -0.019323557043969857 -0.0044354090954836405 0 -0.018741647503809428 -0.0058538810921386223 0 -0.018762420840714847 -0.0044868263728967189 0 -0.018707322713189492 -0.004979743865286072 0 -0.019323557043969857 -0.0044354090954836405 0 -0.018301792928412788 -0.0046725186285431373 0 -0.018264671139798672 -0.0050465028706581172 0 -0.018707322713189492 -0.004979743865286072 0 -0.018762420840714847 -0.0044868263728967189 0 -0.018301792928412788 -0.0046725186285431373 0 -0.018707322713189492 -0.004979743865286072 0 -0.018392570572171099 -0.0041627166327223384 0 -0.018762420840714847 -0.0044868263728967189 0 -0.018301792928412788 -0.0046725186285431373 0 -0.018392570572171099 -0.0041627166327223384 0 -0.017908656813507166 -0.0044171679066734139 0 -0.018301792928412788 -0.0046725186285431373 0 -0.017485993194139536 -0.0047522325770938531 0 -0.017908656813507166 -0.0044171679066734139 0 -0.01792880097853131 -0.0049027054485060156 0 -0.017908656813507166 -0.0044171679066734139 0 -0.018301792928412788 -0.0046725186285431373 0 -0.01792880097853131 -0.0049027054485060156 0 -0.018301792928412788 -0.0046725186285431373 0 -0.018264671139798672 -0.0050465028706581172 0 -0.01792880097853131 -0.0049027054485060156 0 -0.018264671139798672 -0.0050465028706581172 0 -0.018033942920038654 -0.0051284147558935626 0 -0.01792880097853131 -0.0049027054485060156 0 -0.01745474256343045 -0.0051714038525112636 0 -0.01798461394470062 -0.0053441078937222939 0 -0.018192188239509931 -0.0057087490361680208 0 -0.018264671139798672 -0.0050465028706581172 0 -0.018033942920038654 -0.0051284147558935626 0 -0.018210113761514737 -0.0052951275395018852 0 -0.017608253281528315 -0.0049953343037090073 0 -0.01792880097853131 -0.0049027054485060156 0 -0.017799836564397209 -0.00511235615294543 0 -0.018033942920038654 -0.0051284147558935626 0 -0.01792880097853131 -0.0049027054485060156 0 -0.017799836564397209 -0.00511235615294543 0 -0.01745474256343045 -0.0051714038525112636 0 -0.017799836564397209 -0.00511235615294543 0 -0.01798461394470062 -0.0053441078937222939 0 -0.018033942920038654 -0.0051284147558935626 0 -0.017799836564397209 -0.00511235615294543 0 -0.01798461394470062 -0.0053441078937222939 0 -0.018264671139798672 -0.0050465028706581172 0 -0.018210113761514737 -0.0052951275395018852 0 -0.018422264757865365 -0.0053720307517382661 0 -0.01798461394470062 -0.0053441078937222939 0 -0.018210113761514737 -0.0052951275395018852 0 -0.018192188239509931 -0.0057087490361680208 0 -0.018210113761514737 -0.0052951275395018852 0 -0.018422264757865365 -0.0053720307517382661 0 -0.018192188239509931 -0.0057087490361680208 0 -0.018033942920038654 -0.0051284147558935626 0 -0.01798461394470062 -0.0053441078937222939 0 -0.018210113761514737 -0.0052951275395018852 0 -0.018422264757865365 -0.0053720307517382661 0 -0.018707322713189492 -0.004979743865286072 0 -0.018741647503809428 -0.0058538810921386223 0 -0.018264671139798672 -0.0050465028706581172 0 -0.018422264757865365 -0.0053720307517382661 0 -0.018707322713189492 -0.004979743865286072 0 -0.020741955791262909 -0.001767422533877093 0 -0.020318278165420749 -0.0013403450863058869 0 -0.022648860201570524 -0.00040790620111529118 0 -0.022640593737205193 -0.00030375969503702144 0 -0.022389574589866131 -0.00052677614322353716 0 -0.020741955791262909 -0.001767422533877093 0 -0.021510124809337974 -0.0011233234161473118 0 -0.022648860201570524 -0.00040790620111529118 0 -0.022640593737205193 -0.00030375969503702144 0 -0.022741691039950516 -0.00017768966510138588 0 -0.022389574589866131 -0.00052677614322353716 0 -0.02253306193739521 -0.00017332546386006678 0 -0.022406910465874647 -0.00029815506630618204 0 -0.022640593737205193 -0.00030375969503702144 0 -0.022389574589866131 -0.00052677614322353716 0 -0.022790291855882404 -0.00015965503531852393 0 -0.022389574589866131 -0.00052677614322353716 0 -0.022406910465874647 -0.00029815506630618204 0 -0.022299012388253575 -0.00044064251223663564 0 -0.02277944401312762 -0.00030944139671982185 0 -0.022855689198608101 -0.00016714844100478544 0 -0.022389574589866131 -0.00052677614322353716 0 -0.022204550942335054 -0.00059644942072385753 0 -0.022299012388253575 -0.00044064251223663564 0 -0.022049110014761352 -0.00073585739016213873 0 -0.022204550942335054 -0.00059644942072385753 0 -0.022165185680906793 -0.00068291380460630048 0 -0.022265321201655898 -0.00078946632956225624 0 -0.022389574589866131 -0.00052677614322353716 0 -0.022165185680906793 -0.00068291380460630048 0 -0.022389574589866131 -0.00052677614322353716 0 -0.022204550942335054 -0.00059644942072385753 0 -0.022165185680906793 -0.00068291380460630048 0 -0.021016836254130349 -0.0014934616351646279 0 -0.020741955791262909 -0.001767422533877093 0 -0.022265321201655898 -0.00078946632956225624 0 -0.022648860201570524 -0.00040790620111529118 0 -0.022389574589866131 -0.00052677614322353716 0 -0.020258207857031175 -0.002854519014690725 0 -0.019397742307974856 -0.004566767010879753 0 -0.019111170531780398 -0.0038055344513294662 0 -0.020258207857031175 -0.002854519014690725 0 -0.018939622343313797 -0.0028980546479241412 0 -0.019111170531780398 -0.0038055344513294662 0 -0.018762420840714847 -0.0044868263728967189 0 -0.019323557043969857 -0.0044354090954836405 0 -0.019111170531780398 -0.0038055344513294662 0 -0.020741955791262909 -0.001767422533877093 0 -0.020741068478644931 -0.0019927126483034801 0 -0.021469695951131837 -0.00099693533761750341 0 -0.021441583835575689 -0.0010589591740240299 0 -0.021406441288761218 -0.0009618749619750847 0 -0.021469695951131837 -0.00099693533761750341 0 -0.021448644401735443 -0.00095514491684404242 0 -0.021406441288761218 -0.0009618749619750847 0 -0.021469695951131837 -0.00099693533761750341 0 -0.021441583835575689 -0.0010589591740240299 0 -0.021476519631608515 -0.0010346377510587338 0 -0.021469695951131837 -0.00099693533761750341 0 -0.021476519631608515 -0.0010346377510587338 0 -0.021502908609570898 -0.001016705688720711 0 -0.021469695951131837 -0.00099693533761750341 0 -0.02150819947988937 -0.00097983517478794158 0 -0.021492877828366005 -0.00095482251258377808 0 -0.021469695951131837 -0.00099693533761750341 0 -0.021448644401735443 -0.00095514491684404242 0 -0.021492877828366005 -0.00095482251258377808 0 -0.021469695951131837 -0.00099693533761750341 0 -0.021502908609570898 -0.001016705688720711 0 -0.02150819947988937 -0.00097983517478794158 0 -0.022889175895934248 -0.0001155679942610777 0 -0.022790291855882404 -0.00015965503531852393 0 -0.023202677248391892 4.690481068097932e-05 0 -0.021510124809337974 -0.0011233234161473118 0 -0.022590849651875293 -0.00072734624361464498 0 -0.022889175895934248 -0.0001155679942610777 0 -0.023114493059192109 2.6209858515732757e-05 0 -0.023202677248391892 4.690481068097932e-05 0 -0.022889175895934248 -0.0001155679942610777 0 -0.022956850761474596 -0.00014083790050729522 0 -0.023114493059192109 2.6209858515732757e-05 0 -0.022855689198608101 -0.00016714844100478544 0 -0.023068411149532453 9.8359161106920483e-06 0 -0.022889175895934248 -0.0001155679942610777 0 -0.022790291855882404 -0.00015965503531852393 0 -0.022741691039950516 -0.00017768966510138588 0 -0.021706471979848027 -0.0011084350958619254 0 -0.021510124809337974 -0.0011233234161473118 0 -0.02253306193739521 -0.00017332546386006678 0 -0.022406910465874647 -0.00029815506630618204 0 -0.022471891498796866 -0.00016666382031200401 0 -0.022640593737205193 -0.00030375969503702144 0 -0.022790291855882404 -0.00015965503531852393 0 -0.022741691039950516 -0.00017768966510138588 0 -0.021016971258417103 -0.0014225934749882462 0 -0.020852993048239395 -0.0010000133362062875 0 -0.021151679644416384 -0.0010875003179889565 0 -0.021441583835575689 -0.0010589591740240299 0 -0.021476519631608515 -0.0010346377510587338 0 -0.02150951239124033 -0.0010790154499683007 0 -0.021510124809337974 -0.0011233234161473118 0 -0.020318278165420749 -0.0013403450863058869 0 -0.021476519631608515 -0.0010346377510587338 0 -0.02150951239124033 -0.0010790154499683007 0 -0.021502908609570898 -0.001016705688720711 0 -0.021486273793766573 -0.0011211842103632248 0 -0.021528684269275896 -0.0011330012176821898 0 -0.021548606207481044 -0.00098609861133488823 0 -0.019844933395486125 -0.0012184328040796314 0 -0.020698537800693424 -0.00081872971382097772 0 -0.020318278165420749 -0.0013403450863058869 0 -0.019844933395486125 -0.0012184328040796314 0 -0.018422264757865365 -0.0053720307517382661 0 -0.018741647503809428 -0.0058538810921386223 0 -0.018192188239509931 -0.0057087490361680208 0 -0.017617784785262002 -9.5929884068246015e-05 0 -0.017766102165595075 -9.8898773214858095e-05 0 -0.017715095441808239 -2.9878111179380031e-05 0 -0.017617784785262002 -9.5929884068246015e-05 0 -0.017715095441808239 -2.9878111179380031e-05 0 -0.017695869933164358 0.00010014988720622166 0 -0.017766102165595075 -9.8898773214858095e-05 0 -0.017715095441808239 -2.9878111179380031e-05 0 -0.017778358494757451 -1.7361536937278919e-05 0 -0.017715095441808239 -2.9878111179380031e-05 0 -0.017695869933164358 0.00010014988720622166 0 -0.017778358494757451 -1.7361536937278919e-05 0 -0.017695869933164358 0.00010014988720622166 0 -0.01785106800803701 4.7618559309579524e-05 0 -0.017778358494757451 -1.7361536937278919e-05 0 -0.020318278165420749 -0.0013403450863058869 0 -0.020678674458585612 -0.0010108283602003514 0 -0.02150951239124033 -0.0010790154499683007 0 -0.021502908609570898 -0.001016705688720711 0 -0.021548606207481044 -0.00098609861133488823 0 -0.021528684269275896 -0.0011330012176821898 0 -0.021593970050794938 -0.00098531986750470188 0 -0.021548606207481044 -0.00098609861133488823 0 -0.021593970050794938 -0.00098531986750470188 0 -0.021548606207481044 -0.00098609861133488823 0 -0.021548026046515737 -0.00094506257234207498 0 -0.021548606207481044 -0.00098609861133488823 0 -0.02150819947988937 -0.00097983517478794158 0 -0.021548026046515737 -0.00094506257234207498 0 -0.021502908609570898 -0.001016705688720711 0 -0.021548606207481044 -0.00098609861133488823 0 -0.02150819947988937 -0.00097983517478794158 0 -0.02150819947988937 -0.00097983517478794158 0 -0.021548026046515737 -0.00094506257234207498 0 -0.021492877828366005 -0.00095482251258377808 0 -0.021548026046515737 -0.00094506257234207498 0 -0.021643647650948221 -0.00086641289971230769 0 -0.021511356446778419 -0.00089740326049757833 0 -0.021548026046515737 -0.00094506257234207498 0 -0.021511356446778419 -0.00089740326049757833 0 -0.021492877828366005 -0.00095482251258377808 0 -0.021593970050794938 -0.00098531986750470188 0 -0.021548026046515737 -0.00094506257234207498 0 -0.021643647650948221 -0.00086641289971230769 0 -0.017695869933164358 0.00010014988720622166 0 -0.017781867299487476 0.00029618154637144528 0 -0.01785671899366521 0.00018869417849545449 0 -0.020698537800693424 -0.00081872971382097772 0 -0.022336345931046449 -0.00045904730903240337 0 -0.022336345931046449 -0.00045904730903240337 0 -0.023104894526387643 -0.00052266846485597414 0 -0.024985486593760636 -3.4040664893213533e-06 0 -0.024986354647058302 -3.7371043285969192e-06 0 -0.024989132044314504 -2.3168055654334866e-06 0 -0.024986354647058302 -3.7371043285969192e-06 0 -0.024987482759227565 -3.0175595251052626e-06 0 -0.024989132044314504 -2.3168055654334866e-06 0 -0.024986354647058302 -3.7371043285969192e-06 0 -0.024987482759227565 -3.0175595251052626e-06 0 -0.024984633423088164 -4.6943189769311504e-06 0 -0.024987482759227565 -3.0175595251052626e-06 0 -0.024988602859536614 -2.4974914144472815e-06 0 -0.024989843667155353 -2.0996623801140194e-06 0 -0.021511356446778419 -0.00089740326049757833 0 -0.021448644401735443 -0.00095514491684404242 0 -0.021393075536494874 -0.00092527183086400062 0 -0.023104894526387643 -0.00052266846485597414 0 -0.023088877384818154 -0.00077401428627552548 0 -0.021511356446778419 -0.00089740326049757833 0 -0.021448644401735443 -0.00095514491684404242 0 -0.021492877828366005 -0.00095482251258377808 0 -0.023114493059192109 2.6209858515732757e-05 0 -0.023220899175963535 9.619227427512016e-06 0 -0.023202677248391892 4.690481068097932e-05 0 -0.022590849651875293 -0.00072734624361464498 0 -0.023088877384818154 -0.00077401428627552548 0 -0.021448644401735443 -0.00095514491684404242 0 -0.021406441288761218 -0.0009618749619750847 0 -0.021393075536494874 -0.00092527183086400062 0 -0.024986500443953633 -3.1777279134192479e-06 0 -0.024989655485452435 -3.8136373347668704e-08 0 -0.024986059391572672 -2.6275002580588401e-06 0 -0.024984633423088164 -4.6943189769311504e-06 0 -0.024986500443953633 -3.1777279134192479e-06 0 -0.024986059391572672 -2.6275002580588401e-06 0 -0.024987482759227565 -3.0175595251052626e-06 0 -0.024984633423088164 -4.6943189769311504e-06 0 -0.024986500443953633 -3.1777279134192479e-06 0 -0.023088877384818154 -0.00077401428627552548 0 -0.023543075232653799 -0.0003843571287621845 0 -0.024986500443953633 -3.1777279134192479e-06 0 -0.024988602859536614 -2.4974914144472815e-06 0 -0.024990156566490847 -1.9758407293205389e-06 0 -0.024987482759227565 -3.0175595251052626e-06 0 -0.024986500443953633 -3.1777279134192479e-06 0 -0.024988602859536614 -2.4974914144472815e-06 0 -0.024992561793411971 -1.4374911901666669e-06 0 -0.024993708192595256 -7.5563515433472154e-07 0 -0.024986500443953633 -3.1777279134192479e-06 0 -0.024990156566490847 -1.9758407293205389e-06 0 -0.02499189492100613 -1.4818743783506813e-06 0 -0.024988602859536614 -2.4974914144472815e-06 0 -0.024990156566490847 -1.9758407293205389e-06 0 -0.024989843667155353 -2.0996623801140194e-06 0 -0.024990156566490847 -1.9758407293205389e-06 0 -0.024989843667155353 -2.0996623801140194e-06 0 -0.024992042220069285 -1.4972871524544908e-06 0 -0.024990156566490847 -1.9758407293205389e-06 0 -0.02499189492100613 -1.4818743783506813e-06 0 -0.024992042220069285 -1.4972871524544908e-06 0 -0.024989843667155353 -2.0996623801140194e-06 0 -0.024991731416739906 -1.5480075431592985e-06 0 -0.024989132044314504 -2.3168055654334866e-06 0 -0.024987482759227565 -3.0175595251052626e-06 0 -0.024989843667155353 -2.0996623801140194e-06 0 -0.024989132044314504 -2.3168055654334866e-06 0 -0.024989843667155353 -2.0996623801140194e-06 0 -0.024991731416739906 -1.5480075431592985e-06 0 -0.024992042220069285 -1.4972871524544908e-06 0 -0.024991731416739906 -1.5480075431592985e-06 0 -0.024994013799503577 -1.0967665363684108e-06 0 -0.024992789190375241 -1.1535229830201032e-06 0 -0.024991731416739906 -1.5480075431592985e-06 0 -0.024994013799503577 -1.0967665363684108e-06 0 -0.024992042220069285 -1.4972871524544908e-06 0 -0.02499189492100613 -1.4818743783506813e-06 0 -0.024994291219734746 -1.0819412459419739e-06 0 -0.024996393618755247 -7.5313382176199646e-07 0 -0.02499189492100613 -1.4818743783506813e-06 0 -0.024992042220069285 -1.4972871524544908e-06 0 -0.024994291219734746 -1.0819412459419739e-06 0 -0.024994013799503577 -1.0967665363684108e-06 0 -0.024992042220069285 -1.4972871524544908e-06 0 -0.024994291219734746 -1.0819412459419739e-06 0 -0.024994013799503577 -1.0967665363684108e-06 0 -0.024994291219734746 -1.0819412459419739e-06 0 -0.024997205224844193 -6.0224636136706063e-07 0 -0.024994291219734746 -1.0819412459419739e-06 0 -0.024997205224844193 -6.0224636136706063e-07 0 -0.024996393618755247 -7.5313382176199646e-07 0 -0.024994013799503577 -1.0967665363684108e-06 0 -0.024997205224844193 -6.0224636136706063e-07 0 -0.02499656902349157 -6.0303808233435711e-07 0 -0.024994013799503577 -1.0967665363684108e-06 0 -0.02499656902349157 -6.0303808233435711e-07 0 -0.024992789190375241 -1.1535229830201032e-06 0 -0.024999994597140519 -7.4487506709155881e-10 0 -0.024999995996234432 7.3130095289801028e-11 0 -0.02499656902349157 -6.0303808233435711e-07 0 -0.024997205224844193 -6.0224636136706063e-07 0 -0.024999994597140519 -7.4487506709155881e-10 0 -0.02499656902349157 -6.0303808233435711e-07 0 -0.024997205224844193 -6.0224636136706063e-07 0 -0.024999994597140519 -7.4487506709155881e-10 0 -0.024999997058039021 -4.1385249190338814e-10 0 -0.024999995996234432 7.3130095289801028e-11 0 -0.024994849071653492 -4.645284136637716e-07 0 -0.024999989346232137 -2.6799390130381025e-09 0 -0.024999995996234432 7.3130095289801028e-11 0 -0.02499656902349157 -6.0303808233435711e-07 0 -0.024994849071653492 -4.645284136637716e-07 0 -0.02499656902349157 -6.0303808233435711e-07 0 -0.024994849071653492 -4.645284136637716e-07 0 -0.024992789190375241 -1.1535229830201032e-06 0 -0.024994849071653492 -4.645284136637716e-07 0 -0.024990404538775678 -1.2951160103752275e-06 0 -0.024989939089069369 -3.3922811179937403e-07 0 -0.024994849071653492 -4.645284136637716e-07 0 -0.024992789190375241 -1.1535229830201032e-06 0 -0.024990404538775678 -1.2951160103752275e-06 0 -0.024992789190375241 -1.1535229830201032e-06 0 -0.024989132044314504 -2.3168055654334866e-06 0 -0.024990404538775678 -1.2951160103752275e-06 0 -0.024991731416739906 -1.5480075431592985e-06 0 -0.024992789190375241 -1.1535229830201032e-06 0 -0.024989132044314504 -2.3168055654334866e-06 0 -0.024985486593760636 -3.4040664893213533e-06 0 -0.024989132044314504 -2.3168055654334866e-06 0 -0.024990404538775678 -1.2951160103752275e-06 0 -0.0249377874377897 -3.8456507087626567e-05 0 -0.024960806109368888 -1.0971620605858823e-05 0 -0.024969044268397075 -2.8081140114523466e-05 0 -0.024985486593760636 -3.4040664893213533e-06 0 -0.024990404538775678 -1.2951160103752275e-06 0 -0.024989939089069369 -3.3922811179937403e-07 0 -0.022336345931046449 -0.00045904730903240337 0 -0.023856329683363448 0.00022086032684983994 0 -0.024960806109368888 -1.0971620605858823e-05 0 -0.024982857107740074 -7.571208908097453e-06 0 -0.024969044268397075 -2.8081140114523466e-05 0 -0.023856329683363448 0.00022086032684983994 0 -0.024199958676047233 0.00025169618199778765 0 -0.024960806109368888 -1.0971620605858823e-05 0 -0.024990260158562677 8.6517191520875047e-08 0 -0.024982857107740074 -7.571208908097453e-06 0 -0.024994849071653492 -4.645284136637716e-07 0 -0.024989939089069369 -3.3922811179937403e-07 0 -0.024990260158562677 8.6517191520875047e-08 0 -0.024990260158562677 8.6517191520875047e-08 0 -0.024999989346232137 -2.6799390130381025e-09 0 -0.024999986967261412 8.2358888329965657e-10 0 -0.024994849071653492 -4.645284136637716e-07 0 -0.024990260158562677 8.6517191520875047e-08 0 -0.024999989346232137 -2.6799390130381025e-09 0 -0.024999986967261412 8.2358888329965657e-10 0 -0.024993330855037365 -1.0218594316893779e-06 0 -0.024999992574265543 -8.6932237633035653e-10 0 -0.024990260158562677 8.6517191520875047e-08 0 -0.024999986967261412 8.2358888329965657e-10 0 -0.024993330855037365 -1.0218594316893779e-06 0 -0.024993330855037365 -1.0218594316893779e-06 0 -0.024990932841599218 -3.7947859065594864e-06 0 -0.024982857107740074 -7.571208908097453e-06 0 -0.024990260158562677 8.6517191520875047e-08 0 -0.024993330855037365 -1.0218594316893779e-06 0 -0.024982857107740074 -7.571208908097453e-06 0 -0.024993330855037365 -1.0218594316893779e-06 0 -0.024990932841599218 -3.7947859065594864e-06 0 -0.024999992574265543 -8.6932237633035653e-10 0 -0.024990932841599218 -3.7947859065594864e-06 0 -0.024983291577273466 -1.5684385674678643e-05 0 -0.024989767306280917 -6.2152875830547717e-06 0 -0.024990932841599218 -3.7947859065594864e-06 0 -0.024982857107740074 -7.571208908097453e-06 0 -0.024983291577273466 -1.5684385674678643e-05 0 -0.024982857107740074 -7.571208908097453e-06 0 -0.024983291577273466 -1.5684385674678643e-05 0 -0.024969044268397075 -2.8081140114523466e-05 0 -0.018164426828621408 0.00039848514723825329 0 -0.018122940343219898 0.0002260668989615007 0 -0.018285607416296926 0.0002879124541436157 0 -0.01823399667834984 0.000133563818618798 0 -0.018348798858898105 5.618017477102077e-05 0 -0.018122940343219898 0.0002260668989615007 0 -0.018129691422191525 0.00010097034235145365 0 -0.018349352738764261 9.0459431996407121e-05 0 -0.018122940343219898 0.0002260668989615007 0 -0.017973544380979988 0.0001549240354155118 0 -0.018129691422191525 0.00010097034235145365 0 -0.018122940343219898 0.0002260668989615007 0 -0.017978768432420595 0.00034132818803994788 0 -0.017973544380979988 0.0001549240354155118 0 -0.018164426828621408 0.00039848514723825329 0 -0.018122940343219898 0.0002260668989615007 0 -0.017978768432420595 0.00034132818803994788 0 -0.021596922492516796 0.0001082940547551952 0 -0.021670884772933219 -0.00012522039731999965 0 -0.022336345931046449 -0.00045904730903240337 0 -0.021670884772933219 -0.00012522039731999965 0 -0.017781867299487476 0.00029618154637144528 0 -0.017978768432420595 0.00034132818803994788 0 -0.01785671899366521 0.00018869417849545449 0 -0.017978768432420595 0.00034132818803994788 0 -0.01785671899366521 0.00018869417849545449 0 -0.017973544380979988 0.0001549240354155118 0 -0.017973544380979988 0.0001549240354155118 0 -0.017949358183886897 3.3678543402046855e-05 0 -0.018044892907416218 2.1583663488465656e-05 0 -0.017973544380979988 0.0001549240354155118 0 -0.017949358183886897 3.3678543402046855e-05 0 -0.01785106800803701 4.7618559309579524e-05 0 -0.017949358183886897 3.3678543402046855e-05 0 -0.01785106800803701 4.7618559309579524e-05 0 -0.017899989621468267 -4.7269607663917161e-05 0 -0.017949358183886897 3.3678543402046855e-05 0 -0.017973490985720847 -2.5248677057798162e-05 0 -0.018044892907416218 2.1583663488465656e-05 0 -0.01785671899366521 0.00018869417849545449 0 -0.017973544380979988 0.0001549240354155118 0 -0.01785106800803701 4.7618559309579524e-05 0 -0.017695869933164358 0.00010014988720622166 0 -0.01785671899366521 0.00018869417849545449 0 -0.01785106800803701 4.7618559309579524e-05 0 -0.01785106800803701 4.7618559309579524e-05 0 -0.017778358494757451 -1.7361536937278919e-05 0 -0.017836163446906219 -3.836197960587732e-05 0 -0.017778358494757451 -1.7361536937278919e-05 0 -0.017836163446906219 -3.836197960587732e-05 0 -0.01780641744100981 -8.2490380461743495e-05 0 -0.01785106800803701 4.7618559309579524e-05 0 -0.017836163446906219 -3.836197960587732e-05 0 -0.017899989621468267 -4.7269607663917161e-05 0 -0.017836163446906219 -3.836197960587732e-05 0 -0.017848689449157198 -8.947808428463667e-05 0 -0.017899989621468267 -4.7269607663917161e-05 0 -0.017888304131754837 -0.00011043303451389259 0 -0.017848689449157198 -8.947808428463667e-05 0 -0.017899989621468267 -4.7269607663917161e-05 0 -0.017888304131754837 -0.00011043303451389259 0 -0.017863792850675554 -0.00011597123833061329 0 -0.017848689449157198 -8.947808428463667e-05 0 -0.017819785432959166 -0.00012670525414875736 0 -0.017863792850675554 -0.00011597123833061329 0 -0.017848689449157198 -8.947808428463667e-05 0 -0.017766102165595075 -9.8898773214858095e-05 0 -0.017778358494757451 -1.7361536937278919e-05 0 -0.01780641744100981 -8.2490380461743495e-05 0 -0.017836163446906219 -3.836197960587732e-05 0 -0.017848689449157198 -8.947808428463667e-05 0 -0.01780641744100981 -8.2490380461743495e-05 0 -0.017819785432959166 -0.00012670525414875736 0 -0.017848689449157198 -8.947808428463667e-05 0 -0.01780641744100981 -8.2490380461743495e-05 0 -0.01779928359876717 -0.00011467646354159299 0 -0.017819785432959166 -0.00012670525414875736 0 -0.01780641744100981 -8.2490380461743495e-05 0 -0.01779928359876717 -0.00011467646354159299 0 -0.017766102165595075 -9.8898773214858095e-05 0 -0.01780641744100981 -8.2490380461743495e-05 0 -0.017973490985720847 -2.5248677057798162e-05 0 -0.017954228363585924 -8.0035444768118333e-05 0 -0.018019242611224812 -5.4406014137431928e-05 0 -0.017949358183886897 3.3678543402046855e-05 0 -0.017973490985720847 -2.5248677057798162e-05 0 -0.017899989621468267 -4.7269607663917161e-05 0 -0.017973490985720847 -2.5248677057798162e-05 0 -0.017899989621468267 -4.7269607663917161e-05 0 -0.017954228363585924 -8.0035444768118333e-05 0 -0.017888304131754837 -0.00011043303451389259 0 -0.017899989621468267 -4.7269607663917161e-05 0 -0.017917178106773384 -8.7136057236798987e-05 0 -0.017899989621468267 -4.7269607663917161e-05 0 -0.017917178106773384 -8.7136057236798987e-05 0 -0.017954228363585924 -8.0035444768118333e-05 0 -0.017888304131754837 -0.00011043303451389259 0 -0.017917178106773384 -8.7136057236798987e-05 0 -0.017928807221238418 -0.00011494837367896615 0 -0.017917178106773384 -8.7136057236798987e-05 0 -0.017928807221238418 -0.00011494837367896615 0 -0.017954228363585924 -8.0035444768118333e-05 0 -0.017969264313206501 -0.00012807556841282382 0 -0.017954228363585924 -8.0035444768118333e-05 0 -0.017996137650409375 -0.00010374277532813913 0 -0.017954228363585924 -8.0035444768118333e-05 0 -0.017996137650409375 -0.00010374277532813913 0 -0.018019242611224812 -5.4406014137431928e-05 0 -0.017969264313206501 -0.00012807556841282382 0 -0.017928807221238418 -0.00011494837367896615 0 -0.017954228363585924 -8.0035444768118333e-05 0 -0.018100508537598752 -6.997514365056614e-05 0 -0.018184183224102011 6.9703711301490078e-06 0 -0.018044892907416218 2.1583663488465656e-05 0 -0.01803709352352861 -0.0001191420738258011 0 -0.017996137650409375 -0.00010374277532813913 0 -0.018019242611224812 -5.4406014137431928e-05 0 -0.01803709352352861 -0.0001191420738258011 0 -0.018019242611224812 -5.4406014137431928e-05 0 -0.018100508537598752 -6.997514365056614e-05 0 -0.018019242611224812 -5.4406014137431928e-05 0 -0.018100508537598752 -6.997514365056614e-05 0 -0.018044892907416218 2.1583663488465656e-05 0 -0.017973490985720847 -2.5248677057798162e-05 0 -0.018019242611224812 -5.4406014137431928e-05 0 -0.018044892907416218 2.1583663488465656e-05 0 -0.018099827890209974 -0.00014120945644176903 0 -0.01803709352352861 -0.0001191420738258011 0 -0.018100508537598752 -6.997514365056614e-05 0 -0.018216913126957057 -0.00012815767319534604 0 -0.018100508537598752 -6.997514365056614e-05 0 -0.018184183224102011 6.9703711301490078e-06 0 -0.018216913126957057 -0.00012815767319534604 0 -0.018184183224102011 6.9703711301490078e-06 0 -0.018349352738764261 9.0459431996407121e-05 0 -0.018216913126957057 -0.00012815767319534604 0 -0.018099827890209974 -0.00014120945644176903 0 -0.018100508537598752 -6.997514365056614e-05 0 -0.018184183224102011 6.9703711301490078e-06 0 -0.018129691422191525 0.00010097034235145365 0 -0.018349352738764261 9.0459431996407121e-05 0 -0.018184183224102011 6.9703711301490078e-06 0 -0.018129691422191525 0.00010097034235145365 0 -0.018044892907416218 2.1583663488465656e-05 0 -0.017973544380979988 0.0001549240354155118 0 -0.018129691422191525 0.00010097034235145365 0 -0.018044892907416218 2.1583663488465656e-05 0 -0.018348798858898105 5.618017477102077e-05 0 -0.018540126635259283 -7.3340573458717266e-05 0 -0.018297839211887327 6.6758831866005604e-05 0 -0.01857393767334262 -0.00014818918339300173 0 -0.018476882508778398 0.00020193512921897071 0 -0.018421990636222157 -0.0001387174914087617 0 -0.018216913126957057 -0.00012815767319534604 0 -0.018349352738764261 9.0459431996407121e-05 0 -0.018421990636222157 -0.0001387174914087617 0 -0.018349352738764261 9.0459431996407121e-05 0 -0.018557699239740801 -5.0784080951130517e-05 0 -0.018645678445349843 -0.00014379334107116537 0 -0.018540126635259283 -7.3340573458717266e-05 0 -0.018755756905059557 -0.00022886221830755067 0 -0.01857393767334262 -0.00014818918339300173 0 -0.018757426902232199 -0.00013095597265668895 0 -0.018757426902232199 -0.00013095597265668895 0 -0.018687048032249985 3.3983529680851002e-05 0 -0.018852293994758421 -5.2458359485983521e-05 0 -0.018687048032249985 3.3983529680851002e-05 0 -0.018808737551523409 0.00013164635380077627 0 -0.018852293994758421 -5.2458359485983521e-05 0 -0.01857393767334262 -0.00014818918339300173 0 -0.018757426902232199 -0.00013095597265668895 0 -0.018687048032249985 3.3983529680851002e-05 0 -0.01857393767334262 -0.00014818918339300173 0 -0.018687048032249985 3.3983529680851002e-05 0 -0.018476882508778398 0.00020193512921897071 0 -0.018687048032249985 3.3983529680851002e-05 0 -0.018683570762215562 0.00028372372018174187 0 -0.018476882508778398 0.00020193512921897071 0 -0.018687048032249985 3.3983529680851002e-05 0 -0.018808737551523409 0.00013164635380077627 0 -0.018683570762215562 0.00028372372018174187 0 -0.018808737551523409 0.00013164635380077627 0 -0.018683570762215562 0.00028372372018174187 0 -0.018912628956872714 0.00030071271325833013 0 -0.018683570762215562 0.00028372372018174187 0 -0.018862274218677592 0.00054601715451117099 0 -0.018912628956872714 0.00030071271325833013 0 -0.018683570762215562 0.00028372372018174187 0 -0.018862274218677592 0.00054601715451117099 0 -0.01864888307529643 0.00050569730590297249 0 -0.018683570762215562 0.00028372372018174187 0 -0.018534501746316115 0.0003642187575014236 0 -0.018476882508778398 0.00020193512921897071 0 -0.018683570762215562 0.00028372372018174187 0 -0.018534501746316115 0.0003642187575014236 0 -0.01864888307529643 0.00050569730590297249 0 -0.018534501746316115 0.0003642187575014236 0 -0.01864888307529643 0.00050569730590297249 0 -0.018490313901166761 0.00049372013397763878 0 -0.018427200592535428 0.00036895036872230914 0 -0.018285607416296926 0.0002879124541436157 0 -0.018374441548103752 0.00049530815860950636 0 -0.018427200592535428 0.00036895036872230914 0 -0.018476882508778398 0.00020193512921897071 0 -0.018285607416296926 0.0002879124541436157 0 -0.018534501746316115 0.0003642187575014236 0 -0.018427200592535428 0.00036895036872230914 0 -0.018490313901166761 0.00049372013397763878 0 -0.018534501746316115 0.0003642187575014236 0 -0.018427200592535428 0.00036895036872230914 0 -0.018476882508778398 0.00020193512921897071 0 -0.018122940343219898 0.0002260668989615007 0 -0.018297839211887327 6.6758831866005604e-05 0 -0.018285607416296926 0.0002879124541436157 0 -0.018297839211887327 6.6758831866005604e-05 0 -0.018476882508778398 0.00020193512921897071 0 -0.018285607416296926 0.0002879124541436157 0 -0.018164426828621408 0.00039848514723825329 0 -0.018285607416296926 0.0002879124541436157 0 -0.018374441548103752 0.00049530815860950636 0 -0.021596922492516796 0.0001082940547551952 0 -0.021528412270564106 0.00028271864594846236 0 -0.024983291577273466 -1.5684385674678643e-05 0 -0.024986044478889906 -7.5689532894463501e-06 0 -0.024989767306280917 -6.2152875830547717e-06 0 -0.024986044478889906 -7.5689532894463501e-06 0 -0.024989340834746566 -4.2917033917551663e-06 0 -0.024985046092621248 -3.0327265307236297e-06 0 -0.021528412270564106 0.00028271864594846236 0 -0.02084816816994764 0.00038540693486386463 0 -0.018427200592535428 0.00036895036872230914 0 -0.018374441548103752 0.00049530815860950636 0 -0.018490313901166761 0.00049372013397763878 0 -0.024986044478889906 -7.5689532894463501e-06 0 -0.024989340834746566 -4.2917033917551663e-06 0 -0.024989767306280917 -6.2152875830547717e-06 0 -0.024989340834746566 -4.2917033917551663e-06 0 -0.024989767306280917 -6.2152875830547717e-06 0 -0.024994325364936031 -2.6048161125391107e-06 0 -0.024990932841599218 -3.7947859065594864e-06 0 -0.024989767306280917 -6.2152875830547717e-06 0 -0.024994325364936031 -2.6048161125391107e-06 0 -0.024990932841599218 -3.7947859065594864e-06 0 -0.024994325364936031 -2.6048161125391107e-06 0 -0.024999992574265543 -8.6932237633035653e-10 0 -0.024994325364936031 -2.6048161125391107e-06 0 -0.024999995342211024 -1.188021037949238e-09 0 -0.024992580097484705 -2.2253820181046032e-06 0 -0.024989340834746566 -4.2917033917551663e-06 0 -0.024994325364936031 -2.6048161125391107e-06 0 -0.024992580097484705 -2.2253820181046032e-06 0 -0.024994325364936031 -2.6048161125391107e-06 0 -0.024999995342211024 -1.188021037949238e-09 0 -0.024999992574265543 -8.6932237633035653e-10 0 -0.024995197664969313 -1.3346803343486207e-06 0 -0.024999982281094069 -4.8698279498324518e-09 0 -0.02499056831175625 -1.5689138343820927e-06 0 -0.024997881458354392 -7.8722220649940643e-07 0 -0.024049823186974625 -8.0082522968390134e-05 0 -0.024999995342211024 -1.188021037949238e-09 0 -0.024995197664969313 -1.3346803343486207e-06 0 -0.024992580097484705 -2.2253820181046032e-06 0 -0.024999995342211024 -1.188021037949238e-09 0 -0.024995197664969313 -1.3346803343486207e-06 0 -0.024999982281094069 -4.8698279498324518e-09 0 -0.024995197664969313 -1.3346803343486207e-06 0 -0.024990293474429069 -9.3846738499109562e-07 0 -0.02499056831175625 -1.5689138343820927e-06 0 -0.024992580097484705 -2.2253820181046032e-06 0 -0.024990293474429069 -9.3846738499109562e-07 0 -0.024986294088912616 -5.0517923399227686e-07 0 -0.024995197664969313 -1.3346803343486207e-06 0 -0.024992580097484705 -2.2253820181046032e-06 0 -0.024990293474429069 -9.3846738499109562e-07 0 -0.021822909079816117 0.00037141617842826425 0 -0.02084816816994764 0.00038540693486386463 0 -0.024992580097484705 -2.2253820181046032e-06 0 -0.024986294088912616 -5.0517923399227686e-07 0 -0.024985046092621248 -3.0327265307236297e-06 0 -0.01888879846031374 0.00103237152054302 0 -0.018544829695927127 0.00078555510297581566 0 -0.018892552459640326 0.00085898221143888582 0 -0.024989340834746566 -4.2917033917551663e-06 0 -0.024992580097484705 -2.2253820181046032e-06 0 -0.024985046092621248 -3.0327265307236297e-06 0 -0.018374441548103752 0.00049530815860950636 0 -0.018608310535143373 0.00058940458404297541 0 -0.018490313901166761 0.00049372013397763878 0 -0.01864888307529643 0.00050569730590297249 0 -0.018631602898434574 0.00070153057502494239 0 -0.018490313901166761 0.00049372013397763878 0 -0.02084816816994764 0.00038540693486386463 0 -0.020292607967163399 0.00017665362608119788 0 -0.018631602898434574 0.00070153057502494239 0 -0.018892552459640326 0.00085898221143888582 0 -0.018781633221455929 0.00066433194275186604 0 -0.02084816816994764 0.00038540693486386463 0 -0.020188292832948845 0.00034506846670246218 0 -0.018892552459640326 0.00085898221143888582 0 -0.018781633221455929 0.00066433194275186604 0 -0.018922924718145277 0.00072508303177746581 0 -0.01864888307529643 0.00050569730590297249 0 -0.018631602898434574 0.00070153057502494239 0 -0.018781633221455929 0.00066433194275186604 0 -0.018862274218677592 0.00054601715451117099 0 -0.01864888307529643 0.00050569730590297249 0 -0.018781633221455929 0.00066433194275186604 0 -0.018862274218677592 0.00054601715451117099 0 -0.018781633221455929 0.00066433194275186604 0 -0.018922924718145277 0.00072508303177746581 0 -0.018862274218677592 0.00054601715451117099 0 -0.018922924718145277 0.00072508303177746581 0 -0.01906707519235409 0.000719442104299055 0 -0.018862274218677592 0.00054601715451117099 0 -0.01906707519235409 0.000719442104299055 0 -0.019101129224989667 0.00050883181763340657 0 -0.01906707519235409 0.000719442104299055 0 -0.019269340903842212 0.00070326159660422691 0 -0.019101129224989667 0.00050883181763340657 0 -0.01906707519235409 0.000719442104299055 0 -0.019212945753004182 0.00093504745017618078 0 -0.01903486105567247 0.00089409565036145406 0 -0.01906707519235409 0.000719442104299055 0 -0.019212945753004182 0.00093504745017618078 0 -0.019269340903842212 0.00070326159660422691 0 -0.018922924718145277 0.00072508303177746581 0 -0.01906707519235409 0.000719442104299055 0 -0.01903486105567247 0.00089409565036145406 0 -0.018892552459640326 0.00085898221143888582 0 -0.018922924718145277 0.00072508303177746581 0 -0.01903486105567247 0.00089409565036145406 0 -0.019212945753004182 0.00093504745017618078 0 -0.019586361006296842 0.00087012715243811806 0 -0.019269340903842212 0.00070326159660422691 0 -0.019586361006296842 0.00087012715243811806 0 -0.019269340903842212 0.00070326159660422691 0 -0.019420559479035159 0.00046415201726047426 0 -0.022871087557158002 0.00018329004994545371 0 -0.02285180371142527 0.00012393384630354429 0 -0.019212945753004182 0.00093504745017618078 0 -0.019586361006296842 0.00087012715243811806 0 -0.019202628384847587 0.0012513331201277104 0 -0.021681055676554612 -0.00075246870462786686 0 -0.021587359707157413 -0.00081534384607336843 0 -0.021212761899034833 -0.00059680567266047317 0 -0.021288926519295624 -0.00019659280229929589 0 -0.021681055676554612 -0.00075246870462786686 0 -0.021212761899034833 -0.00059680567266047317 0 -0.021270834364320569 0.00050644505936347129 0 -0.022588631326428757 0.00019636795998063407 0 -0.021822909079816117 0.00037141617842826425 0 -0.022588631326428757 0.00019636795998063407 0 -0.01888879846031374 0.00103237152054302 0 -0.019093151514501996 0.0010457652643933804 0 -0.019202628384847587 0.0012513331201277104 0 -0.024990293474429069 -9.3846738499109562e-07 0 -0.024986294088912616 -5.0517923399227686e-07 0 -0.024983912217673227 4.2545329267637319e-07 0 -0.019212945753004182 0.00093504745017618078 0 -0.019093151514501996 0.0010457652643933804 0 -0.019202628384847587 0.0012513331201277104 0 -0.01888879846031374 0.00103237152054302 0 -0.01903486105567247 0.00089409565036145406 0 -0.019093151514501996 0.0010457652643933804 0 -0.01888879846031374 0.00103237152054302 0 -0.018892552459640326 0.00085898221143888582 0 -0.01903486105567247 0.00089409565036145406 0 -0.019212945753004182 0.00093504745017618078 0 -0.01903486105567247 0.00089409565036145406 0 -0.019093151514501996 0.0010457652643933804 0 -0.024990293474429069 -9.3846738499109562e-07 0 -0.024983912217673227 4.2545329267637319e-07 0 -0.02499056831175625 -1.5689138343820927e-06 0 -0.024995420496521453 2.9016401232391926e-06 0 -0.024992794866101831 4.7671784537512025e-06 0 -0.024997511907106123 1.8034885388297875e-06 0 -0.022588631326428757 0.00019636795998063407 0 -0.024049823186974625 -8.0082522968390134e-05 0 -0.024992174344706363 6.2216915971588627e-06 0 -0.024992794866101831 4.7671784537512025e-06 0 -0.024997511907106123 1.8034885388297875e-06 0 -0.023487580391929778 6.8539250111449213e-06 0 -0.023249399092574386 -0.00015261768437717249 0 -0.023141400472101982 0.00021178208220942594 0 -0.022588631326428757 0.00019636795998063407 0 -0.022871087557158002 0.00018329004994545371 0 -0.024992174344706363 6.2216915971588627e-06 0 -0.024992794866101831 4.7671784537512025e-06 0 -0.024990141691645044 5.6538476648386144e-06 0 -0.024992794866101831 4.7671784537512025e-06 0 -0.024992592549643863 5.0720926358780553e-06 0 -0.024994044677783187 3.6576797008614547e-06 0 -0.022900663236768197 0.0001703442424264312 0 -0.022871087557158002 0.00018329004994545371 0 -0.022871087557158002 0.00018329004994545371 0 -0.023731132430728642 0.00021412551959798396 0 -0.024992592549643863 5.0720926358780553e-06 0 -0.024991990530063461 3.6237710947363337e-06 0 -0.024994044677783187 3.6576797008614547e-06 0 -0.024995420496521453 2.9016401232391926e-06 0 -0.024994044677783187 3.6576797008614547e-06 0 -0.024996875398487477 1.6396912460483412e-06 0 -0.024991990530063461 3.6237710947363337e-06 0 -0.024994044677783187 3.6576797008614547e-06 0 -0.024996875398487477 1.6396912460483412e-06 0 -0.024995420496521453 2.9016401232391926e-06 0 -0.024992794866101831 4.7671784537512025e-06 0 -0.024994044677783187 3.6576797008614547e-06 0 -0.024991990530063461 3.6237710947363337e-06 0 -0.024996875398487477 1.6396912460483412e-06 0 -0.024999980896545676 2.2762956004953132e-09 0 -0.023731132430728642 0.00021412551959798396 0 -0.024997272098426383 -2.3120980066786153e-07 0 -0.025000004858061524 -2.8689472890157369e-10 0 -0.024996875398487477 1.6396912460483412e-06 0 -0.024999980896545676 2.2762956004953132e-09 0 -0.025000004858061524 -2.8689472890157369e-10 0 -0.024996875398487477 1.6396912460483412e-06 0 -0.024997511907106123 1.8034885388297875e-06 0 -0.024995420496521453 2.9016401232391926e-06 0 -0.024996875398487477 1.6396912460483412e-06 0 -0.024997511907106123 1.8034885388297875e-06 0 -0.02500048913096951 1.331695334792096e-07 0 -0.024998339846259487 -2.4703750501356494e-07 0 -0.024918535946908123 4.898436453047768e-06 0 -0.024998339846259487 -2.4703750501356494e-07 0 -0.023890348076290455 -0.00010091869894945583 0 -0.02234806950161505 3.6217429287953521e-07 0 -0.024998339846259487 -2.4703750501356494e-07 0 -0.024918535946908123 4.898436453047768e-06 0 -0.023890348076290455 -0.00010091869894945583 0 -0.024918535946908123 4.898436453047768e-06 0 -0.024077759951431122 1.0844149170310039e-07 0 -0.023890348076290455 -0.00010091869894945583 0 -0.02414388384333567 0.00024701171112376512 0 -0.024038912554669938 0.00024143687048726255 0 -0.02498289222410701 5.045315452303592e-05 0 -0.02500048913096951 1.331695334792096e-07 0 -0.024951115652484125 2.813107777675605e-05 0 -0.02500048913096951 1.331695334792096e-07 0 -0.024918535946908123 4.898436453047768e-06 0 -0.024951115652484125 2.813107777675605e-05 0 -0.023731132430728642 0.00021412551959798396 0 -0.024038912554669938 0.00024143687048726255 0 -0.023731132430728642 0.00021412551959798396 0 -0.02285180371142527 0.00012393384630354429 0 -0.024077759951431122 1.0844149170310039e-07 0 -0.023930382491921556 -7.0228387129694762e-05 0 -0.023890348076290455 -0.00010091869894945583 0 -0.023911533872829502 -6.2007092837747246e-05 0 -0.023930382491921556 -7.0228387129694762e-05 0 -0.023864602974864282 -1.3295605525223378e-05 0 -0.023911533872829502 -6.2007092837747246e-05 0 -0.024077759951431122 1.0844149170310039e-07 0 -0.023930382491921556 -7.0228387129694762e-05 0 -0.023930382491921556 -7.0228387129694762e-05 0 -0.023890348076290455 -0.00010091869894945583 0 -0.023864602974864282 -1.3295605525223378e-05 0 -0.023890348076290455 -0.00010091869894945583 0 -0.023408384978780051 0.000103233137880788 0 -0.02234806950161505 3.6217429287953521e-07 0 -0.023890348076290455 -0.00010091869894945583 0 -0.023408384978780051 0.000103233137880788 0 -0.023864602974864282 -1.3295605525223378e-05 0 -0.022540658654280583 0.00011212317166649794 0 -0.02285180371142527 0.00012393384630354429 0 -0.02285180371142527 0.00012393384630354429 0 -0.022303824288625183 0.00028199218583026823 0 -0.021288926519295624 -0.00019659280229929589 0 -0.021212761899034833 -0.00059680567266047317 0 -0.020915449357195543 -6.4602937410145875e-05 0 -0.021340674395100678 0.00073542749826609199 0 -0.020760938212210894 0.0010880776836989098 0 -0.020915449357195543 -6.4602937410145875e-05 0 -0.021340674395100678 0.00073542749826609199 0 -0.022342852240372347 1.316372092151074e-06 0 -0.020915449357195543 -6.4602937410145875e-05 0 -0.022540658654280583 0.00011212317166649794 0 -0.02234577902914086 4.2540306070437843e-07 0 -0.02046070539318132 7.9888230689180776e-05 0 -0.020871865848875903 -3.2312480512790765e-07 0 -0.020915449357195543 -6.4602937410145875e-05 0 -0.022342852240372347 1.316372092151074e-06 0 -0.020871865848875903 -3.2312480512790765e-07 0 -0.020915449357195543 -6.4602937410145875e-05 0 -0.02046070539318132 7.9888230689180776e-05 0 -0.020871865848875903 -3.2312480512790765e-07 0 -0.019732786882634121 -0.00010949421145453364 0 -0.02046070539318132 7.9888230689180776e-05 0 -0.019719797695686232 -5.1260063458003697e-05 0 -0.019732786882634121 -0.00010949421145453364 0 -0.02046070539318132 7.9888230689180776e-05 0 -0.019719797695686232 -5.1260063458003697e-05 0 -0.019518683373279552 0.0001180595580845093 0 -0.019586361006296842 0.00087012715243811806 0 -0.02046070539318132 7.9888230689180776e-05 0 -0.019420559479035159 0.00046415201726047426 0 -0.021288926519295624 -0.00019659280229929589 0 -0.02046070539318132 7.9888230689180776e-05 0 -0.020915449357195543 -6.4602937410145875e-05 0 -0.021270834364320569 0.00050644505936347129 0 -0.021059421657094332 0.0003687734998101583 0 -0.02046070539318132 7.9888230689180776e-05 0 -0.019420559479035159 0.00046415201726047426 0 -0.019518683373279552 0.0001180595580845093 0 -0.019269340903842212 0.00070326159660422691 0 -0.019420559479035159 0.00046415201726047426 0 -0.019101129224989667 0.00050883181763340657 0 -0.019420559479035159 0.00046415201726047426 0 -0.019101129224989667 0.00050883181763340657 0 -0.019163572811396204 0.00022923591771708348 0 -0.019420559479035159 0.00046415201726047426 0 -0.019518683373279552 0.0001180595580845093 0 -0.019163572811396204 0.00022923591771708348 0 -0.018862274218677592 0.00054601715451117099 0 -0.019101129224989667 0.00050883181763340657 0 -0.018912628956872714 0.00030071271325833013 0 -0.019101129224989667 0.00050883181763340657 0 -0.018912628956872714 0.00030071271325833013 0 -0.019163572811396204 0.00022923591771708348 0 -0.018808737551523409 0.00013164635380077627 0 -0.018912628956872714 0.00030071271325833013 0 -0.018973468349012989 0.00010268677627141963 0 -0.018912628956872714 0.00030071271325833013 0 -0.018973468349012989 0.00010268677627141963 0 -0.019163572811396204 0.00022923591771708348 0 -0.018973468349012989 0.00010268677627141963 0 -0.019163572811396204 0.00022923591771708348 0 -0.019177610804858126 -5.0835681607079619e-05 0 -0.018808737551523409 0.00013164635380077627 0 -0.018973468349012989 0.00010268677627141963 0 -0.018852293994758421 -5.2458359485983521e-05 0 -0.019719797695686232 -5.1260063458003697e-05 0 -0.019518683373279552 0.0001180595580845093 0 -0.019177610804858126 -5.0835681607079619e-05 0 -0.019518683373279552 0.0001180595580845093 0 -0.019163572811396204 0.00022923591771708348 0 -0.019177610804858126 -5.0835681607079619e-05 0 -0.019719797695686232 -5.1260063458003697e-05 0 -0.019177610804858126 -5.0835681607079619e-05 0 -0.019217137526760558 -0.00018802640904306804 0 -0.019177610804858126 -5.0835681607079619e-05 0 -0.018901469871481363 -0.00018727336890834396 0 -0.019217137526760558 -0.00018802640904306804 0 -0.019177610804858126 -5.0835681607079619e-05 0 -0.018852293994758421 -5.2458359485983521e-05 0 -0.018901469871481363 -0.00018727336890834396 0 -0.018757426902232199 -0.00013095597265668895 0 -0.018852293994758421 -5.2458359485983521e-05 0 -0.018901469871481363 -0.00018727336890834396 0 -0.018973468349012989 0.00010268677627141963 0 -0.019177610804858126 -5.0835681607079619e-05 0 -0.018852293994758421 -5.2458359485983521e-05 0 -0.018752081924565987 -0.00022271951365340046 0 -0.018755756905059557 -0.00022886221830755067 0 -0.018901469871481363 -0.00018727336890834396 0 -0.018755756905059557 -0.00022886221830755067 0 -0.018757426902232199 -0.00013095597265668895 0 -0.018901469871481363 -0.00018727336890834396 0 -0.018752081924565987 -0.00022271951365340046 0 -0.018901469871481363 -0.00018727336890834396 0 -0.019217137526760558 -0.00018802640904306804 0 -0.018752081924565987 -0.00022271951365340046 0 -0.018820734159852581 -0.0001814522515047015 0 -0.019217137526760558 -0.00018802640904306804 0 -0.018820734159852581 -0.0001814522515047015 0 -0.019398304753009691 -3.5095962729845623e-07 0 -0.019732786882634121 -0.00010949421145453364 0 -0.020871865848875903 -3.2312480512790765e-07 0 -0.019398304753009691 -3.5095962729845623e-07 0 -0.019732786882634121 -0.00010949421145453364 0 -0.019719797695686232 -5.1260063458003697e-05 0 -0.019732786882634121 -0.00010949421145453364 0 -0.019217137526760558 -0.00018802640904306804 0 -0.018820734159852581 -0.0001814522515047015 0 -0.019732786882634121 -0.00010949421145453364 0 -0.019217137526760558 -0.00018802640904306804 0 -0.023303353332755891 0.00051349289957445393 0 -0.023228107979211082 0.00016108709228230438 0 -0.023690404662358756 0.00066983723466029906 0 -0.022011984422958198 -0.00045104139851933521 0 -0.02180915125277632 -0.00038430211839637836 0 -0.023303353332755891 0.00051349289957445393 0 -0.023690404662358756 0.00066983723466029906 0 -0.023393628786615522 0.00086875699772757269 0 -0.023303353332755891 0.00051349289957445393 0 -0.022945385507353862 0.00067422419802378852 0 -0.02317101269111323 0.00082015155014639304 0 -0.023303353332755891 0.00051349289957445393 0 -0.022945385507353862 0.00067422419802378852 0 -0.022981847059005498 0.0003692585076407804 0 -0.023303353332755891 0.00051349289957445393 0 -0.022981847059005498 0.0003692585076407804 0 -0.023195146482901878 0.0002290262778617354 0 -0.02285798063197924 0.00016674585291732012 0 -0.022981847059005498 0.0003692585076407804 0 -0.023195146482901878 0.0002290262778617354 0 -0.019555737890809891 -0.0018585894654770915 0 -0.019584234924038438 -0.0018669745897642181 0 -0.019509727894255431 -0.0016335433025251569 0 -0.019555737890809891 -0.0018585894654770915 0 -0.019584234924038438 -0.0018669745897642181 0 -0.019617428716054919 -0.0018774542580774366 0 -0.022163575289456464 -0.00015427951294329291 0 -0.022011984422958198 -0.00045104139851933521 0 -0.019584234924038438 -0.0018669745897642181 0 -0.019627628830541904 -0.0018546754230420379 0 -0.019509727894255431 -0.0016335433025251569 0 -0.019584234924038438 -0.0018669745897642181 0 -0.019627628830541904 -0.0018546754230420379 0 -0.019618139224972121 -0.0018987590903940864 0 -0.019627628830541904 -0.0018546754230420379 0 -0.01967377548230078 -0.0019261611367258325 0 -0.019618139224972121 -0.0018987590903940864 0 -0.019733982807820898 -0.001822033279130778 0 -0.01967377548230078 -0.0019261611367258325 0 -0.019855661404854275 -0.0019173154136056391 0 -0.019627628830541904 -0.0018546754230420379 0 -0.019733982807820898 -0.001822033279130778 0 -0.01967377548230078 -0.0019261611367258325 0 -0.019818625031009431 -0.0016512297704212022 0 -0.019509727894255431 -0.0016335433025251569 0 -0.019952137487124776 -0.0013872454735633023 0 -0.019733982807820898 -0.001822033279130778 0 -0.019818625031009431 -0.0016512297704212022 0 -0.019509727894255431 -0.0016335433025251569 0 -0.019733982807820898 -0.001822033279130778 0 -0.019818625031009431 -0.0016512297704212022 0 -0.020023715924873335 -0.0017354624999830861 0 -0.019818625031009431 -0.0016512297704212022 0 -0.019952137487124776 -0.0013872454735633023 0 -0.020023715924873335 -0.0017354624999830861 0 -0.019627628830541904 -0.0018546754230420379 0 -0.019733982807820898 -0.001822033279130778 0 -0.019509727894255431 -0.0016335433025251569 0 -0.023690404662358756 0.00066983723466029906 0 -0.023667794760781749 0.0010360227984372711 0 -0.02409272481634777 0.0012055079281760466 0 -0.02180915125277632 -0.00038430211839637836 0 -0.022038796695260838 6.4087177031345256e-05 0 -0.023690404662358756 0.00066983723466029906 0 -0.023667794760781749 0.0010360227984372711 0 -0.023393628786615522 0.00086875699772757269 0 -0.019509727894255431 -0.0016335433025251569 0 -0.019952137487124776 -0.0013872454735633023 0 -0.019801060451737306 -0.00094318189345301185 0 -0.02409272481634777 0.0012055079281760466 0 -0.023654646792071719 0.0013139371154675329 0 -0.024105923485126197 0.0013928432449066979 0 -0.023667794760781749 0.0010360227984372711 0 -0.02409272481634777 0.0012055079281760466 0 -0.023654646792071719 0.0013139371154675329 0 -0.023667794760781749 0.0010360227984372711 0 -0.023654646792071719 0.0013139371154675329 0 -0.023436075313064075 0.0010654817886442361 0 -0.024419863482495283 0.0013758639882230379 0 -0.024248567589299691 0.0013454133675208358 0 -0.02430473455064535 0.0013520945212918921 0 -0.023654646792071719 0.0013139371154675329 0 -0.023436075313064075 0.0010654817886442361 0 -0.023075166617818266 0.0010598700096985203 0 -0.024419863482495283 0.0013758639882230379 0 -0.024231701871849556 0.0012250728697624121 0 -0.024248567589299691 0.0013454133675208358 0 -0.023892759141230239 0.0012811604734741932 0 -0.023574205992931047 0.0011505172069007498 0 -0.023667794760781749 0.0010360227984372711 0 -0.023436075313064075 0.0010654817886442361 0 -0.023393628786615522 0.00086875699772757269 0 -0.023436075313064075 0.0010654817886442361 0 -0.023281414844031269 0.00096318604044196368 0 -0.023075166617818266 0.0010598700096985203 0 -0.023303353332755891 0.00051349289957445393 0 -0.023393628786615522 0.00086875699772757269 0 -0.02317101269111323 0.00082015155014639304 0 -0.023436075313064075 0.0010654817886442361 0 -0.023281414844031269 0.00096318604044196368 0 -0.023393628786615522 0.00086875699772757269 0 -0.023281414844031269 0.00096318604044196368 0 -0.023393628786615522 0.00086875699772757269 0 -0.02317101269111323 0.00082015155014639304 0 -0.022945385507353862 0.00067422419802378852 0 -0.02317101269111323 0.00082015155014639304 0 -0.023075166617818266 0.0010598700096985203 0 -0.024056838584869632 0.0013915348357701558 0 -0.024231701871849556 0.0012250728697624121 0 -0.022684007916475468 0.00084668878059288933 0 -0.023281414844031269 0.00096318604044196368 0 -0.02317101269111323 0.00082015155014639304 0 -0.023075166617818266 0.0010598700096985203 0 -0.024056838584869632 0.0013915348357701558 0 -0.024231701871849556 0.0012250728697624121 0 -0.024248567589299691 0.0013454133675208358 0 -0.024248567589299691 0.0013454133675208358 0 -0.024197586324882892 0.0013694189930021795 0 -0.02430473455064535 0.0013520945212918921 0 -0.024056838584869632 0.0013915348357701558 0 -0.024248567589299691 0.0013454133675208358 0 -0.024147287851604037 0.0013721747157510701 0 -0.024248567589299691 0.0013454133675208358 0 -0.024147287851604037 0.0013721747157510701 0 -0.024197586324882892 0.0013694189930021795 0 -0.024056838584869632 0.0013915348357701558 0 -0.024147287851604037 0.0013721747157510701 0 -0.024166732569389893 0.0013717100174343415 0 -0.024147287851604037 0.0013721747157510701 0 -0.024166732569389893 0.0013717100174343415 0 -0.024197586324882892 0.0013694189930021795 0 -0.024056838584869632 0.0013915348357701558 0 -0.024166732569389893 0.0013717100174343415 0 -0.024288195828605936 0.0013909938924363961 0 -0.024056838584869632 0.0013915348357701558 0 -0.022416001234111336 0.0016993776970665858 0 -0.022684007916475468 0.00084668878059288933 0 -0.023701474707222624 0.0013693666732515037 0 -0.023386893320126334 0.0014094888757529896 0 -0.022416001234111336 0.0016993776970665858 0 -0.022161464161322697 0.0010721141785171272 0 -0.021850114628432723 0.0013227444019335017 0 -0.022416001234111336 0.0016993776970665858 0 -0.022161464161322697 0.0010721141785171272 0 -0.022684007916475468 0.00084668878059288933 0 -0.022161464161322697 0.0010721141785171272 0 -0.022684007916475468 0.00084668878059288933 0 -0.022011934627931662 0.00045857482790932357 0 -0.023574205992931047 0.0011505172069007498 0 -0.023250967675033072 0.0010281665594614093 0 -0.022945385507353862 0.00067422419802378852 0 -0.023075166617818266 0.0010598700096985203 0 -0.022684007916475468 0.00084668878059288933 0 -0.021850114628432723 0.0013227444019335017 0 -0.021450726163417425 0.0011843118703237141 0 -0.021539776242761426 0.0017398602988102953 0 -0.021450726163417425 0.0011843118703237141 0 -0.021539776242761426 0.0017398602988102953 0 -0.021140834248534517 0.0013602990523388563 0 -0.021450726163417425 0.0011843118703237141 0 -0.021140834248534517 0.0013602990523388563 0 -0.021105740706552526 0.0010589875498637435 0 -0.022416001234111336 0.0016993776970665858 0 -0.021850114628432723 0.0013227444019335017 0 -0.021539776242761426 0.0017398602988102953 0 -0.023386893320126334 0.0014094888757529896 0 -0.022960522111083761 0.0013920160777340987 0 -0.022161464161322697 0.0010721141785171272 0 -0.021766346366092409 0.00094988392812766543 0 -0.022011934627931662 0.00045857482790932357 0 -0.022161464161322697 0.0010721141785171272 0 -0.021850114628432723 0.0013227444019335017 0 -0.021766346366092409 0.00094988392812766543 0 -0.021850114628432723 0.0013227444019335017 0 -0.021766346366092409 0.00094988392812766543 0 -0.021450726163417425 0.0011843118703237141 0 -0.021450726163417425 0.0011843118703237141 0 -0.021316299960977003 0.00059854720974583859 0 -0.021105740706552526 0.0010589875498637435 0 -0.021766346366092409 0.00094988392812766543 0 -0.021450726163417425 0.0011843118703237141 0 -0.021316299960977003 0.00059854720974583859 0 -0.021316299960977003 0.00059854720974583859 0 -0.022011934627931662 0.00045857482790932357 0 -0.021320856601258889 -0.00018733178058764338 0 -0.021766346366092409 0.00094988392812766543 0 -0.021316299960977003 0.00059854720974583859 0 -0.022011934627931662 0.00045857482790932357 0 -0.022011934627931662 0.00045857482790932357 0 -0.022640605976672886 0.00027901448597428968 0 -0.022166971845094419 -0.00029117628123064921 0 -0.022945385507353862 0.00067422419802378852 0 -0.022981847059005498 0.0003692585076407804 0 -0.022640605976672886 0.00027901448597428968 0 -0.022945385507353862 0.00067422419802378852 0 -0.022684007916475468 0.00084668878059288933 0 -0.022640605976672886 0.00027901448597428968 0 -0.022684007916475468 0.00084668878059288933 0 -0.022011934627931662 0.00045857482790932357 0 -0.022640605976672886 0.00027901448597428968 0 -0.02285798063197924 0.00016674585291732012 0 -0.022981847059005498 0.0003692585076407804 0 -0.022640605976672886 0.00027901448597428968 0 -0.02285798063197924 0.00016674585291732012 0 -0.022640605976672886 0.00027901448597428968 0 -0.022738569544826674 -6.2359278192398836e-05 0 -0.022640605976672886 0.00027901448597428968 0 -0.022738569544826674 -6.2359278192398836e-05 0 -0.022457577141392404 -2.2375463779096488e-05 0 -0.022152709259399612 0.00026622742240832626 0 -0.021881268282896396 0.00011611551477296519 0 -0.022457577141392404 -2.2375463779096488e-05 0 -0.0225301175012113 -0.00015400495075992807 0 -0.02238997368858343 -0.0001803027789764881 0 -0.022738569544826674 -6.2359278192398836e-05 0 -0.022457577141392404 -2.2375463779096488e-05 0 -0.0225301175012113 -0.00015400495075992807 0 -0.022738569544826674 -6.2359278192398836e-05 0 -0.0225301175012113 -0.00015400495075992807 0 -0.022664585717215961 -0.00015576442388828178 0 -0.022011934627931662 0.00045857482790932357 0 -0.022166971845094419 -0.00029117628123064921 0 -0.021320856601258889 -0.00018733178058764338 0 -0.021881268282896396 0.00011611551477296519 0 -0.021172777577849137 -2.1996161523149582e-05 0 -0.022166971845094419 -0.00029117628123064921 0 -0.021320856601258889 -0.00018733178058764338 0 -0.021731970239724764 -0.0008699543198559122 0 -0.021320856601258889 -0.00018733178058764338 0 -0.021731970239724764 -0.0008699543198559122 0 -0.02114843719846371 -0.00087084880864912826 0 -0.021172777577849137 -2.1996161523149582e-05 0 -0.019616690616434201 -0.00011036486630426105 0 -0.021731970239724764 -0.0008699543198559122 0 -0.02115985564763664 -0.0013553241826829833 0 -0.02114843719846371 -0.00087084880864912826 0 -0.02238997368858343 -0.0001803027789764881 0 -0.022401343129084407 -0.00024723711244177814 0 -0.022484327442250381 -0.00023731799668197943 0 -0.022401343129084407 -0.00024723711244177814 0 -0.022484327442250381 -0.00023731799668197943 0 -0.022454077170115317 -0.00027743115871220638 0 -0.02238997368858343 -0.0001803027789764881 0 -0.022401343129084407 -0.00024723711244177814 0 -0.022342352248605632 -0.00026547164238193322 0 -0.021731970239724764 -0.0008699543198559122 0 -0.021293504459868731 -0.0015197486519025491 0 -0.02115985564763664 -0.0013553241826829833 0 -0.019616690616434201 -0.00011036486630426105 0 -0.01973773791847468 -0.00024381286993378564 0 -0.022664585717215961 -0.00015576442388828178 0 -0.022573855391339159 -0.00022123742118069481 0 -0.022620308564396063 -0.00023809640501257513 0 -0.0225301175012113 -0.00015400495075992807 0 -0.022664585717215961 -0.00015576442388828178 0 -0.022573855391339159 -0.00022123742118069481 0 -0.0225301175012113 -0.00015400495075992807 0 -0.02238997368858343 -0.0001803027789764881 0 -0.022484327442250381 -0.00023731799668197943 0 -0.0225301175012113 -0.00015400495075992807 0 -0.022573855391339159 -0.00022123742118069481 0 -0.022484327442250381 -0.00023731799668197943 0 -0.022484327442250381 -0.00023731799668197943 0 -0.022498136775450053 -0.00027497742928551548 0 -0.022535252677072889 -0.00026241459522299864 0 -0.022484327442250381 -0.00023731799668197943 0 -0.022454077170115317 -0.00027743115871220638 0 -0.022498136775450053 -0.00027497742928551548 0 -0.022498136775450053 -0.00027497742928551548 0 -0.022524209245371001 -0.00027766172514118534 0 -0.022535252677072889 -0.00026241459522299864 0 -0.022573855391339159 -0.00022123742118069481 0 -0.022484327442250381 -0.00023731799668197943 0 -0.022535252677072889 -0.00026241459522299864 0 -0.022573855391339159 -0.00022123742118069481 0 -0.022535252677072889 -0.00026241459522299864 0 -0.022568366932345676 -0.0002581406962111107 0 -0.022573855391339159 -0.00022123742118069481 0 -0.022568366932345676 -0.0002581406962111107 0 -0.022620308564396063 -0.00023809640501257513 0 -0.022535252677072889 -0.00026241459522299864 0 -0.022568366932345676 -0.0002581406962111107 0 -0.022535142254968284 -0.0002929290521677728 0 -0.022524209245371001 -0.00027766172514118534 0 -0.022535252677072889 -0.00026241459522299864 0 -0.022535142254968284 -0.0002929290521677728 0 -0.022517320070349081 -0.00026057807247385377 0 -0.022524209245371001 -0.00027766172514118534 0 -0.022535142254968284 -0.0002929290521677728 0 -0.022465150896884452 -0.00025984215361643813 0 -0.022535142254968284 -0.0002929290521677728 0 -0.022412156434738224 -0.00031670003386436254 0 -0.021107227256333901 -0.00034428495027235515 0 -0.020983385831053591 -0.00034185506349743416 0 -0.022568366932345676 -0.0002581406962111107 0 -0.022535142254968284 -0.0002929290521677728 0 -0.022593542203830291 -0.00029572191465427212 0 -0.020983385831053591 -0.00034185506349743416 0 -0.020265818348708033 -0.0003603645149289652 0 -0.022387295038218465 -0.00025891731091834505 0 -0.022412156434738224 -0.00031670003386436254 0 -0.022294135217109334 -0.00031046815919088069 0 -0.02058622104330303 -0.00096205790755777545 0 -0.021157054954928728 -0.00098316924484395359 0 -0.020754462176978381 -0.00012561805181702211 0 -0.01970674616048915 -0.0016911391633386804 0 -0.019731274897948729 -0.001743356280370129 0 -0.019669911323145738 -0.0017367159109585402 0 -0.020265818348708033 -0.0003603645149289652 0 -0.021022813083593661 -0.00065556459954052115 0 -0.022568366932345676 -0.0002581406962111107 0 -0.022593542203830291 -0.00029572191465427212 0 -0.022620308564396063 -0.00023809640501257513 0 -0.020983385831053591 -0.00034185506349743416 0 -0.021022813083593661 -0.00065556459954052115 0 -0.01970674616048915 -0.0016911391633386804 0 -0.019669911323145738 -0.0017367159109585402 0 -0.019625451808256356 -0.0016827732421257056 0 -0.020265818348708033 -0.0003603645149289652 0 -0.018737717984337231 -0.00024882220777401153 0 -0.019669911323145738 -0.0017367159109585402 0 -0.019648641313175463 -0.0017893115883846952 0 -0.019629313444364561 -0.0017337796092173328 0 -0.019669911323145738 -0.0017367159109585402 0 -0.019675303858082433 -0.0017947091690125011 0 -0.019648641313175463 -0.0017893115883846952 0 -0.019731274897948729 -0.001743356280370129 0 -0.019669911323145738 -0.0017367159109585402 0 -0.019675303858082433 -0.0017947091690125011 0 -0.019675303858082433 -0.0017947091690125011 0 -0.019648641313175463 -0.0017893115883846952 0 -0.019646458654039745 -0.0018432676281440968 0 -0.022664585717215961 -0.00015576442388828178 0 -0.022727740038594464 -0.00030096425112597806 0 -0.02277969047047778 -8.8041371918965954e-05 0 -0.019731274897948729 -0.001743356280370129 0 -0.019675303858082433 -0.0017947091690125011 0 -0.019670112967787475 -0.0018619232535089609 0 -0.02129665886382066 -0.00065715262707273796 0 -0.021022813083593661 -0.00065556459954052115 0 -0.021022813083593661 -0.00065556459954052115 0 -0.021402410993604185 -0.00084779901883030645 0 -0.022738569544826674 -6.2359278192398836e-05 0 -0.022664585717215961 -0.00015576442388828178 0 -0.02277969047047778 -8.8041371918965954e-05 0 -0.019675303858082433 -0.0017947091690125011 0 -0.019670112967787475 -0.0018619232535089609 0 -0.019646458654039745 -0.0018432676281440968 0 -0.019648641313175463 -0.0017893115883846952 0 -0.019646458654039745 -0.0018432676281440968 0 -0.019626520804653023 -0.001863138507352908 0 -0.019646458654039745 -0.0018432676281440968 0 -0.019617428716054919 -0.0018774542580774366 0 -0.019626520804653023 -0.001863138507352908 0 -0.019670112967787475 -0.0018619232535089609 0 -0.019646458654039745 -0.0018432676281440968 0 -0.019617428716054919 -0.0018774542580774366 0 -0.019555737890809891 -0.0018585894654770915 0 -0.019670112967787475 -0.0018619232535089609 0 -0.019617428716054919 -0.0018774542580774366 0 -0.022011984422958198 -0.00045104139851933521 0 -0.021402410993604185 -0.00084779901883030645 0 -0.022790436166386607 -2.1743217698148294e-06 0 -0.022738569544826674 -6.2359278192398836e-05 0 -0.02277969047047778 -8.8041371918965954e-05 0 -0.022011984422958198 -0.00045104139851933521 0 -0.022481797676379454 -3.7577634863456263e-05 0 -0.02285798063197924 0.00016674585291732012 0 -0.023195146482901878 0.0002290262778617354 0 -0.022738569544826674 -6.2359278192398836e-05 0 -0.019618370859697549 -0.0019059261082936634 0 -0.01967377548230078 -0.0019261611367258325 0 -0.019576879584956401 -0.0019222725835149688 0 -0.01967377548230078 -0.0019261611367258325 0 -0.019576879584956401 -0.0019222725835149688 0 -0.019627684586622188 -0.0019608762290408001 0 -0.019618370859697549 -0.0019059261082936634 0 -0.01967377548230078 -0.0019261611367258325 0 -0.019618139224972121 -0.0018987590903940864 0 -0.019617428716054919 -0.0018774542580774366 0 -0.019618139224972121 -0.0018987590903940864 0 -0.019626520804653023 -0.001863138507352908 0 -0.019618370859697549 -0.0019059261082936634 0 -0.019618139224972121 -0.0018987590903940864 0 -0.019626520804653023 -0.001863138507352908 0 -0.019584234924038438 -0.0018669745897642181 0 -0.019617428716054919 -0.0018774542580774366 0 -0.019618139224972121 -0.0018987590903940864 0 -0.019618370859697549 -0.0019059261082936634 0 -0.019626520804653023 -0.001863138507352908 0 -0.019593504591167155 -0.0018639982426596083 0 -0.019626520804653023 -0.001863138507352908 0 -0.019593504591167155 -0.0018639982426596083 0 -0.019605052179592741 -0.0017878062084280529 0 -0.019618370859697549 -0.0019059261082936634 0 -0.019593504591167155 -0.0018639982426596083 0 -0.019576879584956401 -0.0019222725835149688 0 -0.019593504591167155 -0.0018639982426596083 0 -0.019576879584956401 -0.0019222725835149688 0 -0.01952667725233774 -0.0018240926044873205 0 -0.01952667725233774 -0.0018240926044873205 0 -0.019521249054020681 -0.0017264842351837756 0 -0.019605052179592741 -0.0017878062084280529 0 -0.019593504591167155 -0.0018639982426596083 0 -0.01952667725233774 -0.0018240926044873205 0 -0.019605052179592741 -0.0017878062084280529 0 -0.019521249054020681 -0.0017264842351837756 0 -0.019605052179592741 -0.0017878062084280529 0 -0.019585082680252837 -0.0016896574846688296 0 -0.019648641313175463 -0.0017893115883846952 0 -0.019605052179592741 -0.0017878062084280529 0 -0.019629313444364561 -0.0017337796092173328 0 -0.019648641313175463 -0.0017893115883846952 0 -0.019626520804653023 -0.001863138507352908 0 -0.019605052179592741 -0.0017878062084280529 0 -0.019605052179592741 -0.0017878062084280529 0 -0.019629313444364561 -0.0017337796092173328 0 -0.019585082680252837 -0.0016896574846688296 0 -0.018737717984337231 -0.00024882220777401153 0 -0.018332058382681177 -0.00034264558490390822 0 -0.019725235381084089 -0.0015594795316982444 0 -0.019585082680252837 -0.0016896574846688296 0 -0.019535378330809365 -0.0015517837499375874 0 -0.019669911323145738 -0.0017367159109585402 0 -0.019629313444364561 -0.0017337796092173328 0 -0.019625451808256356 -0.0016827732421257056 0 -0.019629313444364561 -0.0017337796092173328 0 -0.019625451808256356 -0.0016827732421257056 0 -0.019585082680252837 -0.0016896574846688296 0 -0.018737717984337231 -0.00024882220777401153 0 -0.018772525355816621 -0.00044422511446268697 0 -0.018332058382681177 -0.00034264558490390822 0 -0.017911698913671763 -0.00046695957493958116 0 -0.01947166809997784 -0.0016318091940089601 0 -0.019535378330809365 -0.0015517837499375874 0 -0.019376980228120674 -0.0015345436211492932 0 -0.019521249054020681 -0.0017264842351837756 0 -0.01947166809997784 -0.0016318091940089601 0 -0.019585082680252837 -0.0016896574846688296 0 -0.01947166809997784 -0.0016318091940089601 0 -0.019585082680252837 -0.0016896574846688296 0 -0.019535378330809365 -0.0015517837499375874 0 -0.019521249054020681 -0.0017264842351837756 0 -0.01947166809997784 -0.0016318091940089601 0 -0.019315909980313527 -0.0016574139484042466 0 -0.01947166809997784 -0.0016318091940089601 0 -0.019376980228120674 -0.0015345436211492932 0 -0.019315909980313527 -0.0016574139484042466 0 -0.017911698913671763 -0.00046695957493958116 0 -0.018060990761429481 -0.0012404598394270153 0 -0.018242310678398665 -0.0018624015525728344 0 -0.018504397209160816 -0.0019011081839689489 0 -0.01829613364136435 -0.0018912985321573174 0 -0.018176016701962474 -0.0018495251616638204 0 -0.018242310678398665 -0.0018624015525728344 0 -0.01829613364136435 -0.0018912985321573174 0 -0.017935310559582404 -0.0004950889085640174 0 -0.017911698913671763 -0.00046695957493958116 0 -0.018060990761429481 -0.0012404598394270153 0 -0.018122437610936206 -0.0014631995797506066 0 -0.019315909980313527 -0.0016574139484042466 0 -0.019424650677777773 -0.001891438191311893 0 -0.019126212932164714 -0.001868921070194189 0 -0.01952667725233774 -0.0018240926044873205 0 -0.019521249054020681 -0.0017264842351837756 0 -0.019315909980313527 -0.0016574139484042466 0 -0.01952667725233774 -0.0018240926044873205 0 -0.019315909980313527 -0.0016574139484042466 0 -0.019424650677777773 -0.001891438191311893 0 -0.018504397209160816 -0.0019011081839689489 0 -0.018748813692508425 -0.0018878058032387192 0 -0.018369086305428942 -0.0019177017757048044 0 -0.018504397209160816 -0.0019011081839689489 0 -0.018748813692508425 -0.0018878058032387192 0 -0.019126212932164714 -0.001868921070194189 0 -0.018504397209160816 -0.0019011081839689489 0 -0.018369086305428942 -0.0019177017757048044 0 -0.01829613364136435 -0.0018912985321573174 0 -0.018130151158861855 -0.0018847845858576172 0 -0.018176016701962474 -0.0018495251616638204 0 -0.01829613364136435 -0.0018912985321573174 0 -0.017967691213420525 -0.0019356980780450099 0 -0.018130151158861855 -0.0018847845858576172 0 -0.018369086305428942 -0.0019177017757048044 0 -0.018130151158861855 -0.0018847845858576172 0 -0.018369086305428942 -0.0019177017757048044 0 -0.01829613364136435 -0.0018912985321573174 0 -0.017967691213420525 -0.0019356980780450099 0 -0.017986003862148558 -0.0020807923069790769 0 -0.018426617657424541 -0.0019581370725505281 0 -0.017967691213420525 -0.0019356980780450099 0 -0.018369086305428942 -0.0019177017757048044 0 -0.018426617657424541 -0.0019581370725505281 0 -0.017581421343261856 -0.0023595667392187704 0 -0.017986003862148558 -0.0020807923069790769 0 -0.018387262138047377 -0.0019703405947271379 0 -0.017986003862148558 -0.0020807923069790769 0 -0.018387262138047377 -0.0019703405947271379 0 -0.018426617657424541 -0.0019581370725505281 0 -0.018712527873245451 -0.0018961960646068036 0 -0.018426617657424541 -0.0019581370725505281 0 -0.018905778964348693 -0.0018844279907377155 0 -0.018387262138047377 -0.0019703405947271379 0 -0.018712527873245451 -0.0018961960646068036 0 -0.018426617657424541 -0.0019581370725505281 0 -0.018748813692508425 -0.0018878058032387192 0 -0.018369086305428942 -0.0019177017757048044 0 -0.018426617657424541 -0.0019581370725505281 0 -0.018748813692508425 -0.0018878058032387192 0 -0.018426617657424541 -0.0019581370725505281 0 -0.018905778964348693 -0.0018844279907377155 0 -0.018748813692508425 -0.0018878058032387192 0 -0.018905778964348693 -0.0018844279907377155 0 -0.01917065755128336 -0.0019087275010917413 0 -0.018905778964348693 -0.0018844279907377155 0 -0.019176438489845744 -0.001879634728201188 0 -0.01917065755128336 -0.0019087275010917413 0 -0.019176438489845744 -0.001879634728201188 0 -0.01917065755128336 -0.0019087275010917413 0 -0.019412720348560626 -0.0019198232859635614 0 -0.018905778964348693 -0.0018844279907377155 0 -0.019021045934367528 -0.0018251928023711001 0 -0.019236581723151874 -0.0018259755517208598 0 -0.018712527873245451 -0.0018961960646068036 0 -0.018905778964348693 -0.0018844279907377155 0 -0.019021045934367528 -0.0018251928023711001 0 -0.018905778964348693 -0.0018844279907377155 0 -0.019176438489845744 -0.001879634728201188 0 -0.019236581723151874 -0.0018259755517208598 0 -0.019021045934367528 -0.0018251928023711001 0 -0.019236581723151874 -0.0018259755517208598 0 -0.019351769723008328 -0.0017571660236648712 0 -0.019236581723151874 -0.0018259755517208598 0 -0.019531995827910383 -0.0017261289231541325 0 -0.019351769723008328 -0.0017571660236648712 0 -0.019236581723151874 -0.0018259755517208598 0 -0.019495015980792972 -0.0017698151394797375 0 -0.019412720348560626 -0.0019198232859635614 0 -0.019236581723151874 -0.0018259755517208598 0 -0.019495015980792972 -0.0017698151394797375 0 -0.019531995827910383 -0.0017261289231541325 0 -0.019412720348560626 -0.0019198232859635614 0 -0.019515805365561419 -0.0019484043189791447 0 -0.02068512092193061 -0.0014385817335946286 0 -0.01917065755128336 -0.0019087275010917413 0 -0.019412720348560626 -0.0019198232859635614 0 -0.019515805365561419 -0.0019484043189791447 0 -0.019176438489845744 -0.001879634728201188 0 -0.019236581723151874 -0.0018259755517208598 0 -0.019412720348560626 -0.0019198232859635614 0 -0.01917065755128336 -0.0019087275010917413 0 -0.019515805365561419 -0.0019484043189791447 0 -0.019413998261701159 -0.001942893057458026 0 -0.019515805365561419 -0.0019484043189791447 0 -0.019700804719138734 -0.0019611519842966979 0 -0.019413998261701159 -0.001942893057458026 0 -0.019515805365561419 -0.0019484043189791447 0 -0.019700804719138734 -0.0019611519842966979 0 -0.020001400885061194 -0.0019158826913264029 0 -0.019700804719138734 -0.0019611519842966979 0 -0.019627684586622188 -0.0019608762290408001 0 -0.019855661404854275 -0.0019173154136056391 0 -0.01967377548230078 -0.0019261611367258325 0 -0.019627684586622188 -0.0019608762290408001 0 -0.019855661404854275 -0.0019173154136056391 0 -0.019700804719138734 -0.0019611519842966979 0 -0.019627684586622188 -0.0019608762290408001 0 -0.019413998261701159 -0.001942893057458026 0 -0.019576879584956401 -0.0019222725835149688 0 -0.019627684586622188 -0.0019608762290408001 0 -0.019424650677777773 -0.001891438191311893 0 -0.019627684586622188 -0.0019608762290408001 0 -0.019424650677777773 -0.001891438191311893 0 -0.019413998261701159 -0.001942893057458026 0 -0.019576879584956401 -0.0019222725835149688 0 -0.01952667725233774 -0.0018240926044873205 0 -0.019424650677777773 -0.001891438191311893 0 -0.019424650677777773 -0.001891438191311893 0 -0.019126212932164714 -0.001868921070194189 0 -0.019413998261701159 -0.001942893057458026 0 -0.018748813692508425 -0.0018878058032387192 0 -0.01917065755128336 -0.0019087275010917413 0 -0.019126212932164714 -0.001868921070194189 0 -0.01917065755128336 -0.0019087275010917413 0 -0.019126212932164714 -0.001868921070194189 0 -0.019413998261701159 -0.001942893057458026 0 -0.021159412588813258 0.00090853306453004374 0 -0.021452657213473798 0.001863086972737152 0 -0.022066089038193459 0.00064936337754135985 0 -0.019770621036176193 -0.0019152060355652203 0 -0.019707375864825023 -0.0018872627123697509 0 -0.019715363101097817 -0.0018102840551844262 0 -0.018875566370329645 -0.00084802334916396765 0 -0.020006235162899871 -0.00090976644840005808 0 -0.016623981137861552 -0.00053051934247249277 0 -0.016621788761380891 -0.00053709027611669542 0 -0.016634443926601933 -0.00053738304049609736 0 -0.019770621036176193 -0.0019152060355652203 0 -0.01966154059342241 -0.0019490185224314029 0 -0.019707375864825023 -0.0018872627123697509 0 -0.018875566370329645 -0.00084802334916396765 0 -0.017874306948385543 -0.0015496032772248783 0 -0.017874306948385543 -0.0015496032772248783 0 -0.017496200594737599 -0.0017530966066024195 0 -0.017874306948385543 -0.0015496032772248783 0 -0.018620758796883036 -0.0018515623297336063 0 -0.01966154059342241 -0.0019490185224314029 0 -0.019707375864825023 -0.0018872627123697509 0 -0.019619492508998061 -0.0018408036733952543 0 -0.019707375864825023 -0.0018872627123697509 0 -0.019619492508998061 -0.0018408036733952543 0 -0.019715363101097817 -0.0018102840551844262 0 -0.019089121499819752 -0.0021051694654051481 0 -0.019021449088022911 -0.0017805803349788994 0 -0.018736365448854861 -0.0019043456048171419 0 -0.019021449088022911 -0.0017805803349788994 0 -0.018736365448854861 -0.0019043456048171419 0 -0.018855716981010788 -0.0018372407374092272 0 -0.017581421343261856 -0.0023595667392187704 0 -0.018736365448854861 -0.0019043456048171419 0 -0.019041649248059556 -0.0023722094412677282 0 -0.019089121499819752 -0.0021051694654051481 0 -0.018736365448854861 -0.0019043456048171419 0 -0.01892885756431098 -0.0021498925091188326 0 -0.017824014087704902 -0.0019956523347418311 0 -0.017496200594737599 -0.0017530966066024195 0 -0.017581421343261856 -0.0023595667392187704 0 -0.018387262138047377 -0.0019703405947271379 0 -0.018736365448854861 -0.0019043456048171419 0 -0.018387262138047377 -0.0019703405947271379 0 -0.018736365448854861 -0.0019043456048171419 0 -0.018855716981010788 -0.0018372407374092272 0 -0.018712527873245451 -0.0018961960646068036 0 -0.019021045934367528 -0.0018251928023711001 0 -0.018855716981010788 -0.0018372407374092272 0 -0.018387262138047377 -0.0019703405947271379 0 -0.018712527873245451 -0.0018961960646068036 0 -0.018855716981010788 -0.0018372407374092272 0 -0.019021045934367528 -0.0018251928023711001 0 -0.018855716981010788 -0.0018372407374092272 0 -0.019163025975280107 -0.0017819252093207302 0 -0.019021045934367528 -0.0018251928023711001 0 -0.019163025975280107 -0.0017819252093207302 0 -0.019351769723008328 -0.0017571660236648712 0 -0.019531995827910383 -0.0017261289231541325 0 -0.019351769723008328 -0.0017571660236648712 0 -0.019660306510403569 -0.0016505028666941178 0 -0.019351769723008328 -0.0017571660236648712 0 -0.019660306510403569 -0.0016505028666941178 0 -0.019551766024205084 -0.0017031143284807046 0 -0.019163025975280107 -0.0017819252093207302 0 -0.019351769723008328 -0.0017571660236648712 0 -0.019551766024205084 -0.0017031143284807046 0 -0.018620758796883036 -0.0018515623297336063 0 -0.018809051876848355 -0.0018144544701854291 0 -0.019619492508998061 -0.0018408036733952543 0 -0.019551766024205084 -0.0017031143284807046 0 -0.019659731134233447 -0.0016817842924922086 0 -0.019021449088022911 -0.0017805803349788994 0 -0.018855716981010788 -0.0018372407374092272 0 -0.019163025975280107 -0.0017819252093207302 0 -0.019021449088022911 -0.0017805803349788994 0 -0.019163025975280107 -0.0017819252093207302 0 -0.019551766024205084 -0.0017031143284807046 0 -0.02051010729280401 -0.00098217569755096519 0 -0.020006235162899871 -0.00090976644840005808 0 -0.019619492508998061 -0.0018408036733952543 0 -0.019659731134233447 -0.0016817842924922086 0 -0.019715363101097817 -0.0018102840551844262 0 -0.022302677517161761 -0.00043529787095421176 0 -0.021693509708003475 -0.00019480022051016025 0 -0.022066089038193459 0.00064936337754135985 0 -0.022302677517161761 -0.00043529787095421176 0 -0.021693509708003475 -0.00019480022051016025 0 -0.021981535313488277 -0.00065493720960487357 0 -0.021159412588813258 0.00090853306453004374 0 -0.021693509708003475 -0.00019480022051016025 0 -0.022066089038193459 0.00064936337754135985 0 -0.022049110014761352 -0.00073585739016213873 0 -0.02204624956823267 -0.00076208377798676679 0 -0.021851991771521168 -0.00086331764788651348 0 -0.02204624956823267 -0.00076208377798676679 0 -0.021976198806575947 -0.00082329745440069076 0 -0.021851991771521168 -0.00086331764788651348 0 -0.021976198806575947 -0.00082329745440069076 0 -0.021851991771521168 -0.00086331764788651348 0 -0.021752834114725565 -0.00074045469323557787 0 -0.021249579900070353 -0.00092803077206020639 0 -0.021693509708003475 -0.00019480022051016025 0 -0.021752834114725565 -0.00074045469323557787 0 -0.021693509708003475 -0.00019480022051016025 0 -0.021752834114725565 -0.00074045469323557787 0 -0.021981535313488277 -0.00065493720960487357 0 -0.021976198806575947 -0.00082329745440069076 0 -0.021752834114725565 -0.00074045469323557787 0 -0.021981535313488277 -0.00065493720960487357 0 -0.021976198806575947 -0.00082329745440069076 0 -0.021981535313488277 -0.00065493720960487357 0 -0.02206028609955708 -0.00079807030031930275 0 -0.022302677517161761 -0.00043529787095421176 0 -0.021981535313488277 -0.00065493720960487357 0 -0.02206028609955708 -0.00079807030031930275 0 -0.021976198806575947 -0.00082329745440069076 0 -0.02206028609955708 -0.00079807030031930275 0 -0.022030247635628317 -0.00081358355372282041 0 -0.02204624956823267 -0.00076208377798676679 0 -0.021976198806575947 -0.00082329745440069076 0 -0.022030247635628317 -0.00081358355372282041 0 -0.02206028609955708 -0.00079807030031930275 0 -0.022030247635628317 -0.00081358355372282041 0 -0.021945003523331189 -0.00097341527811677781 0 -0.022030247635628317 -0.00081358355372282041 0 -0.021945003523331189 -0.00097341527811677781 0 -0.021896602060909702 -0.00068647702981397877 0 -0.021945003523331189 -0.00097341527811677781 0 -0.021056644109017707 -0.00081783293364211783 0 -0.021896602060909702 -0.00068647702981397877 0 -0.022302677517161761 -0.00043529787095421176 0 -0.02206028609955708 -0.00079807030031930275 0 -0.021945003523331189 -0.00097341527811677781 0 -0.019660306510403569 -0.0016505028666941178 0 -0.019551766024205084 -0.0017031143284807046 0 -0.020035023200706853 -0.0015011853466219112 0 -0.019551766024205084 -0.0017031143284807046 0 -0.019659731134233447 -0.0016817842924922086 0 -0.020035023200706853 -0.0015011853466219112 0 -0.02051010729280401 -0.00098217569755096519 0 -0.020653591739575542 -0.00089568744410025054 0 -0.020035023200706853 -0.0015011853466219112 0 -0.019832086874965661 -0.0015887462853360159 0 -0.020228121697108758 -0.0013633335643651282 0 -0.019660306510403569 -0.0016505028666941178 0 -0.020035023200706853 -0.0015011853466219112 0 -0.019832086874965661 -0.0015887462853360159 0 -0.019531995827910383 -0.0017261289231541325 0 -0.019660306510403569 -0.0016505028666941178 0 -0.019832086874965661 -0.0015887462853360159 0 -0.020035023200706853 -0.0015011853466219112 0 -0.020228121697108758 -0.0013633335643651282 0 -0.021056644109017707 -0.00081783293364211783 0 -0.020653591739575542 -0.00089568744410025054 0 -0.020643258306670343 -0.00075049697053930584 0 -0.020228121697108758 -0.0013633335643651282 0 -0.021056644109017707 -0.00081783293364211783 0 -0.020621053764292969 -0.00061889428043949491 0 -0.021056644109017707 -0.00081783293364211783 0 -0.021660730768001908 -0.00050163032140344453 0 -0.021896602060909702 -0.00068647702981397877 0 -0.021056644109017707 -0.00081783293364211783 0 -0.021478929988746662 -0.00039166913304674331 0 -0.021660730768001908 -0.00050163032140344453 0 -0.021056644109017707 -0.00081783293364211783 0 -0.021478929988746662 -0.00039166913304674331 0 -0.020621053764292969 -0.00061889428043949491 0 -0.021478929988746662 -0.00039166913304674331 0 -0.020621053764292969 -0.00061889428043949491 0 -0.021977774945155782 3.8392830131501619e-05 0 -0.021478929988746662 -0.00039166913304674331 0 -0.021959055328602903 -0.00027227855181999788 0 -0.021977774945155782 3.8392830131501619e-05 0 -0.021478929988746662 -0.00039166913304674331 0 -0.021959055328602903 -0.00027227855181999788 0 -0.021660730768001908 -0.00050163032140344453 0 -0.021959055328602903 -0.00027227855181999788 0 -0.022048454108680719 -0.00045976935805442417 0 -0.021660730768001908 -0.00050163032140344453 0 -0.021959055328602903 -0.00027227855181999788 0 -0.022048454108680719 -0.00045976935805442417 0 -0.022268763769820843 -0.00025375826905312926 0 -0.022048454108680719 -0.00045976935805442417 0 -0.021660730768001908 -0.00050163032140344453 0 -0.021896602060909702 -0.00068647702981397877 0 -0.02204624956823267 -0.00076208377798676679 0 -0.022030247635628317 -0.00081358355372282041 0 -0.022126456582974192 -0.00057730735488581539 0 -0.022048454108680719 -0.00045976935805442417 0 -0.021896602060909702 -0.00068647702981397877 0 -0.022126456582974192 -0.00057730735488581539 0 -0.022030247635628317 -0.00081358355372282041 0 -0.021896602060909702 -0.00068647702981397877 0 -0.022126456582974192 -0.00057730735488581539 0 -0.022048454108680719 -0.00045976935805442417 0 -0.022126456582974192 -0.00057730735488581539 0 -0.022268763769820843 -0.00025375826905312926 0 -0.022126456582974192 -0.00057730735488581539 0 -0.022268763769820843 -0.00025375826905312926 0 -0.022278898963115461 -0.00038922728359726028 0 -0.022268763769820843 -0.00025375826905312926 0 -0.022278898963115461 -0.00038922728359726028 0 -0.022390024443985104 -0.00023475727642933517 0 -0.022278898963115461 -0.00038922728359726028 0 -0.022406910465874647 -0.00029815506630618204 0 -0.022390024443985104 -0.00023475727642933517 0 -0.022278898963115461 -0.00038922728359726028 0 -0.022406910465874647 -0.00029815506630618204 0 -0.022299012388253575 -0.00044064251223663564 0 -0.022278898963115461 -0.00038922728359726028 0 -0.022299012388253575 -0.00044064251223663564 0 -0.022169005552280477 -0.00058976296385254083 0 -0.022204550942335054 -0.00059644942072385753 0 -0.022299012388253575 -0.00044064251223663564 0 -0.022169005552280477 -0.00058976296385254083 0 -0.022126456582974192 -0.00057730735488581539 0 -0.022278898963115461 -0.00038922728359726028 0 -0.022169005552280477 -0.00058976296385254083 0 -0.02204624956823267 -0.00076208377798676679 0 -0.022126456582974192 -0.00057730735488581539 0 -0.022169005552280477 -0.00058976296385254083 0 -0.022049110014761352 -0.00073585739016213873 0 -0.02204624956823267 -0.00076208377798676679 0 -0.022169005552280477 -0.00058976296385254083 0 -0.022049110014761352 -0.00073585739016213873 0 -0.022204550942335054 -0.00059644942072385753 0 -0.022169005552280477 -0.00058976296385254083 0 -0.020278903128073109 -0.0017685094443123332 0 -0.020001400885061194 -0.0019158826913264029 0 -0.020606936054600913 -0.0018179265756567444 0 -0.020278903128073109 -0.0017685094443123332 0 -0.020606936054600913 -0.0018179265756567444 0 -0.020747072095120826 -0.0014314506642367872 0 -0.020278903128073109 -0.0017685094443123332 0 -0.020747072095120826 -0.0014314506642367872 0 -0.020313613750111887 -0.0014797840280066522 0 -0.020278903128073109 -0.0017685094443123332 0 -0.020023715924873335 -0.0017354624999830861 0 -0.020313613750111887 -0.0014797840280066522 0 -0.019952137487124776 -0.0013872454735633023 0 -0.020023715924873335 -0.0017354624999830861 0 -0.020313613750111887 -0.0014797840280066522 0 -0.020278903128073109 -0.0017685094443123332 0 -0.020023715924873335 -0.0017354624999830861 0 -0.019855661404854275 -0.0019173154136056391 0 -0.019733982807820898 -0.001822033279130778 0 -0.020023715924873335 -0.0017354624999830861 0 -0.019855661404854275 -0.0019173154136056391 0 -0.019700804719138734 -0.0019611519842966979 0 -0.019855661404854275 -0.0019173154136056391 0 -0.020001400885061194 -0.0019158826913264029 0 -0.019515805365561419 -0.0019484043189791447 0 -0.020001400885061194 -0.0019158826913264029 0 -0.020606936054600913 -0.0018179265756567444 0 -0.020278903128073109 -0.0017685094443123332 0 -0.019855661404854275 -0.0019173154136056391 0 -0.020001400885061194 -0.0019158826913264029 0 -0.020538813799778687 -0.001667026721104915 0 -0.020841700085161185 -0.0013394689723314208 0 -0.019515805365561419 -0.0019484043189791447 0 -0.02068512092193061 -0.0014385817335946286 0 -0.02030372579684625 -0.0012637735508306794 0 -0.020165025228133775 -0.0015457864661037705 0 -0.020407577388445442 -0.001282510582286513 0 -0.019495015980792972 -0.0017698151394797375 0 -0.019412720348560626 -0.0019198232859635614 0 -0.019604049563625749 -0.0014982281253499144 0 -0.019495015980792972 -0.0017698151394797375 0 -0.019704329688854112 -0.0016323907372807821 0 -0.019604049563625749 -0.0014982281253499144 0 -0.020228121697108758 -0.0013633335643651282 0 -0.019704329688854112 -0.0016323907372807821 0 -0.019604049563625749 -0.0014982281253499144 0 -0.019495015980792972 -0.0017698151394797375 0 -0.019531995827910383 -0.0017261289231541325 0 -0.019704329688854112 -0.0016323907372807821 0 -0.019531995827910383 -0.0017261289231541325 0 -0.019832086874965661 -0.0015887462853360159 0 -0.019704329688854112 -0.0016323907372807821 0 -0.019832086874965661 -0.0015887462853360159 0 -0.020228121697108758 -0.0013633335643651282 0 -0.019704329688854112 -0.0016323907372807821 0 -0.02068512092193061 -0.0014385817335946286 0 -0.020923418644051214 -0.00089828848097930393 0 -0.021587627286846038 -0.00051718622496859171 0 -0.020228121697108758 -0.0013633335643651282 0 -0.019604049563625749 -0.0014982281253499144 0 -0.020621053764292969 -0.00061889428043949491 0 -0.020407577388445442 -0.001282510582286513 0 -0.020878187875868856 -0.0007279348764381025 0 -0.02068512092193061 -0.0014385817335946286 0 -0.02030372579684625 -0.0012637735508306794 0 -0.020923418644051214 -0.00089828848097930393 0 -0.02030372579684625 -0.0012637735508306794 0 -0.020923418644051214 -0.00089828848097930393 0 -0.021081112918454572 -0.00034668967656804607 0 -0.020923418644051214 -0.00089828848097930393 0 -0.021587627286846038 -0.00051718622496859171 0 -0.021081112918454572 -0.00034668967656804607 0 -0.020841700085161185 -0.0013394689723314208 0 -0.021478504604954197 -0.00059573472384666045 0 -0.021587627286846038 -0.00051718622496859171 0 -0.021646863980459806 -0.0001461249927371539 0 -0.021977774945155782 3.8392830131501619e-05 0 -0.020878187875868856 -0.0007279348764381025 0 -0.021151791073649381 -0.00038764343663168395 0 -0.021587627286846038 -0.00051718622496859171 0 -0.021646863980459806 -0.0001461249927371539 0 -0.021081112918454572 -0.00034668967656804607 0 -0.021688043484394556 -0.00094868932335662431 0 -0.020682604987029327 -0.00081786136211918091 0 -0.021574309456061206 -0.0002634715453750859 0 -0.021688043484394556 -0.00094868932335662431 0 -0.020747072095120826 -0.0014314506642367872 0 -0.020682604987029327 -0.00081786136211918091 0 -0.020747072095120826 -0.0014314506642367872 0 -0.020313613750111887 -0.0014797840280066522 0 -0.020682604987029327 -0.00081786136211918091 0 -0.020606936054600913 -0.0018179265756567444 0 -0.021688043484394556 -0.00094868932335662431 0 -0.020747072095120826 -0.0014314506642367872 0 -0.019952137487124776 -0.0013872454735633023 0 -0.020313613750111887 -0.0014797840280066522 0 -0.020682604987029327 -0.00081786136211918091 0 -0.019952137487124776 -0.0013872454735633023 0 -0.019801060451737306 -0.00094318189345301185 0 -0.020682604987029327 -0.00081786136211918091 0 -0.019801060451737306 -0.00094318189345301185 0 -0.020682604987029327 -0.00081786136211918091 0 -0.020879236899719721 0.00017865278364822499 0 -0.022038796695260838 6.4087177031345256e-05 0 -0.022339239039811706 0.00047449678165055849 0 -0.02409272481634777 0.0012055079281760466 0 -0.023961371037897111 0.0014758850381438289 0 -0.024105923485126197 0.0013928432449066979 0 -0.023961371037897111 0.0014758850381438289 0 -0.024110995067187484 0.0012448795162506301 0 -0.024105923485126197 0.0013928432449066979 0 -0.023961371037897111 0.0014758850381438289 0 -0.024110995067187484 0.0012448795162506301 0 -0.023870372812589979 0.0010305659074146634 0 -0.024110995067187484 0.0012448795162506301 0 -0.023870372812589979 0.0010305659074146634 0 -0.024174718544262369 0.00099104473468036576 0 -0.022339239039811706 0.00047449678165055849 0 -0.022503390191950339 0.0006278367762178735 0 -0.023961371037897111 0.0014758850381438289 0 -0.023870372812589979 0.0010305659074146634 0 -0.023028040834745505 0.00093914441347516995 0 -0.020879236899719721 0.00017865278364822499 0 -0.022826011440174907 0.00056707278822892089 0 -0.023028040834745505 0.00093914441347516995 0 -0.020682604987029327 -0.00081786136211918091 0 -0.020879236899719721 0.00017865278364822499 0 -0.021574309456061206 -0.0002634715453750859 0 -0.020879236899719721 0.00017865278364822499 0 -0.021574309456061206 -0.0002634715453750859 0 -0.022826011440174907 0.00056707278822892089 0 -0.021478504604954197 -0.00059573472384666045 0 -0.022172869037176149 0.00011034111579344225 0 -0.021688043484394556 -0.00094868932335662431 0 -0.021574309456061206 -0.0002634715453750859 0 -0.022826011440174907 0.00056707278822892089 0 -0.021646863980459806 -0.0001461249927371539 0 -0.021081112918454572 -0.00034668967656804607 0 -0.021930163372038187 0.00010207217191596856 0 -0.021646863980459806 -0.0001461249927371539 0 -0.021930163372038187 0.00010207217191596856 0 -0.021977774945155782 3.8392830131501619e-05 0 -0.022452334696024159 0.00017996561068226965 0 -0.021930163372038187 0.00010207217191596856 0 -0.021977774945155782 3.8392830131501619e-05 0 -0.022826011440174907 0.00056707278822892089 0 -0.023349202654125264 0.00085615203874797965 0 -0.023028040834745505 0.00093914441347516995 0 -0.022452334696024159 0.00017996561068226965 0 -0.021930163372038187 0.00010207217191596856 0 -0.022777982857886174 0.00025139851770434289 0 -0.023349202654125264 0.00085615203874797965 0 -0.023028040834745505 0.00093914441347516995 0 -0.023558868496358538 0.00078325844172908387 0 -0.022172869037176149 0.00011034111579344225 0 -0.022707432106901182 0.00034862145866136602 0 -0.022452334696024159 0.00017996561068226965 0 -0.022777982857886174 0.00025139851770434289 0 -0.023052103569518839 0.0002583638203857158 0 -0.022452334696024159 0.00017996561068226965 0 -0.023052103569518839 0.0002583638203857158 0 -0.022890917659290799 0.00023346553801485055 0 -0.022777982857886174 0.00025139851770434289 0 -0.023052103569518839 0.0002583638203857158 0 -0.023800306581895577 0.00023244363687088108 0 -0.023052103569518839 0.0002583638203857158 0 -0.022890917659290799 0.00023346553801485055 0 -0.023343091715755174 0.0002465153824328967 0 -0.022707432106901182 0.00034862145866136602 0 -0.022939465057813687 0.00030316467262831288 0 -0.023349202654125264 0.00085615203874797965 0 -0.023784213431775399 0.0005007236975252832 0 -0.023860632167163005 0.00060125575950968147 0 -0.023349202654125264 0.00085615203874797965 0 -0.023784213431775399 0.0005007236975252832 0 -0.023800306581895577 0.00023244363687088108 0 -0.023784213431775399 0.0005007236975252832 0 -0.023860632167163005 0.00060125575950968147 0 -0.024142205989835405 0.00038030271361860882 0 -0.023860632167163005 0.00060125575950968147 0 -0.02429607896749339 0.00052555594257680343 0 -0.024010743003166052 0.00074859990362704533 0 -0.023860632167163005 0.00060125575950968147 0 -0.02429607896749339 0.00052555594257680343 0 -0.024142205989835405 0.00038030271361860882 0 -0.02429607896749339 0.00052555594257680343 0 -0.024010743003166052 0.00074859990362704533 0 -0.024280889532984899 0.00076298200410070875 0 -0.024010743003166052 0.00074859990362704533 0 -0.024280889532984899 0.00076298200410070875 0 -0.024174718544262369 0.00099104473468036576 0 -0.023870372812589979 0.0010305659074146634 0 -0.024010743003166052 0.00074859990362704533 0 -0.024174718544262369 0.00099104473468036576 0 -0.023870372812589979 0.0010305659074146634 0 -0.024010743003166052 0.00074859990362704533 0 -0.023558868496358538 0.00078325844172908387 0 -0.023349202654125264 0.00085615203874797965 0 -0.023860632167163005 0.00060125575950968147 0 -0.023558868496358538 0.00078325844172908387 0 -0.023870372812589979 0.0010305659074146634 0 -0.023028040834745505 0.00093914441347516995 0 -0.023558868496358538 0.00078325844172908387 0 -0.023860632167163005 0.00060125575950968147 0 -0.024010743003166052 0.00074859990362704533 0 -0.023558868496358538 0.00078325844172908387 0 -0.022558309919435839 -2.881099458605847e-05 0 -0.022641341264978243 0.00011170014603188356 0 -0.022714037424853433 0.00014097409290262942 0 -0.02253306193739521 -0.00017332546386006678 0 -0.022558309919435839 -2.881099458605847e-05 0 -0.022714037424853433 0.00014097409290262942 0 -0.02253306193739521 -0.00017332546386006678 0 -0.022558309919435839 -2.881099458605847e-05 0 -0.022471891498796866 -0.00016666382031200401 0 -0.022406910465874647 -0.00029815506630618204 0 -0.022471891498796866 -0.00016666382031200401 0 -0.022390024443985104 -0.00023475727642933517 0 -0.022268763769820843 -0.00025375826905312926 0 -0.022390024443985104 -0.00023475727642933517 0 -0.022470052228950422 -0.00011002247960980552 0 -0.022471891498796866 -0.00016666382031200401 0 -0.022390024443985104 -0.00023475727642933517 0 -0.022470052228950422 -0.00011002247960980552 0 -0.022558309919435839 -2.881099458605847e-05 0 -0.022471891498796866 -0.00016666382031200401 0 -0.022470052228950422 -0.00011002247960980552 0 -0.022558309919435839 -2.881099458605847e-05 0 -0.022470052228950422 -0.00011002247960980552 0 -0.022455967833940615 -3.9374634648164553e-05 0 -0.022268763769820843 -0.00025375826905312926 0 -0.022470052228950422 -0.00011002247960980552 0 -0.022455967833940615 -3.9374634648164553e-05 0 -0.022268763769820843 -0.00025375826905312926 0 -0.022455967833940615 -3.9374634648164553e-05 0 -0.02225224578955649 -6.0242006968834876e-05 0 -0.022455967833940615 -3.9374634648164553e-05 0 -0.022508300219634052 7.2430149924311799e-05 0 -0.02225224578955649 -6.0242006968834876e-05 0 -0.022455967833940615 -3.9374634648164553e-05 0 -0.022508300219634052 7.2430149924311799e-05 0 -0.022641341264978243 0.00011170014603188356 0 -0.022558309919435839 -2.881099458605847e-05 0 -0.022455967833940615 -3.9374634648164553e-05 0 -0.022641341264978243 0.00011170014603188356 0 -0.022508300219634052 7.2430149924311799e-05 0 -0.022641341264978243 0.00011170014603188356 0 -0.022726775520803499 0.0001807280979307211 0 -0.022406937494184914 9.2865124232025301e-05 0 -0.022531276775361288 0.00016873912695019352 0 -0.022726775520803499 0.0001807280979307211 0 -0.022508300219634052 7.2430149924311799e-05 0 -0.022406937494184914 9.2865124232025301e-05 0 -0.022726775520803499 0.0001807280979307211 0 -0.022508300219634052 7.2430149924311799e-05 0 -0.022406937494184914 9.2865124232025301e-05 0 -0.02225224578955649 -6.0242006968834876e-05 0 -0.021959055328602903 -0.00027227855181999788 0 -0.022268763769820843 -0.00025375826905312926 0 -0.02225224578955649 -6.0242006968834876e-05 0 -0.021959055328602903 -0.00027227855181999788 0 -0.02225224578955649 -6.0242006968834876e-05 0 -0.021977774945155782 3.8392830131501619e-05 0 -0.022406937494184914 9.2865124232025301e-05 0 -0.02225224578955649 -6.0242006968834876e-05 0 -0.021977774945155782 3.8392830131501619e-05 0 -0.022406937494184914 9.2865124232025301e-05 0 -0.021977774945155782 3.8392830131501619e-05 0 -0.022531276775361288 0.00016873912695019352 0 -0.022452334696024159 0.00017996561068226965 0 -0.021977774945155782 3.8392830131501619e-05 0 -0.022531276775361288 0.00016873912695019352 0 -0.022531276775361288 0.00016873912695019352 0 -0.022890917659290799 0.00023346553801485055 0 -0.022990646854300804 0.00023796920689748483 0 -0.022452334696024159 0.00017996561068226965 0 -0.022531276775361288 0.00016873912695019352 0 -0.022890917659290799 0.00023346553801485055 0 -0.022890917659290799 0.00023346553801485055 0 -0.022990646854300804 0.00023796920689748483 0 -0.023343091715755174 0.0002465153824328967 0 -0.022990646854300804 0.00023796920689748483 0 -0.023378557931050283 0.00021861338687862835 0 -0.023343091715755174 0.0002465153824328967 0 -0.022990646854300804 0.00023796920689748483 0 -0.023063054550775234 0.00023491522758039624 0 -0.023378557931050283 0.00021861338687862835 0 -0.022990646854300804 0.00023796920689748483 0 -0.022726775520803499 0.0001807280979307211 0 -0.023063054550775234 0.00023491522758039624 0 -0.022531276775361288 0.00016873912695019352 0 -0.022990646854300804 0.00023796920689748483 0 -0.022726775520803499 0.0001807280979307211 0 -0.022726775520803499 0.0001807280979307211 0 -0.022833539016019332 0.00019541566009341049 0 -0.023063054550775234 0.00023491522758039624 0 -0.022641341264978243 0.00011170014603188356 0 -0.022726775520803499 0.0001807280979307211 0 -0.022833539016019332 0.00019541566009341049 0 -0.023063054550775234 0.00023491522758039624 0 -0.023013068870175447 0.00022376337950406354 0 -0.023359731437647895 0.00019203101080177349 0 -0.022833539016019332 0.00019541566009341049 0 -0.023063054550775234 0.00023491522758039624 0 -0.023013068870175447 0.00022376337950406354 0 -0.023704793959751096 -4.648306824257043e-05 0 -0.023462706163424701 -4.2902910542091924e-05 0 -0.023202677248391892 4.690481068097932e-05 0 -0.023391813841649668 4.4139688505757322e-05 0 -0.023068411149532453 9.8359161106920483e-06 0 -0.022833539016019332 0.00019541566009341049 0 -0.023013068870175447 0.00022376337950406354 0 -0.022714037424853433 0.00014097409290262942 0 -0.023220899175963535 9.619227427512016e-06 0 -0.023462706163424701 -4.2902910542091924e-05 0 -0.023202677248391892 4.690481068097932e-05 0 -0.022641341264978243 0.00011170014603188356 0 -0.022833539016019332 0.00019541566009341049 0 -0.022714037424853433 0.00014097409290262942 0 -0.024989655485452435 -3.8136373347668704e-08 0 -0.024990248952031481 2.5126042152839062e-07 0 -0.024994246545045635 1.5241646889699432e-07 0 -0.024993708192595256 -7.5563515433472154e-07 0 -0.024996459742562076 -8.1783064110743105e-08 0 -0.024118019927892798 -0.00011572744870956454 0 -0.024565178236029678 -1.2206259396081516e-06 0 -0.024989655485452435 -3.8136373347668704e-08 0 -0.024986059391572672 -2.6275002580588401e-06 0 -0.024990248952031481 2.5126042152839062e-07 0 -0.023704793959751096 -4.648306824257043e-05 0 -0.023462706163424701 -4.2902910542091924e-05 0 -0.023898444879011566 -0.00013045811604639612 0 -0.023543075232653799 -0.0003843571287621845 0 -0.024118019927892798 -0.00011572744870956454 0 -0.023391813841649668 4.4139688505757322e-05 0 -0.023746550171916504 -9.8617338400140606e-06 0 -0.023013068870175447 0.00022376337950406354 0 -0.023359731437647895 0.00019203101080177349 0 -0.023599574683888607 7.4029527777897373e-05 0 -0.023704793959751096 -4.648306824257043e-05 0 -0.023898444879011566 -0.00013045811604639612 0 -0.024207659202306796 -0.00013521467202427462 0 -0.023359731437647895 0.00019203101080177349 0 -0.023599574683888607 7.4029527777897373e-05 0 -0.023735805676454676 0.00013907699152367008 0 -0.023898444879011566 -0.00013045811604639612 0 -0.024207659202306796 -0.00013521467202427462 0 -0.024366762808470051 -0.00013947207408483912 0 -0.023599574683888607 7.4029527777897373e-05 0 -0.023735805676454676 0.00013907699152367008 0 -0.024159510913916975 2.4988066943715073e-05 0 -0.023735805676454676 0.00013907699152367008 0 -0.024116908738769652 6.8573955242535133e-05 0 -0.024159510913916975 2.4988066943715073e-05 0 -0.023359731437647895 0.00019203101080177349 0 -0.023735805676454676 0.00013907699152367008 0 -0.023378557931050283 0.00021861338687862835 0 -0.023063054550775234 0.00023491522758039624 0 -0.023359731437647895 0.00019203101080177349 0 -0.023378557931050283 0.00021861338687862835 0 -0.023735805676454676 0.00013907699152367008 0 -0.023378557931050283 0.00021861338687862835 0 -0.02367232511719471 0.000186879539711096 0 -0.023378557931050283 0.00021861338687862835 0 -0.023343091715755174 0.0002465153824328967 0 -0.02367232511719471 0.000186879539711096 0 -0.023735805676454676 0.00013907699152367008 0 -0.02367232511719471 0.000186879539711096 0 -0.024116908738769652 6.8573955242535133e-05 0 -0.02367232511719471 0.000186879539711096 0 -0.024116908738769652 6.8573955242535133e-05 0 -0.023800306581895577 0.00023244363687088108 0 -0.024116908738769652 6.8573955242535133e-05 0 -0.024530999040571152 -2.5100258289250555e-06 0 -0.024472459605424185 2.6838236141857336e-05 0 -0.024116908738769652 6.8573955242535133e-05 0 -0.024530999040571152 -2.5100258289250555e-06 0 -0.024159510913916975 2.4988066943715073e-05 0 -0.024530999040571152 -2.5100258289250555e-06 0 -0.024999318638530006 -3.0015864353402089e-08 0 -0.024472459605424185 2.6838236141857336e-05 0 -0.024530999040571152 -2.5100258289250555e-06 0 -0.024999318638530006 -3.0015864353402089e-08 0 -0.024698894752381014 -5.7500599062182437e-05 0 -0.024999318638530006 -3.0015864353402089e-08 0 -0.024698894752381014 -5.7500599062182437e-05 0 -0.024998691593892317 -9.8863975430297111e-08 0 -0.024530999040571152 -2.5100258289250555e-06 0 -0.024698894752381014 -5.7500599062182437e-05 0 -0.024159510913916975 2.4988066943715073e-05 0 -0.023599574683888607 7.4029527777897373e-05 0 -0.024698894752381014 -5.7500599062182437e-05 0 -0.024159510913916975 2.4988066943715073e-05 0 -0.023746550171916504 -9.8617338400140606e-06 0 -0.023949261788351019 -5.7772633689055624e-05 0 -0.024207659202306796 -0.00013521467202427462 0 -0.024698894752381014 -5.7500599062182437e-05 0 -0.024366762808470051 -0.00013947207408483912 0 -0.024995894059181342 1.7347355171579273e-07 0 -0.025000001229511265 6.5719164290786126e-10 0 -0.024999992247991647 -1.2602102733520716e-09 0 -0.024698894752381014 -5.7500599062182437e-05 0 -0.024366762808470051 -0.00013947207408483912 0 -0.024998691593892317 -9.8863975430297111e-08 0 -0.024565178236029678 -1.2206259396081516e-06 0 -0.024999150210158794 -2.9406976685148873e-08 0 -0.024999992781182732 -4.7933751286557284e-10 0 -0.024996459742562076 -8.1783064110743105e-08 0 -0.024997205224844193 -6.0224636136706063e-07 0 -0.024999997058039021 -4.1385249190338814e-10 0 -0.024996393618755247 -7.5313382176199646e-07 0 -0.024995894059181342 1.7347355171579273e-07 0 -0.024999992247991647 -1.2602102733520716e-09 0 -0.024994246545045635 1.5241646889699432e-07 0 -0.024990248952031481 2.5126042152839062e-07 0 -0.024995894059181342 1.7347355171579273e-07 0 -0.024994246545045635 1.5241646889699432e-07 0 -0.024415735752086377 0.00016162951288871684 0 -0.023800306581895577 0.00023244363687088108 0 -0.024584427642521483 2.8867650114709167e-05 0 -0.024415735752086377 0.00016162951288871684 0 -0.024746543374832071 5.0562079542294614e-05 0 -0.024515457277546684 0.0002761547924813861 0 -0.024415735752086377 0.00016162951288871684 0 -0.024142205989835405 0.00038030271361860882 0 -0.024515457277546684 0.0002761547924813861 0 -0.02429607896749339 0.00052555594257680343 0 -0.024142205989835405 0.00038030271361860882 0 -0.024515457277546684 0.0002761547924813861 0 -0.024415735752086377 0.00016162951288871684 0 -0.024142205989835405 0.00038030271361860882 0 -0.023800306581895577 0.00023244363687088108 0 -0.023784213431775399 0.0005007236975252832 0 -0.024142205989835405 0.00038030271361860882 0 -0.023800306581895577 0.00023244363687088108 0 -0.023052103569518839 0.0002583638203857158 0 -0.023343091715755174 0.0002465153824328967 0 -0.023800306581895577 0.00023244363687088108 0 -0.023343091715755174 0.0002465153824328967 0 -0.02367232511719471 0.000186879539711096 0 -0.023800306581895577 0.00023244363687088108 0 -0.024116908738769652 6.8573955242535133e-05 0 -0.023800306581895577 0.00023244363687088108 0 -0.024472459605424185 2.6838236141857336e-05 0 -0.023800306581895577 0.00023244363687088108 0 -0.024472459605424185 2.6838236141857336e-05 0 -0.024584427642521483 2.8867650114709167e-05 0 -0.024999318638530006 -3.0015864353402089e-08 0 -0.024472459605424185 2.6838236141857336e-05 0 -0.024999372823556881 -1.038214303591349e-08 0 -0.024472459605424185 2.6838236141857336e-05 0 -0.024999372823556881 -1.038214303591349e-08 0 -0.024584427642521483 2.8867650114709167e-05 0 -0.024999372823556881 -1.038214303591349e-08 0 -0.024584427642521483 2.8867650114709167e-05 0 -0.024999590342366082 -3.6237008022440389e-08 0 -0.024415735752086377 0.00016162951288871684 0 -0.024584427642521483 2.8867650114709167e-05 0 -0.024746543374832071 5.0562079542294614e-05 0 -0.024999590342366082 -3.6237008022440389e-08 0 -0.024999790108644469 7.0382288271493441e-09 0 -0.024746543374832071 5.0562079542294614e-05 0 -0.024584427642521483 2.8867650114709167e-05 0 -0.024999590342366082 -3.6237008022440389e-08 0 -0.024746543374832071 5.0562079542294614e-05 0 -0.024999790108644469 7.0382288271493441e-09 0 -0.024908749381033535 4.0480258694331045e-05 0 -0.024746543374832071 5.0562079542294614e-05 0 -0.024999790108644469 7.0382288271493441e-09 0 -0.024908749381033535 4.0480258694331045e-05 0 -0.024999920635025777 9.7491373816292973e-09 0 -0.024908749381033535 4.0480258694331045e-05 0 -0.024910682319457641 0.00011682684126999923 0 -0.024763716381634101 0.00017048673212849956 0 -0.024908749381033535 4.0480258694331045e-05 0 -0.024746543374832071 5.0562079542294614e-05 0 -0.024763716381634101 0.00017048673212849956 0 -0.024999920635025777 9.7491373816292973e-09 0 -0.024984635628551462 3.5446042173474828e-05 0 -0.02500002252090211 2.073631167887341e-08 0 -0.024908749381033535 4.0480258694331045e-05 0 -0.024999920635025777 9.7491373816292973e-09 0 -0.024984635628551462 3.5446042173474828e-05 0 -0.024908749381033535 4.0480258694331045e-05 0 -0.024984635628551462 3.5446042173474828e-05 0 -0.024910682319457641 0.00011682684126999923 0 -0.024984635628551462 3.5446042173474828e-05 0 -0.025011815040858094 0.00012091283545799923 0 -0.024910682319457641 0.00011682684126999923 0 -0.024902888659537461 0.00016389294452698387 0 -0.024888551479701607 0.00019488480961307576 0 -0.025011815040858094 0.00012091283545799923 0 -0.024910682319457641 0.00011682684126999923 0 -0.024885862943914167 0.00027376048539667853 0 -0.024910682319457641 0.00011682684126999923 0 -0.024885862943914167 0.00027376048539667853 0 -0.024763716381634101 0.00017048673212849956 0 -0.024885862943914167 0.00027376048539667853 0 -0.024763716381634101 0.00017048673212849956 0 -0.024859234189867397 0.00029277339985670056 0 -0.024885862943914167 0.00027376048539667853 0 -0.024859234189867397 0.00029277339985670056 0 -0.024848235030288806 0.00027824395359982824 0 -0.024885862943914167 0.00027376048539667853 0 -0.024848235030288806 0.00027824395359982824 0 -0.024806225506128859 0.00030962780597715148 0 -0.024783614245140577 0.00028979204590237281 0 -0.024885862943914167 0.00027376048539667853 0 -0.024806225506128859 0.00030962780597715148 0 -0.024746543374832071 5.0562079542294614e-05 0 -0.024763716381634101 0.00017048673212849956 0 -0.024515457277546684 0.0002761547924813861 0 -0.024652628033754575 0.00035277397961695214 0 -0.024670222809628151 0.00049601024143545601 0 -0.024763716381634101 0.00017048673212849956 0 -0.024565230523356744 0.00045183508134192521 0 -0.024662853754457165 0.00053186103669365832 0 -0.024763716381634101 0.00017048673212849956 0 -0.024662853754457165 0.00053186103669365832 0 -0.024794031150388387 0.00049089419459806766 0 -0.02429607896749339 0.00052555594257680343 0 -0.024515457277546684 0.0002761547924813861 0 -0.024565230523356744 0.00045183508134192521 0 -0.024763716381634101 0.00017048673212849956 0 -0.024515457277546684 0.0002761547924813861 0 -0.024565230523356744 0.00045183508134192521 0 -0.02429607896749339 0.00052555594257680343 0 -0.024565230523356744 0.00045183508134192521 0 -0.024478390056810798 0.0006547444039634088 0 -0.02429607896749339 0.00052555594257680343 0 -0.024478390056810798 0.0006547444039634088 0 -0.024280889532984899 0.00076298200410070875 0 -0.024478390056810798 0.0006547444039634088 0 -0.024280889532984899 0.00076298200410070875 0 -0.0244137452471779 0.0008955821370998134 0 -0.024280889532984899 0.00076298200410070875 0 -0.0244137452471779 0.0008955821370998134 0 -0.024174718544262369 0.00099104473468036576 0 -0.0244137452471779 0.0008955821370998134 0 -0.024612007155501624 0.00077860408186224562 0 -0.024519583240646216 0.0010662790102932446 0 -0.024612007155501624 0.00077860408186224562 0 -0.024754587405989077 0.00088768536628488874 0 -0.024519583240646216 0.0010662790102932446 0 -0.024478390056810798 0.0006547444039634088 0 -0.0244137452471779 0.0008955821370998134 0 -0.024612007155501624 0.00077860408186224562 0 -0.024612007155501624 0.00077860408186224562 0 -0.024662853754457165 0.00053186103669365832 0 -0.02477060972347378 0.00071135152149696523 0 -0.024478390056810798 0.0006547444039634088 0 -0.024612007155501624 0.00077860408186224562 0 -0.024662853754457165 0.00053186103669365832 0 -0.024565230523356744 0.00045183508134192521 0 -0.024478390056810798 0.0006547444039634088 0 -0.024662853754457165 0.00053186103669365832 0 -0.024794031150388387 0.00049089419459806766 0 -0.02477060972347378 0.00071135152149696523 0 -0.025043859094552749 0.00086852585276102302 0 -0.024670222809628151 0.00049601024143545601 0 -0.024608213548136876 0.00080904928227749624 0 -0.024662853754457165 0.00053186103669365832 0 -0.024794031150388387 0.00049089419459806766 0 -0.02477060972347378 0.00071135152149696523 0 -0.024848235030288806 0.00027824395359982824 0 -0.024846261779591552 0.00024429164886930431 0 -0.024802491184477346 0.00027374659800674477 0 -0.024859234189867397 0.00029277339985670056 0 -0.024848235030288806 0.00027824395359982824 0 -0.024846261779591552 0.00024429164886930431 0 -0.02477060972347378 0.00071135152149696523 0 -0.025043859094552749 0.00086852585276102302 0 -0.024754587405989077 0.00088768536628488874 0 -0.025043859094552749 0.00086852585276102302 0 -0.024754587405989077 0.00088768536628488874 0 -0.02482223439971316 0.0010932806177134176 0 -0.024612007155501624 0.00077860408186224562 0 -0.02477060972347378 0.00071135152149696523 0 -0.024754587405989077 0.00088768536628488874 0 -0.024754587405989077 0.00088768536628488874 0 -0.02482223439971316 0.0010932806177134176 0 -0.024519583240646216 0.0010662790102932446 0 -0.02482223439971316 0.0010932806177134176 0 -0.024451280857216026 0.0013215412246127063 0 -0.024519583240646216 0.0010662790102932446 0 -0.024524366673623808 0.00098990398039546564 0 -0.024493162947141975 0.001050739919582874 0 -0.024260854624579067 0.0013399090019147963 0 -0.024260014631373495 0.0013189938655312941 0 -0.024275401799452007 0.0012551267418703662 0 -0.024608213548136876 0.00080904928227749624 0 -0.024584176681774584 0.00089738156720255862 0 -0.024608213548136876 0.00080904928227749624 0 -0.024524366673623808 0.00098990398039546564 0 -0.024260854624579067 0.0013399090019147963 0 -0.024296329060765329 0.0013596844607303706 0 -0.024260014631373495 0.0013189938655312941 0 -0.024296329060765329 0.0013596844607303706 0 -0.024260014631373495 0.0013189938655312941 0 -0.024258025529768752 0.0013505470268840752 0 -0.024260014631373495 0.0013189938655312941 0 -0.02421824281246597 0.0013612508317310558 0 -0.024275401799452007 0.0012551267418703662 0 -0.024260014631373495 0.0013189938655312941 0 -0.024258025529768752 0.0013505470268840752 0 -0.02421824281246597 0.0013612508317310558 0 -0.024258025529768752 0.0013505470268840752 0 -0.024197586324882892 0.0013694189930021795 0 -0.02430473455064535 0.0013520945212918921 0 -0.024166732569389893 0.0013717100174343415 0 -0.024197586324882892 0.0013694189930021795 0 -0.02421824281246597 0.0013612508317310558 0 -0.024258025529768752 0.0013505470268840752 0 -0.024197586324882892 0.0013694189930021795 0 -0.02421824281246597 0.0013612508317310558 0 -0.024296329060765329 0.0013596844607303706 0 -0.024353687585537125 0.0013368158250220109 0 -0.024451280857216026 0.0013215412246127063 0 -0.024296329060765329 0.0013596844607303706 0 -0.024258025529768752 0.0013505470268840752 0 -0.024353687585537125 0.0013368158250220109 0 -0.024419863482495283 0.0013758639882230379 0 -0.024353687585537125 0.0013368158250220109 0 -0.024451280857216026 0.0013215412246127063 0 -0.024258025529768752 0.0013505470268840752 0 -0.024353687585537125 0.0013368158250220109 0 -0.02430473455064535 0.0013520945212918921 0 -0.024419863482495283 0.0013758639882230379 0 -0.024353687585537125 0.0013368158250220109 0 -0.02430473455064535 0.0013520945212918921 0 -0.023892759141230239 0.0012811604734741932 0 -0.023986412222480852 0.0013227540884397742 0 -0.024419863482495283 0.0013758639882230379 0 -0.024451280857216026 0.0013215412246127063 0 -0.024324025527191911 0.0012795334709586282 0 -0.024419863482495283 0.0013758639882230379 0 -0.024324025527191911 0.0012795334709586282 0 -0.024105923485126197 0.0013928432449066979 0 -0.024110995067187484 0.0012448795162506301 0 -0.024324025527191911 0.0012795334709586282 0 -0.024105923485126197 0.0013928432449066979 0 -0.024110995067187484 0.0012448795162506301 0 -0.024324025527191911 0.0012795334709586282 0 -0.024310680344588435 0.0011166840047835652 0 -0.024110995067187484 0.0012448795162506301 0 -0.024174718544262369 0.00099104473468036576 0 -0.024310680344588435 0.0011166840047835652 0 -0.0244137452471779 0.0008955821370998134 0 -0.024174718544262369 0.00099104473468036576 0 -0.024310680344588435 0.0011166840047835652 0 -0.0244137452471779 0.0008955821370998134 0 -0.024310680344588435 0.0011166840047835652 0 -0.024519583240646216 0.0010662790102932446 0 -0.024451280857216026 0.0013215412246127063 0 -0.024324025527191911 0.0012795334709586282 0 -0.024519583240646216 0.0010662790102932446 0 -0.024324025527191911 0.0012795334709586282 0 -0.024310680344588435 0.0011166840047835652 0 -0.024519583240646216 0.0010662790102932446 0 -0.024834313864304354 0.0012452040436547235 0 -0.024869722434859159 0.0010509978164841905 0 -0.025023182117554239 0.0011639684895580996 0 -0.024834313864304354 0.0012452040436547235 0 -0.024869722434859159 0.0010509978164841905 0 -0.024728052593832376 0.0011456133682653459 0 -0.024869722434859159 0.0010509978164841905 0 -0.024728052593832376 0.0011456133682653459 0 -0.0246942010726631 0.0010086182999672407 0 -0.024869722434859159 0.0010509978164841905 0 -0.025023182117554239 0.0011639684895580996 0 -0.025030355987387641 0.00098019194143612355 0 -0.025160167533584323 0.0010763295330878655 0 -0.025023182117554239 0.0011639684895580996 0 -0.025030355987387641 0.00098019194143612355 0 -0.025160167533584323 0.0010763295330878655 0 -0.025168514799787215 0.0009242117966320652 0 -0.025286045836834255 0.0010142667961481663 0 -0.025160167533584323 0.0010763295330878655 0 -0.025168514799787215 0.0009242117966320652 0 -0.025030355987387641 0.00098019194143612355 0 -0.025160167533584323 0.0010763295330878655 0 -0.025167145053753573 0.0012291599340975719 0 -0.025274939390633269 0.0011470936696358451 0 -0.025160167533584323 0.0010763295330878655 0 -0.025023182117554239 0.0011639684895580996 0 -0.025167145053753573 0.0012291599340975719 0 -0.022960522111083761 0.0013920160777340987 0 -0.022982043855540164 0.001299488026401219 0 -0.025039402888834172 0.0014228707896574841 0 -0.025167145053753573 0.0012291599340975719 0 -0.025323628487034504 0.0013067922815362782 0 -0.025023182117554239 0.0011639684895580996 0 -0.025039402888834172 0.0014228707896574841 0 -0.025167145053753573 0.0012291599340975719 0 -0.024834313864304354 0.0012452040436547235 0 -0.025039402888834172 0.0014228707896574841 0 -0.024652276277423682 0.0014407692099721687 0 -0.022960522111083761 0.0013920160777340987 0 -0.024086585832241377 0.0014391943902115584 0 -0.024288195828605936 0.0013909938924363961 0 -0.024328299430458833 0.0013690178331372581 0 -0.024294984144962815 0.0013695373960648008 0 -0.024834313864304354 0.0012452040436547235 0 -0.025023182117554239 0.0011639684895580996 0 -0.025039402888834172 0.0014228707896574841 0 -0.024288195828605936 0.0013909938924363961 0 -0.024294984144962815 0.0013695373960648008 0 -0.02421824281246597 0.0013612508317310558 0 -0.024834313864304354 0.0012452040436547235 0 -0.024652276277423682 0.0014407692099721687 0 -0.024664730514539913 0.0012663562632129856 0 -0.024652276277423682 0.0014407692099721687 0 -0.024507906619959784 0.0013209782116763652 0 -0.024664730514539913 0.0012663562632129856 0 -0.024507906619959784 0.0013209782116763652 0 -0.02421824281246597 0.0013612508317310558 0 -0.024390900337845061 0.0012881331009065586 0 -0.024166732569389893 0.0013717100174343415 0 -0.024288195828605936 0.0013909938924363961 0 -0.02421824281246597 0.0013612508317310558 0 -0.024652276277423682 0.0014407692099721687 0 -0.024507906619959784 0.0013209782116763652 0 -0.02421824281246597 0.0013612508317310558 0 -0.024086585832241377 0.0014391943902115584 0 -0.0242136769477427 0.0014341172913406577 0 -0.02421824281246597 0.0013612508317310558 0 -0.024275401799452007 0.0012551267418703662 0 -0.024390900337845061 0.0012881331009065586 0 -0.02406141536155432 0.00093143617829398993 0 -0.024275401799452007 0.0012551267418703662 0 -0.024441996812175567 0.000981214788380992 0 -0.024275401799452007 0.0012551267418703662 0 -0.024390900337845061 0.0012881331009065586 0 -0.024540217769327213 0.0011869688830514835 0 -0.024275401799452007 0.0012551267418703662 0 -0.024540217769327213 0.0011869688830514835 0 -0.024441996812175567 0.000981214788380992 0 -0.024664730514539913 0.0012663562632129856 0 -0.024728052593832376 0.0011456133682653459 0 -0.024540217769327213 0.0011869688830514835 0 -0.024834313864304354 0.0012452040436547235 0 -0.024664730514539913 0.0012663562632129856 0 -0.024728052593832376 0.0011456133682653459 0 -0.024507906619959784 0.0013209782116763652 0 -0.024664730514539913 0.0012663562632129856 0 -0.024540217769327213 0.0011869688830514835 0 -0.024507906619959784 0.0013209782116763652 0 -0.024390900337845061 0.0012881331009065586 0 -0.024540217769327213 0.0011869688830514835 0 -0.024540217769327213 0.0011869688830514835 0 -0.0246942010726631 0.0010086182999672407 0 -0.024441996812175567 0.000981214788380992 0 -0.024728052593832376 0.0011456133682653459 0 -0.024540217769327213 0.0011869688830514835 0 -0.0246942010726631 0.0010086182999672407 0 -0.0246942010726631 0.0010086182999672407 0 -0.024626724307521858 0.00083482358332332188 0 -0.024892688718831539 0.00084892820689207594 0 -0.024626724307521858 0.00083482358332332188 0 -0.024793064957557245 0.00064805459653336558 0 -0.024892688718831539 0.00084892820689207594 0 -0.0246942010726631 0.0010086182999672407 0 -0.024626724307521858 0.00083482358332332188 0 -0.024441996812175567 0.000981214788380992 0 -0.02406141536155432 0.00093143617829398993 0 -0.024441996812175567 0.000981214788380992 0 -0.024383584678443308 0.00064392502322148046 0 -0.024626724307521858 0.00083482358332332188 0 -0.024441996812175567 0.000981214788380992 0 -0.024383584678443308 0.00064392502322148046 0 -0.024608213548136876 0.00080904928227749624 0 -0.024673387431849512 0.00062196703592348735 0 -0.024848235030288806 0.00027824395359982824 0 -0.024802491184477346 0.00027374659800674477 0 -0.024806225506128859 0.00030962780597715148 0 -0.024626724307521858 0.00083482358332332188 0 -0.024383584678443308 0.00064392502322148046 0 -0.024793064957557245 0.00064805459653336558 0 -0.024383584678443308 0.00064392502322148046 0 -0.024793064957557245 0.00064805459653336558 0 -0.024761040666430895 0.00037317663869842446 0 -0.024673387431849512 0.00062196703592348735 0 -0.024717800136673376 0.00054700727844232938 0 -0.024793064957557245 0.00064805459653336558 0 -0.024917175721721366 0.00052846271637640595 0 -0.024761040666430895 0.00037317663869842446 0 -0.024793064957557245 0.00064805459653336558 0 -0.024892688718831539 0.00084892820689207594 0 -0.025029119414441969 0.0006782775577118844 0 -0.024917175721721366 0.00052846271637640595 0 -0.025029119414441969 0.0006782775577118844 0 -0.025009586984856568 0.00042195106190312786 0 -0.024793064957557245 0.00064805459653336558 0 -0.024917175721721366 0.00052846271637640595 0 -0.025029119414441969 0.0006782775577118844 0 -0.024892688718831539 0.00084892820689207594 0 -0.025064925544450022 0.00083570321298528656 0 -0.025029119414441969 0.0006782775577118844 0 -0.024892688718831539 0.00084892820689207594 0 -0.025030355987387641 0.00098019194143612355 0 -0.025064925544450022 0.00083570321298528656 0 -0.024869722434859159 0.0010509978164841905 0 -0.024892688718831539 0.00084892820689207594 0 -0.025030355987387641 0.00098019194143612355 0 -0.024869722434859159 0.0010509978164841905 0 -0.0246942010726631 0.0010086182999672407 0 -0.024892688718831539 0.00084892820689207594 0 -0.025168514799787215 0.0009242117966320652 0 -0.025030355987387641 0.00098019194143612355 0 -0.025064925544450022 0.00083570321298528656 0 -0.025064925544450022 0.00083570321298528656 0 -0.025193840248316578 0.00075166838392348007 0 -0.025029119414441969 0.0006782775577118844 0 -0.025168514799787215 0.0009242117966320652 0 -0.025064925544450022 0.00083570321298528656 0 -0.025193840248316578 0.00075166838392348007 0 -0.025193840248316578 0.00075166838392348007 0 -0.025029119414441969 0.0006782775577118844 0 -0.025223057078690179 0.00053441672088505978 0 -0.025029119414441969 0.0006782775577118844 0 -0.025009586984856568 0.00042195106190312786 0 -0.025223057078690179 0.00053441672088505978 0 -0.025140332599784061 0.00037154512160161976 0 -0.025009586984856568 0.00042195106190312786 0 -0.025223057078690179 0.00053441672088505978 0 -0.025140332599784061 0.00037154512160161976 0 -0.025009586984856568 0.00042195106190312786 0 -0.024987218037617252 0.00029110723539327418 0 -0.024917175721721366 0.00052846271637640595 0 -0.024886049871053639 0.00033710477635142571 0 -0.025009586984856568 0.00042195106190312786 0 -0.024917175721721366 0.00052846271637640595 0 -0.024886049871053639 0.00033710477635142571 0 -0.024761040666430895 0.00037317663869842446 0 -0.024886049871053639 0.00033710477635142571 0 -0.025009586984856568 0.00042195106190312786 0 -0.024987218037617252 0.00029110723539327418 0 -0.024886049871053639 0.00033710477635142571 0 -0.024987218037617252 0.00029110723539327418 0 -0.024925667629591929 0.00023571524363614501 0 -0.024987218037617252 0.00029110723539327418 0 -0.024925667629591929 0.00023571524363614501 0 -0.025012693721630768 0.00018231664041016155 0 -0.024987218037617252 0.00029110723539327418 0 -0.025095236857596671 0.00025925595472071835 0 -0.025012693721630768 0.00018231664041016155 0 -0.025095236857596671 0.00025925595472071835 0 -0.025089126384888524 0.00017036566541818422 0 -0.025282688527857571 0.0003190250581673491 0 -0.025095236857596671 0.00025925595472071835 0 -0.025089126384888524 0.00017036566541818422 0 -0.025012693721630768 0.00018231664041016155 0 -0.025140332599784061 0.00037154512160161976 0 -0.025095236857596671 0.00025925595472071835 0 -0.025282688527857571 0.0003190250581673491 0 -0.025140332599784061 0.00037154512160161976 0 -0.024987218037617252 0.00029110723539327418 0 -0.025095236857596671 0.00025925595472071835 0 -0.024802491184477346 0.00027374659800674477 0 -0.024806225506128859 0.00030962780597715148 0 -0.024761040666430895 0.00037317663869842446 0 -0.024806225506128859 0.00030962780597715148 0 -0.024761040666430895 0.00037317663869842446 0 -0.024812066106177023 0.00028480473561056334 0 -0.024886049871053639 0.00033710477635142571 0 -0.024761040666430895 0.00037317663869842446 0 -0.024812066106177023 0.00028480473561056334 0 -0.024886049871053639 0.00033710477635142571 0 -0.024925667629591929 0.00023571524363614501 0 -0.024812066106177023 0.00028480473561056334 0 -0.024925667629591929 0.00023571524363614501 0 -0.024812066106177023 0.00028480473561056334 0 -0.024894204591548327 0.00016505340493152884 0 -0.024783614245140577 0.00028979204590237281 0 -0.024806225506128859 0.00030962780597715148 0 -0.024812066106177023 0.00028480473561056334 0 -0.024984635628551462 3.5446042173474828e-05 0 -0.025011815040858094 0.00012091283545799923 0 -0.025023077038271162 3.1219034045404286e-05 0 -0.024783614245140577 0.00028979204590237281 0 -0.024812066106177023 0.00028480473561056334 0 -0.024811891400605066 0.0001442393800968485 0 -0.024902888659537461 0.00016389294452698387 0 -0.024938085255708786 9.4286185361888353e-05 0 -0.024812066106177023 0.00028480473561056334 0 -0.024811891400605066 0.0001442393800968485 0 -0.024894204591548327 0.00016505340493152884 0 -0.024938085255708786 9.4286185361888353e-05 0 -0.024999928090518774 1.2476888815253413e-07 0 -0.025023077038271162 3.1219034045404286e-05 0 -0.02500003400602907 4.5419364607583663e-09 0 -0.02500002252090211 2.073631167887341e-08 0 -0.024811891400605066 0.0001442393800968485 0 -0.024894204591548327 0.00016505340493152884 0 -0.024999622412428174 -4.9121881679283351e-10 0 -0.024984635628551462 3.5446042173474828e-05 0 -0.025023077038271162 3.1219034045404286e-05 0 -0.02500002252090211 2.073631167887341e-08 0 -0.025128204427180001 8.3764299756222929e-05 0 -0.025089126384888524 0.00017036566541818422 0 -0.025282688527857571 0.0003190250581673491 0 -0.02502688410204023 0.00010558246478678209 0 -0.025084431964181864 9.5998132917114216e-05 0 -0.025089126384888524 0.00017036566541818422 0 -0.025084431964181864 9.5998132917114216e-05 0 -0.025106902378211952 8.9420062626651052e-05 0 -0.025015032821868299 4.7925739873869534e-05 0 -0.02502688410204023 0.00010558246478678209 0 -0.025084431964181864 9.5998132917114216e-05 0 -0.025015032821868299 4.7925739873869534e-05 0 -0.025084431964181864 9.5998132917114216e-05 0 -0.025128204427180001 8.3764299756222929e-05 0 -0.025089126384888524 0.00017036566541818422 0 -0.025042884130061987 5.5847124123771133e-05 0 -0.025041474326737208 5.5781394303067953e-05 0 -0.02502688410204023 0.00010558246478678209 0 -0.025089126384888524 0.00017036566541818422 0 -0.025012693721630768 0.00018231664041016155 0 -0.024925667629591929 0.00023571524363614501 0 -0.025012693721630768 0.00018231664041016155 0 -0.024977640214143303 0.000111757729141672 0 -0.024925667629591929 0.00023571524363614501 0 -0.024894204591548327 0.00016505340493152884 0 -0.024977640214143303 0.000111757729141672 0 -0.02502688410204023 0.00010558246478678209 0 -0.025012693721630768 0.00018231664041016155 0 -0.024977640214143303 0.000111757729141672 0 -0.02502688410204023 0.00010558246478678209 0 -0.024977640214143303 0.000111757729141672 0 -0.025015032821868299 4.7925739873869534e-05 0 -0.024999622412428174 -4.9121881679283351e-10 0 -0.02500032804886541 5.0157933153715748e-08 0 -0.025015032821868299 4.7925739873869534e-05 0 -0.024894204591548327 0.00016505340493152884 0 -0.024999622412428174 -4.9121881679283351e-10 0 -0.024977640214143303 0.000111757729141672 0 -0.024999622412428174 -4.9121881679283351e-10 0 -0.024977640214143303 0.000111757729141672 0 -0.025015032821868299 4.7925739873869534e-05 0 -0.025106902378211952 8.9420062626651052e-05 0 -0.02500032804886541 5.0157933153715748e-08 0 -0.025015032821868299 4.7925739873869534e-05 0 -0.025041474326737208 5.5781394303067953e-05 0 -0.025000081822006789 7.5992860480850591e-08 0 -0.025000076245178197 9.0448763867633429e-08 0 -0.02499999999621233 5.0503463640683802e-11 0 -0.025000000336165923 5.1723843292695293e-11 0 -0.025000076245178197 9.0448763867633429e-08 0 -0.025000000336165923 5.1723843292695293e-11 0 -0.025000037194642045 3.0139658466772766e-08 0 -0.025041474326737208 5.5781394303067953e-05 0 -0.025017540790257118 2.7080301789607679e-05 0 -0.025019548284492554 -9.2444388913875952e-08 0 -0.025018804991488768 -6.9347794297886837e-07 0 -0.025018866507761889 2.315642002118699e-09 0 -0.025019548284492554 -9.2444388913875952e-08 0 -0.025018804991488768 -6.9347794297886837e-07 0 -0.025019233363725437 2.4221043538283648e-07 0 -0.025018804991488768 -6.9347794297886837e-07 0 -0.025019233363725437 2.4221043538283648e-07 0 -0.025017609022366796 -1.9068699305446789e-06 0 -0.025000000336165923 5.1723843292695293e-11 0 -0.025000037194642045 3.0139658466772766e-08 0 -0.02499999922197764 -1.0285141918210399e-12 0 -0.025019233363725437 2.4221043538283648e-07 0 -0.025012943481617159 2.1969442109208241e-06 0 -0.025013938877302109 -1.1958826993063291e-06 0 -0.025017540790257118 2.7080301789607679e-05 0 -0.02500986951545172 1.4629987617280451e-05 0 -0.025000037194642045 3.0139658466772766e-08 0 -0.02499999922197764 -1.0285141918210399e-12 0 -0.02499991795799256 -1.1002546008385666e-08 0 -0.02499999922197764 -1.0285141918210399e-12 0 -0.02499991795799256 -1.1002546008385666e-08 0 -0.025000002127059492 1.6091484455609724e-10 0 -0.025012943481617159 2.1969442109208241e-06 0 -0.025008506087166371 -1.2235740563657039e-06 0 -0.025013938877302109 -1.1958826993063291e-06 0 -0.025013938877302109 -1.1958826993063291e-06 0 -0.025009896669158042 -5.7455076855290535e-06 0 -0.025017609022366796 -1.9068699305446789e-06 0 -0.025230096213506057 7.577816533956549e-05 0 -0.025127036809635139 5.4264406525863226e-05 0 -0.025008506087166371 -1.2235740563657039e-06 0 -0.025013938877302109 -1.1958826993063291e-06 0 -0.025009896669158042 -5.7455076855290535e-06 0 -0.025019233363725437 2.4221043538283648e-07 0 -0.025013938877302109 -1.1958826993063291e-06 0 -0.025017609022366796 -1.9068699305446789e-06 0 -0.025018804991488768 -6.9347794297886837e-07 0 -0.025017609022366796 -1.9068699305446789e-06 0 -0.025018775180901374 1.0795984415018848e-07 0 -0.025020473056586189 -1.4612637430847549e-06 0 -0.025017609022366796 -1.9068699305446789e-06 0 -0.025018775180901374 1.0795984415018848e-07 0 -0.025230096213506057 7.577816533956549e-05 0 -0.025279132826105239 0.00021929946526783414 0 -0.025913381802281969 0.00029743840610473547 0 -0.025862263302884218 0.00061691474537488159 0 -0.025693679934422183 0.00051033520804719904 0 -0.025862263302884218 0.00061691474537488159 0 -0.025693679934422183 0.00051033520804719904 0 -0.025730263051923153 0.00078105774613775221 0 -0.025018804991488768 -6.9347794297886837e-07 0 -0.025018775180901374 1.0795984415018848e-07 0 -0.025018866507761889 2.315642002118699e-09 0 -0.025279132826105239 0.00021929946526783414 0 -0.025174371635748059 0.0004249419294610554 0 -0.025018775180901374 1.0795984415018848e-07 0 -0.025018866507761889 2.315642002118699e-09 0 -0.025019076988429777 1.5165560413303216e-06 0 -0.025114345087247358 0.00020802359516535957 0 -0.025174371635748059 0.0004249419294610554 0 -0.025140332599784061 0.00037154512160161976 0 -0.025223057078690179 0.00053441672088505978 0 -0.025282688527857571 0.0003190250581673491 0 -0.025223057078690179 0.00053441672088505978 0 -0.025282688527857571 0.0003190250581673491 0 -0.025454268772447684 0.00066369549176885725 0 -0.025041474326737208 5.5781394303067953e-05 0 -0.025114345087247358 0.00020802359516535957 0 -0.024983614772424785 3.4342042818051669e-06 0 -0.024976683830029125 6.2988995527119541e-06 0 -0.024988934516820188 1.3598182234256523e-06 0 -0.024976683830029125 6.2988995527119541e-06 0 -0.024988934516820188 1.3598182234256523e-06 0 -0.024988306575738906 4.660243066484037e-06 0 -0.024988934516820188 1.3598182234256523e-06 0 -0.024994211989829054 1.5083068674853082e-06 0 -0.024988306575738906 4.660243066484037e-06 0 -0.024999989885923054 2.7553496908351928e-09 0 -0.024994211989829054 1.5083068674853082e-06 0 -0.024999993711802171 -3.5405965606242897e-09 0 -0.024988934516820188 1.3598182234256523e-06 0 -0.024994211989829054 1.5083068674853082e-06 0 -0.024999993711802171 -3.5405965606242897e-09 0 -0.024999989885923054 2.7553496908351928e-09 0 -0.024994211989829054 1.5083068674853082e-06 0 -0.024996043464578684 2.8119123688647e-06 0 -0.024994211989829054 1.5083068674853082e-06 0 -0.024996043464578684 2.8119123688647e-06 0 -0.024988306575738906 4.660243066484037e-06 0 -0.024999989885923054 2.7553496908351928e-09 0 -0.024996043464578684 2.8119123688647e-06 0 -0.02499998506645643 6.0620425046779217e-09 0 -0.024995396382709149 3.1877984380938011e-06 0 -0.024997421789390229 -7.7305527096608979e-07 0 -0.024988140628244809 -9.603876997623304e-07 0 -0.024996043464578684 2.8119123688647e-06 0 -0.024988306575738906 4.660243066484037e-06 0 -0.024995396382709149 3.1877984380938011e-06 0 -0.024976683830029125 6.2988995527119541e-06 0 -0.024988306575738906 4.660243066484037e-06 0 -0.024988140628244809 -9.603876997623304e-07 0 -0.024988306575738906 4.660243066484037e-06 0 -0.024995396382709149 3.1877984380938011e-06 0 -0.024988140628244809 -9.603876997623304e-07 0 -0.024996043464578684 2.8119123688647e-06 0 -0.024995396382709149 3.1877984380938011e-06 0 -0.024996444159462724 3.1784309230907574e-06 0 -0.024995396382709149 3.1877984380938011e-06 0 -0.024996444159462724 3.1784309230907574e-06 0 -0.024995910222918371 2.7443093608591085e-06 0 -0.025072059010161882 0.00018715385558428462 0 -0.025066569166313307 0.00021381866725611132 0 -0.025000000859485207 2.8706077095695073e-09 0 -0.02500035015071967 2.8700107814498473e-07 0 -0.025000002127059492 1.6091484455609724e-10 0 -0.024996043464578684 2.8119123688647e-06 0 -0.02499998506645643 6.0620425046779217e-09 0 -0.024996444159462724 3.1784309230907574e-06 0 -0.0250001569850174 1.2526754580389673e-07 0 -0.025083436709374667 4.4748005499196604e-05 0 -0.025000000859485207 2.8706077095695073e-09 0 -0.02500035015071967 2.8700107814498473e-07 0 -0.025002486493772628 -1.5812573747277542e-06 0 -0.02500986951545172 1.4629987617280451e-05 0 -0.025006788240579 1.1274171510855008e-05 0 -0.025008506087166371 -1.2235740563657039e-06 0 -0.02500035015071967 2.8700107814498473e-07 0 -0.025002486493772628 -1.5812573747277542e-06 0 -0.025012943481617159 2.1969442109208241e-06 0 -0.025008506087166371 -1.2235740563657039e-06 0 -0.02500035015071967 2.8700107814498473e-07 0 -0.02499991795799256 -1.1002546008385666e-08 0 -0.02500035015071967 2.8700107814498473e-07 0 -0.025000002127059492 1.6091484455609724e-10 0 -0.025230096213506057 7.577816533956549e-05 0 -0.025083436709374667 4.4748005499196604e-05 0 -0.024997635413822952 2.8239575572040236e-06 0 -0.024996444159462724 3.1784309230907574e-06 0 -0.024995910222918371 2.7443093608591085e-06 0 -0.025008506087166371 -1.2235740563657039e-06 0 -0.025009896669158042 -5.7455076855290535e-06 0 -0.025002486493772628 -1.5812573747277542e-06 0 -0.025230096213506057 7.577816533956549e-05 0 -0.025066569166313307 0.00021381866725611132 0 -0.025913381802281969 0.00029743840610473547 0 -0.026054577780482976 0.00058642819379267955 0 -0.026180575088971331 0.00033436211946724723 0 -0.025913381802281969 0.00029743840610473547 0 -0.025862263302884218 0.00061691474537488159 0 -0.026054577780482976 0.00058642819379267955 0 -0.024495620079037883 0.00019796698244708177 0 -0.024597728684102337 -1.3692805903483823e-05 0 -0.024662778911490466 0.00014636085798053804 0 -0.024495620079037883 0.00019796698244708177 0 -0.024662778911490466 0.00014636085798053804 0 -0.024703679122579571 0.00031194789012194482 0 -0.024906561514738284 0.00027077796419949692 0 -0.025066569166313307 0.00021381866725611132 0 -0.024597728684102337 -1.3692805903483823e-05 0 -0.024751204417337781 -1.3468371924651138e-06 0 -0.024662778911490466 0.00014636085798053804 0 -0.025066569166313307 0.00021381866725611132 0 -0.024955034634032734 0.00015060950096571247 0 -0.024751204417337781 -1.3468371924651138e-06 0 -0.024662778911490466 0.00014636085798053804 0 -0.024805291639579733 0.00020514254114374321 0 -0.024662778911490466 0.00014636085798053804 0 -0.024805291639579733 0.00020514254114374321 0 -0.024703679122579571 0.00031194789012194482 0 -0.024805291639579733 0.00020514254114374321 0 -0.024876869459913648 0.00013625329559427228 0 -0.024875122593007531 0.00017796399110915121 0 -0.024805291639579733 0.00020514254114374321 0 -0.024848126664345622 0.00030043022244832633 0 -0.024874468612532525 0.000219385119058908 0 -0.024805291639579733 0.00020514254114374321 0 -0.024875122593007531 0.00017796399110915121 0 -0.024874468612532525 0.000219385119058908 0 -0.024805291639579733 0.00020514254114374321 0 -0.024950352550803374 1.5747162966768691e-05 0 -0.024994143265402377 1.3341784915998691e-05 0 -0.024955034634032734 0.00015060950096571247 0 -0.024943412094418197 0.00013435727356008104 0 -0.024751204417337781 -1.3468371924651138e-06 0 -0.024805291639579733 0.00020514254114374321 0 -0.024950352550803374 1.5747162966768691e-05 0 -0.024886136350111544 0.00013028201157446373 0 -0.024923221143399479 8.7166886725044613e-05 0 -0.024976683830029125 6.2988995527119541e-06 0 -0.024988140628244809 -9.603876997623304e-07 0 -0.024950352550803374 1.5747162966768691e-05 0 -0.024983614772424785 3.4342042818051669e-06 0 -0.024950352550803374 1.5747162966768691e-05 0 -0.024994143265402377 1.3341784915998691e-05 0 -0.024983614772424785 3.4342042818051669e-06 0 -0.024976683830029125 6.2988995527119541e-06 0 -0.024950352550803374 1.5747162966768691e-05 0 -0.024805291639579733 0.00020514254114374321 0 -0.024848126664345622 0.00030043022244832633 0 -0.024703679122579571 0.00031194789012194482 0 -0.024836306235023836 0.00041632140303995708 0 -0.024848126664345622 0.00030043022244832633 0 -0.024703679122579571 0.00031194789012194482 0 -0.022434259961495024 0.00054881070342222113 0 -0.022193168372620524 0.00078972431294739034 0 -0.024836306235023836 0.00041632140303995708 0 -0.024703679122579571 0.00031194789012194482 0 -0.024669529989992563 0.0004828765897971429 0 -0.024703679122579571 0.00031194789012194482 0 -0.024548912682549773 0.00038547287983819399 0 -0.024669529989992563 0.0004828765897971429 0 -0.024548912682549773 0.00038547287983819399 0 -0.024478295568096293 0.00054394537301049315 0 -0.024669529989992563 0.0004828765897971429 0 -0.024495620079037883 0.00019796698244708177 0 -0.024703679122579571 0.00031194789012194482 0 -0.024548912682549773 0.00038547287983819399 0 -0.024906561514738284 0.00027077796419949692 0 -0.024406972609852827 0.00042714412744990563 0 -0.025862263302884218 0.00061691474537488159 0 -0.026054577780482976 0.00058642819379267955 0 -0.025931686709783845 0.00084737175675462443 0 -0.024495620079037883 0.00019796698244708177 0 -0.024548912682549773 0.00038547287983819399 0 -0.024390064176475493 0.00039130582716163351 0 -0.024548912682549773 0.00038547287983819399 0 -0.024478295568096293 0.00054394537301049315 0 -0.024390064176475493 0.00039130582716163351 0 -0.019498578815006853 0.0014619052701211163 0 -0.019785710649427354 0.0014046586302810084 0 -0.019610318206174239 0.0012061231152526854 0 -0.019498578815006853 0.0014619052701211163 0 -0.019297477692002303 0.0012287538161900363 0 -0.019610318206174239 0.0012061231152526854 0 -0.019498578815006853 0.0014619052701211163 0 -0.019297477692002303 0.0012287538161900363 0 -0.01914872242960396 0.001258028364303213 0 -0.022316674564828044 0.00094995248028198899 0 -0.022193168372620524 0.00078972431294739034 0 -0.01914872242960396 0.001258028364303213 0 -0.019170811026379613 0.001239590617923251 0 -0.01924294497389013 0.0010716321659007143 0 -0.019297477692002303 0.0012287538161900363 0 -0.01914872242960396 0.001258028364303213 0 -0.019170811026379613 0.001239590617923251 0 -0.019297477692002303 0.0012287538161900363 0 -0.019170811026379613 0.001239590617923251 0 -0.01918835992987759 0.0012289824341596401 0 -0.019170811026379613 0.001239590617923251 0 -0.01918835992987759 0.0012289824341596401 0 -0.019178589509768945 0.0013286931616897412 0 -0.019170811026379613 0.001239590617923251 0 -0.019178589509768945 0.0013286931616897412 0 -0.01938537508142581 0.0013949999421419301 0 -0.019170811026379613 0.001239590617923251 0 -0.01924294497389013 0.0010716321659007143 0 -0.01938537508142581 0.0013949999421419301 0 -0.019283093983197053 0.00058166642270837524 0 -0.01924294497389013 0.0010716321659007143 0 -0.019963858104272536 0.00073430615208552972 0 -0.019283093983197053 0.00058166642270837524 0 -0.01914872242960396 0.001258028364303213 0 -0.01924294497389013 0.0010716321659007143 0 -0.025503674768985705 0.00081391978578132572 0 -0.025577296289699392 0.0008921190603292258 0 -0.0254582162270004 0.00089658703403091894 0 -0.025503674768985705 0.00081391978578132572 0 -0.0254582162270004 0.00089658703403091894 0 -0.025420493494749005 0.00081513057146542398 0 -0.025503674768985705 0.00081391978578132572 0 -0.025420493494749005 0.00081513057146542398 0 -0.025404671823548743 0.00072201618046707772 0 -0.025503674768985705 0.00081391978578132572 0 -0.025577296289699392 0.0008921190603292258 0 -0.025594226391815043 0.00074328541115633575 0 -0.025577296289699392 0.0008921190603292258 0 -0.025475197803753787 0.0010034890484302769 0 -0.025583021208672781 0.0010609231927767319 0 -0.025577296289699392 0.0008921190603292258 0 -0.0254582162270004 0.00089658703403091894 0 -0.025475197803753787 0.0010034890484302769 0 -0.0254582162270004 0.00089658703403091894 0 -0.025382923177582645 0.00096653469162690311 0 -0.025475197803753787 0.0010034890484302769 0 -0.025382923177582645 0.00096653469162690311 0 -0.025289546388706122 0.00088808231907520744 0 -0.025374460295968779 0.00087152123559176831 0 -0.0254582162270004 0.00089658703403091894 0 -0.025382923177582645 0.00096653469162690311 0 -0.025374460295968779 0.00087152123559176831 0 -0.025168514799787215 0.0009242117966320652 0 -0.025289546388706122 0.00088808231907520744 0 -0.025286045836834255 0.0010142667961481663 0 -0.025382923177582645 0.00096653469162690311 0 -0.025289546388706122 0.00088808231907520744 0 -0.025286045836834255 0.0010142667961481663 0 -0.025168514799787215 0.0009242117966320652 0 -0.025193840248316578 0.00075166838392348007 0 -0.025289546388706122 0.00088808231907520744 0 -0.025193840248316578 0.00075166838392348007 0 -0.025289546388706122 0.00088808231907520744 0 -0.025323663357472506 0.00077944026003204684 0 -0.0254582162270004 0.00089658703403091894 0 -0.025374460295968779 0.00087152123559176831 0 -0.025420493494749005 0.00081513057146542398 0 -0.025289546388706122 0.00088808231907520744 0 -0.025374460295968779 0.00087152123559176831 0 -0.025323663357472506 0.00077944026003204684 0 -0.025374460295968779 0.00087152123559176831 0 -0.025323663357472506 0.00077944026003204684 0 -0.025420493494749005 0.00081513057146542398 0 -0.025404671823548743 0.00072201618046707772 0 -0.025311919626477431 0.00067737850113506852 0 -0.025454268772447684 0.00066369549176885725 0 -0.025223057078690179 0.00053441672088505978 0 -0.025311919626477431 0.00067737850113506852 0 -0.025454268772447684 0.00066369549176885725 0 -0.025323663357472506 0.00077944026003204684 0 -0.025420493494749005 0.00081513057146542398 0 -0.025404671823548743 0.00072201618046707772 0 -0.025193840248316578 0.00075166838392348007 0 -0.025223057078690179 0.00053441672088505978 0 -0.025311919626477431 0.00067737850113506852 0 -0.025323663357472506 0.00077944026003204684 0 -0.025404671823548743 0.00072201618046707772 0 -0.025311919626477431 0.00067737850113506852 0 -0.025193840248316578 0.00075166838392348007 0 -0.025323663357472506 0.00077944026003204684 0 -0.025311919626477431 0.00067737850113506852 0 -0.025693679934422183 0.00051033520804719904 0 -0.025468938904105558 0.00072470035590691234 0 -0.025594226391815043 0.00074328541115633575 0 -0.025503674768985705 0.00081391978578132572 0 -0.025468938904105558 0.00072470035590691234 0 -0.025594226391815043 0.00074328541115633575 0 -0.025503674768985705 0.00081391978578132572 0 -0.025404671823548743 0.00072201618046707772 0 -0.025459529292764602 0.00066857634263089093 0 -0.025201321988526357 0.0004772003798168094 0 -0.025174371635748059 0.0004249419294610554 0 -0.025176417582479217 0.00042859839973075883 0 -0.025174371635748059 0.0004249419294610554 0 -0.025693679934422183 0.00051033520804719904 0 -0.025594226391815043 0.00074328541115633575 0 -0.025730263051923153 0.00078105774613775221 0 -0.025577296289699392 0.0008921190603292258 0 -0.025594226391815043 0.00074328541115633575 0 -0.025730263051923153 0.00078105774613775221 0 -0.025862263302884218 0.00061691474537488159 0 -0.025730263051923153 0.00078105774613775221 0 -0.025931686709783845 0.00084737175675462443 0 -0.025931686709783845 0.00084737175675462443 0 -0.025785519922456736 0.00093014848731970629 0 -0.025802830122111171 0.0011296628030675842 0 -0.025730263051923153 0.00078105774613775221 0 -0.025931686709783845 0.00084737175675462443 0 -0.025785519922456736 0.00093014848731970629 0 -0.025577296289699392 0.0008921190603292258 0 -0.025730263051923153 0.00078105774613775221 0 -0.025677727966015359 0.00096421689789166353 0 -0.025730263051923153 0.00078105774613775221 0 -0.025785519922456736 0.00093014848731970629 0 -0.025677727966015359 0.00096421689789166353 0 -0.025577296289699392 0.0008921190603292258 0 -0.025677727966015359 0.00096421689789166353 0 -0.025583021208672781 0.0010609231927767319 0 -0.025785519922456736 0.00093014848731970629 0 -0.025677727966015359 0.00096421689789166353 0 -0.025802830122111171 0.0011296628030675842 0 -0.025677727966015359 0.00096421689789166353 0 -0.025802830122111171 0.0011296628030675842 0 -0.025583021208672781 0.0010609231927767319 0 -0.023145024981847097 0.0009533481672448057 0 -0.022991807694844161 0.0011776712576244514 0 -0.025802830122111171 0.0011296628030675842 0 -0.025573676685485491 0.0012071455136070598 0 -0.025583021208672781 0.0010609231927767319 0 -0.019498578815006853 0.0014619052701211163 0 -0.019938433379858005 0.0015457627707854652 0 -0.019785710649427354 0.0014046586302810084 0 -0.024406972609852827 0.00042714412744990563 0 -0.023145024981847097 0.0009533481672448057 0 -0.022316674564828044 0.00094995248028198899 0 -0.023145024981847097 0.0009533481672448057 0 -0.024478295568096293 0.00054394537301049315 0 -0.024390064176475493 0.00039130582716163351 0 -0.024278737157121127 0.00059718861974784887 0 -0.023145024981847097 0.0009533481672448057 0 -0.023077569128404515 0.0010181990770453786 0 -0.019785710649427354 0.0014046586302810084 0 -0.019924470329136083 0.0013266670983716144 0 -0.019610318206174239 0.0012061231152526854 0 -0.019785710649427354 0.0014046586302810084 0 -0.019924470329136083 0.0013266670983716144 0 -0.019995265457395613 0.0014886209975520644 0 -0.019938433379858005 0.0015457627707854652 0 -0.019785710649427354 0.0014046586302810084 0 -0.019995265457395613 0.0014886209975520644 0 -0.019951256700687814 0.0015699179968425606 0 -0.019995265457395613 0.0014886209975520644 0 -0.020322111594837596 0.0015239229073903018 0 -0.02016271874848358 0.0014302501300928049 0 -0.019995265457395613 0.0014886209975520644 0 -0.020322111594837596 0.0015239229073903018 0 -0.019924470329136083 0.0013266670983716144 0 -0.02016271874848358 0.0014302501300928049 0 -0.019995265457395613 0.0014886209975520644 0 -0.019924470329136083 0.0013266670983716144 0 -0.02016271874848358 0.0014302501300928049 0 -0.020117969049838359 0.0013021322880719581 0 -0.022991807694844161 0.0011776712576244514 0 -0.022982043855540164 0.001299488026401219 0 -0.02016271874848358 0.0014302501300928049 0 -0.020573514990770932 0.0013022176873891905 0 -0.020117969049838359 0.0013021322880719581 0 -0.02016271874848358 0.0014302501300928049 0 -0.020322111594837596 0.0015239229073903018 0 -0.020573514990770932 0.0013022176873891905 0 -0.020322111594837596 0.0015239229073903018 0 -0.020573514990770932 0.0013022176873891905 0 -0.02069970407240335 0.0014494312748657297 0 -0.025573676685485491 0.0012071455136070598 0 -0.025407180795375781 0.001121135862539933 0 -0.025323628487034504 0.0013067922815362782 0 -0.025573676685485491 0.0012071455136070598 0 -0.025583021208672781 0.0010609231927767319 0 -0.025407180795375781 0.001121135862539933 0 -0.025475197803753787 0.0010034890484302769 0 -0.025583021208672781 0.0010609231927767319 0 -0.025407180795375781 0.001121135862539933 0 -0.025382923177582645 0.00096653469162690311 0 -0.025475197803753787 0.0010034890484302769 0 -0.025407180795375781 0.001121135862539933 0 -0.025160167533584323 0.0010763295330878655 0 -0.025286045836834255 0.0010142667961481663 0 -0.025274939390633269 0.0011470936696358451 0 -0.025382923177582645 0.00096653469162690311 0 -0.025286045836834255 0.0010142667961481663 0 -0.025407180795375781 0.001121135862539933 0 -0.025286045836834255 0.0010142667961481663 0 -0.025407180795375781 0.001121135862539933 0 -0.025274939390633269 0.0011470936696358451 0 -0.025407180795375781 0.001121135862539933 0 -0.025274939390633269 0.0011470936696358451 0 -0.025323628487034504 0.0013067922815362782 0 -0.025167145053753573 0.0012291599340975719 0 -0.025274939390633269 0.0011470936696358451 0 -0.025323628487034504 0.0013067922815362782 0 -0.022960522111083761 0.0013920160777340987 0 -0.021117237544633346 0.0013317711108648735 0 -0.021124857331365512 0.0013446202076892379 0 -0.020573514990770932 0.0013022176873891905 0 -0.02069970407240335 0.0014494312748657297 0 -0.020806691120179171 0.0015664301916541385 0 -0.021140834248534517 0.0013602990523388563 0 -0.020817151577922077 0.0011113668270729487 0 -0.021539776242761426 0.0017398602988102953 0 -0.020806691120179171 0.0015664301916541385 0 -0.021140834248534517 0.0013602990523388563 0 -0.021140834248534517 0.0013602990523388563 0 -0.021105740706552526 0.0010589875498637435 0 -0.020817151577922077 0.0011113668270729487 0 -0.021117237544633346 0.0013317711108648735 0 -0.020630796447313592 0.0013086481353255057 0 -0.020806691120179171 0.0015664301916541385 0 -0.020480477358861104 0.0011965852218380217 0 -0.020817151577922077 0.0011113668270729487 0 -0.020806691120179171 0.0015664301916541385 0 -0.020480477358861104 0.0011965852218380217 0 -0.020117969049838359 0.0013021322880719581 0 -0.02048450894333767 0.000833238275050477 0 -0.020817151577922077 0.0011113668270729487 0 -0.020891465033464941 0.0007629942788624079 0 -0.020480477358861104 0.0011965852218380217 0 -0.02048450894333767 0.000833238275050477 0 -0.020817151577922077 0.0011113668270729487 0 -0.020480477358861104 0.0011965852218380217 0 -0.02048450894333767 0.000833238275050477 0 -0.02018406393706948 0.0010741594534795444 0 -0.021316299960977003 0.00059854720974583859 0 -0.021105740706552526 0.0010589875498637435 0 -0.020891465033464941 0.0007629942788624079 0 -0.021105740706552526 0.0010589875498637435 0 -0.020817151577922077 0.0011113668270729487 0 -0.020891465033464941 0.0007629942788624079 0 -0.021316299960977003 0.00059854720974583859 0 -0.020891465033464941 0.0007629942788624079 0 -0.020692625634999299 0.00033032307442519039 0 -0.021316299960977003 0.00059854720974583859 0 -0.021320856601258889 -0.00018733178058764338 0 -0.020692625634999299 0.00033032307442519039 0 -0.02048450894333767 0.000833238275050477 0 -0.020891465033464941 0.0007629942788624079 0 -0.020692625634999299 0.00033032307442519039 0 -0.02048450894333767 0.000833238275050477 0 -0.020692625634999299 0.00033032307442519039 0 -0.020122875097769589 0.00055512586065414079 0 -0.019830572092998794 0.00064555823364712526 0 -0.018920628203158669 0.0013717574315392669 0 -0.01910935518112317 0.00056356562980142025 0 -0.019893486525974842 0.00041625065352076448 0 -0.019434320258866222 0.00079405408469320545 0 -0.020142446887449539 9.298847322564301e-05 0 -0.020122875097769589 0.00055512586065414079 0 -0.019712976117800193 0.00045839023179898564 0 -0.020692625634999299 0.00033032307442519039 0 -0.020142446887449539 9.298847322564301e-05 0 -0.020122875097769589 0.00055512586065414079 0 -0.020122875097769589 0.00055512586065414079 0 -0.019760745435149236 0.00073573406367076672 0 -0.020003346650724476 0.00087377833562663734 0 -0.020122875097769589 0.00055512586065414079 0 -0.019760745435149236 0.00073573406367076672 0 -0.019712976117800193 0.00045839023179898564 0 -0.020003346650724476 0.00087377833562663734 0 -0.019886518820385734 0.0011302893365711601 0 -0.019659910677019488 0.00097117589474832948 0 -0.019760745435149236 0.00073573406367076672 0 -0.020003346650724476 0.00087377833562663734 0 -0.019659910677019488 0.00097117589474832948 0 -0.020003346650724476 0.00087377833562663734 0 -0.02018406393706948 0.0010741594534795444 0 -0.019886518820385734 0.0011302893365711601 0 -0.02048450894333767 0.000833238275050477 0 -0.020122875097769589 0.00055512586065414079 0 -0.020003346650724476 0.00087377833562663734 0 -0.02048450894333767 0.000833238275050477 0 -0.020003346650724476 0.00087377833562663734 0 -0.02018406393706948 0.0010741594534795444 0 -0.020480477358861104 0.0011965852218380217 0 -0.02018406393706948 0.0010741594534795444 0 -0.020117969049838359 0.0013021322880719581 0 -0.02018406393706948 0.0010741594534795444 0 -0.020117969049838359 0.0013021322880719581 0 -0.019886518820385734 0.0011302893365711601 0 -0.019924470329136083 0.0013266670983716144 0 -0.019886518820385734 0.0011302893365711601 0 -0.019610318206174239 0.0012061231152526854 0 -0.019924470329136083 0.0013266670983716144 0 -0.020117969049838359 0.0013021322880719581 0 -0.019886518820385734 0.0011302893365711601 0 -0.019886518820385734 0.0011302893365711601 0 -0.019610318206174239 0.0012061231152526854 0 -0.019659910677019488 0.00097117589474832948 0 -0.019610318206174239 0.0012061231152526854 0 -0.019404938562697847 0.0010662543298432189 0 -0.019659910677019488 0.00097117589474832948 0 -0.019297477692002303 0.0012287538161900363 0 -0.019610318206174239 0.0012061231152526854 0 -0.019404938562697847 0.0010662543298432189 0 -0.019297477692002303 0.0012287538161900363 0 -0.019404938562697847 0.0010662543298432189 0 -0.019176559198261309 0.001095209930478 0 -0.019116168477660345 0.0010542125694411907 0 -0.019006933322583477 0.0011781481147044401 0 -0.019404938562697847 0.0010662543298432189 0 -0.019377931091468646 0.00080604459010334304 0 -0.019176559198261309 0.001095209930478 0 -0.019760745435149236 0.00073573406367076672 0 -0.019377931091468646 0.00080604459010334304 0 -0.019659910677019488 0.00097117589474832948 0 -0.019404938562697847 0.0010662543298432189 0 -0.019377931091468646 0.00080604459010334304 0 -0.019659910677019488 0.00097117589474832948 0 -0.019178589509768945 0.0013286931616897412 0 -0.018977139429207868 0.0012939181236489936 0 -0.018702059369492669 0.0012709343297891179 0 -0.01918835992987759 0.0012289824341596401 0 -0.019178589509768945 0.0013286931616897412 0 -0.019176559198261309 0.001095209930478 0 -0.019010708908429926 0.0012140697998986594 0 -0.019006933322583477 0.0011781481147044401 0 -0.019297477692002303 0.0012287538161900363 0 -0.01918835992987759 0.0012289824341596401 0 -0.019176559198261309 0.001095209930478 0 -0.018469696422376818 0.001438272747956785 0 -0.018702059369492669 0.0012709343297891179 0 -0.018587692401115817 0.0014184117733989567 0 -0.018702059369492669 0.0012709343297891179 0 -0.018757882161680482 0.0013629263295725411 0 -0.018587692401115817 0.0014184117733989567 0 -0.018932640046393258 0.0020663442546669216 0 -0.01881116413171368 0.0021478806608121984 0 -0.018977139429207868 0.0012939181236489936 0 -0.018757882161680482 0.0013629263295725411 0 -0.018769516716657844 0.001439477892942293 0 -0.018977139429207868 0.0012939181236489936 0 -0.018702059369492669 0.0012709343297891179 0 -0.018757882161680482 0.0013629263295725411 0 -0.018757882161680482 0.0013629263295725411 0 -0.018769516716657844 0.001439477892942293 0 -0.018587692401115817 0.0014184117733989567 0 -0.018769516716657844 0.001439477892942293 0 -0.018587692401115817 0.0014184117733989567 0 -0.018542364716145225 0.001501856884398982 0 -0.018587692401115817 0.0014184117733989567 0 -0.018542364716145225 0.001501856884398982 0 -0.018403674999966139 0.0013166420460696555 0 -0.018769516716657844 0.001439477892942293 0 -0.018542364716145225 0.001501856884398982 0 -0.018689940498481869 0.0016222927087148297 0 -0.01881116413171368 0.0021478806608121984 0 -0.018717901691290194 0.0021079317114561852 0 -0.018469696422376818 0.001438272747956785 0 -0.018920628203158669 0.0013717574315392669 0 -0.018403674999966139 0.0013166420460696555 0 -0.019116168477660345 0.0010542125694411907 0 -0.019434320258866222 0.00079405408469320545 0 -0.019760745435149236 0.00073573406367076672 0 -0.019377931091468646 0.00080604459010334304 0 -0.019712976117800193 0.00045839023179898564 0 -0.018469696422376818 0.001438272747956785 0 -0.018587692401115817 0.0014184117733989567 0 -0.018403674999966139 0.0013166420460696555 0 -0.018542364716145225 0.001501856884398982 0 -0.018403674999966139 0.0013166420460696555 0 -0.018395702256707381 0.0015601987904955944 0 -0.018343733027115214 0.0011159653013442408 0 -0.018349558853437406 0.0010308620205339149 0 -0.018403674999966139 0.0013166420460696555 0 -0.018178669922391363 0.0016956163580929687 0 -0.018395702256707381 0.0015601987904955944 0 -0.018920628203158669 0.0013717574315392669 0 -0.018403674999966139 0.0013166420460696555 0 -0.01910935518112317 0.00056356562980142025 0 -0.018403674999966139 0.0013166420460696555 0 -0.018497382354392796 0.00022474275009647969 0 -0.01910935518112317 0.00056356562980142025 0 -0.018497382354392796 0.00022474275009647969 0 -0.01910935518112317 0.00056356562980142025 0 -0.019129375983388052 -0.0002229696603539601 0 -0.018395702256707381 0.0015601987904955944 0 -0.01832563702154321 0.001793470145265906 0 -0.018470939200339452 0.0016912006238906029 0 -0.018178669922391363 0.0016956163580929687 0 -0.018395702256707381 0.0015601987904955944 0 -0.01832563702154321 0.001793470145265906 0 -0.01832563702154321 0.001793470145265906 0 -0.018191123657821658 0.0018500721663420826 0 -0.018281769116378258 0.0019370332518634729 0 -0.018178669922391363 0.0016956163580929687 0 -0.01832563702154321 0.001793470145265906 0 -0.018191123657821658 0.0018500721663420826 0 -0.018497382354392796 0.00022474275009647969 0 -0.018738267519138919 -0.00075402248209163996 0 -0.019129375983388052 -0.0002229696603539601 0 -0.018349558853437406 0.0010308620205339149 0 -0.018319687305802725 0.0011125668759649962 0 -0.018178669922391363 0.0016956163580929687 0 -0.018191123657821658 0.0018500721663420826 0 -0.018102112704691406 0.0019262569025715907 0 -0.018191123657821658 0.0018500721663420826 0 -0.018060440502403508 0.0019141308094571307 0 -0.018162616950347557 0.0019312908966390633 0 -0.018247641301367388 0.0012086933707757238 0 -0.018319687305802725 0.0011125668759649962 0 -0.018738267519138919 -0.00075402248209163996 0 -0.019353196347953419 -0.0007708371942078189 0 -0.019129375983388052 -0.0002229696603539601 0 -0.018542364716145225 0.001501856884398982 0 -0.018689940498481869 0.0016222927087148297 0 -0.018470939200339452 0.0016912006238906029 0 -0.018689940498481869 0.0016222927087148297 0 -0.018470939200339452 0.0016912006238906029 0 -0.018433274264691268 0.0018970878726657886 0 -0.018542364716145225 0.001501856884398982 0 -0.018395702256707381 0.0015601987904955944 0 -0.018470939200339452 0.0016912006238906029 0 -0.018433274264691268 0.0018970878726657886 0 -0.018509595884268117 0.0020496822046555253 0 -0.018411434531540108 0.0019806194196314133 0 -0.01832563702154321 0.001793470145265906 0 -0.018433274264691268 0.0018970878726657886 0 -0.018281769116378258 0.0019370332518634729 0 -0.01832563702154321 0.001793470145265906 0 -0.018470939200339452 0.0016912006238906029 0 -0.018433274264691268 0.0018970878726657886 0 -0.018717901691290194 0.0021079317114561852 0 -0.018679056233933393 0.002076755528361997 0 -0.018689940498481869 0.0016222927087148297 0 -0.018433274264691268 0.0018970878726657886 0 -0.018509595884268117 0.0020496822046555253 0 -0.018565452923034277 0.0025306461983732372 0 -0.018509595884268117 0.0020496822046555253 0 -0.018239206206406827 0.0022445312280799474 0 -0.018509595884268117 0.0020496822046555253 0 -0.018464318756873151 0.0019133862558466418 0 -0.018239206206406827 0.0022445312280799474 0 -0.018509595884268117 0.0020496822046555253 0 -0.018464318756873151 0.0019133862558466418 0 -0.018411434531540108 0.0019806194196314133 0 -0.018464318756873151 0.0019133862558466418 0 -0.018411434531540108 0.0019806194196314133 0 -0.018407339194334987 0.0020171289915561466 0 -0.018433274264691268 0.0018970878726657886 0 -0.018411434531540108 0.0019806194196314133 0 -0.018281769116378258 0.0019370332518634729 0 -0.018411434531540108 0.0019806194196314133 0 -0.018281769116378258 0.0019370332518634729 0 -0.018248412230658654 0.002031718891095258 0 -0.018302294080155358 0.0020568191309575522 0 -0.018407339194334987 0.0020171289915561466 0 -0.018477425168996361 0.0021983741891241282 0 -0.018411434531540108 0.0019806194196314133 0 -0.018302294080155358 0.0020568191309575522 0 -0.018248412230658654 0.002031718891095258 0 -0.018302294080155358 0.0020568191309575522 0 -0.018189210785993774 0.0021059485660888844 0 -0.018243396555532778 0.0022199803032133762 0 -0.018302294080155358 0.0020568191309575522 0 -0.018248412230658654 0.002031718891095258 0 -0.018189210785993774 0.0021059485660888844 0 -0.018411434531540108 0.0019806194196314133 0 -0.018302294080155358 0.0020568191309575522 0 -0.018407339194334987 0.0020171289915561466 0 -0.018464318756873151 0.0019133862558466418 0 -0.018072625295031446 0.0016287244995443963 0 -0.018673360960486812 0.0010450276372690427 0 -0.017805750284219584 0.0019302241448801623 0 -0.017553688622423905 0.0022450300926146406 0 -0.018464318756873151 0.0019133862558466418 0 -0.018407339194334987 0.0020171289915561466 0 -0.018477425168996361 0.0021983741891241282 0 -0.01783874803856017 0.0016586101221436203 0 -0.017761569764745015 0.0020007293366908542 0 -0.017561083482520376 0.0019187706420403649 0 -0.018319687305802725 0.0011125668759649962 0 -0.018016782333053219 0.0019095195177084173 0 -0.018110740593055091 0.002028704191521181 0 -0.018060440502403508 0.0019141308094571307 0 -0.017942078787251535 0.0021428741724915162 0 -0.018110740593055091 0.002028704191521181 0 -0.018060440502403508 0.0019141308094571307 0 -0.018162616950347557 0.0019312908966390633 0 -0.018110740593055091 0.002028704191521181 0 -0.018162616950347557 0.0019312908966390633 0 -0.018281769116378258 0.0019370332518634729 0 -0.018110740593055091 0.002028704191521181 0 -0.018281769116378258 0.0019370332518634729 0 -0.018089903959869372 0.0022164079103350397 0 -0.018191123657821658 0.0018500721663420826 0 -0.018162616950347557 0.0019312908966390633 0 -0.018281769116378258 0.0019370332518634729 0 -0.018281769116378258 0.0019370332518634729 0 -0.018248412230658654 0.002031718891095258 0 -0.018021115987894742 0.0020988202147967233 0 -0.01808734554464567 0.002069574535511853 0 -0.017994722008999733 0.0022055081184613801 0 -0.018248412230658654 0.002031718891095258 0 -0.018189210785993774 0.0021059485660888844 0 -0.018021115987894742 0.0020988202147967233 0 -0.018189210785993774 0.0021059485660888844 0 -0.018021115987894742 0.0020988202147967233 0 -0.018117146943304591 0.0021798531539772726 0 -0.018110740593055091 0.002028704191521181 0 -0.018089903959869372 0.0022164079103350397 0 -0.017942078787251535 0.0021428741724915162 0 -0.017761569764745015 0.0020007293366908542 0 -0.017561083482520376 0.0019187706420403649 0 -0.017553400468369701 0.0021481641780679624 0 -0.017561083482520376 0.0019187706420403649 0 -0.017553400468369701 0.0021481641780679624 0 -0.017301790965976515 0.0021737664599348352 0 -0.018738267519138919 -0.00075402248209163996 0 -0.019477045011735545 -0.001332411933806284 0 -0.019353196347953419 -0.0007708371942078189 0 -0.018319687305802725 0.0011125668759649962 0 -0.018660818014612269 0.00067246213693567588 0 -0.019477045011735545 -0.001332411933806284 0 -0.019353196347953419 -0.0007708371942078189 0 -0.019816077147450525 -0.00097014685747795579 0 -0.019353196347953419 -0.0007708371942078189 0 -0.019816077147450525 -0.00097014685747795579 0 -0.019575556708509606 -0.00052639029352526633 0 -0.019477045011735545 -0.001332411933806284 0 -0.019816077147450525 -0.00097014685747795579 0 -0.020071320616805111 -0.0013088698509203017 0 -0.019816077147450525 -0.00097014685747795579 0 -0.020381059941802133 -0.0010090950508394301 0 -0.020173690116343842 -0.00058251938303279481 0 -0.019816077147450525 -0.00097014685747795579 0 -0.020071320616805111 -0.0013088698509203017 0 -0.020381059941802133 -0.0010090950508394301 0 -0.019816077147450525 -0.00097014685747795579 0 -0.019575556708509606 -0.00052639029352526633 0 -0.020173690116343842 -0.00058251938303279481 0 -0.020071320616805111 -0.0013088698509203017 0 -0.020549002778747685 -0.001410293321757766 0 -0.02009927559428594 -0.0018085786627608257 0 -0.018660818014612269 0.00067246213693567588 0 -0.01889155956711534 0.00057961055181276892 0 -0.019477045011735545 -0.001332411933806284 0 -0.020071320616805111 -0.0013088698509203017 0 -0.02009927559428594 -0.0018085786627608257 0 -0.020549002778747685 -0.001410293321757766 0 -0.02009927559428594 -0.0018085786627608257 0 -0.02056190504177953 -0.001761821500257225 0 -0.020549002778747685 -0.001410293321757766 0 -0.020933445871489761 -0.001527903020250268 0 -0.02056190504177953 -0.001761821500257225 0 -0.020071320616805111 -0.0013088698509203017 0 -0.020549002778747685 -0.001410293321757766 0 -0.020381059941802133 -0.0010090950508394301 0 -0.021106886711487454 -0.0015413474116486279 0 -0.020933445871489761 -0.001527903020250268 0 -0.02103077305944219 -0.0018545364874970934 0 -0.021106886711487454 -0.0015413474116486279 0 -0.020933445871489761 -0.001527903020250268 0 -0.02115985564763664 -0.0013553241826829833 0 -0.021279786224119947 -0.0015321269482719752 0 -0.021106886711487454 -0.0015413474116486279 0 -0.02115985564763664 -0.0013553241826829833 0 -0.020549002778747685 -0.001410293321757766 0 -0.020933445871489761 -0.001527903020250268 0 -0.020926912651492109 -0.0012341609734252109 0 -0.020549002778747685 -0.001410293321757766 0 -0.020926912651492109 -0.0012341609734252109 0 -0.020810021786747183 -0.0010259089832322002 0 -0.020933445871489761 -0.001527903020250268 0 -0.020926912651492109 -0.0012341609734252109 0 -0.02115985564763664 -0.0013553241826829833 0 -0.020926912651492109 -0.0012341609734252109 0 -0.02115985564763664 -0.0013553241826829833 0 -0.02114843719846371 -0.00087084880864912826 0 -0.020926912651492109 -0.0012341609734252109 0 -0.020810021786747183 -0.0010259089832322002 0 -0.02114843719846371 -0.00087084880864912826 0 -0.020810021786747183 -0.0010259089832322002 0 -0.02114843719846371 -0.00087084880864912826 0 -0.020796802160233555 -0.00062831954616350614 0 -0.020381059941802133 -0.0010090950508394301 0 -0.020796802160233555 -0.00062831954616350614 0 -0.020173690116343842 -0.00058251938303279481 0 -0.020549002778747685 -0.001410293321757766 0 -0.020810021786747183 -0.0010259089832322002 0 -0.020381059941802133 -0.0010090950508394301 0 -0.020810021786747183 -0.0010259089832322002 0 -0.020381059941802133 -0.0010090950508394301 0 -0.020796802160233555 -0.00062831954616350614 0 -0.020796802160233555 -0.00062831954616350614 0 -0.02057594513427137 -0.00023131393854303493 0 -0.020173690116343842 -0.00058251938303279481 0 -0.021320856601258889 -0.00018733178058764338 0 -0.020796802160233555 -0.00062831954616350614 0 -0.02057594513427137 -0.00023131393854303493 0 -0.021320856601258889 -0.00018733178058764338 0 -0.02114843719846371 -0.00087084880864912826 0 -0.020796802160233555 -0.00062831954616350614 0 -0.021320856601258889 -0.00018733178058764338 0 -0.020692625634999299 0.00033032307442519039 0 -0.02057594513427137 -0.00023131393854303493 0 -0.020692625634999299 0.00033032307442519039 0 -0.020142446887449539 9.298847322564301e-05 0 -0.02057594513427137 -0.00023131393854303493 0 -0.019830572092998794 0.00064555823364712526 0 -0.02057594513427137 -0.00023131393854303493 0 -0.019741339395620582 -8.0511490174409867e-05 0 -0.019893486525974842 0.00041625065352076448 0 -0.020174877948447224 0.00017713454706711382 0 -0.019830572092998794 0.00064555823364712526 0 -0.019741339395620582 -8.0511490174409867e-05 0 -0.01910935518112317 0.00056356562980142025 0 -0.019741339395620582 -8.0511490174409867e-05 0 -0.01910935518112317 0.00056356562980142025 0 -0.019129375983388052 -0.0002229696603539601 0 -0.019741339395620582 -8.0511490174409867e-05 0 -0.019129375983388052 -0.0002229696603539601 0 -0.019575556708509606 -0.00052639029352526633 0 -0.019353196347953419 -0.0007708371942078189 0 -0.019129375983388052 -0.0002229696603539601 0 -0.019575556708509606 -0.00052639029352526633 0 -0.019741339395620582 -8.0511490174409867e-05 0 -0.019575556708509606 -0.00052639029352526633 0 -0.020173690116343842 -0.00058251938303279481 0 -0.02057594513427137 -0.00023131393854303493 0 -0.019741339395620582 -8.0511490174409867e-05 0 -0.020173690116343842 -0.00058251938303279481 0 -0.015966920168767804 0.0025746494596458371 0 -0.015788865345782645 0.0026290078240977094 0 -0.015812986448218005 0.0024558598366873938 0 -0.015966920168767804 0.0025746494596458371 0 -0.015812986448218005 0.0024558598366873938 0 -0.015956157180394295 0.0024458043664955654 0 -0.015966920168767804 0.0025746494596458371 0 -0.015956157180394295 0.0024458043664955654 0 -0.016047548874632743 0.0024920387533380567 0 -0.017889681383873549 0.0024001404137149358 0 -0.017812067689506765 0.0025418908292443834 0 -0.01803199040682674 0.0025205878926119283 0 -0.016955115269908172 0.0024910465698206362 0 -0.016758828478428769 0.0025416012121208748 0 -0.017812067689506765 0.0025418908292443834 0 -0.017620943728734594 0.002505619214831359 0 -0.017707449765272238 0.002643355899026967 0 -0.017889681383873549 0.0024001404137149358 0 -0.017812067689506765 0.0025418908292443834 0 -0.017620943728734594 0.002505619214831359 0 -0.015421165570484029 0.0030856815070036793 0 -0.015289041858946069 0.003184690245765951 0 -0.015271048180117455 0.0031014248727625486 0 -0.015788865345782645 0.0026290078240977094 0 -0.015722907960446297 0.0025756485363379418 0 -0.015636696478659114 0.0026785146315517734 0 -0.016758828478428769 0.0025416012121208748 0 -0.016840200828357361 0.0024869615574902326 0 -0.016018019156091249 0.0028522805739659438 0 -0.016840200828357361 0.0024869615574902326 0 -0.015421165570484029 0.0030856815070036793 0 -0.015271048180117455 0.0031014248727625486 0 -0.015239477289716304 0.0029988150603366907 0 -0.015421165570484029 0.0030856815070036793 0 -0.015403039901202353 0.002921551301668331 0 -0.015239477289716304 0.0029988150603366907 0 -0.015788865345782645 0.0026290078240977094 0 -0.015722907960446297 0.0025756485363379418 0 -0.015812986448218005 0.0024558598366873938 0 -0.015421165570484029 0.0030856815070036793 0 -0.015403039901202353 0.002921551301668331 0 -0.015608811339399885 0.0029076587351961032 0 -0.016018019156091249 0.0028522805739659438 0 -0.015874029223987045 0.0027382316054403626 0 -0.015440127060255425 0.0027896176066006203 0 -0.015403039901202353 0.002921551301668331 0 -0.015608811339399885 0.0029076587351961032 0 -0.015440127060255425 0.0027896176066006203 0 -0.015570131546635694 0.0026834829125766311 0 -0.015608811339399885 0.0029076587351961032 0 -0.015403039901202353 0.002921551301668331 0 -0.015239477289716304 0.0029988150603366907 0 -0.015253607207642218 0.0028035686218976122 0 -0.015440127060255425 0.0027896176066006203 0 -0.015403039901202353 0.002921551301668331 0 -0.015253607207642218 0.0028035686218976122 0 -0.015440127060255425 0.0027896176066006203 0 -0.015365480759060286 0.0026316646563337757 0 -0.015253607207642218 0.0028035686218976122 0 -0.015365480759060286 0.0026316646563337757 0 -0.015570131546635694 0.0026834829125766311 0 -0.015520539721289611 0.0025639573431556254 0 -0.015440127060255425 0.0027896176066006203 0 -0.015365480759060286 0.0026316646563337757 0 -0.015570131546635694 0.0026834829125766311 0 -0.015570131546635694 0.0026834829125766311 0 -0.015608811339399885 0.0029076587351961032 0 -0.015779554829713618 0.0026826459536770622 0 -0.015570131546635694 0.0026834829125766311 0 -0.015779554829713618 0.0026826459536770622 0 -0.01567769150260135 0.0024961566517225611 0 -0.015874029223987045 0.0027382316054403626 0 -0.015909423253486678 0.0025581841752755322 0 -0.015812986448218005 0.0024558598366873938 0 -0.015956157180394295 0.0024458043664955654 0 -0.015940883947640459 0.0022890181180375518 0 -0.015956157180394295 0.0024458043664955654 0 -0.015940883947640459 0.0022890181180375518 0 -0.016096467196087091 0.0023128600742336023 0 -0.015940883947640459 0.0022890181180375518 0 -0.016096467196087091 0.0023128600742336023 0 -0.016094247260869946 0.0021846020725524097 0 -0.016096467196087091 0.0023128600742336023 0 -0.016252369272430792 0.0022113221629117977 0 -0.016094247260869946 0.0021846020725524097 0 -0.016096467196087091 0.0023128600742336023 0 -0.016252369272430792 0.0022113221629117977 0 -0.016309080604367195 0.0022812901290590964 0 -0.016252369272430792 0.0022113221629117977 0 -0.016309080604367195 0.0022812901290590964 0 -0.01649473831430745 0.002226017267327839 0 -0.016309080604367195 0.0022812901290590964 0 -0.016047548874632743 0.0024920387533380567 0 -0.016127664738089811 0.0026319683845847587 0 -0.016309080604367195 0.0022812901290590964 0 -0.016979175892369906 0.0023338861507516658 0 -0.016127664738089811 0.0026319683845847587 0 -0.016096467196087091 0.0023128600742336023 0 -0.016309080604367195 0.0022812901290590964 0 -0.016047548874632743 0.0024920387533380567 0 -0.015956157180394295 0.0024458043664955654 0 -0.016096467196087091 0.0023128600742336023 0 -0.016047548874632743 0.0024920387533380567 0 -0.016263183353804802 0.002194750376328599 0 -0.016096250728260528 0.0022743659804664025 0 -0.016261966067333676 0.0022507927392465391 0 -0.017282934743722295 0.0022347880133400089 0 -0.017553688622423905 0.0022450300926146406 0 -0.016252369272430792 0.0022113221629117977 0 -0.01649473831430745 0.002226017267327839 0 -0.016261966067333676 0.0022507927392465391 0 -0.016263183353804802 0.002194750376328599 0 -0.01649473831430745 0.002226017267327839 0 -0.016261966067333676 0.0022507927392465391 0 -0.016309080604367195 0.0022812901290590964 0 -0.01649473831430745 0.002226017267327839 0 -0.016979175892369906 0.0023338861507516658 0 -0.017595422044339292 0.0022905431182168629 0 -0.017265128729360028 0.0024017573584646764 0 -0.018072625295031446 0.0016287244995443963 0 -0.016979175892369906 0.0023338861507516658 0 -0.017904177551922751 0.0021931916409612499 0 -0.016979175892369906 0.0023338861507516658 0 -0.017904177551922751 0.0021931916409612499 0 -0.016127664738089811 0.0026319683845847587 0 -0.016263183353804802 0.002194750376328599 0 -0.01649473831430745 0.002226017267327839 0 -0.016979175892369906 0.0023338861507516658 0 -0.017282934743722295 0.0022347880133400089 0 -0.017099471852715906 0.0023586736723586132 0 -0.018464318756873151 0.0019133862558466418 0 -0.017904177551922751 0.0021931916409612499 0 -0.018239206206406827 0.0022445312280799474 0 -0.018464318756873151 0.0019133862558466418 0 -0.018072625295031446 0.0016287244995443963 0 -0.017904177551922751 0.0021931916409612499 0 -0.017904177551922751 0.0021931916409612499 0 -0.018239206206406827 0.0022445312280799474 0 -0.018080156060139203 0.0022914091133553792 0 -0.018239206206406827 0.0022445312280799474 0 -0.018080156060139203 0.0022914091133553792 0 -0.018249887240680548 0.0023953312064740298 0 -0.018080156060139203 0.0022914091133553792 0 -0.018249887240680548 0.0023953312064740298 0 -0.018127744517023262 0.0023812386290782759 0 -0.017904177551922751 0.0021931916409612499 0 -0.018080156060139203 0.0022914091133553792 0 -0.018112971466735482 0.0023363652327667551 0 -0.018259344525831049 0.0025000292998311724 0 -0.018249887240680548 0.0023953312064740298 0 -0.018127744517023262 0.0023812386290782759 0 -0.018259344525831049 0.0025000292998311724 0 -0.018127744517023262 0.0023812386290782759 0 -0.018166432883579761 0.0025444684118569477 0 -0.018259344525831049 0.0025000292998311724 0 -0.018249887240680548 0.0023953312064740298 0 -0.018493942479125752 0.0026254576686166923 0 -0.018565452923034277 0.0025306461983732372 0 -0.018239206206406827 0.0022445312280799474 0 -0.018249887240680548 0.0023953312064740298 0 -0.018565452923034277 0.0025306461983732372 0 -0.018249887240680548 0.0023953312064740298 0 -0.018493942479125752 0.0026254576686166923 0 -0.015966920168767804 0.0025746494596458371 0 -0.016047548874632743 0.0024920387533380567 0 -0.016127664738089811 0.0026319683845847587 0 -0.016955115269908172 0.0024910465698206362 0 -0.017265128729360028 0.0024017573584646764 0 -0.017889681383873549 0.0024001404137149358 0 -0.018112971466735482 0.0023363652327667551 0 -0.018061374363817512 0.0024123279326898495 0 -0.018080156060139203 0.0022914091133553792 0 -0.018112971466735482 0.0023363652327667551 0 -0.018127744517023262 0.0023812386290782759 0 -0.018112971466735482 0.0023363652327667551 0 -0.018127744517023262 0.0023812386290782759 0 -0.018061374363817512 0.0024123279326898495 0 -0.018127744517023262 0.0023812386290782759 0 -0.018027144817335986 0.0025242944074376928 0 -0.018166432883579761 0.0025444684118569477 0 -0.018127744517023262 0.0023812386290782759 0 -0.01803199040682674 0.0025205878926119283 0 -0.018061374363817512 0.0024123279326898495 0 -0.018054735927685164 0.0025022705588893875 0 -0.017988906385904814 0.0025569360267394129 0 -0.017889681383873549 0.0024001404137149358 0 -0.01803199040682674 0.0025205878926119283 0 -0.018061374363817512 0.0024123279326898495 0 -0.018027144817335986 0.0025242944074376928 0 -0.018159643079692721 0.0027466039502216477 0 -0.017915045549140036 0.0028638021871827124 0 -0.017988906385904814 0.0025569360267394129 0 -0.017848030354028915 0.0026683835242284027 0 -0.018166432883579761 0.0025444684118569477 0 -0.018159643079692721 0.0027466039502216477 0 -0.018306362152033715 0.002652379629088362 0 -0.018027144817335986 0.0025242944074376928 0 -0.018166432883579761 0.0025444684118569477 0 -0.018159643079692721 0.0027466039502216477 0 -0.018159643079692721 0.0027466039502216477 0 -0.018462127055683199 0.0029019268306849874 0 -0.018089272499597863 0.0030170378215493886 0 -0.018159643079692721 0.0027466039502216477 0 -0.018089272499597863 0.0030170378215493886 0 -0.017915045549140036 0.0028638021871827124 0 -0.018789428495517301 0.0028251127386449597 0 -0.018565452923034277 0.0025306461983732372 0 -0.018493942479125752 0.0026254576686166923 0 -0.018259344525831049 0.0025000292998311724 0 -0.018493942479125752 0.0026254576686166923 0 -0.018306362152033715 0.002652379629088362 0 -0.018259344525831049 0.0025000292998311724 0 -0.018166432883579761 0.0025444684118569477 0 -0.018306362152033715 0.002652379629088362 0 -0.018159643079692721 0.0027466039502216477 0 -0.018306362152033715 0.002652379629088362 0 -0.018462127055683199 0.0029019268306849874 0 -0.018493942479125752 0.0026254576686166923 0 -0.018306362152033715 0.002652379629088362 0 -0.018462127055683199 0.0029019268306849874 0 -0.018789428495517301 0.0028251127386449597 0 -0.018493942479125752 0.0026254576686166923 0 -0.018462127055683199 0.0029019268306849874 0 -0.018940671788674257 0.0033625013837974465 0 -0.018789428495517301 0.0028251127386449597 0 -0.018819112856001064 0.0031271649891564295 0 -0.018789428495517301 0.0028251127386449597 0 -0.018462127055683199 0.0029019268306849874 0 -0.018819112856001064 0.0031271649891564295 0 -0.018462127055683199 0.0029019268306849874 0 -0.018819112856001064 0.0031271649891564295 0 -0.018356731353570542 0.0033141967041426892 0 -0.018819112856001064 0.0031271649891564295 0 -0.019179888919208781 0.0031862831139697332 0 -0.018356731353570542 0.0033141967041426892 0 -0.019703872804621155 0.0030580090871072628 0 -0.020117801374103239 0.0029830400899333305 0 -0.019179888919208781 0.0031862831139697332 0 -0.021911913991296765 0.0031427085183069942 0 -0.020534058749988364 0.0022707915257666289 0 -0.019179888919208781 0.0031862831139697332 0 -0.019507715845872339 0.0022707705672434758 0 -0.020534058749988364 0.0022707915257666289 0 -0.018940671788674257 0.0033625013837974465 0 -0.019179888919208781 0.0031862831139697332 0 -0.019507715845872339 0.0022707705672434758 0 -0.018940671788674257 0.0033625013837974465 0 -0.018819112856001064 0.0031271649891564295 0 -0.019179888919208781 0.0031862831139697332 0 -0.018089272499597863 0.0030170378215493886 0 -0.017962473332423942 0.0032379972227293639 0 -0.017823755972389888 0.003044646687733887 0 -0.018089272499597863 0.0030170378215493886 0 -0.017823755972389888 0.003044646687733887 0 -0.017915045549140036 0.0028638021871827124 0 -0.018462127055683199 0.0029019268306849874 0 -0.018089272499597863 0.0030170378215493886 0 -0.018356731353570542 0.0033141967041426892 0 -0.020117801374103239 0.0029830400899333305 0 -0.020714087502597237 0.0027622032771666472 0 -0.018089272499597863 0.0030170378215493886 0 -0.018356731353570542 0.0033141967041426892 0 -0.017962473332423942 0.0032379972227293639 0 -0.021911913991296765 0.0031427085183069942 0 -0.023851811112123505 0.0026479362518748734 0 -0.02354802290324361 0.0019841795986294407 0 -0.023851811112123505 0.0026479362518748734 0 -0.024836460786355676 0.0021633871507631434 0 -0.024563448058885575 0.0019592022097490911 0 -0.020714087502597237 0.0027622032771666472 0 -0.02111183848536409 0.0024215503267369328 0 -0.017962473332423942 0.0032379972227293639 0 -0.017688035137613564 0.0031871900904462728 0 -0.017823755972389888 0.003044646687733887 0 -0.017688035137613564 0.0031871900904462728 0 -0.017651942139402989 0.0030268498203735593 0 -0.017823755972389888 0.003044646687733887 0 -0.017651942139402989 0.0030268498203735593 0 -0.017823755972389888 0.003044646687733887 0 -0.01765683773430227 0.0028331081265383206 0 -0.017823755972389888 0.003044646687733887 0 -0.017915045549140036 0.0028638021871827124 0 -0.01765683773430227 0.0028331081265383206 0 -0.017915045549140036 0.0028638021871827124 0 -0.01765683773430227 0.0028331081265383206 0 -0.017837274331153258 0.0026843592136043186 0 -0.01770080914996806 0.0027807170808292624 0 -0.017848030354028915 0.0026683835242284027 0 -0.017694577421206458 0.0028035217718818573 0 -0.017707449765272238 0.002643355899026967 0 -0.017870021465207164 0.0026626640010431802 0 -0.017812067689506765 0.0025418908292443834 0 -0.017707449765272238 0.002643355899026967 0 -0.017870021465207164 0.0026626640010431802 0 -0.018027144817335986 0.0025242944074376928 0 -0.017915045549140036 0.0028638021871827124 0 -0.017837274331153258 0.0026843592136043186 0 -0.017812067689506765 0.0025418908292443834 0 -0.01803199040682674 0.0025205878926119283 0 -0.017870021465207164 0.0026626640010431802 0 -0.017535294257387053 0.0027040196430536973 0 -0.017385838997585546 0.0028058049627320133 0 -0.017351116266362342 0.0026177784885860547 0 -0.017620943728734594 0.002505619214831359 0 -0.017535294257387053 0.0027040196430536973 0 -0.017351116266362342 0.0026177784885860547 0 -0.017620943728734594 0.002505619214831359 0 -0.017707449765272238 0.002643355899026967 0 -0.017535294257387053 0.0027040196430536973 0 -0.017694577421206458 0.0028035217718818573 0 -0.017707449765272238 0.002643355899026967 0 -0.017535294257387053 0.0027040196430536973 0 -0.017694577421206458 0.0028035217718818573 0 -0.017535294257387053 0.0027040196430536973 0 -0.017507306003130808 0.0029429855447254353 0 -0.01770080914996806 0.0027807170808292624 0 -0.017622668988697226 0.0028384157644374707 0 -0.017535294257387053 0.0027040196430536973 0 -0.017385838997585546 0.0028058049627320133 0 -0.017507306003130808 0.0029429855447254353 0 -0.017385838997585546 0.0028058049627320133 0 -0.017507306003130808 0.0029429855447254353 0 -0.017329534544671434 0.0029635657534101988 0 -0.017507306003130808 0.0029429855447254353 0 -0.017434462770574137 0.003050613714649133 0 -0.017329534544671434 0.0029635657534101988 0 -0.017507306003130808 0.0029429855447254353 0 -0.01755059973145626 0.0030799693902493876 0 -0.017434462770574137 0.003050613714649133 0 -0.017651942139402989 0.0030268498203735593 0 -0.017507306003130808 0.0029429855447254353 0 -0.01755059973145626 0.0030799693902493876 0 -0.017651942139402989 0.0030268498203735593 0 -0.01765683773430227 0.0028331081265383206 0 -0.017507306003130808 0.0029429855447254353 0 -0.017688035137613564 0.0031871900904462728 0 -0.017651942139402989 0.0030268498203735593 0 -0.01755059973145626 0.0030799693902493876 0 -0.024836460786355676 0.0021633871507631434 0 -0.025231564838784949 0.0020252145254903795 0 -0.024985517975624091 0.0020684546585823652 0 -0.02111183848536409 0.0024215503267369328 0 -0.021337784601817206 0.0018890615040747739 0 -0.017688035137613564 0.0031871900904462728 0 -0.01755059973145626 0.0030799693902493876 0 -0.017452502011470823 0.003171822130254263 0 -0.017434462770574137 0.003050613714649133 0 -0.017452502011470823 0.003171822130254263 0 -0.017331702731071444 0.0030872918908597781 0 -0.01755059973145626 0.0030799693902493876 0 -0.017434462770574137 0.003050613714649133 0 -0.017452502011470823 0.003171822130254263 0 -0.025231564838784949 0.0020252145254903795 0 -0.025167966868684555 0.0018243699674034509 0 -0.025321396024302022 0.0018893584951874013 0 -0.025305216458711127 0.0014824570785291406 0 -0.025453511800444091 0.0010044158844461351 0 -0.025213283963848289 0.0011118521034440417 0 -0.024955098348249501 0.0014601766800051365 0 -0.024954472208363561 0.0011201261765566837 0 -0.025167966868684555 0.0018243699674034509 0 -0.025321396024302022 0.0018893584951874013 0 -0.025314255242866433 0.0017990992559169024 0 -0.025167966868684555 0.0018243699674034509 0 -0.025292642540943048 0.0016634537038289347 0 -0.025314255242866433 0.0017990992559169024 0 -0.025003097306942026 0.0011713970214123708 0 -0.025001033250171802 0.0014877681251167349 0 -0.024806597868292868 0.0011978934710858698 0 -0.025003097306942026 0.0011713970214123708 0 -0.025001033250171802 0.0014877681251167349 0 -0.025213283963848289 0.0011118521034440417 0 -0.025305216458711127 0.0014824570785291406 0 -0.025001033250171802 0.0014877681251167349 0 -0.025213283963848289 0.0011118521034440417 0 -0.025231564838784949 0.0020252145254903795 0 -0.025167966868684555 0.0018243699674034509 0 -0.024985517975624091 0.0020684546585823652 0 -0.025001033250171802 0.0014877681251167349 0 -0.024985517975624091 0.0020684546585823652 0 -0.024837348590058868 0.0018638723447964088 0 -0.024955098348249501 0.0014601766800051365 0 -0.024903457699998844 0.0016362332957227338 0 -0.025305216458711127 0.0014824570785291406 0 -0.025001033250171802 0.0014877681251167349 0 -0.024985517975624091 0.0020684546585823652 0 -0.024836460786355676 0.0021633871507631434 0 -0.024985517975624091 0.0020684546585823652 0 -0.024837348590058868 0.0018638723447964088 0 -0.024836460786355676 0.0021633871507631434 0 -0.024563448058885575 0.0019592022097490911 0 -0.024837348590058868 0.0018638723447964088 0 -0.024563448058885575 0.0019592022097490911 0 -0.024313703940599517 0.0016172834094427214 0 -0.024765646731812533 0.001600969435703472 0 -0.024563448058885575 0.0019592022097490911 0 -0.024837348590058868 0.0018638723447964088 0 -0.024765646731812533 0.001600969435703472 0 -0.025001033250171802 0.0014877681251167349 0 -0.024837348590058868 0.0018638723447964088 0 -0.024765646731812533 0.001600969435703472 0 -0.023851811112123505 0.0026479362518748734 0 -0.024563448058885575 0.0019592022097490911 0 -0.024313703940599517 0.0016172834094427214 0 -0.024313703940599517 0.0016172834094427214 0 -0.024162764887371992 0.0011324807572502503 0 -0.023827158070478961 0.0014468020615310806 0 -0.024313703940599517 0.0016172834094427214 0 -0.024465208132079929 0.0011778283731685231 0 -0.024593821633603765 0.0013931053216221278 0 -0.024313703940599517 0.0016172834094427214 0 -0.024465208132079929 0.0011778283731685231 0 -0.024162764887371992 0.0011324807572502503 0 -0.024313703940599517 0.0016172834094427214 0 -0.024765646731812533 0.001600969435703472 0 -0.024593821633603765 0.0013931053216221278 0 -0.024765646731812533 0.001600969435703472 0 -0.024593821633603765 0.0013931053216221278 0 -0.024806597868292868 0.0011978934710858698 0 -0.025001033250171802 0.0014877681251167349 0 -0.024765646731812533 0.001600969435703472 0 -0.024806597868292868 0.0011978934710858698 0 -0.024465208132079929 0.0011778283731685231 0 -0.024593821633603765 0.0013931053216221278 0 -0.024806597868292868 0.0011978934710858698 0 -0.024806597868292868 0.0011978934710858698 0 -0.024681846119389887 0.00085836073353500787 0 -0.024989695926885165 0.00090884367749110542 0 -0.024465208132079929 0.0011778283731685231 0 -0.024806597868292868 0.0011978934710858698 0 -0.024681846119389887 0.00085836073353500787 0 -0.024681846119389887 0.00085836073353500787 0 -0.024860076123719058 0.00074641759552920254 0 -0.024989695926885165 0.00090884367749110542 0 -0.024162764887371992 0.0011324807572502503 0 -0.024427080135151418 0.00088270376567088334 0 -0.024125066932206882 0.00084778210114459047 0 -0.024465208132079929 0.0011778283731685231 0 -0.024681846119389887 0.00085836073353500787 0 -0.024427080135151418 0.00088270376567088334 0 -0.024465208132079929 0.0011778283731685231 0 -0.024162764887371992 0.0011324807572502503 0 -0.024427080135151418 0.00088270376567088334 0 -0.024681846119389887 0.00085836073353500787 0 -0.024427080135151418 0.00088270376567088334 0 -0.0244735526569425 0.00061822109928924476 0 -0.024427080135151418 0.00088270376567088334 0 -0.024316475911253809 0.0007346424727568819 0 -0.0244735526569425 0.00061822109928924476 0 -0.024316475911253809 0.0007346424727568819 0 -0.024125066932206882 0.00084778210114459047 0 -0.024241096208034114 0.00061180454142084216 0 -0.024427080135151418 0.00088270376567088334 0 -0.024316475911253809 0.0007346424727568819 0 -0.024125066932206882 0.00084778210114459047 0 -0.0244735526569425 0.00061822109928924476 0 -0.024376549620646653 0.00041724131755328841 0 -0.024703469065362544 0.00037740321382893682 0 -0.024316475911253809 0.0007346424727568819 0 -0.0244735526569425 0.00061822109928924476 0 -0.024241096208034114 0.00061180454142084216 0 -0.0244735526569425 0.00061822109928924476 0 -0.024241096208034114 0.00061180454142084216 0 -0.024376549620646653 0.00041724131755328841 0 -0.0244735526569425 0.00061822109928924476 0 -0.024767134846798395 0.00060330997284881215 0 -0.024703469065362544 0.00037740321382893682 0 -0.024681846119389887 0.00085836073353500787 0 -0.024860076123719058 0.00074641759552920254 0 -0.024767134846798395 0.00060330997284881215 0 -0.024860076123719058 0.00074641759552920254 0 -0.024767134846798395 0.00060330997284881215 0 -0.024995368273206919 0.00063047832245222569 0 -0.024681846119389887 0.00085836073353500787 0 -0.0244735526569425 0.00061822109928924476 0 -0.024767134846798395 0.00060330997284881215 0 -0.024767134846798395 0.00060330997284881215 0 -0.024995368273206919 0.00063047832245222569 0 -0.024881434122039456 0.00045268954508165954 0 -0.024860076123719058 0.00074641759552920254 0 -0.024995368273206919 0.00063047832245222569 0 -0.024989695926885165 0.00090884367749110542 0 -0.024995368273206919 0.00063047832245222569 0 -0.025215785449441204 0.0005684933465992017 0 -0.025203397756168578 0.00080128023704870795 0 -0.024995368273206919 0.00063047832245222569 0 -0.025203397756168578 0.00080128023704870795 0 -0.024989695926885165 0.00090884367749110542 0 -0.024995368273206919 0.00063047832245222569 0 -0.025215785449441204 0.0005684933465992017 0 -0.025056234299638169 0.00040893691172256869 0 -0.025215785449441204 0.0005684933465992017 0 -0.025369559064887786 0.00071206914654628071 0 -0.025375583103633036 0.00053595236051555688 0 -0.025215785449441204 0.0005684933465992017 0 -0.025369559064887786 0.00071206914654628071 0 -0.025203397756168578 0.00080128023704870795 0 -0.025369559064887786 0.00071206914654628071 0 -0.025203397756168578 0.00080128023704870795 0 -0.025453511800444091 0.0010044158844461351 0 -0.025203397756168578 0.00080128023704870795 0 -0.025453511800444091 0.0010044158844461351 0 -0.025213283963848289 0.0011118521034440417 0 -0.025003097306942026 0.0011713970214123708 0 -0.025213283963848289 0.0011118521034440417 0 -0.024989695926885165 0.00090884367749110542 0 -0.025003097306942026 0.0011713970214123708 0 -0.024806597868292868 0.0011978934710858698 0 -0.024989695926885165 0.00090884367749110542 0 -0.025203397756168578 0.00080128023704870795 0 -0.025213283963848289 0.0011118521034440417 0 -0.024989695926885165 0.00090884367749110542 0 -0.01924294497389013 0.0010716321659007143 0 -0.019963858104272536 0.00073430615208552972 0 -0.01938537508142581 0.0013949999421419301 0 -0.019963858104272536 0.00073430615208552972 0 -0.01938537508142581 0.0013949999421419301 0 -0.020325436144639761 0.0014329135794845867 0 -0.01938537508142581 0.0013949999421419301 0 -0.019507715845872339 0.0022707705672434758 0 -0.020325436144639761 0.0014329135794845867 0 -0.019178589509768945 0.0013286931616897412 0 -0.018977139429207868 0.0012939181236489936 0 -0.01938537508142581 0.0013949999421419301 0 -0.018940671788674257 0.0033625013837974465 0 -0.01938537508142581 0.0013949999421419301 0 -0.019507715845872339 0.0022707705672434758 0 -0.018932640046393258 0.0020663442546669216 0 -0.019024652844539799 0.0017975624106866006 0 -0.019507715845872339 0.0022707705672434758 0 -0.020325436144639761 0.0014329135794845867 0 -0.020534058749988364 0.0022707915257666289 0 -0.021911913991296765 0.0031427085183069942 0 -0.020534058749988364 0.0022707915257666289 0 -0.021453044127583233 0.0018546161049909711 0 -0.020325436144639761 0.0014329135794845867 0 -0.020534058749988364 0.0022707915257666289 0 -0.021453044127583233 0.0018546161049909711 0 -0.019963858104272536 0.00073430615208552972 0 -0.021191864886489525 0.00093910479338195178 0 -0.020598198928921556 -0.00034160046121292198 0 -0.019963858104272536 0.00073430615208552972 0 -0.020325436144639761 0.0014329135794845867 0 -0.021191864886489525 0.00093910479338195178 0 -0.020325436144639761 0.0014329135794845867 0 -0.021453044127583233 0.0018546161049909711 0 -0.021191864886489525 0.00093910479338195178 0 -0.021191864886489525 0.00093910479338195178 0 -0.022865300391539257 0.0015181951773023841 0 -0.02259993315418142 0.00028262022006856344 0 -0.023387263340658451 0.00092293922322729289 0 -0.023423353692788092 0.00065305062264613579 0 -0.021453044127583233 0.0018546161049909711 0 -0.021191864886489525 0.00093910479338195178 0 -0.022865300391539257 0.0015181951773023841 0 -0.022865300391539257 0.0015181951773023841 0 -0.023724515670891032 0.0010956935250725918 0 -0.023369128580110501 0.001033272142918052 0 -0.021911913991296765 0.0031427085183069942 0 -0.021453044127583233 0.0018546161049909711 0 -0.022865300391539257 0.0015181951773023841 0 -0.021911913991296765 0.0031427085183069942 0 -0.022865300391539257 0.0015181951773023841 0 -0.02354802290324361 0.0019841795986294407 0 -0.022865300391539257 0.0015181951773023841 0 -0.02354802290324361 0.0019841795986294407 0 -0.023827158070478961 0.0014468020615310806 0 -0.024313703940599517 0.0016172834094427214 0 -0.02354802290324361 0.0019841795986294407 0 -0.023827158070478961 0.0014468020615310806 0 -0.023851811112123505 0.0026479362518748734 0 -0.024313703940599517 0.0016172834094427214 0 -0.02354802290324361 0.0019841795986294407 0 -0.022865300391539257 0.0015181951773023841 0 -0.023827158070478961 0.0014468020615310806 0 -0.023724515670891032 0.0010956935250725918 0 -0.024162764887371992 0.0011324807572502503 0 -0.023827158070478961 0.0014468020615310806 0 -0.023724515670891032 0.0010956935250725918 0 -0.024162764887371992 0.0011324807572502503 0 -0.023724515670891032 0.0010956935250725918 0 -0.024125066932206882 0.00084778210114459047 0 -0.023724515670891032 0.0010956935250725918 0 -0.023815584129912869 0.00082955226135233311 0 -0.024125066932206882 0.00084778210114459047 0 -0.023724515670891032 0.0010956935250725918 0 -0.023815584129912869 0.00082955226135233311 0 -0.023369128580110501 0.001033272142918052 0 -0.023815584129912869 0.00082955226135233311 0 -0.024005974080221183 0.00055410017714717754 0 -0.023608851861476644 0.00059405825288427739 0 -0.023815584129912869 0.00082955226135233311 0 -0.024049346967626332 0.00067822845168539201 0 -0.024005974080221183 0.00055410017714717754 0 -0.023815584129912869 0.00082955226135233311 0 -0.024049346967626332 0.00067822845168539201 0 -0.024125066932206882 0.00084778210114459047 0 -0.024049346967626332 0.00067822845168539201 0 -0.024125066932206882 0.00084778210114459047 0 -0.024241096208034114 0.00061180454142084216 0 -0.024194338021543697 0.00048982963064690905 0 -0.024005974080221183 0.00055410017714717754 0 -0.024292477834557416 0.00031304712456454363 0 -0.024049346967626332 0.00067822845168539201 0 -0.024241096208034114 0.00061180454142084216 0 -0.024194338021543697 0.00048982963064690905 0 -0.024241096208034114 0.00061180454142084216 0 -0.024194338021543697 0.00048982963064690905 0 -0.024376549620646653 0.00041724131755328841 0 -0.024049346967626332 0.00067822845168539201 0 -0.024194338021543697 0.00048982963064690905 0 -0.024005974080221183 0.00055410017714717754 0 -0.024005974080221183 0.00055410017714717754 0 -0.023986984694150382 0.00055564574069896214 0 -0.024292477834557416 0.00031304712456454363 0 -0.025063879302530106 0.00032285215349220619 0 -0.024994959968623286 0.00027495914523014542 0 -0.025052361851508109 0.00019977606015621075 0 -0.023543981762557644 0.00020720790985940328 0 -0.024241270093793975 0.00030170391113756075 0 -0.023573751728031288 0.00021266362958442841 0 -0.023543981762557644 0.00020720790985940328 0 -0.022498290744724283 -0.00092930761902725392 0 -0.02259993315418142 0.00028262022006856344 0 -0.020598198928921556 -0.00034160046121292198 0 -0.023815584129912869 0.00082955226135233311 0 -0.023608851861476644 0.00059405825288427739 0 -0.023369128580110501 0.001033272142918052 0 -0.023543981762557644 0.00020720790985940328 0 -0.023423353692788092 0.00065305062264613579 0 -0.023543981762557644 0.00020720790985940328 0 -0.022975074231415166 0.0003041839902596639 0 -0.021191864886489525 0.00093910479338195178 0 -0.02259993315418142 0.00028262022006856344 0 -0.020598198928921556 -0.00034160046121292198 0 -0.024957667937470316 0.00035897544449522794 0 -0.024994959968623286 0.00027495914523014542 0 -0.024923479024637527 0.00025276061935024295 0 -0.025063879302530106 0.00032285215349220619 0 -0.024957667937470316 0.00035897544449522794 0 -0.024994959968623286 0.00027495914523014542 0 -0.024848126664345622 0.00030043022244832633 0 -0.024957667937470316 0.00035897544449522794 0 -0.024923479024637527 0.00025276061935024295 0 -0.024848126664345622 0.00030043022244832633 0 -0.024874468612532525 0.000219385119058908 0 -0.024923479024637527 0.00025276061935024295 0 -0.024836306235023836 0.00041632140303995708 0 -0.024848126664345622 0.00030043022244832633 0 -0.024957667937470316 0.00035897544449522794 0 -0.019283093983197053 0.00058166642270837524 0 -0.019963858104272536 0.00073430615208552972 0 -0.020598198928921556 -0.00034160046121292198 0 -0.022434259961495024 0.00054881070342222113 0 -0.022975074231415166 0.0003041839902596639 0 -0.024876869459913648 0.00013625329559427228 0 -0.02492533391331981 0.00013136502698505816 0 -0.024900330612013688 0.00015323388434922635 0 -0.02492533391331981 0.00013136502698505816 0 -0.024900330612013688 0.00015323388434922635 0 -0.024916779023095355 0.00017887847570963896 0 -0.02492533391331981 0.00013136502698505816 0 -0.024916779023095355 0.00017887847570963896 0 -0.024969836665012794 0.00014099800760930593 0 -0.024876869459913648 0.00013625329559427228 0 -0.024900330612013688 0.00015323388434922635 0 -0.024875122593007531 0.00017796399110915121 0 -0.024900330612013688 0.00015323388434922635 0 -0.024875122593007531 0.00017796399110915121 0 -0.024916779023095355 0.00017887847570963896 0 -0.024875122593007531 0.00017796399110915121 0 -0.024874468612532525 0.000219385119058908 0 -0.024916779023095355 0.00017887847570963896 0 -0.024874468612532525 0.000219385119058908 0 -0.024923479024637527 0.00025276061935024295 0 -0.024916779023095355 0.00017887847570963896 0 -0.024923479024637527 0.00025276061935024295 0 -0.024916779023095355 0.00017887847570963896 0 -0.024971525334353026 0.00020901105721863315 0 -0.024994959968623286 0.00027495914523014542 0 -0.024971525334353026 0.00020901105721863315 0 -0.025052361851508109 0.00019977606015621075 0 -0.024971525334353026 0.00020901105721863315 0 -0.024969836665012794 0.00014099800760930593 0 -0.025052361851508109 0.00019977606015621075 0 -0.024994959968623286 0.00027495914523014542 0 -0.024923479024637527 0.00025276061935024295 0 -0.024971525334353026 0.00020901105721863315 0 -0.024916779023095355 0.00017887847570963896 0 -0.024971525334353026 0.00020901105721863315 0 -0.024969836665012794 0.00014099800760930593 0 -0.024969836665012794 0.00014099800760930593 0 -0.025052361851508109 0.00019977606015621075 0 -0.025031536460652554 8.3569089829309558e-05 0 -0.024292477834557416 0.00031304712456454363 0 -0.024657054394860475 0.00012891849900507641 0 -0.024646536206087411 8.4828446312083179e-05 0 -0.024241270093793975 0.00030170391113756075 0 -0.024671929797628923 0.00018204215155082713 0 -0.024194338021543697 0.00048982963064690905 0 -0.024292477834557416 0.00031304712456454363 0 -0.024376549620646653 0.00041724131755328841 0 -0.024292477834557416 0.00031304712456454363 0 -0.024376549620646653 0.00041724131755328841 0 -0.024613881314195958 0.00023987178136747561 0 -0.024292477834557416 0.00031304712456454363 0 -0.024657054394860475 0.00012891849900507641 0 -0.024613881314195958 0.00023987178136747561 0 -0.024657054394860475 0.00012891849900507641 0 -0.024825476849367072 3.8787800364718795e-05 0 -0.024646536206087411 8.4828446312083179e-05 0 -0.024657054394860475 0.00012891849900507641 0 -0.024825476849367072 3.8787800364718795e-05 0 -0.024855830349722954 5.7558327658157104e-05 0 -0.024825476849367072 3.8787800364718795e-05 0 -0.024999562686225184 7.5549227939782267e-09 0 -0.024999758136317666 1.9862865458266193e-08 0 -0.02500014642272758 3.4823501100259926e-08 0 -0.025031536460652554 8.3569089829309558e-05 0 -0.024999860036833122 -3.0560844205179042e-08 0 -0.024825476849367072 3.8787800364718795e-05 0 -0.024999562686225184 7.5549227939782267e-09 0 -0.024646536206087411 8.4828446312083179e-05 0 -0.02499938565446936 2.6330169461813541e-07 0 -0.024671929797628923 0.00018204215155082713 0 -0.024969836665012794 0.00014099800760930593 0 -0.025031536460652554 8.3569089829309558e-05 0 -0.024944515952787547 6.0370450583811127e-05 0 -0.02492533391331981 0.00013136502698505816 0 -0.024969836665012794 0.00014099800760930593 0 -0.024944515952787547 6.0370450583811127e-05 0 -0.024999962474766518 3.6695195308085343e-08 0 -0.024965705795419346 3.8380873276936456e-05 0 -0.025000002455943037 1.8645074717589958e-09 0 -0.024999993711802171 -3.5405965606242897e-09 0 -0.02499824305931329 4.3392810146517426e-07 0 -0.025031536460652554 8.3569089829309558e-05 0 -0.024999860036833122 -3.0560844205179042e-08 0 -0.024944515952787547 6.0370450583811127e-05 0 -0.024988934516820188 1.3598182234256523e-06 0 -0.024999993711802171 -3.5405965606242897e-09 0 -0.02499824305931329 4.3392810146517426e-07 0 -0.024923221143399479 8.7166886725044613e-05 0 -0.024965705795419346 3.8380873276936456e-05 0 -0.024876869459913648 0.00013625329559427228 0 -0.02492533391331981 0.00013136502698505816 0 -0.024944515952787547 6.0370450583811127e-05 0 -0.024983614772424785 3.4342042818051669e-06 0 -0.024988934516820188 1.3598182234256523e-06 0 -0.02499824305931329 4.3392810146517426e-07 0 -0.024983614772424785 3.4342042818051669e-06 0 -0.024994143265402377 1.3341784915998691e-05 0 -0.02499824305931329 4.3392810146517426e-07 0 -0.02505581691542548 0.00021689955000573746 0 -0.024924057768029462 0.0003098107599579253 0 -0.024856370672810456 0.00018766389932177519 0 -0.02505581691542548 0.00021689955000573746 0 -0.024856370672810456 0.00018766389932177519 0 -0.024998765472544135 5.9676755462073611e-05 0 -0.02505581691542548 0.00021689955000573746 0 -0.025227036723390078 0.0003617069969247314 0 -0.025214714130811337 9.7712427446691299e-05 0 -0.02505581691542548 0.00021689955000573746 0 -0.025227036723390078 0.0003617069969247314 0 -0.025056234299638169 0.00040893691172256869 0 -0.025215785449441204 0.0005684933465992017 0 -0.025227036723390078 0.0003617069969247314 0 -0.025375583103633036 0.00053595236051555688 0 -0.025215785449441204 0.0005684933465992017 0 -0.025227036723390078 0.0003617069969247314 0 -0.025056234299638169 0.00040893691172256869 0 -0.02505581691542548 0.00021689955000573746 0 -0.025056234299638169 0.00040893691172256869 0 -0.024924057768029462 0.0003098107599579253 0 -0.025056234299638169 0.00040893691172256869 0 -0.024924057768029462 0.0003098107599579253 0 -0.024881434122039456 0.00045268954508165954 0 -0.024995368273206919 0.00063047832245222569 0 -0.025056234299638169 0.00040893691172256869 0 -0.024881434122039456 0.00045268954508165954 0 -0.024924057768029462 0.0003098107599579253 0 -0.024703469065362544 0.00037740321382893682 0 -0.024856370672810456 0.00018766389932177519 0 -0.024767134846798395 0.00060330997284881215 0 -0.024881434122039456 0.00045268954508165954 0 -0.024703469065362544 0.00037740321382893682 0 -0.024924057768029462 0.0003098107599579253 0 -0.024881434122039456 0.00045268954508165954 0 -0.024703469065362544 0.00037740321382893682 0 -0.024376549620646653 0.00041724131755328841 0 -0.024703469065362544 0.00037740321382893682 0 -0.024613881314195958 0.00023987178136747561 0 -0.024657054394860475 0.00012891849900507641 0 -0.024613881314195958 0.00023987178136747561 0 -0.024855830349722954 5.7558327658157104e-05 0 -0.024703469065362544 0.00037740321382893682 0 -0.024613881314195958 0.00023987178136747561 0 -0.024856370672810456 0.00018766389932177519 0 -0.024613881314195958 0.00023987178136747561 0 -0.024856370672810456 0.00018766389932177519 0 -0.024855830349722954 5.7558327658157104e-05 0 -0.024856370672810456 0.00018766389932177519 0 -0.024855830349722954 5.7558327658157104e-05 0 -0.024998765472544135 5.9676755462073611e-05 0 -0.024825476849367072 3.8787800364718795e-05 0 -0.024855830349722954 5.7558327658157104e-05 0 -0.024999758136317666 1.9862865458266193e-08 0 -0.024855830349722954 5.7558327658157104e-05 0 -0.024999758136317666 1.9862865458266193e-08 0 -0.024999893773676968 1.8486133778385437e-08 0 -0.024855830349722954 5.7558327658157104e-05 0 -0.024999893773676968 1.8486133778385437e-08 0 -0.024998765472544135 5.9676755462073611e-05 0 -0.024999893773676968 1.8486133778385437e-08 0 -0.024998765472544135 5.9676755462073611e-05 0 -0.025000382643992614 -5.6609806100850985e-08 0 -0.02505581691542548 0.00021689955000573746 0 -0.024998765472544135 5.9676755462073611e-05 0 -0.025214714130811337 9.7712427446691299e-05 0 -0.024998765472544135 5.9676755462073611e-05 0 -0.025000382643992614 -5.6609806100850985e-08 0 -0.025214714130811337 9.7712427446691299e-05 0 -0.024999990448003186 -3.4995620894085707e-09 0 -0.024999001754122556 3.018094265029255e-06 0 -0.024999997310715009 5.0469169302884726e-09 0 -0.024999990448003186 -3.4995620894085707e-09 0 -0.024999001754122556 3.018094265029255e-06 0 -0.0249953675995402 1.269695372856218e-05 0 -0.024999947590561521 1.7478525025525867e-07 0 -0.024970272072333891 0.00015413665881267984 0 -0.024999001754122556 3.018094265029255e-06 0 -0.024996061564280494 2.8808181203830873e-06 0 -0.024995585429428254 3.6598205006497564e-06 0 -0.024999001754122556 3.018094265029255e-06 0 -0.024999997310715009 5.0469169302884726e-09 0 -0.024996061564280494 2.8808181203830873e-06 0 -0.024999997310715009 5.0469169302884726e-09 0 -0.024996061564280494 2.8808181203830873e-06 0 -0.024997707616333752 1.343485893599958e-06 0 -0.024996061564280494 2.8808181203830873e-06 0 -0.024994321634244261 3.3943884439262858e-06 0 -0.024997707616333752 1.343485893599958e-06 0 -0.024996061564280494 2.8808181203830873e-06 0 -0.02499421856174662 4.1247080471498958e-06 0 -0.024995585429428254 3.6598205006497564e-06 0 -0.024996061564280494 2.8808181203830873e-06 0 -0.02499421856174662 4.1247080471498958e-06 0 -0.024993151941134734 4.4789991738345596e-06 0 -0.02499421856174662 4.1247080471498958e-06 0 -0.024993151941134734 4.4789991738345596e-06 0 -0.024991961832366388 5.4711354600355884e-06 0 -0.024996061564280494 2.8808181203830873e-06 0 -0.024993151941134734 4.4789991738345596e-06 0 -0.024994321634244261 3.3943884439262858e-06 0 -0.024908225766196574 6.2341324635132827e-05 0 -0.02489372618877387 0.00011273094025004422 0 -0.024999001754122556 3.018094265029255e-06 0 -0.0249953675995402 1.269695372856218e-05 0 -0.024997117409279818 1.6024381331320017e-05 0 -0.024999001754122556 3.018094265029255e-06 0 -0.024995585429428254 3.6598205006497564e-06 0 -0.02499311959236734 4.7087075074322593e-06 0 -0.02499421856174662 4.1247080471498958e-06 0 -0.024995585429428254 3.6598205006497564e-06 0 -0.02499311959236734 4.7087075074322593e-06 0 -0.02499421856174662 4.1247080471498958e-06 0 -0.02499311959236734 4.7087075074322593e-06 0 -0.024991961832366388 5.4711354600355884e-06 0 -0.02499311959236734 4.7087075074322593e-06 0 -0.024991961832366388 5.4711354600355884e-06 0 -0.024990971641686892 6.2448954861729269e-06 0 -0.025227036723390078 0.0003617069969247314 0 -0.025214714130811337 9.7712427446691299e-05 0 -0.025451797189689183 0.00038209503253851972 0 -0.024970272072333891 0.00015413665881267984 0 -0.024852978537476849 0.00035654767849528028 0 -0.02489372618877387 0.00011273094025004422 0 -0.024852978537476849 0.00035654767849528028 0 -0.0249953675995402 1.269695372856218e-05 0 -0.024997117409279818 1.6024381331320017e-05 0 -0.02499490197633147 3.5563020300377764e-05 0 -0.024993151941134734 4.4789991738345596e-06 0 -0.024987703163331269 6.3635613189118225e-06 0 -0.024994321634244261 3.3943884439262858e-06 0 -0.024993151941134734 4.4789991738345596e-06 0 -0.024991961832366388 5.4711354600355884e-06 0 -0.024987703163331269 6.3635613189118225e-06 0 -0.024991961832366388 5.4711354600355884e-06 0 -0.024990971641686892 6.2448954861729269e-06 0 -0.024987703163331269 6.3635613189118225e-06 0 -0.024962155658197302 0.00021912678252671659 0 -0.024733460995969136 0.00059040875767840217 0 -0.024987703163331269 6.3635613189118225e-06 0 -0.024969690380240446 1.6278844184569456e-05 0 -0.02498087408992276 1.3627658580086091e-05 0 -0.024990971641686892 6.2448954861729269e-06 0 -0.024987703163331269 6.3635613189118225e-06 0 -0.024990067956709851 5.6783679292634744e-06 0 -0.024852978537476849 0.00035654767849528028 0 -0.024758065746055952 0.00071463335243538686 0 -0.025227036723390078 0.0003617069969247314 0 -0.025451797189689183 0.00038209503253851972 0 -0.025375583103633036 0.00053595236051555688 0 -0.025451797189689183 0.00038209503253851972 0 -0.02556819981955032 0.00067090362610294633 0 -0.025375583103633036 0.00053595236051555688 0 -0.024852978537476849 0.00035654767849528028 0 -0.024733460995969136 0.00059040875767840217 0 -0.024989783950569684 9.0438217816436797e-06 0 -0.0249905489341785 1.1026062376781136e-05 0 -0.024987101405412139 1.480724987873295e-05 0 -0.024989783950569684 9.0438217816436797e-06 0 -0.02498549596414195 1.2094483747854336e-05 0 -0.024987101405412139 1.480724987873295e-05 0 -0.02498549596414195 1.2094483747854336e-05 0 -0.024987703163331269 6.3635613189118225e-06 0 -0.02498087408992276 1.3627658580086091e-05 0 -0.024989783950569684 9.0438217816436797e-06 0 -0.02498549596414195 1.2094483747854336e-05 0 -0.024987703163331269 6.3635613189118225e-06 0 -0.024987703163331269 6.3635613189118225e-06 0 -0.024993682736119589 4.3233468482936073e-06 0 -0.024994321634244261 3.3943884439262858e-06 0 -0.024989783950569684 9.0438217816436797e-06 0 -0.024987703163331269 6.3635613189118225e-06 0 -0.024993682736119589 4.3233468482936073e-06 0 -0.024990046843589051 1.0654518335021646e-06 0 -0.02498735372490293 -3.1396752056963204e-07 0 -0.024989783950569684 9.0438217816436797e-06 0 -0.024993682736119589 4.3233468482936073e-06 0 -0.024992031920499012 7.7244828005856172e-06 0 -0.024993682736119589 4.3233468482936073e-06 0 -0.024997937833287329 1.1937439741331459e-06 0 -0.024998258754798129 1.7041116431642548e-06 0 -0.024993682736119589 4.3233468482936073e-06 0 -0.024997937833287329 1.1937439741331459e-06 0 -0.024994321634244261 3.3943884439262858e-06 0 -0.024997937833287329 1.1937439741331459e-06 0 -0.024994321634244261 3.3943884439262858e-06 0 -0.024997707616333752 1.343485893599958e-06 0 -0.024997937833287329 1.1937439741331459e-06 0 -0.024999995857718234 -7.4593869287926317e-10 0 -0.024997707616333752 1.343485893599958e-06 0 -0.024999997310715009 5.0469169302884726e-09 0 -0.024999995857718234 -7.4593869287926317e-10 0 -0.024997707616333752 1.343485893599958e-06 0 -0.024997937833287329 1.1937439741331459e-06 0 -0.024999995857718234 -7.4593869287926317e-10 0 -0.024999996334866919 3.5746008909743341e-09 0 -0.024997937833287329 1.1937439741331459e-06 0 -0.024999996334866919 3.5746008909743341e-09 0 -0.024998707170881505 1.0718698444808008e-06 0 -0.02499999737712456 6.2597835112627913e-10 0 -0.024998273607974995 4.1023344824297623e-08 0 -0.024999996334866919 3.5746008909743341e-09 0 -0.024998707170881505 1.0718698444808008e-06 0 -0.024997531773498435 2.1033303766785656e-06 0 -0.024999999472689272 3.3045362554007728e-10 0 -0.025000001430274501 -8.141229693555752e-10 0 -0.0250000636995618 -1.8200074934029724e-07 0 -0.024998707170881505 1.0718698444808008e-06 0 -0.024997531773498435 2.1033303766785656e-06 0 -0.024997691900053406 1.1578951923547538e-06 0 -0.024998707170881505 1.0718698444808008e-06 0 -0.024997691900053406 1.1578951923547538e-06 0 -0.024998309214181291 1.1543182351416253e-06 0 -0.024997691900053406 1.1578951923547538e-06 0 -0.024997107248188589 2.4445501107302537e-07 0 -0.024998309214181291 1.1543182351416253e-06 0 -0.024997937833287329 1.1937439741331459e-06 0 -0.024998707170881505 1.0718698444808008e-06 0 -0.024998309214181291 1.1543182351416253e-06 0 -0.024997937833287329 1.1937439741331459e-06 0 -0.024998309214181291 1.1543182351416253e-06 0 -0.024998258754798129 1.7041116431642548e-06 0 -0.024999995568561265 1.4738809718073686e-09 0 -0.024996114672321743 -6.2148233782246591e-07 0 -0.024999689532683847 -9.9838877111873906e-07 0 -0.025000001430274501 -8.141229693555752e-10 0 -0.0250000636995618 -1.8200074934029724e-07 0 -0.024999689532683847 -9.9838877111873906e-07 0 -0.024997531773498435 2.1033303766785656e-06 0 -0.024997691900053406 1.1578951923547538e-06 0 -0.024993975371183457 1.5990346589561577e-06 0 -0.025000001430274501 -8.141229693555752e-10 0 -0.024999995568561265 1.4738809718073686e-09 0 -0.024999689532683847 -9.9838877111873906e-07 0 -0.024998273607974995 4.1023344824297623e-08 0 -0.02499661760281505 -1.2286414673583375e-07 0 -0.024997691900053406 1.1578951923547538e-06 0 -0.024997107248188589 2.4445501107302537e-07 0 -0.024993975371183457 1.5990346589561577e-06 0 -0.024997107248188589 2.4445501107302537e-07 0 -0.024993975371183457 1.5990346589561577e-06 0 -0.024994140478870521 -1.3910344371206272e-06 0 -0.02499661760281505 -1.2286414673583375e-07 0 -0.024995051783633114 -5.1378415350544157e-07 0 -0.024993975371183457 1.5990346589561577e-06 0 -0.02499131705362732 -1.0870024768385527e-06 0 -0.024990145633078241 -9.8402228719111867e-07 0 -0.024996114672321743 -6.2148233782246591e-07 0 -0.024999689532683847 -9.9838877111873906e-07 0 -0.024990145633078241 -9.8402228719111867e-07 0 -0.024993975371183457 1.5990346589561577e-06 0 -0.02499131705362732 -1.0870024768385527e-06 0 -0.024994140478870521 -1.3910344371206272e-06 0 -0.024991625730249219 -2.8537988761077229e-06 0 -0.024994140478870521 -1.3910344371206272e-06 0 -0.024993428352543041 -4.083617702970312e-06 0 -0.024991625730249219 -2.8537988761077229e-06 0 -0.02499131705362732 -1.0870024768385527e-06 0 -0.024994140478870521 -1.3910344371206272e-06 0 -0.024997107248188589 2.4445501107302537e-07 0 -0.024994140478870521 -1.3910344371206272e-06 0 -0.024996710082105539 -1.8238424247659901e-06 0 -0.024996927603789815 1.2373580727806512e-05 0 -0.025000082646880771 1.1203654902589145e-05 0 -0.02499545777706277 9.5746952091072131e-06 0 -0.024898908898278421 -3.6137087910600196e-05 0 -0.024970367152789181 -7.7655333609556085e-06 0 -0.024994140478870521 -1.3910344371206272e-06 0 -0.024993428352543041 -4.083617702970312e-06 0 -0.024996710082105539 -1.8238424247659901e-06 0 -0.024920804316665067 2.6287130797816606e-05 0 -0.024931471582001201 3.8977666371527019e-05 0 -0.024957745863319152 3.1468949919465425e-05 0 -0.024960539318795796 9.2995470090838201e-06 0 -0.024943555792963035 2.47170495973796e-05 0 -0.024967608419858608 1.9893220213387511e-05 0 -0.024898908898278421 -3.6137087910600196e-05 0 -0.024921221618889006 -2.300290753648607e-05 0 -0.024943555792963035 2.47170495973796e-05 0 -0.024957745863319152 3.1468949919465425e-05 0 -0.024967608419858608 1.9893220213387511e-05 0 -0.024922357218944171 -3.0126423068710269e-05 0 -0.024898908898278421 -3.6137087910600196e-05 0 -0.024997107248188589 2.4445501107302537e-07 0 -0.024998258754798129 1.7041116431642548e-06 0 -0.024996710082105539 -1.8238424247659901e-06 0 -0.02498735372490293 -3.1396752056963204e-07 0 -0.024970367152789181 -7.7655333609556085e-06 0 -0.024997107248188589 2.4445501107302537e-07 0 -0.024998309214181291 1.1543182351416253e-06 0 -0.024998258754798129 1.7041116431642548e-06 0 -0.024996927603789815 1.2373580727806512e-05 0 -0.02499545777706277 9.5746952091072131e-06 0 -0.024994170434785485 1.3316374806043609e-05 0 -0.02499545777706277 9.5746952091072131e-06 0 -0.024992556642923033 1.0809137290917954e-05 0 -0.024994170434785485 1.3316374806043609e-05 0 -0.024992031920499012 7.7244828005856172e-06 0 -0.02499545777706277 9.5746952091072131e-06 0 -0.024992556642923033 1.0809137290917954e-05 0 -0.024992031920499012 7.7244828005856172e-06 0 -0.024992556642923033 1.0809137290917954e-05 0 -0.0249905489341785 1.1026062376781136e-05 0 -0.024992556642923033 1.0809137290917954e-05 0 -0.0249905489341785 1.1026062376781136e-05 0 -0.024990618805396034 1.4903574625000663e-05 0 -0.024989783950569684 9.0438217816436797e-06 0 -0.024992031920499012 7.7244828005856172e-06 0 -0.0249905489341785 1.1026062376781136e-05 0 -0.0249905489341785 1.1026062376781136e-05 0 -0.024990618805396034 1.4903574625000663e-05 0 -0.024987101405412139 1.480724987873295e-05 0 -0.024990618805396034 1.4903574625000663e-05 0 -0.024987569114712886 1.9043715374440577e-05 0 -0.02498968304668801 1.9516457779994658e-05 0 -0.024990618805396034 1.4903574625000663e-05 0 -0.024987569114712886 1.9043715374440577e-05 0 -0.024987101405412139 1.480724987873295e-05 0 -0.024990618805396034 1.4903574625000663e-05 0 -0.024992049405364491 1.8160538396935981e-05 0 -0.02498968304668801 1.9516457779994658e-05 0 -0.024992556642923033 1.0809137290917954e-05 0 -0.024990618805396034 1.4903574625000663e-05 0 -0.024994170434785485 1.3316374806043609e-05 0 -0.024994170434785485 1.3316374806043609e-05 0 -0.024992049405364491 1.8160538396935981e-05 0 -0.024996523857678223 1.6181749979959016e-05 0 -0.024996927603789815 1.2373580727806512e-05 0 -0.024994170434785485 1.3316374806043609e-05 0 -0.024996523857678223 1.6181749979959016e-05 0 -0.024990618805396034 1.4903574625000663e-05 0 -0.024994170434785485 1.3316374806043609e-05 0 -0.024992049405364491 1.8160538396935981e-05 0 -0.024963150272458504 1.8746872734657752e-05 0 -0.024919057611529113 5.1086481873878329e-05 0 -0.024929243819004066 2.7692857899908704e-05 0 -0.024992049405364491 1.8160538396935981e-05 0 -0.024991198978337167 2.3271660384351903e-05 0 -0.024996523857678223 1.6181749979959016e-05 0 -0.02422666197406162 -9.8378087199404014e-05 0 -0.024696034672096658 -0.00010290730484408584 0 -0.024992049405364491 1.8160538396935981e-05 0 -0.024991198978337167 2.3271660384351903e-05 0 -0.024989716834415792 2.2939772648429746e-05 0 -0.02422666197406162 -9.8378087199404014e-05 0 -0.024253289878845358 -8.9839140682686818e-05 0 -0.024991260786329451 2.3649036247454701e-05 0 -0.024989716834415792 2.2939772648429746e-05 0 -0.024987588268982522 2.4301368677623112e-05 0 -0.024989716834415792 2.2939772648429746e-05 0 -0.024987998406410406 2.1756881045866071e-05 0 -0.02498968304668801 1.9516457779994658e-05 0 -0.024989716834415792 2.2939772648429746e-05 0 -0.024987998406410406 2.1756881045866071e-05 0 -0.024987588268982522 2.4301368677623112e-05 0 -0.024987998406410406 2.1756881045866071e-05 0 -0.024987569114712886 1.9043715374440577e-05 0 -0.024985443010195302 2.3198828934388213e-05 0 -0.024987998406410406 2.1756881045866071e-05 0 -0.024987588268982522 2.4301368677623112e-05 0 -0.024985443010195302 2.3198828934388213e-05 0 -0.024987998406410406 2.1756881045866071e-05 0 -0.024987569114712886 1.9043715374440577e-05 0 -0.02498968304668801 1.9516457779994658e-05 0 -0.024992049405364491 1.8160538396935981e-05 0 -0.024989716834415792 2.2939772648429746e-05 0 -0.02498968304668801 1.9516457779994658e-05 0 -0.024920804316665067 2.6287130797816606e-05 0 -0.024931471582001201 3.8977666371527019e-05 0 -0.024919305045938905 4.555903247375024e-05 0 -0.024933854207239991 5.1028685629423123e-05 0 -0.024931471582001201 3.8977666371527019e-05 0 -0.024957745863319152 3.1468949919465425e-05 0 -0.024933854207239991 5.1028685629423123e-05 0 -0.024931471582001201 3.8977666371527019e-05 0 -0.024919305045938905 4.555903247375024e-05 0 -0.024898908898278421 -3.6137087910600196e-05 0 -0.024696034672096658 -0.00010290730484408584 0 -0.024996927603789815 1.2373580727806512e-05 0 -0.025000082646880771 1.1203654902589145e-05 0 -0.024996523857678223 1.6181749979959016e-05 0 -0.024920804316665067 2.6287130797816606e-05 0 -0.024919305045938905 4.555903247375024e-05 0 -0.024919057611529113 5.1086481873878329e-05 0 -0.024919305045938905 4.555903247375024e-05 0 -0.024919057611529113 5.1086481873878329e-05 0 -0.024899466811894026 3.9453880285624291e-05 0 -0.024919057611529113 5.1086481873878329e-05 0 -0.024929243819004066 2.7692857899908704e-05 0 -0.024899466811894026 3.9453880285624291e-05 0 -0.024929243819004066 2.7692857899908704e-05 0 -0.024899466811894026 3.9453880285624291e-05 0 -0.024931386012225033 -5.7790173297713181e-06 0 -0.024933854207239991 5.1028685629423123e-05 0 -0.024919305045938905 4.555903247375024e-05 0 -0.024899466811894026 3.9453880285624291e-05 0 -0.02479667617432316 0.00014557045600105981 0 -0.024899466811894026 3.9453880285624291e-05 0 -0.024795263064179209 2.0699504038769215e-05 0 -0.024835038946417549 6.8908126504120152e-05 0 -0.024855657757752163 5.4946325304613161e-05 0 -0.02478665068987658 -5.4357256297310247e-05 0 -0.024862257979203564 -6.6477820026330538e-05 0 -0.024711272153089367 -0.00012870138748429267 0 -0.024899466811894026 3.9453880285624291e-05 0 -0.024795263064179209 2.0699504038769215e-05 0 -0.024860887841689754 -5.6270259143278981e-05 0 -0.024795263064179209 2.0699504038769215e-05 0 -0.02478665068987658 -5.4357256297310247e-05 0 -0.024860887841689754 -5.6270259143278981e-05 0 -0.023958908036284737 -0.00031876600100973738 0 -0.023800352583908269 -0.00031106105403977879 0 -0.023873228171463944 -0.00024119738250513029 0 -0.023798339077483008 -0.00026840797000716966 0 -0.02375583639941637 -0.00021920512127603775 0 -0.023800352583908269 -0.00031106105403977879 0 -0.023270954789387462 -0.00026113991493978878 0 -0.023800352583908269 -0.00031106105403977879 0 -0.024131704231025539 -0.00016715381383987512 0 -0.024899466811894026 3.9453880285624291e-05 0 -0.024860887841689754 -5.6270259143278981e-05 0 -0.024931386012225033 -5.7790173297713181e-06 0 -0.022504139359036179 -0.00098932148751134448 0 -0.022324421750981177 -0.00098824507392391799 0 -0.022416203267314572 -0.00087467839211962457 0 -0.023800352583908269 -0.00031106105403977879 0 -0.023690091969085666 -0.00046542671179372342 0 -0.022504139359036179 -0.00098932148751134448 0 -0.022635176229958275 -0.00090057668066408037 0 -0.022579805091044694 -0.00082605512242617859 0 -0.022504139359036179 -0.00098932148751134448 0 -0.022579805091044694 -0.00082605512242617859 0 -0.022416203267314572 -0.00087467839211962457 0 -0.024991260786329451 2.3649036247454701e-05 0 -0.024987588268982522 2.4301368677623112e-05 0 -0.024984212925144345 2.801755152629329e-05 0 -0.023723158332302555 -0.00029662074903758471 0 -0.02375583639941637 -0.00021920512127603775 0 -0.023637091171323732 -0.0001977683180862144 0 -0.02422666197406162 -9.8378087199404014e-05 0 -0.023332714021723353 -9.4987737496353596e-05 0 -0.024991260786329451 2.3649036247454701e-05 0 -0.024982425449971653 3.3801824296587229e-05 0 -0.024984212925144345 2.801755152629329e-05 0 -0.024987588268982522 2.4301368677623112e-05 0 -0.024984212925144345 2.801755152629329e-05 0 -0.024985443010195302 2.3198828934388213e-05 0 -0.023723158332302555 -0.00029662074903758471 0 -0.023798339077483008 -0.00026840797000716966 0 -0.02375583639941637 -0.00021920512127603775 0 -0.02422666197406162 -9.8378087199404014e-05 0 -0.024131704231025539 -0.00016715381383987512 0 -0.024963150272458504 1.8746872734657752e-05 0 -0.024929243819004066 2.7692857899908704e-05 0 -0.024931386012225033 -5.7790173297713181e-06 0 -0.022324421750981177 -0.00098824507392391799 0 -0.022253451308518524 -0.00085383135649730302 0 -0.022416203267314572 -0.00087467839211962457 0 -0.022324421750981177 -0.00098824507392391799 0 -0.02213509782765315 -0.00096707829224634086 0 -0.022253451308518524 -0.00085383135649730302 0 -0.023270954789387462 -0.00026113991493978878 0 -0.023332714021723353 -9.4987737496353596e-05 0 -0.022780366030634932 2.271879862735103e-05 0 -0.022455331235033821 7.939807584042983e-05 0 -0.02254761406866897 0.00028968431798568939 0 -0.023332714021723353 -9.4987737496353596e-05 0 -0.023324790502716363 0.00025750138388875454 0 -0.023332714021723353 -9.4987737496353596e-05 0 -0.022411916996711075 -2.9992248855867516e-05 0 -0.024982425449971653 3.3801824296587229e-05 0 -0.024976465285415726 2.9971056685578826e-05 0 -0.024974601567967616 3.607408888699908e-05 0 -0.024984212925144345 2.801755152629329e-05 0 -0.024981388740776548 2.5214983947023122e-05 0 -0.024976465285415726 2.9971056685578826e-05 0 -0.024982425449971653 3.3801824296587229e-05 0 -0.024984212925144345 2.801755152629329e-05 0 -0.024976465285415726 2.9971056685578826e-05 0 -0.024984212925144345 2.801755152629329e-05 0 -0.024981388740776548 2.5214983947023122e-05 0 -0.024985443010195302 2.3198828934388213e-05 0 -0.024976465285415726 2.9971056685578826e-05 0 -0.02496829857342938 2.7115624443251082e-05 0 -0.024977869881797135 2.3321546943839953e-05 0 -0.024981388740776548 2.5214983947023122e-05 0 -0.024976465285415726 2.9971056685578826e-05 0 -0.024977869881797135 2.3321546943839953e-05 0 -0.023324790502716363 0.00025750138388875454 0 -0.022817489013633022 0.00073048529059205499 0 -0.024976465285415726 2.9971056685578826e-05 0 -0.024974601567967616 3.607408888699908e-05 0 -0.024965601795264115 3.8099683605251679e-05 0 -0.022455331235033821 7.939807584042983e-05 0 -0.022280677874653036 0.00016308376773994099 0 -0.02213393250776053 0.00013704609556337033 0 -0.022401318015580356 0.00021302153279574931 0 -0.022455331235033821 7.939807584042983e-05 0 -0.02254761406866897 0.00028968431798568939 0 -0.022401318015580356 0.00021302153279574931 0 -0.022455331235033821 7.939807584042983e-05 0 -0.022280677874653036 0.00016308376773994099 0 -0.022280677874653036 0.00016308376773994099 0 -0.02213393250776053 0.00013704609556337033 0 -0.022142288171333149 0.00017462801739650505 0 -0.021742941510459742 0.0013253070320163904 0 -0.022156200247129165 0.0012948973546077008 0 -0.021686199662932445 0.0010697185758742689 0 -0.022280677874653036 0.00016308376773994099 0 -0.022141180856704697 0.00017344463588217282 0 -0.022159980101220236 0.00025880004143000402 0 -0.025521832521088379 0.0019496733199479645 0 -0.025448260416713265 0.0018796049464591953 0 -0.025480017244013043 0.0018015853112910458 0 -0.022817489013633022 0.00073048529059205499 0 -0.023877041814558103 0.0011882355787925466 0 -0.022461653215964082 0.00063334108515384409 0 -0.022480875399311602 0.00064318321077327587 0 -0.022480875399311602 0.00064318321077327587 0 -0.021992646186365331 0.00060090681272043306 0 -0.025521832521088379 0.0019496733199479645 0 -0.025524845048531006 0.0019658879423414817 0 -0.025462977781076299 0.0019709752224577018 0 -0.022817489013633022 0.00073048529059205499 0 -0.022480875399311602 0.00064318321077327587 0 -0.025521832521088379 0.0019496733199479645 0 -0.025452307989084318 0.0019584742288528954 0 -0.0254328896989129 0.0019233134016022736 0 -0.025521832521088379 0.0019496733199479645 0 -0.025462977781076299 0.0019709752224577018 0 -0.025452307989084318 0.0019584742288528954 0 -0.022480875399311602 0.00064318321077327587 0 -0.021844207751036671 0.00083538213318239227 0 -0.021844207751036671 0.00083538213318239227 0 -0.021861347983410277 0.00085010958540443591 0 -0.025521832521088379 0.0019496733199479645 0 -0.025448260416713265 0.0018796049464591953 0 -0.0254328896989129 0.0019233134016022736 0 -0.025231564838784949 0.0020252145254903795 0 -0.025463282234074971 0.0019697826435808399 0 -0.025385676062083022 0.0019436210761283135 0 -0.021337784601817206 0.0018890615040747739 0 -0.021844207751036671 0.00083538213318239227 0 -0.025231564838784949 0.0020252145254903795 0 -0.025385676062083022 0.0019436210761283135 0 -0.025321396024302022 0.0018893584951874013 0 -0.025452307989084318 0.0019584742288528954 0 -0.025385676062083022 0.0019436210761283135 0 -0.0254328896989129 0.0019233134016022736 0 -0.025463282234074971 0.0019697826435808399 0 -0.025452307989084318 0.0019584742288528954 0 -0.025385676062083022 0.0019436210761283135 0 -0.025385676062083022 0.0019436210761283135 0 -0.025408455823873913 0.0018939771986555538 0 -0.0254328896989129 0.0019233134016022736 0 -0.025448260416713265 0.0018796049464591953 0 -0.025408455823873913 0.0018939771986555538 0 -0.0254328896989129 0.0019233134016022736 0 -0.025448260416713265 0.0018796049464591953 0 -0.025417245559535895 0.0018640940509630885 0 -0.025429735081966789 0.0018328719004077447 0 -0.025448260416713265 0.0018796049464591953 0 -0.025408455823873913 0.0018939771986555538 0 -0.025417245559535895 0.0018640940509630885 0 -0.025408455823873913 0.0018939771986555538 0 -0.025417245559535895 0.0018640940509630885 0 -0.025382214808524196 0.0018498720147462815 0 -0.025408455823873913 0.0018939771986555538 0 -0.025321396024302022 0.0018893584951874013 0 -0.025382214808524196 0.0018498720147462815 0 -0.025385676062083022 0.0019436210761283135 0 -0.025408455823873913 0.0018939771986555538 0 -0.025321396024302022 0.0018893584951874013 0 -0.025407564477765626 0.001736803042421528 0 -0.02544393541214688 0.0017940411763146212 0 -0.025430521952580033 0.0016393199469216131 0 -0.024673764836378127 0.0014478737516881632 0 -0.024572453942564566 0.0012705857065696588 0 -0.025321396024302022 0.0018893584951874013 0 -0.025314255242866433 0.0017990992559169024 0 -0.025382214808524196 0.0018498720147462815 0 -0.025314255242866433 0.0017990992559169024 0 -0.025391527461163133 0.0017944331177969833 0 -0.025382214808524196 0.0018498720147462815 0 -0.025391527461163133 0.0017944331177969833 0 -0.025382214808524196 0.0018498720147462815 0 -0.025429735081966789 0.0018328719004077447 0 -0.025417245559535895 0.0018640940509630885 0 -0.025382214808524196 0.0018498720147462815 0 -0.025429735081966789 0.0018328719004077447 0 -0.025391527461163133 0.0017944331177969833 0 -0.025429735081966789 0.0018328719004077447 0 -0.02544393541214688 0.0017940411763146212 0 -0.025391527461163133 0.0017944331177969833 0 -0.025407564477765626 0.001736803042421528 0 -0.02544393541214688 0.0017940411763146212 0 -0.025407564477765626 0.001736803042421528 0 -0.025362833927274876 0.0017418819127432632 0 -0.025380703291957886 0.0016721409392837672 0 -0.025391527461163133 0.0017944331177969833 0 -0.025407564477765626 0.001736803042421528 0 -0.025362833927274876 0.0017418819127432632 0 -0.025314255242866433 0.0017990992559169024 0 -0.025391527461163133 0.0017944331177969833 0 -0.025362833927274876 0.0017418819127432632 0 -0.025292642540943048 0.0016634537038289347 0 -0.025314255242866433 0.0017990992559169024 0 -0.025362833927274876 0.0017418819127432632 0 -0.023937455208283803 0.00085472877988088851 0 -0.023935353702542819 0.00079036792240840036 0 -0.023985256328641701 0.00091579825455926701 0 -0.023878542344553659 0.00066565076210026988 0 -0.023937455208283803 0.00085472877988088851 0 -0.023935353702542819 0.00079036792240840036 0 -0.02544393541214688 0.0017940411763146212 0 -0.025480017244013043 0.0018015853112910458 0 -0.025423738785512035 0.0016218686997281173 0 -0.022817489013633022 0.00073048529059205499 0 -0.023927381376068625 0.00058095483590577673 0 -0.023877041814558103 0.0011882355787925466 0 -0.024572453942564566 0.0012705857065696588 0 -0.024976465285415726 2.9971056685578826e-05 0 -0.024965601795264115 3.8099683605251679e-05 0 -0.02496829857342938 2.7115624443251082e-05 0 -0.025448260416713265 0.0018796049464591953 0 -0.025429735081966789 0.0018328719004077447 0 -0.025480017244013043 0.0018015853112910458 0 -0.025429735081966789 0.0018328719004077447 0 -0.02544393541214688 0.0017940411763146212 0 -0.025480017244013043 0.0018015853112910458 0 -0.023937455208283803 0.00085472877988088851 0 -0.023985256328641701 0.00091579825455926701 0 -0.0239913160455478 0.0010434320468994951 0 -0.023927381376068625 0.00058095483590577673 0 -0.024733460995969136 0.00059040875767840217 0 -0.02496829857342938 2.7115624443251082e-05 0 -0.024976047142732202 1.9692669305916307e-05 0 -0.024977869881797135 2.3321546943839953e-05 0 -0.02496829857342938 2.7115624443251082e-05 0 -0.024976047142732202 1.9692669305916307e-05 0 -0.024969690380240446 1.6278844184569456e-05 0 -0.025292642540943048 0.0016634537038289347 0 -0.025409888797509859 0.0015782549458773628 0 -0.02541335288108906 0.0014968234177645482 0 -0.024954472208363561 0.0011201261765566837 0 -0.024758065746055952 0.00071463335243538686 0 -0.025292642540943048 0.0016634537038289347 0 -0.025362833927274876 0.0017418819127432632 0 -0.025380703291957886 0.0016721409392837672 0 -0.025292642540943048 0.0016634537038289347 0 -0.025380703291957886 0.0016721409392837672 0 -0.025409888797509859 0.0015782549458773628 0 -0.025407564477765626 0.001736803042421528 0 -0.025380703291957886 0.0016721409392837672 0 -0.025430521952580033 0.0016393199469216131 0 -0.025428784011216034 0.0016379139348879519 0 -0.025409888797509859 0.0015782549458773628 0 -0.02541335288108906 0.0014968234177645482 0 -0.025380703291957886 0.0016721409392837672 0 -0.025430521952580033 0.0016393199469216131 0 -0.025409888797509859 0.0015782549458773628 0 -0.024572453942564566 0.0012705857065696588 0 -0.024758065746055952 0.00071463335243538686 0 -0.024572453942564566 0.0012705857065696588 0 -0.024596331598579029 0.0013041301286056282 0 -0.025369559064887786 0.00071206914654628071 0 -0.025453511800444091 0.0010044158844461351 0 -0.02556819981955032 0.00067090362610294633 0 -0.024827746164988038 0.00042529789547074865 0 -0.024842694428877467 0.00057460710325618798 0 -0.024856087919489379 0.00055686173643459405 0 -0.023985256328641701 0.00091579825455926701 0 -0.024003261598848389 0.0010266372996503329 0 -0.0239913160455478 0.0010434320468994951 0 -0.024758065746055952 0.00071463335243538686 0 -0.024733460995969136 0.00059040875767840217 0 -0.025369559064887786 0.00071206914654628071 0 -0.02556819981955032 0.00067090362610294633 0 -0.025375583103633036 0.00053595236051555688 0 -0.024976047142732202 1.9692669305916307e-05 0 -0.024969690380240446 1.6278844184569456e-05 0 -0.02498087408992276 1.3627658580086091e-05 0 -0.024976047142732202 1.9692669305916307e-05 0 -0.02498087408992276 1.3627658580086091e-05 0 -0.024982178899177525 1.7524342238749012e-05 0 -0.02498549596414195 1.2094483747854336e-05 0 -0.02498087408992276 1.3627658580086091e-05 0 -0.024982178899177525 1.7524342238749012e-05 0 -0.02498549596414195 1.2094483747854336e-05 0 -0.024982178899177525 1.7524342238749012e-05 0 -0.024987101405412139 1.480724987873295e-05 0 -0.024987569114712886 1.9043715374440577e-05 0 -0.024987101405412139 1.480724987873295e-05 0 -0.024983690671416602 2.0390592624157758e-05 0 -0.024982178899177525 1.7524342238749012e-05 0 -0.024987101405412139 1.480724987873295e-05 0 -0.024983690671416602 2.0390592624157758e-05 0 -0.024987569114712886 1.9043715374440577e-05 0 -0.024983690671416602 2.0390592624157758e-05 0 -0.024985443010195302 2.3198828934388213e-05 0 -0.024981388740776548 2.5214983947023122e-05 0 -0.024983690671416602 2.0390592624157758e-05 0 -0.024985443010195302 2.3198828934388213e-05 0 -0.024981388740776548 2.5214983947023122e-05 0 -0.024983690671416602 2.0390592624157758e-05 0 -0.024977869881797135 2.3321546943839953e-05 0 -0.024976047142732202 1.9692669305916307e-05 0 -0.024982178899177525 1.7524342238749012e-05 0 -0.024977869881797135 2.3321546943839953e-05 0 -0.024982178899177525 1.7524342238749012e-05 0 -0.024983690671416602 2.0390592624157758e-05 0 -0.024977869881797135 2.3321546943839953e-05 0 -0.024998601248384128 1.0497208187831665e-06 0 -0.024228596025231145 0.00017187088052577484 0 -0.02242882479116011 2.5676181101452376e-05 0 -0.024998601248384128 1.0497208187831665e-06 0 -0.020878941467105002 -9.6453474563457885e-07 0 -0.02242882479116011 2.5676181101452376e-05 0 -0.024228596025231145 0.00017187088052577484 0 -0.023571978529270305 0.00015069572272304529 0 -0.02242882479116011 2.5676181101452376e-05 0 -0.022473496428966629 0.00053333191250905948 0 -0.021841652695186883 0.00036531103584721821 0 -0.024998601248384128 1.0497208187831665e-06 0 -0.024228596025231145 0.00017187088052577484 0 -0.024996743230495461 -6.2521217156112053e-07 0 -0.024228596025231145 0.00017187088052577484 0 -0.024197914454937491 0.00021462328780965712 0 -0.023693066235873732 0.00051429412471698847 0 -0.024228596025231145 0.00017187088052577484 0 -0.024996743230495461 -6.2521217156112053e-07 0 -0.024197914454937491 0.00021462328780965712 0 -0.024999152546692768 3.3465363367642171e-07 0 -0.024495256925307279 0.00030258231179317285 0 -0.024996743230495461 -6.2521217156112053e-07 0 -0.024197914454937491 0.00021462328780965712 0 -0.023554147261806768 0.00022742312965505737 0 -0.024197914454937491 0.00021462328780965712 0 -0.023693066235873732 0.00051429412471698847 0 -0.023554147261806768 0.00022742312965505737 0 -0.023693066235873732 0.00051429412471698847 0 -0.023132678989931384 0.00066807708291141449 0 -0.023276440057248521 0.00061634047634212064 0 -0.022708835953749767 0.000574697444288315 0 -0.022473496428966629 0.00053333191250905948 0 -0.024228596025231145 0.00017187088052577484 0 -0.023693066235873732 0.00051429412471698847 0 -0.023571978529270305 0.00015069572272304529 0 -0.022419705716009899 0.00082700406942257229 0 -0.023132678989931384 0.00066807708291141449 0 -0.022243593749303632 0.00042239956939349861 0 -0.023693066235873732 0.00051429412471698847 0 -0.022419705716009899 0.00082700406942257229 0 -0.023132678989931384 0.00066807708291141449 0 -0.023132678989931384 0.00066807708291141449 0 -0.022974937062631727 0.00076013890368823681 0 -0.023276440057248521 0.00061634047634212064 0 -0.023132678989931384 0.00066807708291141449 0 -0.022974937062631727 0.00076013890368823681 0 -0.023015997746475572 0.00036994234683793652 0 -0.022974937062631727 0.00076013890368823681 0 -0.022968420972807425 0.00064948521547714079 0 -0.023276440057248521 0.00061634047634212064 0 -0.024303021806865551 0.00039724512128964419 0 -0.024452154462227035 0.00029921462162362325 0 -0.022974937062631727 0.00076013890368823681 0 -0.022968420972807425 0.00064948521547714079 0 -0.023016588403443186 0.00072912654723528971 0 -0.024998508871934062 1.7758377076457022e-05 0 -0.024994958531668894 1.0757534921988224e-05 0 -0.025001473290215053 3.7554584850709402e-06 0 -0.024998508871934062 1.7758377076457022e-05 0 -0.024994958531668894 1.0757534921988224e-05 0 -0.024976529173532235 2.3983121650916548e-05 0 -0.023693066235873732 0.00051429412471698847 0 -0.023276440057248521 0.00061634047634212064 0 -0.023554147261806768 0.00022742312965505737 0 -0.022968420972807425 0.00064948521547714079 0 -0.023276440057248521 0.00061634047634212064 0 -0.023554147261806768 0.00022742312965505737 0 -0.024303021806865551 0.00039724512128964419 0 -0.024495256925307279 0.00030258231179317285 0 -0.025000002180237905 2.5041335576370129e-10 0 -0.025001473290215053 3.7554584850709402e-06 0 -0.02500000099766838 1.7843408810643745e-09 0 -0.02500000099766838 1.7843408810643745e-09 0 -0.024997728642216638 3.1660229149898005e-06 0 -0.024999988630493433 8.2586530762131658e-10 0 -0.025001473290215053 3.7554584850709402e-06 0 -0.02500000099766838 1.7843408810643745e-09 0 -0.024997728642216638 3.1660229149898005e-06 0 -0.024994958531668894 1.0757534921988224e-05 0 -0.025001473290215053 3.7554584850709402e-06 0 -0.024997728642216638 3.1660229149898005e-06 0 -0.024994958531668894 1.0757534921988224e-05 0 -0.024997728642216638 3.1660229149898005e-06 0 -0.024993420794560045 5.9002191014962491e-06 0 -0.024993962874621616 -2.54786331893107e-06 0 -0.024993160706800722 -1.376418757178159e-06 0 -0.024988647705179168 2.7635995391209239e-07 0 -0.024993962874621616 -2.54786331893107e-06 0 -0.024999988004648581 -2.4521470780720755e-09 0 -0.024996283428690872 -9.6849699970512564e-07 0 -0.024997728642216638 3.1660229149898005e-06 0 -0.024993420794560045 5.9002191014962491e-06 0 -0.024999988630493433 8.2586530762131658e-10 0 -0.024891689383616768 2.2768094599175403e-05 0 -0.024999783760423548 2.4836098505246543e-08 0 -0.024999995568561265 1.4738809718073686e-09 0 -0.024999988004648581 -2.4521470780720755e-09 0 -0.024996283428690872 -9.6849699970512564e-07 0 -0.024999995568561265 1.4738809718073686e-09 0 -0.024996114672321743 -6.2148233782246591e-07 0 -0.024996283428690872 -9.6849699970512564e-07 0 -0.024996114672321743 -6.2148233782246591e-07 0 -0.024993160706800722 -1.376418757178159e-06 0 -0.024990145633078241 -9.8402228719111867e-07 0 -0.024996114672321743 -6.2148233782246591e-07 0 -0.024996283428690872 -9.6849699970512564e-07 0 -0.024993160706800722 -1.376418757178159e-06 0 -0.024993962874621616 -2.54786331893107e-06 0 -0.024996283428690872 -9.6849699970512564e-07 0 -0.024993160706800722 -1.376418757178159e-06 0 -0.024993160706800722 -1.376418757178159e-06 0 -0.024990145633078241 -9.8402228719111867e-07 0 -0.024988647705179168 2.7635995391209239e-07 0 -0.024987195710486205 -1.2147138425582064e-06 0 -0.024990145633078241 -9.8402228719111867e-07 0 -0.024988647705179168 2.7635995391209239e-07 0 -0.02499131705362732 -1.0870024768385527e-06 0 -0.024987195710486205 -1.2147138425582064e-06 0 -0.024990145633078241 -9.8402228719111867e-07 0 -0.024991625730249219 -2.8537988761077229e-06 0 -0.02499131705362732 -1.0870024768385527e-06 0 -0.024987195710486205 -1.2147138425582064e-06 0 -0.024922357218944171 -3.0126423068710269e-05 0 -0.024930135531509443 -2.8552235245059686e-05 0 -0.024960539318795796 9.2995470090838201e-06 0 -0.024980503696972037 1.0050940464535979e-05 0 -0.024967608419858608 1.9893220213387511e-05 0 -0.024960539318795796 9.2995470090838201e-06 0 -0.024987195710486205 -1.2147138425582064e-06 0 -0.024980503696972037 1.0050940464535979e-05 0 -0.024987195710486205 -1.2147138425582064e-06 0 -0.024980503696972037 1.0050940464535979e-05 0 -0.024988647705179168 2.7635995391209239e-07 0 -0.024994958531668894 1.0757534921988224e-05 0 -0.024993420794560045 5.9002191014962491e-06 0 -0.024991423026060961 1.3989089668037744e-05 0 -0.024891689383616768 2.2768094599175403e-05 0 -0.02473641198989111 8.1666601615757727e-05 0 -0.024993962874621616 -2.54786331893107e-06 0 -0.024988647705179168 2.7635995391209239e-07 0 -0.024994960317374762 1.2214111418270684e-05 0 -0.024798604343347564 3.8445670050237831e-05 0 -0.02473641198989111 8.1666601615757727e-05 0 -0.024980503696972037 1.0050940464535979e-05 0 -0.024988647705179168 2.7635995391209239e-07 0 -0.024994960317374762 1.2214111418270684e-05 0 -0.024998508871934062 1.7758377076457022e-05 0 -0.024976529173532235 2.3983121650916548e-05 0 -0.02497707327157745 5.0922893067264785e-05 0 -0.02473641198989111 8.1666601615757727e-05 0 -0.024452154462227035 0.00029921462162362325 0 -0.024597135602744 0.00033808453508892369 0 -0.024695412184517356 0.00024272462142345934 0 -0.024590654021300309 0.00021758305351891094 0 -0.02473641198989111 8.1666601615757727e-05 0 -0.024791726714000525 8.5501853560877937e-05 0 -0.024980503696972037 1.0050940464535979e-05 0 -0.024974760021536414 3.1187310781838894e-05 0 -0.024967608419858608 1.9893220213387511e-05 0 -0.024980503696972037 1.0050940464535979e-05 0 -0.024994960317374762 1.2214111418270684e-05 0 -0.024974760021536414 3.1187310781838894e-05 0 -0.024974760021536414 3.1187310781838894e-05 0 -0.024957745863319152 3.1468949919465425e-05 0 -0.024967608419858608 1.9893220213387511e-05 0 -0.024696142352113041 0.00016564057617791768 0 -0.024590654021300309 0.00021758305351891094 0 -0.024703351894944801 5.6496199666043386e-05 0 -0.02479667617432316 0.00014557045600105981 0 -0.024695412184517356 0.00024272462142345934 0 -0.024696142352113041 0.00016564057617791768 0 -0.024933854207239991 5.1028685629423123e-05 0 -0.024974760021536414 3.1187310781838894e-05 0 -0.024957745863319152 3.1468949919465425e-05 0 -0.024835038946417549 6.8908126504120152e-05 0 -0.024791726714000525 8.5501853560877937e-05 0 -0.024695412184517356 0.00024272462142345934 0 -0.024696142352113041 0.00016564057617791768 0 -0.024590654021300309 0.00021758305351891094 0 -0.024452154462227035 0.00029921462162362325 0 -0.024578914495442521 0.00015102386750044186 0 -0.024452154462227035 0.00029921462162362325 0 -0.023999752196401415 2.9072317434657477e-05 0 -0.024580361915980904 0.00022974591358834487 0 -0.02457004814081894 1.9685909612475598e-05 0 -0.024703351894944801 5.6496199666043386e-05 0 -0.02479667617432316 0.00014557045600105981 0 -0.024696142352113041 0.00016564057617791768 0 -0.024703351894944801 5.6496199666043386e-05 0 -0.02479667617432316 0.00014557045600105981 0 -0.024795263064179209 2.0699504038769215e-05 0 -0.024703351894944801 5.6496199666043386e-05 0 -0.024795263064179209 2.0699504038769215e-05 0 -0.02478665068987658 -5.4357256297310247e-05 0 -0.024696280264775525 -3.6006189380892147e-05 0 -0.02457004814081894 1.9685909612475598e-05 0 -0.024703351894944801 5.6496199666043386e-05 0 -0.024696280264775525 -3.6006189380892147e-05 0 -0.024795263064179209 2.0699504038769215e-05 0 -0.024703351894944801 5.6496199666043386e-05 0 -0.024696280264775525 -3.6006189380892147e-05 0 -0.02478665068987658 -5.4357256297310247e-05 0 -0.024696280264775525 -3.6006189380892147e-05 0 -0.024711272153089367 -0.00012870138748429267 0 -0.024696280264775525 -3.6006189380892147e-05 0 -0.024711272153089367 -0.00012870138748429267 0 -0.024557104917989091 -0.00018874134274978049 0 -0.023690091969085666 -0.00046542671179372342 0 -0.023689367785906159 -0.00056216944376837866 0 -0.022635176229958275 -0.00090057668066408037 0 -0.022726899409442627 -0.00075524728168823937 0 -0.022696438326499525 -0.00077150396138076817 0 -0.023689367785906159 -0.00056216944376837866 0 -0.023658089163368676 -0.00057174950007473594 0 -0.022738592229050007 -0.00070563932884109691 0 -0.022733507557031261 -0.00072474404792629123 0 -0.02275402294092356 -0.00063692321536144457 0 -0.023689367785906159 -0.00056216944376837866 0 -0.023685948725353283 -0.00056467641419286302 0 -0.02457004814081894 1.9685909612475598e-05 0 -0.024696280264775525 -3.6006189380892147e-05 0 -0.024557104917989091 -0.00018874134274978049 0 -0.023999752196401415 2.9072317434657477e-05 0 -0.023689367785906159 -0.00056216944376837866 0 -0.023036529207682673 0.00023265721556249046 0 -0.022570016915416685 -0.00034118632256852424 0 -0.022440871101589936 0.00020102501450397468 0 -0.023036529207682673 0.00023265721556249046 0 -0.022897611171462443 -0.00056876550061646847 0 -0.022570016915416685 -0.00034118632256852424 0 -0.022570016915416685 -0.00034118632256852424 0 -0.022323343004590736 -0.00072210264304934345 0 -0.02255858518363377 -0.00066241277751099257 0 -0.022570016915416685 -0.00034118632256852424 0 -0.02275402294092356 -0.00063692321536144457 0 -0.02255858518363377 -0.00066241277751099257 0 -0.022897611171462443 -0.00056876550061646847 0 -0.022570016915416685 -0.00034118632256852424 0 -0.02275402294092356 -0.00063692321536144457 0 -0.022570016915416685 -0.00034118632256852424 0 -0.02208631280966445 -0.00023552925296897509 0 -0.022323343004590736 -0.00072210264304934345 0 -0.022570016915416685 -0.00034118632256852424 0 -0.022440871101589936 0.00020102501450397468 0 -0.02208631280966445 -0.00023552925296897509 0 -0.022440871101589936 0.00020102501450397468 0 -0.022771785893338822 0.00057253947823176978 0 -0.022138051871175679 0.00073060512694477669 0 -0.023016588403443186 0.00072912654723528971 0 -0.023036529207682673 0.00023265721556249046 0 -0.022771785893338822 0.00057253947823176978 0 -0.023036529207682673 0.00023265721556249046 0 -0.022440871101589936 0.00020102501450397468 0 -0.022771785893338822 0.00057253947823176978 0 -0.022974937062631727 0.00076013890368823681 0 -0.023016588403443186 0.00072912654723528971 0 -0.022771785893338822 0.00057253947823176978 0 -0.022475203887280363 0.00063534014237620336 0 -0.022240123648170462 0.00052628409383562104 0 -0.022974937062631727 0.00076013890368823681 0 -0.022771785893338822 0.00057253947823176978 0 -0.022138051871175679 0.00073060512694477669 0 -0.023132678989931384 0.00066807708291141449 0 -0.023015997746475572 0.00036994234683793652 0 -0.022243593749303632 0.00042239956939349861 0 -0.023015997746475572 0.00036994234683793652 0 -0.022243593749303632 0.00042239956939349861 0 -0.021729798915194401 -0.00010009089324547235 0 -0.022240123648170462 0.00052628409383562104 0 -0.021660764634212938 0.00026328746027674989 0 -0.022138051871175679 0.00073060512694477669 0 -0.021310297576799246 0.00047421759826767431 0 -0.021891192143246203 0.00021165355820609581 0 -0.022440871101589936 0.00020102501450397468 0 -0.022138051871175679 0.00073060512694477669 0 -0.021891192143246203 0.00021165355820609581 0 -0.022440871101589936 0.00020102501450397468 0 -0.021891192143246203 0.00021165355820609581 0 -0.02208631280966445 -0.00023552925296897509 0 -0.021891192143246203 0.00021165355820609581 0 -0.02208631280966445 -0.00023552925296897509 0 -0.021396114198291249 -0.00018485288995295023 0 -0.02208631280966445 -0.00023552925296897509 0 -0.021730962811124105 -0.00062955997757668954 0 -0.022323343004590736 -0.00072210264304934345 0 -0.02208631280966445 -0.00023552925296897509 0 -0.021396114198291249 -0.00018485288995295023 0 -0.021730962811124105 -0.00062955997757668954 0 -0.021396114198291249 -0.00018485288995295023 0 -0.020782666617016596 -0.00093114983495450694 0 -0.021730962811124105 -0.00062955997757668954 0 -0.021310297576799246 0.00047421759826767431 0 -0.021891192143246203 0.00021165355820609581 0 -0.021396114198291249 -0.00018485288995295023 0 -0.021660764634212938 0.00026328746027674989 0 -0.021259676333503209 8.4114310269394854e-05 0 -0.021310297576799246 0.00047421759826767431 0 -0.021396114198291249 -0.00018485288995295023 0 -0.020367573613273741 6.3784478377192552e-05 0 -0.021396114198291249 -0.00018485288995295023 0 -0.020367573613273741 6.3784478377192552e-05 0 -0.020782666617016596 -0.00093114983495450694 0 -0.018804370787564112 -2.2876610453807182e-06 0 -0.020367573613273741 6.3784478377192552e-05 0 -0.020782666617016596 -0.00093114983495450694 0 -0.018804370787564112 -2.2876610453807182e-06 0 -0.019838999296066948 4.8929171865757121e-07 0 -0.020367573613273741 6.3784478377192552e-05 0 -0.019838999296066948 4.8929171865757121e-07 0 -0.020367573613273741 6.3784478377192552e-05 0 -0.02087248100346252 8.6598030349329311e-07 0 -0.021729798915194401 -0.00010009089324547235 0 -0.02087248100346252 8.6598030349329311e-07 0 -0.021453746706772674 0.00044816946250073248 0 -0.021729798915194401 -0.00010009089324547235 0 -0.020367573613273741 6.3784478377192552e-05 0 -0.02087248100346252 8.6598030349329311e-07 0 -0.022243593749303632 0.00042239956939349861 0 -0.021729798915194401 -0.00010009089324547235 0 -0.021453746706772674 0.00044816946250073248 0 -0.022419705716009899 0.00082700406942257229 0 -0.022243593749303632 0.00042239956939349861 0 -0.021453746706772674 0.00044816946250073248 0 -0.020876136634257029 2.3927234059608796e-07 0 -0.021841652695186883 0.00036531103584721821 0 -0.016107376746357916 2.3225252966001103e-07 0 -0.015867999729891263 8.1096294804227712e-05 0 -0.015183169385443597 0.00019546768829701807 0 -0.015867999729891263 8.1096294804227712e-05 0 -0.0150701031102439 0.0002343813867406489 0 -0.015183169385443597 0.00019546768829701807 0 -0.016107376746357916 2.3225252966001103e-07 0 -0.015867999729891263 8.1096294804227712e-05 0 -0.017454831128035791 5.4127107778346431e-07 0 -0.018799160258505199 -2.2398821940824679e-06 0 -0.017454831128035791 5.4127107778346431e-07 0 -0.016418266723975641 -0.00057393489218617326 0 -0.018801395832609782 -5.54629232670526e-07 0 -0.018558684913009722 -0.00029435539481116141 0 -0.015867999729891263 8.1096294804227712e-05 0 -0.017454831128035791 5.4127107778346431e-07 0 -0.016418266723975641 -0.00057393489218617326 0 -0.015867999729891263 8.1096294804227712e-05 0 -0.016418266723975641 -0.00057393489218617326 0 -0.015130218330874277 -0.00041000735514343831 0 -0.018558684913009722 -0.00029435539481116141 0 -0.018507974297446803 -0.00045154932508668157 0 -0.020782666617016596 -0.00093114983495450694 0 -0.021730962811124105 -0.00062955997757668954 0 -0.021809004289991416 -0.0011049803361690986 0 -0.021730962811124105 -0.00062955997757668954 0 -0.021809004289991416 -0.0011049803361690986 0 -0.022323343004590736 -0.00072210264304934345 0 -0.015130218330874277 -0.00041000735514343831 0 -0.015016847801257645 4.0309159993960697e-05 0 -0.014562619312722666 -0.00010835571040533631 0 -0.015867999729891263 8.1096294804227712e-05 0 -0.015130218330874277 -0.00041000735514343831 0 -0.015016847801257645 4.0309159993960697e-05 0 -0.015867999729891263 8.1096294804227712e-05 0 -0.015016847801257645 4.0309159993960697e-05 0 -0.0150701031102439 0.0002343813867406489 0 -0.015016847801257645 4.0309159993960697e-05 0 -0.0150701031102439 0.0002343813867406489 0 -0.014665317017874808 0.00020413961325227507 0 -0.0150701031102439 0.0002343813867406489 0 -0.014665317017874808 0.00020413961325227507 0 -0.014638732065016234 0.00032233411176068601 0 -0.014665317017874808 0.00020413961325227507 0 -0.014455846336080777 0.00019628794639072679 0 -0.014466683677937469 0.00031444435857438854 0 -0.014455846336080777 0.00019628794639072679 0 -0.014562619312722666 -0.00010835571040533631 0 -0.014382237405458622 5.2346196142626917e-05 0 -0.018496804999627241 -0.00043586382229894572 0 -0.018460847975360632 -0.00032233753336316306 0 -0.015016847801257645 4.0309159993960697e-05 0 -0.014665317017874808 0.00020413961325227507 0 -0.014562619312722666 -0.00010835571040533631 0 -0.014665317017874808 0.00020413961325227507 0 -0.014455846336080777 0.00019628794639072679 0 -0.014562619312722666 -0.00010835571040533631 0 -0.021809004289991416 -0.0011049803361690986 0 -0.022476132644653906 -0.0010416949774952017 0 -0.022323343004590736 -0.00072210264304934345 0 -0.018507974297446803 -0.00045154932508668157 0 -0.018496804999627241 -0.00043586382229894572 0 -0.022323343004590736 -0.00072210264304934345 0 -0.02255858518363377 -0.00066241277751099257 0 -0.022642264755211076 -0.0008027172532815227 0 -0.022690154718639596 -0.00072902332481481987 0 -0.02255858518363377 -0.00066241277751099257 0 -0.022642264755211076 -0.0008027172532815227 0 -0.02275402294092356 -0.00063692321536144457 0 -0.022690154718639596 -0.00072902332481481987 0 -0.02255858518363377 -0.00066241277751099257 0 -0.022733507557031261 -0.00072474404792629123 0 -0.02275402294092356 -0.00063692321536144457 0 -0.022690154718639596 -0.00072902332481481987 0 -0.022690154718639596 -0.00072902332481481987 0 -0.022642264755211076 -0.0008027172532815227 0 -0.022691842572834946 -0.00075259689774031418 0 -0.022476132644653906 -0.0010416949774952017 0 -0.022642264755211076 -0.0008027172532815227 0 -0.022670725178263372 -0.00082337456044828282 0 -0.022476132644653906 -0.0010416949774952017 0 -0.022323343004590736 -0.00072210264304934345 0 -0.022642264755211076 -0.0008027172532815227 0 -0.022476132644653906 -0.0010416949774952017 0 -0.022670725178263372 -0.00082337456044828282 0 -0.022674538045678906 -0.0008013040280327406 0 -0.022670725178263372 -0.00082337456044828282 0 -0.022652748731809752 -0.00078970906421619701 0 -0.022674538045678906 -0.0008013040280327406 0 -0.022670725178263372 -0.00082337456044828282 0 -0.022696438326499525 -0.00077150396138076817 0 -0.022652748731809752 -0.00078970906421619701 0 -0.022642264755211076 -0.0008027172532815227 0 -0.022696438326499525 -0.00077150396138076817 0 -0.022691842572834946 -0.00075259689774031418 0 -0.022642264755211076 -0.0008027172532815227 0 -0.022670725178263372 -0.00082337456044828282 0 -0.022696438326499525 -0.00077150396138076817 0 -0.022733507557031261 -0.00072474404792629123 0 -0.022696438326499525 -0.00077150396138076817 0 -0.022691842572834946 -0.00075259689774031418 0 -0.022726899409442627 -0.00075524728168823937 0 -0.022733507557031261 -0.00072474404792629123 0 -0.022696438326499525 -0.00077150396138076817 0 -0.022733507557031261 -0.00072474404792629123 0 -0.022690154718639596 -0.00072902332481481987 0 -0.022691842572834946 -0.00075259689774031418 0 -0.022635176229958275 -0.00090057668066408037 0 -0.022696438326499525 -0.00077150396138076817 0 -0.022579805091044694 -0.00082605512242617859 0 -0.022696438326499525 -0.00077150396138076817 0 -0.022652748731809752 -0.00078970906421619701 0 -0.022579805091044694 -0.00082605512242617859 0 -0.022652748731809752 -0.00078970906421619701 0 -0.022674538045678906 -0.0008013040280327406 0 -0.022574428778163149 -0.00073555547553393215 0 -0.022652748731809752 -0.00078970906421619701 0 -0.022579805091044694 -0.00082605512242617859 0 -0.022574428778163149 -0.00073555547553393215 0 -0.018460847975360632 -0.00032233753336316306 0 -0.018353779773254055 -0.00014826374252430638 0 -0.022674538045678906 -0.0008013040280327406 0 -0.022574428778163149 -0.00073555547553393215 0 -0.022562656226630499 -0.00061261591078998732 0 -0.014455846336080777 0.00019628794639072679 0 -0.014382237405458622 5.2346196142626917e-05 0 -0.014384295416524119 0.00030167775355154189 0 -0.014382237405458622 5.2346196142626917e-05 0 -0.014384295416524119 0.00030167775355154189 0 -0.014192482543015193 0.00012075469257068241 0 -0.014384295416524119 0.00030167775355154189 0 -0.014192482543015193 0.00012075469257068241 0 -0.014183676306468199 0.00032700380227353452 0 -0.014384295416524119 0.00030167775355154189 0 -0.014236109188366408 0.00053935284186557248 0 -0.014183676306468199 0.00032700380227353452 0 -0.014455846336080777 0.00019628794639072679 0 -0.014384295416524119 0.00030167775355154189 0 -0.014466683677937469 0.00031444435857438854 0 -0.014384295416524119 0.00030167775355154189 0 -0.014429063625191439 0.00029344700942750024 0 -0.014466683677937469 0.00031444435857438854 0 -0.014429063625191439 0.00029344700942750024 0 -0.014449791841031937 0.00024024136760090485 0 -0.014430022810579417 0.00028666646189412531 0 -0.014429063625191439 0.00029344700942750024 0 -0.014504460761119675 0.00028495193679256044 0 -0.014477006651620399 0.00025010285471721442 0 -0.014384295416524119 0.00030167775355154189 0 -0.014429063625191439 0.00029344700942750024 0 -0.014504460761119675 0.00028495193679256044 0 -0.012495465003283411 -0.00015125458687134633 0 -0.011759284961283836 0.00023500769530148216 0 -0.014504460761119675 0.00028495193679256044 0 -0.01451935747940465 0.00022591392119437003 0 -0.014477006651620399 0.00025010285471721442 0 -0.01451935747940465 0.00022591392119437003 0 -0.014477006651620399 0.00025010285471721442 0 -0.01448949562438287 0.0002034332988566213 0 -0.01451935747940465 0.00022591392119437003 0 -0.01448949562438287 0.0002034332988566213 0 -0.014529055724355469 0.0001715086050434438 0 -0.01448949562438287 0.0002034332988566213 0 -0.014529055724355469 0.0001715086050434438 0 -0.014495206760898939 0.00012790321933360782 0 -0.014529055724355469 0.0001715086050434438 0 -0.014495206760898939 0.00012790321933360782 0 -0.014553767249335518 9.0411395385268849e-05 0 -0.01445529979423288 8.2295926054564992e-05 0 -0.014455280590376941 0.00017561734928171714 0 -0.014396120682527739 0.00012369397270597647 0 -0.014495206760898939 0.00012790321933360782 0 -0.01445529979423288 8.2295926054564992e-05 0 -0.014481564303215545 3.6281955570607614e-05 0 -0.014495206760898939 0.00012790321933360782 0 -0.01445529979423288 8.2295926054564992e-05 0 -0.014455280590376941 0.00017561734928171714 0 -0.01448949562438287 0.0002034332988566213 0 -0.014495206760898939 0.00012790321933360782 0 -0.014455280590376941 0.00017561734928171714 0 -0.014455280590376941 0.00017561734928171714 0 -0.014449791841031937 0.00024024136760090485 0 -0.014421777324228134 0.00022999200346127769 0 -0.01448949562438287 0.0002034332988566213 0 -0.014455280590376941 0.00017561734928171714 0 -0.014449791841031937 0.00024024136760090485 0 -0.014429063625191439 0.00029344700942750024 0 -0.014477006651620399 0.00025010285471721442 0 -0.014449791841031937 0.00024024136760090485 0 -0.014477006651620399 0.00025010285471721442 0 -0.01448949562438287 0.0002034332988566213 0 -0.014449791841031937 0.00024024136760090485 0 -0.014449791841031937 0.00024024136760090485 0 -0.014421777324228134 0.00022999200346127769 0 -0.014430022810579417 0.00028666646189412531 0 -0.014421777324228134 0.00022999200346127769 0 -0.014396120682527739 0.00012369397270597647 0 -0.01436814430301655 0.0002831608397805517 0 -0.014421777324228134 0.00022999200346127769 0 -0.01436814430301655 0.0002831608397805517 0 -0.014430022810579417 0.00028666646189412531 0 -0.014455280590376941 0.00017561734928171714 0 -0.014421777324228134 0.00022999200346127769 0 -0.014396120682527739 0.00012369397270597647 0 -0.01445529979423288 8.2295926054564992e-05 0 -0.014396120682527739 0.00012369397270597647 0 -0.014417177962236186 3.1317954476535168e-05 0 -0.014396120682527739 0.00012369397270597647 0 -0.014234226531551644 0.00012915976991041247 0 -0.014334542172082611 1.3733705865048156e-06 0 -0.014396120682527739 0.00012369397270597647 0 -0.014234226531551644 0.00012915976991041247 0 -0.01436814430301655 0.0002831608397805517 0 -0.014234226531551644 0.00012915976991041247 0 -0.01436814430301655 0.0002831608397805517 0 -0.014122929917284472 0.00028085839970990514 0 -0.01436814430301655 0.0002831608397805517 0 -0.014466683677937469 0.00031444435857438854 0 -0.014391829668541856 0.00032975996273721287 0 -0.014466683677937469 0.00031444435857438854 0 -0.014638732065016234 0.00032233411176068601 0 -0.014391829668541856 0.00032975996273721287 0 -0.014429063625191439 0.00029344700942750024 0 -0.014430022810579417 0.00028666646189412531 0 -0.014466683677937469 0.00031444435857438854 0 -0.01436814430301655 0.0002831608397805517 0 -0.014430022810579417 0.00028666646189412531 0 -0.014466683677937469 0.00031444435857438854 0 -0.014665317017874808 0.00020413961325227507 0 -0.014466683677937469 0.00031444435857438854 0 -0.014638732065016234 0.00032233411176068601 0 -0.0150701031102439 0.0002343813867406489 0 -0.014638732065016234 0.00032233411176068601 0 -0.014379547140124188 0.00032464787439065657 0 -0.014638732065016234 0.00032233411176068601 0 -0.014379547140124188 0.00032464787439065657 0 -0.014391829668541856 0.00032975996273721287 0 -0.01436814430301655 0.0002831608397805517 0 -0.014391829668541856 0.00032975996273721287 0 -0.014122929917284472 0.00028085839970990514 0 -0.014379547140124188 0.00032464787439065657 0 -0.014391829668541856 0.00032975996273721287 0 -0.014122929917284472 0.00028085839970990514 0 -0.014234226531551644 0.00012915976991041247 0 -0.014122929917284472 0.00028085839970990514 0 -0.013832038245468288 -4.0453966817483472e-06 0 -0.014122929917284472 0.00028085839970990514 0 -0.01359542420295127 0.00021362538584046285 0 -0.013832038245468288 -4.0453966817483472e-06 0 -0.014379547140124188 0.00032464787439065657 0 -0.014122929917284472 0.00028085839970990514 0 -0.01359542420295127 0.00021362538584046285 0 -0.014379547140124188 0.00032464787439065657 0 -0.01359542420295127 0.00021362538584046285 0 -0.013769969974730985 0.00021490473476944481 0 -0.01359542420295127 0.00021362538584046285 0 -0.013769969974730985 0.00021490473476944481 0 -0.012879037502620287 9.7070838769639482e-05 0 -0.01359542420295127 0.00021362538584046285 0 -0.012879037502620287 9.7070838769639482e-05 0 -0.01271729043250462 -3.2634897321163147e-05 0 -0.012879037502620287 9.7070838769639482e-05 0 -0.013413694230187378 3.4587508365075961e-07 0 -0.012066432720021961 -8.1580734681474384e-08 0 -0.013769969974730985 0.00021490473476944481 0 -0.012879037502620287 9.7070838769639482e-05 0 -0.013413694230187378 3.4587508365075961e-07 0 -0.013769969974730985 0.00021490473476944481 0 -0.013413694230187378 3.4587508365075961e-07 0 -0.014760456373601013 4.4868457764190931e-07 0 -0.014379547140124188 0.00032464787439065657 0 -0.013769969974730985 0.00021490473476944481 0 -0.014760456373601013 4.4868457764190931e-07 0 -0.014379547140124188 0.00032464787439065657 0 -0.014760456373601013 4.4868457764190931e-07 0 -0.015183169385443597 0.00019546768829701807 0 -0.0150701031102439 0.0002343813867406489 0 -0.014379547140124188 0.00032464787439065657 0 -0.015183169385443597 0.00019546768829701807 0 -0.016107376746357916 2.3225252966001103e-07 0 -0.014760456373601013 4.4868457764190931e-07 0 -0.015183169385443597 0.00019546768829701807 0 -0.021566999638702723 -0.00077674862920492878 0 -0.021797627729261422 -0.00078822086926995155 0 -0.021512655065543517 -0.0011029878145204146 0 -0.021566999638702723 -0.00077674862920492878 0 -0.02153414819315129 -0.00070644118961984764 0 -0.021478935357434902 -0.00097784889479305206 0 -0.018751692593459917 0.00085851884870833122 0 -0.020674175958147641 0.00069058119864318177 0 -0.018751692593459917 0.00085851884870833122 0 -0.019246320053217837 0.00065658740616329682 0 -0.021566999638702723 -0.00077674862920492878 0 -0.02153414819315129 -0.00070644118961984764 0 -0.021682636881696266 -0.00074966789822949141 0 -0.02150390002353952 -0.00068975279631264372 0 -0.021682636881696266 -0.00074966789822949141 0 -0.021680854745386891 -0.00058960702047693495 0 -0.02206599989865772 -0.00061805947644900992 0 -0.022060192871151671 -0.00070858933733189834 0 -0.02215259568654137 -0.00069003830340243081 0 -0.021797627729261422 -0.00078822086926995155 0 -0.021682636881696266 -0.00074966789822949141 0 -0.021817130585751129 -0.00061240676668516286 0 -0.021566999638702723 -0.00077674862920492878 0 -0.021797627729261422 -0.00078822086926995155 0 -0.021682636881696266 -0.00074966789822949141 0 -0.021680854745386891 -0.00058960702047693495 0 -0.021817130585751129 -0.00061240676668516286 0 -0.021838050829906676 -0.00049075272583155817 0 -0.021817130585751129 -0.00061240676668516286 0 -0.021838050829906676 -0.00049075272583155817 0 -0.022150144329245801 -0.00042248576538177424 0 -0.021797627729261422 -0.00078822086926995155 0 -0.021817130585751129 -0.00061240676668516286 0 -0.022150144329245801 -0.00042248576538177424 0 -0.021682636881696266 -0.00074966789822949141 0 -0.021680854745386891 -0.00058960702047693495 0 -0.021817130585751129 -0.00061240676668516286 0 -0.021838050829906676 -0.00049075272583155817 0 -0.021562641894773089 -0.00039968350001529085 0 -0.02182323443865548 -0.00033712886280817139 0 -0.021680854745386891 -0.00058960702047693495 0 -0.021838050829906676 -0.00049075272583155817 0 -0.021562641894773089 -0.00039968350001529085 0 -0.015120512081157861 0.0032201737824124163 0 -0.015147236764411995 0.0031657560630586018 0 -0.015098547623748775 0.0031455097391612694 0 -0.02150390002353952 -0.00068975279631264372 0 -0.021680854745386891 -0.00058960702047693495 0 -0.021562641894773089 -0.00039968350001529085 0 -0.018751692593459917 0.00085851884870833122 0 -0.01751374194587256 0.0014677542236341968 0 -0.018751692593459917 0.00085851884870833122 0 -0.017346120926683101 0.0019238674443577094 0 -0.015120512081157861 0.0032201737824124163 0 -0.015147236764411995 0.0031657560630586018 0 -0.015198068194580154 0.0031984811084721288 0 -0.015147236764411995 0.0031657560630586018 0 -0.015198068194580154 0.0031984811084721288 0 -0.015174174206423663 0.0031252146907311735 0 -0.015198068194580154 0.0031984811084721288 0 -0.01522620813654545 0.0031436010226394808 0 -0.015174174206423663 0.0031252146907311735 0 -0.017346120926683101 0.0019238674443577094 0 -0.016840200828357361 0.0024869615574902326 0 -0.015198068194580154 0.0031984811084721288 0 -0.015289041858946069 0.003184690245765951 0 -0.01522620813654545 0.0031436010226394808 0 -0.018561531145363307 0.0021374021399451636 0 -0.017643562985584248 0.0024656728440403735 0 -0.01843474065945077 0.0015582976296136433 0 -0.016840200828357361 0.0024869615574902326 0 -0.018320626121050759 0.0019964416939069118 0 -0.017385838997585546 0.0028058049627320133 0 -0.017217217232116874 0.0027953854197824775 0 -0.017329534544671434 0.0029635657534101988 0 -0.017385838997585546 0.0028058049627320133 0 -0.017351116266362342 0.0026177784885860547 0 -0.017217217232116874 0.0027953854197824775 0 -0.019475301630599639 0.0018092313296445338 0 -0.018561531145363307 0.0021374021399451636 0 -0.01843474065945077 0.0015582976296136433 0 -0.018320626121050759 0.0019964416939069118 0 -0.020674175958147641 0.00069058119864318177 0 -0.019475301630599639 0.0018092313296445338 0 -0.01843474065945077 0.0015582976296136433 0 -0.019222813037143512 0.00065446617363479212 0 -0.017217217232116874 0.0027953854197824775 0 -0.017202140468753842 0.0029567700130159907 0 -0.017091763360699796 0.0029580192014658146 0 -0.017202140468753842 0.0029567700130159907 0 -0.01711892126151407 0.0030704762834177883 0 -0.017091763360699796 0.0029580192014658146 0 -0.021522272466757301 0.00057226211702345736 0 -0.020674175958147641 0.00069058119864318177 0 -0.017217217232116874 0.0027953854197824775 0 -0.017202140468753842 0.0029567700130159907 0 -0.017329534544671434 0.0029635657534101988 0 -0.017202140468753842 0.0029567700130159907 0 -0.017329534544671434 0.0029635657534101988 0 -0.017228316023178262 0.0030714526441023436 0 -0.017452502011470823 0.003171822130254263 0 -0.01721295715567589 0.0031789476008267656 0 -0.017331702731071444 0.0030872918908597781 0 -0.017434462770574137 0.003050613714649133 0 -0.017329534544671434 0.0029635657534101988 0 -0.017331702731071444 0.0030872918908597781 0 -0.017329534544671434 0.0029635657534101988 0 -0.017331702731071444 0.0030872918908597781 0 -0.017228316023178262 0.0030714526441023436 0 -0.01721295715567589 0.0031789476008267656 0 -0.017331702731071444 0.0030872918908597781 0 -0.017228316023178262 0.0030714526441023436 0 -0.021200718761805053 0.0008551779170481355 0 -0.021104644784701383 0.00074232857087675765 0 -0.020988136763499029 -9.2919107523803266e-05 0 -0.02178699182076017 0.00051613418699744836 0 -0.021773645114039432 0.00050063446836881413 0 -0.02180656188803989 0.00060004439535935831 0 -0.021522272466757301 0.00057226211702345736 0 -0.021515198153123773 0.00050736264164304601 0 -0.017202140468753842 0.0029567700130159907 0 -0.01711892126151407 0.0030704762834177883 0 -0.017228316023178262 0.0030714526441023436 0 -0.01721295715567589 0.0031789476008267656 0 -0.01711892126151407 0.0030704762834177883 0 -0.017228316023178262 0.0030714526441023436 0 -0.021522272466757301 0.00057226211702345736 0 -0.021992646186365331 0.00060090681272043306 0 -0.022156200247129165 0.0012948973546077008 0 -0.021587174649350078 0.00062326950749569746 0 -0.021686199662932445 0.0010697185758742689 0 -0.021844207751036671 0.00083538213318239227 0 -0.021522272466757301 0.00057226211702345736 0 -0.021515198153123773 0.00050736264164304601 0 -0.021992646186365331 0.00060090681272043306 0 -0.022280677874653036 0.00016308376773994099 0 -0.022159980101220236 0.00025880004143000402 0 -0.022322189903104746 0.00032000293051958787 0 -0.021952157427930656 -0.00076372498926166902 0 -0.022072034753849196 -0.00076243362638986659 0 -0.02203945241765377 -0.0008645739623383043 0 -0.022215522163132301 0.0004349133783214558 0 -0.022159980101220236 0.00025880004143000402 0 -0.022322189903104746 0.00032000293051958787 0 -0.022401318015580356 0.00021302153279574931 0 -0.022280677874653036 0.00016308376773994099 0 -0.022322189903104746 0.00032000293051958787 0 -0.022401318015580356 0.00021302153279574931 0 -0.022322189903104746 0.00032000293051958787 0 -0.02254761406866897 0.00028968431798568939 0 -0.022322189903104746 0.00032000293051958787 0 -0.022315972469368787 0.00055394105206879607 0 -0.02254761406866897 0.00028968431798568939 0 -0.021439290801404644 0.00021563021081952099 0 -0.022411916996711075 -2.9992248855867516e-05 0 -0.022215522163132301 0.0004349133783214558 0 -0.022322189903104746 0.00032000293051958787 0 -0.022315972469368787 0.00055394105206879607 0 -0.021515198153123773 0.00050736264164304601 0 -0.021439290801404644 0.00021563021081952099 0 -0.021515198153123773 0.00050736264164304601 0 -0.021075784045363796 0.00040382989998345248 0 -0.021044504184203144 -8.6569608480190066e-05 0 -0.021075784045363796 0.00040382989998345248 0 -0.021566999638702723 -0.00077674862920492878 0 -0.021496176320187618 -0.00099747277400944281 0 -0.021478935357434902 -0.00097784889479305206 0 -0.021104644784701383 0.00074232857087675765 0 -0.020877062922435175 3.5441966468566061e-05 0 -0.020988136763499029 -9.2919107523803266e-05 0 -0.021626906693251565 -0.00030686353862618081 0 -0.021439290801404644 0.00021563021081952099 0 -0.021317367369521712 0.00058982985862911664 0 -0.021070729055659678 -0.00018031096959004732 0 -0.020865057540532778 5.708190207978729e-05 0 -0.021566999638702723 -0.00077674862920492878 0 -0.021475166728771741 -0.001059444138862789 0 -0.021512655065543517 -0.0011029878145204146 0 -0.021075784045363796 0.00040382989998345248 0 -0.021439290801404644 0.00021563021081952099 0 -0.021075784045363796 0.00040382989998345248 0 -0.020674175958147641 0.00069058119864318177 0 -0.022072034753849196 -0.00076243362638986659 0 -0.022147638913829145 -0.00081540331730554872 0 -0.02215259568654137 -0.00069003830340243081 0 -0.021952157427930656 -0.00076372498926166902 0 -0.022060192871151671 -0.00070858933733189834 0 -0.022072034753849196 -0.00076243362638986659 0 -0.02206599989865772 -0.00061805947644900992 0 -0.021952157427930656 -0.00076372498926166902 0 -0.022060192871151671 -0.00070858933733189834 0 -0.022060192871151671 -0.00070858933733189834 0 -0.022072034753849196 -0.00076243362638986659 0 -0.02215259568654137 -0.00069003830340243081 0 -0.02213509782765315 -0.00096707829224634086 0 -0.02203945241765377 -0.0008645739623383043 0 -0.022147638913829145 -0.00081540331730554872 0 -0.022072034753849196 -0.00076243362638986659 0 -0.02203945241765377 -0.0008645739623383043 0 -0.022147638913829145 -0.00081540331730554872 0 -0.02213509782765315 -0.00096707829224634086 0 -0.022147638913829145 -0.00081540331730554872 0 -0.022253451308518524 -0.00085383135649730302 0 -0.022147638913829145 -0.00081540331730554872 0 -0.022253451308518524 -0.00085383135649730302 0 -0.022230106964250911 -0.00076047909600599633 0 -0.022253451308518524 -0.00085383135649730302 0 -0.022351590446171844 -0.00077001353042762527 0 -0.022230106964250911 -0.00076047909600599633 0 -0.022253451308518524 -0.00085383135649730302 0 -0.022351590446171844 -0.00077001353042762527 0 -0.022416203267314572 -0.00087467839211962457 0 -0.022351590446171844 -0.00077001353042762527 0 -0.022422162428711125 -0.00066280961130476222 0 -0.022271306972531581 -0.00066405084650787336 0 -0.022351590446171844 -0.00077001353042762527 0 -0.022230106964250911 -0.00076047909600599633 0 -0.022271306972531581 -0.00066405084650787336 0 -0.02215259568654137 -0.00069003830340243081 0 -0.022230106964250911 -0.00076047909600599633 0 -0.022271306972531581 -0.00066405084650787336 0 -0.022147638913829145 -0.00081540331730554872 0 -0.02215259568654137 -0.00069003830340243081 0 -0.022230106964250911 -0.00076047909600599633 0 -0.022579805091044694 -0.00082605512242617859 0 -0.022416203267314572 -0.00087467839211962457 0 -0.02247884765088845 -0.00078060117235923389 0 -0.022351590446171844 -0.00077001353042762527 0 -0.022416203267314572 -0.00087467839211962457 0 -0.02247884765088845 -0.00078060117235923389 0 -0.022351590446171844 -0.00077001353042762527 0 -0.02247884765088845 -0.00078060117235923389 0 -0.022422162428711125 -0.00066280961130476222 0 -0.02247884765088845 -0.00078060117235923389 0 -0.022574428778163149 -0.00073555547553393215 0 -0.022422162428711125 -0.00066280961130476222 0 -0.022579805091044694 -0.00082605512242617859 0 -0.02247884765088845 -0.00078060117235923389 0 -0.022574428778163149 -0.00073555547553393215 0 -0.022574428778163149 -0.00073555547553393215 0 -0.022422162428711125 -0.00066280961130476222 0 -0.022562656226630499 -0.00061261591078998732 0 -0.013906451839554072 0.00025172150372942633 0 -0.014192482543015193 0.00012075469257068241 0 -0.014036330254266637 0.00029502972192178552 0 -0.018177160273669245 0.00011592163623901891 0 -0.018353779773254055 -0.00014826374252430638 0 -0.022422162428711125 -0.00066280961130476222 0 -0.022386147031970175 -0.00047429299295308869 0 -0.022562656226630499 -0.00061261591078998732 0 -0.014192482543015193 0.00012075469257068241 0 -0.014183676306468199 0.00032700380227353452 0 -0.014036330254266637 0.00029502972192178552 0 -0.02215259568654137 -0.00069003830340243081 0 -0.022180479460582585 -0.00058841269487268106 0 -0.022271306972531581 -0.00066405084650787336 0 -0.02206599989865772 -0.00061805947644900992 0 -0.02215259568654137 -0.00069003830340243081 0 -0.022180479460582585 -0.00058841269487268106 0 -0.022422162428711125 -0.00066280961130476222 0 -0.022271306972531581 -0.00066405084650787336 0 -0.022284094984304514 -0.00056124056392468826 0 -0.022180479460582585 -0.00058841269487268106 0 -0.022271306972531581 -0.00066405084650787336 0 -0.022284094984304514 -0.00056124056392468826 0 -0.022386147031970175 -0.00047429299295308869 0 -0.022284094984304514 -0.00056124056392468826 0 -0.022150144329245801 -0.00042248576538177424 0 -0.022422162428711125 -0.00066280961130476222 0 -0.022386147031970175 -0.00047429299295308869 0 -0.022284094984304514 -0.00056124056392468826 0 -0.022180479460582585 -0.00058841269487268106 0 -0.022284094984304514 -0.00056124056392468826 0 -0.022150144329245801 -0.00042248576538177424 0 -0.021626906693251565 -0.00030686353862618081 0 -0.021792968471256009 -0.00030849231621304154 0 -0.021838050829906676 -0.00049075272583155817 0 -0.022150144329245801 -0.00042248576538177424 0 -0.021981967070020956 -0.00038866278839856834 0 -0.02206599989865772 -0.00061805947644900992 0 -0.022180479460582585 -0.00058841269487268106 0 -0.022150144329245801 -0.00042248576538177424 0 -0.022150144329245801 -0.00042248576538177424 0 -0.02211155861136142 -0.00030382892941469025 0 -0.021981967070020956 -0.00038866278839856834 0 -0.02211155861136142 -0.00030382892941469025 0 -0.021981967070020956 -0.00038866278839856834 0 -0.02182323443865548 -0.00033712886280817139 0 -0.013906451839554072 0.00025172150372942633 0 -0.013898285696338683 0.0003185593275510123 0 -0.013895988773357118 0.00031089301500832533 0 -0.013898285696338683 0.0003185593275510123 0 -0.013899298290744386 0.00030889557409596917 0 -0.013895988773357118 0.00031089301500832533 0 -0.022386147031970175 -0.00047429299295308869 0 -0.022150144329245801 -0.00042248576538177424 0 -0.02211155861136142 -0.00030382892941469025 0 -0.013972347110381778 0.0013668990547358228 0 -0.013885994322655951 0.001134214393668097 0 -0.018177160273669245 0.00011592163623901891 0 -0.017810077813956583 0.00061509617096467827 0 -0.012801001344637223 0.00047968931973307985 0 -0.013349033189713495 0.00064252818576255395 0 -0.013895988773357118 0.00031089301500832533 0 -0.013349033189713495 0.00064252818576255395 0 -0.013691618176020879 0.00058508167946340979 0 -0.013895988773357118 0.00031089301500832533 0 -0.013349033189713495 0.00064252818576255395 0 -0.013691618176020879 0.00058508167946340979 0 -0.013723981852592177 0.00089112423691632529 0 -0.013691618176020879 0.00058508167946340979 0 -0.013723981852592177 0.00089112423691632529 0 -0.013881735067472763 0.00046063283341178429 0 -0.013349033189713495 0.00064252818576255395 0 -0.013723981852592177 0.00089112423691632529 0 -0.013464748719380122 0.0012644274353663181 0 -0.013349033189713495 0.00064252818576255395 0 -0.012965756017891256 0.00092992251072016789 0 -0.013464748719380122 0.0012644274353663181 0 -0.012965756017891256 0.00092992251072016789 0 -0.012603731593672736 0.00081226281274197312 0 -0.012395434497668075 0.0012067470804058955 0 -0.012801001344637223 0.00047968931973307985 0 -0.012603731593672736 0.00081226281274197312 0 -0.012929847842642892 0.00071599148960914774 0 -0.013349033189713495 0.00064252818576255395 0 -0.012965756017891256 0.00092992251072016789 0 -0.012929847842642892 0.00071599148960914774 0 -0.012801001344637223 0.00047968931973307985 0 -0.013349033189713495 0.00064252818576255395 0 -0.012929847842642892 0.00071599148960914774 0 -0.012965756017891256 0.00092992251072016789 0 -0.012603731593672736 0.00081226281274197312 0 -0.012929847842642892 0.00071599148960914774 0 -0.014183676306468199 0.00032700380227353452 0 -0.014058274230319745 0.00039205795405979565 0 -0.014036330254266637 0.00029502972192178552 0 -0.014183676306468199 0.00032700380227353452 0 -0.014058274230319745 0.00039205795405979565 0 -0.014131061796003716 0.00045714354075794788 0 -0.013985477646701014 0.00038362853297673534 0 -0.014036330254266637 0.00029502972192178552 0 -0.013895988773357118 0.00031089301500832533 0 -0.013985477646701014 0.00038362853297673534 0 -0.013881735067472763 0.00046063283341178429 0 -0.014005833568017944 0.00048666116149976457 0 -0.014058274230319745 0.00039205795405979565 0 -0.013985477646701014 0.00038362853297673534 0 -0.014036330254266637 0.00029502972192178552 0 -0.014058274230319745 0.00039205795405979565 0 -0.013985477646701014 0.00038362853297673534 0 -0.014005833568017944 0.00048666116149976457 0 -0.013906451839554072 0.00025172150372942633 0 -0.014036330254266637 0.00029502972192178552 0 -0.013895988773357118 0.00031089301500832533 0 -0.013985477646701014 0.00038362853297673534 0 -0.013895988773357118 0.00031089301500832533 0 -0.013881735067472763 0.00046063283341178429 0 -0.013691618176020879 0.00058508167946340979 0 -0.013895988773357118 0.00031089301500832533 0 -0.013881735067472763 0.00046063283341178429 0 -0.013881735067472763 0.00046063283341178429 0 -0.014005833568017944 0.00048666116149976457 0 -0.014004672003047282 0.00061432205663515104 0 -0.013723981852592177 0.00089112423691632529 0 -0.013881735067472763 0.00046063283341178429 0 -0.014320089250867829 0.0011946439481127493 0 -0.013723981852592177 0.00089112423691632529 0 -0.014320089250867829 0.0011946439481127493 0 -0.013464748719380122 0.0012644274353663181 0 -0.0098164966894288483 0.0021551445115535928 0 -0.0088488388714567812 0.0019585502743789652 0 -0.014005833568017944 0.00048666116149976457 0 -0.014047104158748684 0.00055662658446964006 0 -0.014004672003047282 0.00061432205663515104 0 -0.0090819929327704031 0.001751112023020299 0 -0.0088488388714567812 0.0019585502743789652 0 -0.014236109188366408 0.00053935284186557248 0 -0.014183676306468199 0.00032700380227353452 0 -0.014131061796003716 0.00045714354075794788 0 -0.014236109188366408 0.00053935284186557248 0 -0.014047104158748684 0.00055662658446964006 0 -0.014068395650217723 0.00076252277667570581 0 -0.014059905296077127 0.00047804024572689196 0 -0.014047104158748684 0.00055662658446964006 0 -0.014131061796003716 0.00045714354075794788 0 -0.014058274230319745 0.00039205795405979565 0 -0.014059905296077127 0.00047804024572689196 0 -0.014131061796003716 0.00045714354075794788 0 -0.014058274230319745 0.00039205795405979565 0 -0.014005833568017944 0.00048666116149976457 0 -0.014059905296077127 0.00047804024572689196 0 -0.014005833568017944 0.00048666116149976457 0 -0.014059905296077127 0.00047804024572689196 0 -0.014047104158748684 0.00055662658446964006 0 -0.014236109188366408 0.00053935284186557248 0 -0.014047104158748684 0.00055662658446964006 0 -0.014131061796003716 0.00045714354075794788 0 -0.011759284961283836 0.00023500769530148216 0 -0.008610418346259854 0.002405450079161358 0 -0.014504460761119675 0.00028495193679256044 0 -0.01451935747940465 0.00022591392119437003 0 -0.014592397048447083 0.00020840805601245033 0 -0.014047104158748684 0.00055662658446964006 0 -0.014068395650217723 0.00076252277667570581 0 -0.013989840106415401 0.00062660011225814326 0 -0.01451935747940465 0.00022591392119437003 0 -0.014529055724355469 0.0001715086050434438 0 -0.014592397048447083 0.00020840805601245033 0 -0.008610418346259854 0.002405450079161358 0 -0.0088488388714567812 0.0019585502743789652 0 -0.0088488388714567812 0.0019585502743789652 0 -0.0084460081954682922 0.0030970520894339484 0 -0.0034518959512594735 0.0048330126845702618 0 -0.00342679854160398 0.0047779353554992495 0 -0.0033529524820307289 0.0048873771142809389 0 -0.014320089250867829 0.0011946439481127493 0 -0.013464748719380122 0.0012644274353663181 0 -0.013669567422017389 0.0020647159116123372 0 -0.008610418346259854 0.002405450079161358 0 -0.0052005999545116427 0.0051005558078127426 0 -0.0034518959512594735 0.0048330126845702618 0 -0.0033574918012562395 0.0049099658407517534 0 -0.0033529524820307289 0.0048873771142809389 0 -0.0022831455034463184 0.0062466340589123403 0 -0.0027741725741946216 0.0055806182830142239 0 -0.0023025942904849549 0.0053767371775759725 0 -0.014529055724355469 0.0001715086050434438 0 -0.014592397048447083 0.00020840805601245033 0 -0.014553767249335518 9.0411395385268849e-05 0 -0.0022831455034463184 0.0062466340589123403 0 -0.0023025942904849549 0.0053767371775759725 0 -0.001826216160519743 0.0055260326331633604 0 -0.008610418346259854 0.002405450079161358 0 -0.0084052703481707607 0.002525217299107544 0 -0.012965756017891256 0.00092992251072016789 0 -0.01279857198142164 0.0018441871855047229 0 -0.013464748719380122 0.0012644274353663181 0 -0.012965756017891256 0.00092992251072016789 0 -0.01279857198142164 0.0018441871855047229 0 -0.012395434497668075 0.0012067470804058955 0 -0.01279857198142164 0.0018441871855047229 0 -0.013464748719380122 0.0012644274353663181 0 -0.013669567422017389 0.0020647159116123372 0 -0.0084460081954682922 0.0030970520894339484 0 -0.0083802800793618022 0.0035153739442799108 0 -0.01279857198142164 0.0018441871855047229 0 -0.013669567422017389 0.0020647159116123372 0 -0.013017985876434188 0.0029328499286150706 0 -0.0033574918012562395 0.0049099658407517534 0 -0.0033529524820307289 0.0048873771142809389 0 -0.0033965262064323846 0.0049208089517449463 0 -0.01279857198142164 0.0018441871855047229 0 -0.012148291404874726 0.0027694622099390534 0 -0.013017985876434188 0.0029328499286150706 0 -0.013586403457870991 0.0022971799853279107 0 -0.011760537603766972 0.0028190015361966208 0 -0.014808515932142002 0.0026637168058890673 0 -0.01468397587085799 0.0028345020409610193 0 -0.014611512927104893 0.0025682350539505865 0 -0.01279857198142164 0.0018441871855047229 0 -0.01193091231103207 0.0017396017494728513 0 -0.012148291404874726 0.0027694622099390534 0 -0.014808515932142002 0.0026637168058890673 0 -0.014882113956743496 0.0027949115282956262 0 -0.01468397587085799 0.0028345020409610193 0 -0.014808515932142002 0.0026637168058890673 0 -0.014882113956743496 0.0027949115282956262 0 -0.014949318712398976 0.0026377244090243375 0 -0.014882113956743496 0.0027949115282956262 0 -0.014855643458456042 0.0029424672749508835 0 -0.01468397587085799 0.0028345020409610193 0 -0.014855643458456042 0.0029424672749508835 0 -0.01468397587085799 0.0028345020409610193 0 -0.014750082222356898 0.0031100932739585988 0 -0.014882113956743496 0.0027949115282956262 0 -0.014855643458456042 0.0029424672749508835 0 -0.014984431036380808 0.0028870758917505304 0 -0.01279857198142164 0.0018441871855047229 0 -0.01193091231103207 0.0017396017494728513 0 -0.012395434497668075 0.0012067470804058955 0 -0.01193091231103207 0.0017396017494728513 0 -0.012395434497668075 0.0012067470804058955 0 -0.011708610106441447 0.00070880842407913033 0 -0.013586403457870991 0.0022971799853279107 0 -0.015598891424118031 0.0019443742905260913 0 -0.013972347110381778 0.0013668990547358228 0 -0.015598891424118031 0.0019443742905260913 0 -0.012603731593672736 0.00081226281274197312 0 -0.012395434497668075 0.0012067470804058955 0 -0.011708610106441447 0.00070880842407913033 0 -0.012801001344637223 0.00047968931973307985 0 -0.012603731593672736 0.00081226281274197312 0 -0.011708610106441447 0.00070880842407913033 0 -0.013899298290744386 0.00030889557409596917 0 -0.013984870580230674 0.00031109310125037584 0 -0.013986459160482559 0.00031890673256429773 0 -0.014855643458456042 0.0029424672749508835 0 -0.014888551677898253 0.0030834585576107374 0 -0.014750082222356898 0.0031100932739585988 0 -0.014855643458456042 0.0029424672749508835 0 -0.014888551677898253 0.0030834585576107374 0 -0.014984567580992657 0.0030641892484397633 0 -0.015551717513408813 0.0021903858048496227 0 -0.016055997133539605 0.0020234472832004369 0 -0.015129626032790356 0.003044785929952676 0 -0.015079559104097986 0.0030671222803357505 0 -0.015130984515886049 0.003105049578024007 0 -0.0156356429580479 0.0024779284702153093 0 -0.016180128306602932 0.0023665899434929163 0 -0.01615458832520025 0.0022510900995375959 0 -0.015551717513408813 0.0021903858048496227 0 -0.015598891424118031 0.0019443742905260913 0 -0.015598891424118031 0.0019443742905260913 0 -0.016055997133539605 0.0020234472832004369 0 -0.016055997133539605 0.0020234472832004369 0 -0.01751374194587256 0.0014677542236341968 0 -0.015079559104097986 0.0030671222803357505 0 -0.015130984515886049 0.003105049578024007 0 -0.015098547623748775 0.0031455097391612694 0 -0.021620100366412084 -8.2515211039236683e-05 0 -0.021562641894773089 -0.00039968350001529085 0 -0.02182323443865548 -0.00033712886280817139 0 -0.015147236764411995 0.0031657560630586018 0 -0.015130984515886049 0.003105049578024007 0 -0.015098547623748775 0.0031455097391612694 0 -0.02211155861136142 -0.00030382892941469025 0 -0.021620100366412084 -8.2515211039236683e-05 0 -0.02182323443865548 -0.00033712886280817139 0 -0.013898285696338683 0.0003185593275510123 0 -0.013899298290744386 0.00030889557409596917 0 -0.013986459160482559 0.00031890673256429773 0 -0.017810077813956583 0.00061509617096467827 0 -0.016055997133539605 0.0020234472832004369 0 -0.021838050829906676 -0.00049075272583155817 0 -0.021981967070020956 -0.00038866278839856834 0 -0.02182323443865548 -0.00033712886280817139 0 -0.015206194471973781 0.0030802390792649065 0 -0.015271048180117455 0.0031014248727625486 0 -0.01522620813654545 0.0031436010226394808 0 -0.015289041858946069 0.003184690245765951 0 -0.015271048180117455 0.0031014248727625486 0 -0.01522620813654545 0.0031436010226394808 0 -0.015206194471973781 0.0030802390792649065 0 -0.01522620813654545 0.0031436010226394808 0 -0.015174174206423663 0.0031252146907311735 0 -0.015147236764411995 0.0031657560630586018 0 -0.015130984515886049 0.003105049578024007 0 -0.015174174206423663 0.0031252146907311735 0 -0.015129626032790356 0.003044785929952676 0 -0.015130984515886049 0.003105049578024007 0 -0.015160759464059636 0.0030783881917948652 0 -0.015130984515886049 0.003105049578024007 0 -0.015174174206423663 0.0031252146907311735 0 -0.015160759464059636 0.0030783881917948652 0 -0.015206194471973781 0.0030802390792649065 0 -0.015174174206423663 0.0031252146907311735 0 -0.015160759464059636 0.0030783881917948652 0 -0.015206194471973781 0.0030802390792649065 0 -0.015160759464059636 0.0030783881917948652 0 -0.015163026199381677 0.0030367108274242179 0 -0.015551717513408813 0.0021903858048496227 0 -0.015372008116683404 0.0023267208561658296 0 -0.015129626032790356 0.003044785929952676 0 -0.015160759464059636 0.0030783881917948652 0 -0.015163026199381677 0.0030367108274242179 0 -0.015372008116683404 0.0023267208561658296 0 -0.015247092729825263 0.0024496096991457762 0 -0.015206194471973781 0.0030802390792649065 0 -0.015163026199381677 0.0030367108274242179 0 -0.015239477289716304 0.0029988150603366907 0 -0.015206194471973781 0.0030802390792649065 0 -0.015271048180117455 0.0031014248727625486 0 -0.015239477289716304 0.0029988150603366907 0 -0.014984567580992657 0.0030641892484397633 0 -0.015239477289716304 0.0029988150603366907 0 -0.015135552149034325 0.0028679214318394031 0 -0.015239477289716304 0.0029988150603366907 0 -0.015135552149034325 0.0028679214318394031 0 -0.015253607207642218 0.0028035686218976122 0 -0.015135552149034325 0.0028679214318394031 0 -0.015253607207642218 0.0028035686218976122 0 -0.015072135381019416 0.0027692791144684837 0 -0.014882113956743496 0.0027949115282956262 0 -0.014984431036380808 0.0028870758917505304 0 -0.015072135381019416 0.0027692791144684837 0 -0.014984567580992657 0.0030641892484397633 0 -0.015135552149034325 0.0028679214318394031 0 -0.014984431036380808 0.0028870758917505304 0 -0.014855643458456042 0.0029424672749508835 0 -0.014984567580992657 0.0030641892484397633 0 -0.014984431036380808 0.0028870758917505304 0 -0.015135552149034325 0.0028679214318394031 0 -0.014984431036380808 0.0028870758917505304 0 -0.015072135381019416 0.0027692791144684837 0 -0.014882113956743496 0.0027949115282956262 0 -0.015072135381019416 0.0027692791144684837 0 -0.014949318712398976 0.0026377244090243375 0 -0.015072135381019416 0.0027692791144684837 0 -0.014949318712398976 0.0026377244090243375 0 -0.015148978364985535 0.0025942645535130182 0 -0.015365480759060286 0.0026316646563337757 0 -0.015253607207642218 0.0028035686218976122 0 -0.015148978364985535 0.0025942645535130182 0 -0.015253607207642218 0.0028035686218976122 0 -0.015072135381019416 0.0027692791144684837 0 -0.015148978364985535 0.0025942645535130182 0 -0.015365480759060286 0.0026316646563337757 0 -0.015148978364985535 0.0025942645535130182 0 -0.01527258157217988 0.0024554579194770677 0 -0.015148978364985535 0.0025942645535130182 0 -0.015105184350841573 0.0023716767745315935 0 -0.01527258157217988 0.0024554579194770677 0 -0.015148978364985535 0.0025942645535130182 0 -0.014960621249059886 0.0024843424279975086 0 -0.015105184350841573 0.0023716767745315935 0 -0.014949318712398976 0.0026377244090243375 0 -0.015148978364985535 0.0025942645535130182 0 -0.014960621249059886 0.0024843424279975086 0 -0.014949318712398976 0.0026377244090243375 0 -0.014960621249059886 0.0024843424279975086 0 -0.014826562819955527 0.0025254236067575827 0 -0.014925313395434533 0.0023345314005508893 0 -0.015087512930246558 0.0022257228677997308 0 -0.014762464390424158 0.0022041759866225437 0 -0.014960621249059886 0.0024843424279975086 0 -0.014925313395434533 0.0023345314005508893 0 -0.015105184350841573 0.0023716767745315935 0 -0.014925313395434533 0.0023345314005508893 0 -0.015105184350841573 0.0023716767745315935 0 -0.015087512930246558 0.0022257228677997308 0 -0.015105184350841573 0.0023716767745315935 0 -0.015224480171689089 0.0023295444951918964 0 -0.01527258157217988 0.0024554579194770677 0 -0.015105184350841573 0.0023716767745315935 0 -0.015224480171689089 0.0023295444951918964 0 -0.015087512930246558 0.0022257228677997308 0 -0.014357954062012766 0.0018026663610951361 0 -0.01358630735368143 0.0023893998863748957 0 -0.013687339707184503 0.0009992072451304923 0 -0.013873411234942106 0.0024113123948836003 0 -0.014441267324271343 0.0023685738133557353 0 -0.015224480171689089 0.0023295444951918964 0 -0.015087512930246558 0.0022257228677997308 0 -0.015322850730295953 0.0022375651763051371 0 -0.014357954062012766 0.0018026663610951361 0 -0.01358630735368143 0.0023893998863748957 0 -0.015001536240711381 0.0021689690767985517 0 -0.01358630735368143 0.0023893998863748957 0 -0.015001536240711381 0.0021689690767985517 0 -0.015322850730295953 0.0022375651763051371 0 -0.014357954062012766 0.0018026663610951361 0 -0.013687339707184503 0.0009992072451304923 0 -0.015356605709091184 0.0017678774498872429 0 -0.012219542912809462 0.0035828630006166967 0 -0.013815703427053277 0.0033629776183116611 0 -0.013873411234942106 0.0024113123948836003 0 -0.012380406231619819 0.0025328359663335819 0 -0.01358630735368143 0.0023893998863748957 0 -0.012263880102229995 0.0018353927872246723 0 -0.0117555860360683 0.0024851128204352812 0 -0.01358630735368143 0.0023893998863748957 0 -0.012263880102229995 0.0018353927872246723 0 -0.012529509712579403 0.0012304402037206096 0 -0.01358630735368143 0.0023893998863748957 0 -0.012529509712579403 0.0012304402037206096 0 -0.013687339707184503 0.0009992072451304923 0 -0.012219542912809462 0.0035828630006166967 0 -0.0087712281988407276 0.003107164137121146 0 -0.01249419627505932 0.0062817472877464411 0 -0.011896204847417517 0.0060038647752081922 0 -0.012411992613008543 0.0058986135005602647 0 -0.012529509712579403 0.0012304402037206096 0 -0.013687339707184503 0.0009992072451304923 0 -0.01195179883312053 0.00020321739290517294 0 -0.01249419627505932 0.0062817472877464411 0 -0.013088369783052825 0.0065523341376019827 0 -0.012885943123245806 0.0061238729104813065 0 -0.01249419627505932 0.0062817472877464411 0 -0.012661697080868102 0.0059708003038541971 0 -0.012411992613008543 0.0058986135005602647 0 -0.01249419627505932 0.0062817472877464411 0 -0.012661697080868102 0.0059708003038541971 0 -0.012885943123245806 0.0061238729104813065 0 -0.012661697080868102 0.0059708003038541971 0 -0.012885943123245806 0.0061238729104813065 0 -0.012879878857742773 0.0058875630060311879 0 -0.0041473461630763941 0.0016113328432003395 0 -0.0045170325939969157 0.0017923004894813588 0 -0.0042768597856505455 0.0019062208255583705 0 -0.0041473461630763941 0.0016113328432003395 0 -0.0042768597856505455 0.0019062208255583705 0 -0.0040556689845394752 0.0019330581150104951 0 -0.0041473461630763941 0.0016113328432003395 0 -0.0045170325939969157 0.0017923004894813588 0 -0.0045292127701077271 0.0014107300846510674 0 -0.0045170325939969157 0.0017923004894813588 0 -0.0045292127701077271 0.0014107300846510674 0 -0.0047860768699033848 0.0015986231404258942 0 -0.0045170325939969157 0.0017923004894813588 0 -0.0044559332287739273 0.0020759673967710784 0 -0.004908888312640268 0.0021522077524675815 0 -0.0045170325939969157 0.0017923004894813588 0 -0.0044559332287739273 0.0020759673967710784 0 -0.0042768597856505455 0.0019062208255583705 0 -0.0044559332287739273 0.0020759673967710784 0 -0.0042768597856505455 0.0019062208255583705 0 -0.0042186775851136777 0.0021525780069266264 0 -0.0042768597856505455 0.0019062208255583705 0 -0.0040743673372781427 0.0020389403853666201 0 -0.0040556689845394752 0.0019330581150104951 0 -0.0042186775851136777 0.0021525780069266264 0 -0.0040743673372781427 0.0020389403853666201 0 -0.004027921087820901 0.0021798241209256938 0 -0.0042768597856505455 0.0019062208255583705 0 -0.0042186775851136777 0.0021525780069266264 0 -0.0040743673372781427 0.0020389403853666201 0 -0.0085944983306795418 0.0025782494676208655 0 -0.0083469650115873036 0.0028763324468941039 0 -0.0041473461630763941 0.0016113328432003395 0 -0.0040556689845394752 0.0019330581150104951 0 -0.0037276317259478824 0.002175709360188377 0 -0.0040743673372781427 0.0020389403853666201 0 -0.0040556689845394752 0.0019330581150104951 0 -0.0037276317259478824 0.002175709360188377 0 -0.0040743673372781427 0.0020389403853666201 0 -0.0037276317259478824 0.002175709360188377 0 -0.004027921087820901 0.0021798241209256938 0 -0.0087712281988407276 0.003107164137121146 0 -0.0092183380893606608 0.0025844189860568952 0 -0.01195179883312053 0.00020321739290517294 0 -0.011940403928153858 0.00092195133705971777 0 -0.011370464833750467 0.00097350288456802549 0 -0.011926580704018854 0.00023762683586318431 0 -0.011370464833750467 0.00097350288456802549 0 -0.011749024912354113 0.00015443388536048855 0 -0.0087712281988407276 0.003107164137121146 0 -0.0083469650115873036 0.0028763324468941039 0 -0.012529509712579403 0.0012304402037206096 0 -0.01195179883312053 0.00020321739290517294 0 -0.011940403928153858 0.00092195133705971777 0 -0.011909513014835922 0.0012798767130309395 0 -0.011370464833750467 0.00097350288456802549 0 -0.011532444738636731 0.0016301655543618872 0 -0.011940403928153858 0.00092195133705971777 0 -0.011909513014835922 0.0012798767130309395 0 -0.011370464833750467 0.00097350288456802549 0 -0.012529509712579403 0.0012304402037206096 0 -0.011940403928153858 0.00092195133705971777 0 -0.011909513014835922 0.0012798767130309395 0 -0.01085952121224395 0.001340229551138462 0 -0.011370464833750467 0.00097350288456802549 0 -0.011749024912354113 0.00015443388536048855 0 -0.01085952121224395 0.001340229551138462 0 -0.011370464833750467 0.00097350288456802549 0 -0.011532444738636731 0.0016301655543618872 0 -0.01085952121224395 0.001340229551138462 0 -0.011532444738636731 0.0016301655543618872 0 -0.011188223935644601 0.0018727083406931779 0 -0.011532444738636731 0.0016301655543618872 0 -0.011188223935644601 0.0018727083406931779 0 -0.0117555860360683 0.0024851128204352812 0 -0.01085952121224395 0.001340229551138462 0 -0.011188223935644601 0.0018727083406931779 0 -0.010844860739182616 0.0021429659320734598 0 -0.012263880102229995 0.0018353927872246723 0 -0.011532444738636731 0.0016301655543618872 0 -0.0117555860360683 0.0024851128204352812 0 -0.012263880102229995 0.0018353927872246723 0 -0.011909513014835922 0.0012798767130309395 0 -0.011532444738636731 0.0016301655543618872 0 -0.012263880102229995 0.0018353927872246723 0 -0.012529509712579403 0.0012304402037206096 0 -0.011909513014835922 0.0012798767130309395 0 -0.011188223935644601 0.0018727083406931779 0 -0.0117555860360683 0.0024851128204352812 0 -0.010844860739182616 0.0021429659320734598 0 -0.012380406231619819 0.0025328359663335819 0 -0.0090179977697244732 0.0028000367897693351 0 -0.0117555860360683 0.0024851128204352812 0 -0.010844860739182616 0.0021429659320734598 0 -0.0099403426874667723 0.0025621136492911915 0 -0.01085952121224395 0.001340229551138462 0 -0.010844860739182616 0.0021429659320734598 0 -0.0099403426874667723 0.0025621136492911915 0 -0.0085944983306795418 0.0025782494676208655 0 -0.0090179977697244732 0.0028000367897693351 0 -0.0045292127701077271 0.0014107300846510674 0 -0.0046692626454117687 0.0010425073356042187 0 -0.0047860768699033848 0.0015986231404258942 0 -0.0041473461630763941 0.0016113328432003395 0 -0.0045292127701077271 0.0014107300846510674 0 -0.0045773286622382524 0.0010462414112876982 0 -0.0045292127701077271 0.0014107300846510674 0 -0.0045773286622382524 0.0010462414112876982 0 -0.0046692626454117687 0.0010425073356042187 0 -0.0090179977697244732 0.0028000367897693351 0 -0.0084614558856444689 0.0027994368944558447 0 -0.007558227716415589 0.0048716068657441904 0 -0.010611546886271916 0.0047365265670808758 0 -0.0099239279012263149 0.0017542392525195468 0 -0.0089628522449255628 0.0029551809926972208 0 -0.011760537603766972 0.0028190015361966208 0 -0.014354230611718134 0.0022113745423770503 0 -0.014318494906989105 0.0022568389320339276 0 -0.01466007176455902 0.0023969594420015913 0 -0.0089628522449255628 0.0029551809926972208 0 -0.012425980037227582 0.0034942849105479433 0 -0.014533572930334528 0.0022921611823611861 0 -0.014754686278243046 0.0023859480004444849 0 -0.014611512927104893 0.0025682350539505865 0 -0.0084614558856444689 0.0027994368944558447 0 -0.0089628522449255628 0.0029551809926972208 0 -0.0090179977697244732 0.0028000367897693351 0 -0.0089628522449255628 0.0029551809926972208 0 -0.013266605402205148 0.0035664953248608455 0 -0.012425980037227582 0.0034942849105479433 0 -0.014925313395434533 0.0023345314005508893 0 -0.014762464390424158 0.0022041759866225437 0 -0.01466007176455902 0.0023969594420015913 0 -0.014960621249059886 0.0024843424279975086 0 -0.014925313395434533 0.0023345314005508893 0 -0.01466007176455902 0.0023969594420015913 0 -0.014762464390424158 0.0022041759866225437 0 -0.014354230611718134 0.0022113745423770503 0 -0.01466007176455902 0.0023969594420015913 0 -0.014960621249059886 0.0024843424279975086 0 -0.014754686278243046 0.0023859480004444849 0 -0.014826562819955527 0.0025254236067575827 0 -0.014808515932142002 0.0026637168058890673 0 -0.014826562819955527 0.0025254236067575827 0 -0.014611512927104893 0.0025682350539505865 0 -0.014754686278243046 0.0023859480004444849 0 -0.014826562819955527 0.0025254236067575827 0 -0.014611512927104893 0.0025682350539505865 0 -0.014808515932142002 0.0026637168058890673 0 -0.014949318712398976 0.0026377244090243375 0 -0.014826562819955527 0.0025254236067575827 0 -0.012366022332757048 0.0037982659525006676 0 -0.012148291404874726 0.0027694622099390534 0 -0.013017985876434188 0.0029328499286150706 0 -0.0052005999545116427 0.0051005558078127426 0 -0.0045752822497648615 0.0053888668049344628 0 -0.0033574918012562395 0.0049099658407517534 0 -0.0033965262064323846 0.0049208089517449463 0 -0.0032959804666332507 0.0048451053380197629 0 -0.0033965262064323846 0.0049208089517449463 0 -0.0032959804666332507 0.0048451053380197629 0 -0.0034938575125971036 0.0046512938748888653 0 -0.0032959804666332507 0.0048451053380197629 0 -0.0029955658894284401 0.0045714171735010099 0 -0.0028297489800159083 0.0047865349328548032 0 -0.0032959804666332507 0.0048451053380197629 0 -0.0029955658894284401 0.0045714171735010099 0 -0.0032253136396675299 0.00453165395895915 0 -0.0029955658894284401 0.0045714171735010099 0 -0.0032253136396675299 0.00453165395895915 0 -0.0029268137055571391 0.0043323286605172319 0 -0.0032253136396675299 0.00453165395895915 0 -0.0034938575125971036 0.0046512938748888653 0 -0.003503941013605281 0.0044855005167154854 0 -0.0032959804666332507 0.0048451053380197629 0 -0.0032253136396675299 0.00453165395895915 0 -0.0034938575125971036 0.0046512938748888653 0 -0.0037980960478032361 0.0045551099521097226 0 -0.0033965262064323846 0.0049208089517449463 0 -0.0034938575125971036 0.0046512938748888653 0 -0.0089628522449255628 0.0029551809926972208 0 -0.0083802800793618022 0.0035153739442799108 0 -0.0034938575125971036 0.0046512938748888653 0 -0.0036951243873248533 0.0044983454478840215 0 -0.003503941013605281 0.0044855005167154854 0 -0.0037980960478032361 0.0045551099521097226 0 -0.0034938575125971036 0.0046512938748888653 0 -0.0036951243873248533 0.0044983454478840215 0 -0.0089628522449255628 0.0029551809926972208 0 -0.0077046766459048831 0.0028758585345432628 0 -0.0019883336534517893 0.0050888936787519337 0 -0.0023025942904849549 0.0053767371775759725 0 -0.001826216160519743 0.0055260326331633604 0 -0.0019883336534517893 0.0050888936787519337 0 -0.0023025942904849549 0.0053767371775759725 0 -0.002405895835461374 0.0048940286519371769 0 -0.0027741725741946216 0.0055806182830142239 0 -0.0032959804666332507 0.0048451053380197629 0 -0.0027175818032703766 0.0050972121237010644 0 -0.0023025942904849549 0.0053767371775759725 0 -0.0027175818032703766 0.0050972121237010644 0 -0.002405895835461374 0.0048940286519371769 0 -0.0027741725741946216 0.0055806182830142239 0 -0.0023025942904849549 0.0053767371775759725 0 -0.0027175818032703766 0.0050972121237010644 0 -0.0032959804666332507 0.0048451053380197629 0 -0.0027175818032703766 0.0050972121237010644 0 -0.0028297489800159083 0.0047865349328548032 0 -0.0029955658894284401 0.0045714171735010099 0 -0.0026524226384703376 0.0045347500036629802 0 -0.0029268137055571391 0.0043323286605172319 0 -0.0029955658894284401 0.0045714171735010099 0 -0.0028297489800159083 0.0047865349328548032 0 -0.0026524226384703376 0.0045347500036629802 0 -0.0026524226384703376 0.0045347500036629802 0 -0.0022606760825697376 0.0046314830469614847 0 -0.0023449168304429772 0.0043780059061192577 0 -0.0026524226384703376 0.0045347500036629802 0 -0.002405895835461374 0.0048940286519371769 0 -0.0022606760825697376 0.0046314830469614847 0 -0.0028297489800159083 0.0047865349328548032 0 -0.0026524226384703376 0.0045347500036629802 0 -0.002405895835461374 0.0048940286519371769 0 -0.0027175818032703766 0.0050972121237010644 0 -0.0028297489800159083 0.0047865349328548032 0 -0.002405895835461374 0.0048940286519371769 0 -0.002405895835461374 0.0048940286519371769 0 -0.0022606760825697376 0.0046314830469614847 0 -0.0019902930333145909 0.0047588489967565935 0 -0.0022606760825697376 0.0046314830469614847 0 -0.0019902930333145909 0.0047588489967565935 0 -0.0019512990459717241 0.0044034819622100763 0 -0.0019902930333145909 0.0047588489967565935 0 -0.0019512990459717241 0.0044034819622100763 0 -0.0016365465899346901 0.0045876578711554726 0 -0.0019883336534517893 0.0050888936787519337 0 -0.0019902930333145909 0.0047588489967565935 0 -0.0018208806477190045 0.0048682766080894481 0 -0.0019883336534517893 0.0050888936787519337 0 -0.002405895835461374 0.0048940286519371769 0 -0.0019902930333145909 0.0047588489967565935 0 -0.0019512990459717241 0.0044034819622100763 0 -0.0021564854190681839 0.0040537019163751856 0 -0.001759868872301726 0.0040225680917630466 0 -0.0022606760825697376 0.0046314830469614847 0 -0.0019512990459717241 0.0044034819622100763 0 -0.0023449168304429772 0.0043780059061192577 0 -0.0023449168304429772 0.0043780059061192577 0 -0.0021564854190681839 0.0040537019163751856 0 -0.0026239904416513883 0.0041956006483438767 0 -0.0019512990459717241 0.0044034819622100763 0 -0.0023449168304429772 0.0043780059061192577 0 -0.0021564854190681839 0.0040537019163751856 0 -0.0019375514502225778 0.0030143856754045943 0 -0.0031195532696635113 0.0030368402440714764 0 -0.0026239904416513883 0.0041956006483438767 0 -0.0024841205159845292 0.0037725186952551428 0 -0.0031793000254172004 0.0040799623416571222 0 -0.0021564854190681839 0.0040537019163751856 0 -0.0026239904416513883 0.0041956006483438767 0 -0.0024841205159845292 0.0037725186952551428 0 -0.0026524226384703376 0.0045347500036629802 0 -0.0023449168304429772 0.0043780059061192577 0 -0.0026239904416513883 0.0041956006483438767 0 -0.0026239904416513883 0.0041956006483438767 0 -0.0029268137055571391 0.0043323286605172319 0 -0.0031793000254172004 0.0040799623416571222 0 -0.0026524226384703376 0.0045347500036629802 0 -0.0026239904416513883 0.0041956006483438767 0 -0.0029268137055571391 0.0043323286605172319 0 0.00016872968649260501 0.0032153847858050807 0 -5.8283192543335663e-05 0.0031535086781235141 0 0.0002947712652431543 0.0030014697296303293 0 0.00016872968649260501 0.0032153847858050807 0 4.8639327408994461e-05 0.0033800059122191225 0 0.00031672117475809667 0.0034102175642590918 0 0.00016872968649260501 0.0032153847858050807 0 4.8639327408994461e-05 0.0033800059122191225 0 -5.8283192543335663e-05 0.0031535086781235141 0 -0.0021564854190681839 0.0040537019163751856 0 -0.001759868872301726 0.0040225680917630466 0 -0.0017488292483986655 0.003486588215297657 0 4.8639327408994461e-05 0.0033800059122191225 0 -5.8283192543335663e-05 0.0031535086781235141 0 -0.00042018608990270422 0.0032290523758669591 0 -0.0019375514502225778 0.0030143856754045943 0 -0.0014877462835207131 0.0030595055115229825 0 -0.0021564854190681839 0.0040537019163751856 0 -0.0024841205159845292 0.0037725186952551428 0 -0.0017488292483986655 0.003486588215297657 0 -0.0077046766459048831 0.0028758585345432628 0 -0.0031195532696635113 0.0030368402440714764 0 -0.0052407143883267098 0.0021492352783158853 0 -0.0055597671950733561 0.0022956511556210162 0 -0.00522369703610905 0.0023683399986245976 0 -0.0037533384712033339 0.0044852839583607688 0 -0.003503941013605281 0.0044855005167154854 0 -0.0031394026402265496 0.0041580483512706143 0 -0.0084614558856444689 0.0027994368944558447 0 -0.0059913255261929742 0.002543797337785638 0 -0.0051795047559850182 0.0021521246847626026 0 -0.0052407143883267098 0.0021492352783158853 0 -0.00522369703610905 0.0023683399986245976 0 -0.0084614558856444689 0.0027994368944558447 0 -0.0077046766459048831 0.0028758585345432628 0 -0.007794156798866283 0.0029344197138312278 0 -0.0075105447480203992 0.0017025450227439764 0 -0.0099947659705229789 0.0028366584224755226 0 -0.0077046766459048831 0.0028758585345432628 0 -0.0072166905853285447 0.0029417318399581551 0 -0.0032253136396675299 0.00453165395895915 0 -0.003503941013605281 0.0044855005167154854 0 -0.0031394026402265496 0.0041580483512706143 0 -0.0032253136396675299 0.00453165395895915 0 -0.0029268137055571391 0.0043323286605172319 0 -0.0031394026402265496 0.0041580483512706143 0 -0.0030480230324913767 0.0031473681148562502 0 -0.0031195532696635113 0.0030368402440714764 0 0.00016872968649260501 0.0032153847858050807 0 0.0002947712652431543 0.0030014697296303293 0 0.00031672117475809667 0.0034102175642590918 0 -0.0031195532696635113 0.0030368402440714764 0 -0.0038147288181451444 0.0028756741699334839 0 0.0002947712652431543 0.0030014697296303293 0 0.00031672117475809667 0.0034102175642590918 0 0.000717497703169587 0.0034310264274207982 0 -0.0055597671950733561 0.0022956511556210162 0 -0.00522369703610905 0.0023683399986245976 0 -0.0052691592179766236 0.0025848762331805936 0 -0.0059913255261929742 0.002543797337785638 0 -0.0038147288181451444 0.0028756741699334839 0 -0.0045170325939969157 0.0017923004894813588 0 -0.0047860768699033848 0.0015986231404258942 0 -0.004908888312640268 0.0021522077524675815 0 0.000717497703169587 0.0034310264274207982 0 0.000446768528189093 0.0036507432472866366 0 0.00053986280230596017 0.0039808441675965494 0 0.00049425496652753071 0.0041942528454917754 0 0.00046487294448145335 0.0040859078620407163 0 0.00053986280230596017 0.0039808441675965494 0 -0.0038147288181451444 0.0028756741699334839 0 -0.0031509195355179905 0.0030521714150326951 0 0.00031672117475809667 0.0034102175642590918 0 0.000717497703169587 0.0034310264274207982 0 0.000446768528189093 0.0036507432472866366 0 0.00027587547191628385 0.0037478976311770061 0 0.000446768528189093 0.0036507432472866366 0 0.00053986280230596017 0.0039808441675965494 0 4.8639327408994461e-05 0.0033800059122191225 0 0.00031672117475809667 0.0034102175642590918 0 0.00027587547191628385 0.0037478976311770061 0 0.00031672117475809667 0.0034102175642590918 0 0.00027587547191628385 0.0037478976311770061 0 0.000446768528189093 0.0036507432472866366 0 0.00027587547191628385 0.0037478976311770061 0 0.00029482012486214655 0.0039891069651172405 0 0.00050410890911379549 0.004055367203549716 0 0.00027587547191628385 0.0037478976311770061 0 0.00053986280230596017 0.0039808441675965494 0 0.00050410890911379549 0.004055367203549716 0 0.00053986280230596017 0.0039808441675965494 0 0.00050410890911379549 0.004055367203549716 0 0.00046325654924247414 0.0040985516255156477 0 0.00046487294448145335 0.0040859078620407163 0 0.00053986280230596017 0.0039808441675965494 0 0.00046325654924247414 0.0040985516255156477 0 4.8639327408994461e-05 0.0033800059122191225 0 -5.2963229520772438e-05 0.00357806341626778 0 -0.00042018608990270422 0.0032290523758669591 0 -5.2963229520772438e-05 0.00357806341626778 0 -0.00027001058062219746 0.0036637568104759067 0 -0.00042018608990270422 0.0032290523758669591 0 -0.00027001058062219746 0.0036637568104759067 0 -0.00042018608990270422 0.0032290523758669591 0 -0.00053718602742170037 0.0035716590069879168 0 4.8639327408994461e-05 0.0033800059122191225 0 0.00027587547191628385 0.0037478976311770061 0 -5.2963229520772438e-05 0.00357806341626778 0 0.00027587547191628385 0.0037478976311770061 0 -5.2963229520772438e-05 0.00357806341626778 0 3.7759102387131897e-05 0.0038362124230881087 0 0.00027587547191628385 0.0037478976311770061 0 3.7759102387131897e-05 0.0038362124230881087 0 0.00029482012486214655 0.0039891069651172405 0 -5.2963229520772438e-05 0.00357806341626778 0 3.7759102387131897e-05 0.0038362124230881087 0 -0.00027001058062219746 0.0036637568104759067 0 3.7759102387131897e-05 0.0038362124230881087 0 -0.00023732376707413466 0.003912885062339928 0 -0.00027001058062219746 0.0036637568104759067 0 -0.00023732376707413466 0.003912885062339928 0 -0.00027001058062219746 0.0036637568104759067 0 -0.00045960647040623468 0.0037870344633471275 0 -0.00021999441205730516 0.0041217911541218963 0 6.394700906908911e-05 0.0041537757595558819 0 -0.00033600611554134257 0.0043303575695397686 0 3.7759102387131897e-05 0.0038362124230881087 0 -0.00023732376707413466 0.003912885062339928 0 6.394700906908911e-05 0.0041537757595558819 0 -0.00021999441205730516 0.0041217911541218963 0 -0.00033600611554134257 0.0043303575695397686 0 -0.00052628310955720966 0.0040461862244858355 0 -0.00023732376707413466 0.003912885062339928 0 -0.00021999441205730516 0.0041217911541218963 0 -0.00052628310955720966 0.0040461862244858355 0 -0.00023732376707413466 0.003912885062339928 0 -0.00021999441205730516 0.0041217911541218963 0 6.394700906908911e-05 0.0041537757595558819 0 0.00029482012486214655 0.0039891069651172405 0 6.394700906908911e-05 0.0041537757595558819 0 0.00048106619029432125 0.004140626840310792 0 3.7759102387131897e-05 0.0038362124230881087 0 0.00029482012486214655 0.0039891069651172405 0 6.394700906908911e-05 0.0041537757595558819 0 0.0003048173096158033 0.0042605702142339361 0 -9.8538178156888436e-05 0.004469112707027041 0 0.00020377745079348212 0.004528277221061471 0 6.394700906908911e-05 0.0041537757595558819 0 0.0003048173096158033 0.0042605702142339361 0 0.00048106619029432125 0.004140626840310792 0 6.394700906908911e-05 0.0041537757595558819 0 0.0003048173096158033 0.0042605702142339361 0 -9.8538178156888436e-05 0.004469112707027041 0 0.0003048173096158033 0.0042605702142339361 0 0.00063065669803048384 0.0042429210730989247 0 0.00020377745079348212 0.004528277221061471 0 6.394700906908911e-05 0.0041537757595558819 0 -9.8538178156888436e-05 0.004469112707027041 0 -0.00033600611554134257 0.0043303575695397686 0 -9.8538178156888436e-05 0.004469112707027041 0 -0.00033600611554134257 0.0043303575695397686 0 -0.00059029052819381121 0.0045343987321653408 0 0.00048085606528771956 0.0041293057218872511 0 0.00050410890911379549 0.004055367203549716 0 0.00046325654924247414 0.0040985516255156477 0 0.00053803397221718625 0.004123280352069077 0 0.00048085606528771956 0.0041293057218872511 0 0.00049128735546385722 0.0041286301070195333 0 0.00053803397221718625 0.004123280352069077 0 0.00048085606528771956 0.0041293057218872511 0 0.00050410890911379549 0.004055367203549716 0 0.00029482012486214655 0.0039891069651172405 0 0.00050410890911379549 0.004055367203549716 0 0.00048106619029432125 0.004140626840310792 0 0.00053803397221718625 0.004123280352069077 0 0.00050410890911379549 0.004055367203549716 0 0.00048106619029432125 0.004140626840310792 0 0.00053803397221718625 0.004123280352069077 0 0.00048106619029432125 0.004140626840310792 0 0.0006283133109753669 0.0041457063221108977 0 0.00048106619029432125 0.004140626840310792 0 0.00063065669803048384 0.0042429210730989247 0 0.0006283133109753669 0.0041457063221108977 0 0.0003048173096158033 0.0042605702142339361 0 0.00048106619029432125 0.004140626840310792 0 0.00063065669803048384 0.0042429210730989247 0 0.00063065669803048384 0.0042429210730989247 0 0.0006283133109753669 0.0041457063221108977 0 0.00077153231783326916 0.0040475107165425473 0 0.00053803397221718625 0.004123280352069077 0 0.0006283133109753669 0.0041457063221108977 0 0.00049128735546385722 0.0041286301070195333 0 0.0006283133109753669 0.0041457063221108977 0 0.00050776714954149931 0.0040327881875361713 0 0.00070139903953406256 0.0039422430681351657 0 0.0006283133109753669 0.0041457063221108977 0 0.00049128735546385722 0.0041286301070195333 0 0.00050776714954149931 0.0040327881875361713 0 0.00050776714954149931 0.0040327881875361713 0 0.00031280409450184149 0.0041010054717331556 0 0.00031674819009066543 0.0039216607849537621 0 0.00031280409450184149 0.0041010054717331556 0 0.00012337629593372313 0.0040104538960758261 0 0.00031674819009066543 0.0039216607849537621 0 0.00049128735546385722 0.0041286301070195333 0 0.00050776714954149931 0.0040327881875361713 0 0.00031280409450184149 0.0041010054717331556 0 0.00049128735546385722 0.0041286301070195333 0 0.00031280409450184149 0.0041010054717331556 0 0.00038233081895335186 0.0041569427873061251 0 0.00048085606528771956 0.0041293057218872511 0 0.00049128735546385722 0.0041286301070195333 0 0.00038233081895335186 0.0041569427873061251 0 0.00038233081895335186 0.0041569427873061251 0 0.00032320635906153846 0.0041713580489117072 0 0.00023969057266228996 0.0041737017690245092 0 0.00031280409450184149 0.0041010054717331556 0 0.00038233081895335186 0.0041569427873061251 0 0.00023969057266228996 0.0041737017690245092 0 0.00038233081895335186 0.0041569427873061251 0 0.00032320635906153846 0.0041713580489117072 0 0.00046325654924247414 0.0040985516255156477 0 0.00048085606528771956 0.0041293057218872511 0 0.00038233081895335186 0.0041569427873061251 0 0.00046325654924247414 0.0040985516255156477 0 0.00032320635906153846 0.0041713580489117072 0 0.00012843405577245797 0.0042512994660495263 0 0.00023969057266228996 0.0041737017690245092 0 0.00012843405577245797 0.0042512994660495263 0 0.00023969057266228996 0.0041737017690245092 0 6.5557516790874169e-05 0.0041583569172387713 0 0.00031280409450184149 0.0041010054717331556 0 0.00023969057266228996 0.0041737017690245092 0 6.5557516790874169e-05 0.0041583569172387713 0 0.00031280409450184149 0.0041010054717331556 0 6.5557516790874169e-05 0.0041583569172387713 0 0.00012337629593372313 0.0040104538960758261 0 6.5557516790874169e-05 0.0041583569172387713 0 -0.00011445630594276098 0.0040396753697759906 0 0.00012337629593372313 0.0040104538960758261 0 0.00012843405577245797 0.0042512994660495263 0 6.5557516790874169e-05 0.0041583569172387713 0 -0.00024118028392040421 0.0041654934594095297 0 0.00016059295151341505 0.0061760751027629488 0 -0.00033458561285312945 0.0051435711918455676 0 -0.00060905303697500847 0.0054196824494524998 0 6.5557516790874169e-05 0.0041583569172387713 0 -0.00024118028392040421 0.0041654934594095297 0 -0.00011445630594276098 0.0040396753697759906 0 -0.00033458561285312945 0.0051435711918455676 0 -0.00060905303697500847 0.0054196824494524998 0 -0.0014538480927970138 0.0046247811148611125 0 -0.0030290915420331109 0.0037172894300619803 0 -0.0027180475290179314 0.0037780738037167384 0 -0.0026051737259563932 0.0039744647162763044 0 -0.0018911286780798362 0.0042690002051622555 0 -0.0020368384974784942 0.0041832015063681593 0 -0.0030290915420331109 0.0037172894300619803 0 -0.0027180475290179314 0.0037780738037167384 0 -0.0028604490094560633 0.0035486792692712953 0 -0.0027180475290179314 0.0037780738037167384 0 -0.0026298644489518947 0.0035576336214617056 0 -0.0028604490094560633 0.0035486792692712953 0 -0.007762724866228198 0.0040319851693230453 0 -0.0079333860065735531 0.0039782567739679474 0 -0.0026298644489518947 0.0035576336214617056 0 -0.0029685469528557737 0.0033153965860207198 0 -0.0030975434060210262 0.0028991835411313468 0 -0.012861863668023022 0.0047494003820773237 0 -0.012381102524702889 0.0053782810676812594 0 -0.012833747468594515 0.0052229980821557973 0 -0.0026298644489518947 0.0035576336214617056 0 -0.0028604490094560633 0.0035486792692712953 0 -0.0029685469528557737 0.0033153965860207198 0 -0.0030290915420331109 0.0037172894300619803 0 -0.0028604490094560633 0.0035486792692712953 0 -0.0029685469528557737 0.0033153965860207198 0 -0.0035286520373816453 0.0033127756408978673 0 -0.0030290915420331109 0.0037172894300619803 0 -0.0029685469528557737 0.0033153965860207198 0 -0.0035286520373816453 0.0033127756408978673 0 -0.0029685469528557737 0.0033153965860207198 0 -0.0031685131678667175 0.0031315717865035325 0 -0.0020042041040965537 0.0040082001768135785 0 -0.0012228980816889102 0.0045314258626000517 0 -0.0020042041040965537 0.0040082001768135785 0 -0.0018911286780798362 0.0042690002051622555 0 -0.0035286520373816453 0.0033127756408978673 0 -0.0033286274592061 0.0030024576998357502 0 -0.0035945390404916052 0.0028822694545159299 0 -0.0035286520373816453 0.0033127756408978673 0 -0.0033286274592061 0.0030024576998357502 0 -0.0031685131678667175 0.0031315717865035325 0 -0.0033286274592061 0.0030024576998357502 0 -0.0031685131678667175 0.0031315717865035325 0 -0.0030975434060210262 0.0028991835411313468 0 -0.0029685469528557737 0.0033153965860207198 0 -0.0031685131678667175 0.0031315717865035325 0 -0.0030975434060210262 0.0028991835411313468 0 -0.0033286274592061 0.0030024576998357502 0 -0.0030975434060210262 0.0028991835411313468 0 -0.0033065292100634787 0.0027784310683125388 0 -0.0033286274592061 0.0030024576998357502 0 -0.0033065292100634787 0.0027784310683125388 0 -0.0035945390404916052 0.0028822694545159299 0 -0.0033065292100634787 0.0027784310683125388 0 -0.0035529130847749158 0.002724743438049479 0 -0.0035945390404916052 0.0028822694545159299 0 -0.012381102524702889 0.0053782810676812594 0 -0.012833747468594515 0.0052229980821557973 0 -0.0126210995492864 0.0054948872381159405 0 -0.012381102524702889 0.0053782810676812594 0 -0.0126210995492864 0.0054948872381159405 0 -0.012399242898544266 0.0056700452461042926 0 -0.012833747468594515 0.0052229980821557973 0 -0.0126210995492864 0.0054948872381159405 0 -0.012845718011466492 0.0054942452429456497 0 -0.012668204659243424 0.0056852127523422114 0 -0.012990525367787628 0.0056729560004000149 0 -0.012879878857742773 0.0058875630060311879 0 -0.012845718011466492 0.0054942452429456497 0 -0.012668204659243424 0.0056852127523422114 0 -0.012990525367787628 0.0056729560004000149 0 -0.0126210995492864 0.0054948872381159405 0 -0.012845718011466492 0.0054942452429456497 0 -0.012668204659243424 0.0056852127523422114 0 -0.0126210995492864 0.0054948872381159405 0 -0.012668204659243424 0.0056852127523422114 0 -0.012399242898544266 0.0056700452461042926 0 -0.012668204659243424 0.0056852127523422114 0 -0.012399242898544266 0.0056700452461042926 0 -0.012411992613008543 0.0058986135005602647 0 -0.012668204659243424 0.0056852127523422114 0 -0.012661697080868102 0.0059708003038541971 0 -0.012411992613008543 0.0058986135005602647 0 -0.012668204659243424 0.0056852127523422114 0 -0.012661697080868102 0.0059708003038541971 0 -0.012879878857742773 0.0058875630060311879 0 -0.011896204847417517 0.0060038647752081922 0 -0.012399242898544266 0.0056700452461042926 0 -0.012411992613008543 0.0058986135005602647 0 -0.0087712281988407276 0.003107164137121146 0 -0.0079333860065735531 0.0039782567739679474 0 -0.011896204847417517 0.0060038647752081922 0 -0.012381102524702889 0.0053782810676812594 0 -0.012399242898544266 0.0056700452461042926 0 -0.0033065292100634787 0.0027784310683125388 0 -0.0037395846326070833 0.0022070265878255829 0 -0.0036188600426146178 0.0025685225284100507 0 -0.0037370007900181584 0.0020958941963360534 0 -0.0030975434060210262 0.0028991835411313468 0 -0.0033065292100634787 0.0027784310683125388 0 -0.0068924115180548336 0.003575824119076003 0 -0.0083469650115873036 0.0028763324468941039 0 -0.0033065292100634787 0.0027784310683125388 0 -0.0035529130847749158 0.002724743438049479 0 -0.0036188600426146178 0.0025685225284100507 0 -0.0037395846326070833 0.0022070265878255829 0 -0.0037863610198290948 0.0024245280379429925 0 -0.0036188600426146178 0.0025685225284100507 0 -0.0037370007900181584 0.0020958941963360534 0 -0.0033065292100634787 0.0027784310683125388 0 -0.0038194603145785396 0.0021336839288564231 0 -0.0037395846326070833 0.0022070265878255829 0 -0.0037863610198290948 0.0024245280379429925 0 -0.0038832110263215857 0.0023497720584711827 0 -0.0036943326952868214 0.0026688074464478705 0 -0.0040051768017545057 0.0025004369805236544 0 -0.0035945390404916052 0.0028822694545159299 0 -0.0037863610198290948 0.0024245280379429925 0 -0.0036188600426146178 0.0025685225284100507 0 -0.0037876909870208099 0.0025515535182883517 0 -0.0036188600426146178 0.0025685225284100507 0 -0.0037876909870208099 0.0025515535182883517 0 -0.0036943326952868214 0.0026688074464478705 0 -0.0035529130847749158 0.002724743438049479 0 -0.0036188600426146178 0.0025685225284100507 0 -0.0036943326952868214 0.0026688074464478705 0 -0.0037876909870208099 0.0025515535182883517 0 -0.0036943326952868214 0.0026688074464478705 0 -0.0040051768017545057 0.0025004369805236544 0 -0.0037876909870208099 0.0025515535182883517 0 -0.0038707077292651957 0.0024791807076592338 0 -0.0040051768017545057 0.0025004369805236544 0 -0.0037863610198290948 0.0024245280379429925 0 -0.0037876909870208099 0.0025515535182883517 0 -0.0038707077292651957 0.0024791807076592338 0 -0.0038707077292651957 0.0024791807076592338 0 -0.0040051768017545057 0.0025004369805236544 0 -0.0039172319171260914 0.0024123529990934113 0 -0.0037276317259478824 0.002175709360188377 0 -0.004027921087820901 0.0021798241209256938 0 -0.0040950872753484375 0.0023517162349528994 0 -0.0037395846326070833 0.0022070265878255829 0 -0.0038832110263215857 0.0023497720584711827 0 -0.0040950872753484375 0.0023517162349528994 0 -0.0039172319171260914 0.0024123529990934113 0 -0.0038832110263215857 0.0023497720584711827 0 -0.0040950872753484375 0.0023517162349528994 0 -0.0040051768017545057 0.0025004369805236544 0 -0.0039172319171260914 0.0024123529990934113 0 -0.0040950872753484375 0.0023517162349528994 0 -0.0083469650115873036 0.0028763324468941039 0 -0.0076418374746368995 0.0026206411519052813 0 -0.0037863610198290948 0.0024245280379429925 0 -0.0039172319171260914 0.0024123529990934113 0 -0.0038832110263215857 0.0023497720584711827 0 -0.0037863610198290948 0.0024245280379429925 0 -0.0038707077292651957 0.0024791807076592338 0 -0.0039172319171260914 0.0024123529990934113 0 -0.004908888312640268 0.0021522077524675815 0 -0.0043827705014264865 0.0023752060805981982 0 -0.0042065391269588363 0.0028564064329371897 0 -0.0042186775851136777 0.0021525780069266264 0 -0.004027921087820901 0.0021798241209256938 0 -0.0040950872753484375 0.0023517162349528994 0 -0.0044559332287739273 0.0020759673967710784 0 -0.0042186775851136777 0.0021525780069266264 0 -0.0043827705014264865 0.0023752060805981982 0 0.00049425496652753071 0.0041942528454917754 0 0.00046487294448145335 0.0040859078620407163 0 0.00037491910742044453 0.0041432271273342145 0 -0.0042186775851136777 0.0021525780069266264 0 -0.0043827705014264865 0.0023752060805981982 0 -0.0040950872753484375 0.0023517162349528994 0 -0.0038147288181451444 0.0028756741699334839 0 -0.002488817493037906 0.0036538599228301862 0 -0.0040051768017545057 0.0025004369805236544 0 -0.0040950872753484375 0.0023517162349528994 0 -0.0041718283006641974 0.0025190176879962478 0 -0.0043827705014264865 0.0023752060805981982 0 -0.0040950872753484375 0.0023517162349528994 0 -0.0041718283006641974 0.0025190176879962478 0 -0.0044559332287739273 0.0020759673967710784 0 -0.004908888312640268 0.0021522077524675815 0 -0.0043827705014264865 0.0023752060805981982 0 -0.0043827705014264865 0.0023752060805981982 0 -0.0041718283006641974 0.0025190176879962478 0 -0.0042065391269588363 0.0028564064329371897 0 -0.0040051768017545057 0.0025004369805236544 0 -0.0041718283006641974 0.0025190176879962478 0 -0.0042065391269588363 0.0028564064329371897 0 0.00046487294448145335 0.0040859078620407163 0 0.00037491910742044453 0.0041432271273342145 0 0.00046325654924247414 0.0040985516255156477 0 0.00032320635906153846 0.0041713580489117072 0 0.00037491910742044453 0.0041432271273342145 0 0.00046325654924247414 0.0040985516255156477 0 -0.0034417182623416582 0.0036058464726036249 0 -0.0040051768017545057 0.0025004369805236544 0 -0.0042065391269588363 0.0028564064329371897 0 -0.0020042041040965537 0.0040082001768135785 0 -0.002488817493037906 0.0036538599228301862 0 0.00032320635906153846 0.0041713580489117072 0 0.00012843405577245797 0.0042512994660495263 0 0.00037491910742044453 0.0041432271273342145 0 -0.0020042041040965537 0.0040082001768135785 0 -0.0029081203102197858 0.0029090589532094952 0 -0.0035286520373816453 0.0033127756408978673 0 -0.0040051768017545057 0.0025004369805236544 0 -0.0035945390404916052 0.0028822694545159299 0 -0.0035529130847749158 0.002724743438049479 0 -0.0036943326952868214 0.0026688074464478705 0 -0.0035945390404916052 0.0028822694545159299 0 -0.010719485432503964 -7.466803840323668e-07 0 -0.010302385480335073 7.3017595393896114e-05 0 -0.0093720353403790504 9.264106182508881e-07 0 -0.0098150277610695863 0.00013198803378208519 0 -0.010302385480335073 7.3017595393896114e-05 0 -0.0093720353403790504 9.264106182508881e-07 0 -0.0098150277610695863 0.00013198803378208519 0 -0.0097313385599209247 9.2646213500441495e-05 0 -0.0092397572275240165 0.00033195140365944342 0 -0.0098150277610695863 0.00013198803378208519 0 -0.0097313385599209247 9.2646213500441495e-05 0 -0.010302385480335073 7.3017595393896114e-05 0 -0.010045342216488539 -0.00026723427175980084 0 -0.010302385480335073 7.3017595393896114e-05 0 -0.011302045398382818 -0.00044640155039490172 0 -0.0097313385599209247 9.2646213500441495e-05 0 -0.010045342216488539 -0.00026723427175980084 0 -0.010302385480335073 7.3017595393896114e-05 0 -0.010719485432503964 -7.466803840323668e-07 0 -0.010302385480335073 7.3017595393896114e-05 0 -0.011302045398382818 -0.00044640155039490172 0 -0.010719485432503964 -7.466803840323668e-07 0 -0.011990366373465349 -0.00013418803897086805 0 -0.012066432720021961 -8.1580734681474384e-08 0 -0.010719485432503964 -7.466803840323668e-07 0 -0.011990366373465349 -0.00013418803897086805 0 -0.011302045398382818 -0.00044640155039490172 0 -0.012879037502620287 9.7070838769639482e-05 0 -0.011990366373465349 -0.00013418803897086805 0 -0.012066432720021961 -8.1580734681474384e-08 0 -0.012879037502620287 9.7070838769639482e-05 0 -0.011990366373465349 -0.00013418803897086805 0 -0.01271729043250462 -3.2634897321163147e-05 0 -0.01271729043250462 -3.2634897321163147e-05 0 -0.011302045398382818 -0.00044640155039490172 0 -0.013449669774749548 -0.00065787504282841674 0 -0.010045342216488539 -0.00026723427175980084 0 -0.011302045398382818 -0.00044640155039490172 0 -0.0091062613697565058 -0.00095214208349899169 0 -0.011990366373465349 -0.00013418803897086805 0 -0.01271729043250462 -3.2634897321163147e-05 0 -0.011302045398382818 -0.00044640155039490172 0 -0.011211598766581562 -0.00025886421049776118 0 -0.01107995343799071 -0.00019533212575791224 0 -0.010045342216488539 -0.00026723427175980084 0 -0.0091062613697565058 -0.00095214208349899169 0 -0.0081385689941199466 -0.00040736117999480993 0 -0.01359542420295127 0.00021362538584046285 0 -0.01271729043250462 -3.2634897321163147e-05 0 -0.013386901784552057 -7.5077320746806488e-05 0 -0.013449669774749548 -0.00065787504282841674 0 -0.013386901784552057 -7.5077320746806488e-05 0 -0.013832038245468288 -4.0453966817483472e-06 0 -0.01359542420295127 0.00021362538584046285 0 -0.013386901784552057 -7.5077320746806488e-05 0 -0.013832038245468288 -4.0453966817483472e-06 0 -0.01271729043250462 -3.2634897321163147e-05 0 -0.013449669774749548 -0.00065787504282841674 0 -0.013386901784552057 -7.5077320746806488e-05 0 -0.013832038245468288 -4.0453966817483472e-06 0 -0.014149337272374352 -0.00037949247519768783 0 -0.014195913856927759 -7.2129904516489947e-05 0 -0.014234226531551644 0.00012915976991041247 0 -0.013832038245468288 -4.0453966817483472e-06 0 -0.014195913856927759 -7.2129904516489947e-05 0 -0.01107995343799071 -0.00019533212575791224 0 -0.010765694245300878 0.00011898965629172491 0 -0.0081385689941199466 -0.00040736117999480993 0 -0.0069795608303302916 6.1474221846115237e-05 0 -0.0073321374251546119 -0.0010788901540171776 0 -0.0091062613697565058 -0.00095214208349899169 0 -0.0081385689941199466 -0.00040736117999480993 0 -0.0073321374251546119 -0.0010788901540171776 0 -0.013449669774749548 -0.00065787504282841674 0 -0.013832038245468288 -4.0453966817483472e-06 0 -0.014149337272374352 -0.00037949247519768783 0 -0.0079721911028059079 0.00066648254746947137 0 -0.0081385689941199466 -0.00040736117999480993 0 -0.0069795608303302916 6.1474221846115237e-05 0 -0.0092311165720005452 0.00010828793700003557 0 -0.0086153451566517419 0.00043158761590932629 0 -0.010045342216488539 -0.00026723427175980084 0 -0.0079721911028059079 0.00066648254746947137 0 -0.0081385689941199466 -0.00040736117999480993 0 -0.0097313385599209247 9.2646213500441495e-05 0 -0.010045342216488539 -0.00026723427175980084 0 -0.0087902062976370991 7.6180744592244069e-05 0 -0.0097313385599209247 9.2646213500441495e-05 0 -0.0087902062976370991 7.6180744592244069e-05 0 -0.0092397572275240165 0.00033195140365944342 0 -0.0087902062976370991 7.6180744592244069e-05 0 -0.0087168700722701966 0.00029320712477421052 0 -0.0087760832503776687 0.00030215440091252861 0 -0.0087902062976370991 7.6180744592244069e-05 0 -0.0088890998596588451 0.00032290217182013892 0 -0.0087760832503776687 0.00030215440091252861 0 -0.0087902062976370991 7.6180744592244069e-05 0 -0.0092397572275240165 0.00033195140365944342 0 -0.0088890998596588451 0.00032290217182013892 0 -0.0079721911028059079 0.00066648254746947137 0 -0.0060754453879691426 0.001597853253248237 0 -0.0067175482730684665 0.00062470097168292559 0 -0.0086153451566517419 0.00043158761590932629 0 -0.0084227056984296778 0.00064877731773447926 0 -0.0087902062976370991 7.6180744592244069e-05 0 -0.0086534249374289225 0.00025740187391097791 0 -0.0087168700722701966 0.00029320712477421052 0 -0.0060754453879691426 0.001597853253248237 0 -0.0058510003563379473 0.00017599823468248185 0 -0.0067175482730684665 0.00062470097168292559 0 -0.0078347638597251659 0.001386238336040695 0 -0.0079613030992377581 0.0018734871102880138 0 -0.0084227056984296778 0.00064877731773447926 0 -0.0096816047075133672 0.00044601257585022739 0 -0.014230493034470644 -0.00036480599548369786 0 -0.014276401362745538 -0.00038797978774871483 0 -0.014276676723286901 -0.00019381914455056514 0 -0.014276401362745538 -0.00038797978774871483 0 -0.014276676723286901 -0.00019381914455056514 0 -0.014404269846106587 -0.00020861038903971743 0 -0.0084227056984296778 0.00064877731773447926 0 -0.0078347638597251659 0.001386238336040695 0 -0.014276676723286901 -0.00019381914455056514 0 -0.014382024244067168 -0.00010967685575445148 0 -0.014404269846106587 -0.00020861038903971743 0 -0.0058510003563379473 0.00017599823468248185 0 -0.0067175482730684665 0.00062470097168292559 0 -0.0069795608303302916 6.1474221846115237e-05 0 -0.0058510003563379473 0.00017599823468248185 0 -0.0069795608303302916 6.1474221846115237e-05 0 -0.0064339975554972154 -0.00045637115505778287 0 -0.0079721911028059079 0.00066648254746947137 0 -0.0067175482730684665 0.00062470097168292559 0 -0.0069795608303302916 6.1474221846115237e-05 0 -0.0069795608303302916 6.1474221846115237e-05 0 -0.0064339975554972154 -0.00045637115505778287 0 -0.0073321374251546119 -0.0010788901540171776 0 -0.014149337272374352 -0.00037949247519768783 0 -0.014303614553149735 -0.0001415339771061538 0 -0.014431193930253074 -0.00015073727903932601 0 -0.010765694245300878 0.00011898965629172491 0 -0.010891233253580008 0.00089947120866090018 0 -0.0064339975554972154 -0.00045637115505778287 0 -0.0073321374251546119 -0.0010788901540171776 0 -0.0056333859564613158 -0.0012437298603610494 0 -0.014149337272374352 -0.00037949247519768783 0 -0.014195913856927759 -7.2129904516489947e-05 0 -0.014303614553149735 -0.0001415339771061538 0 -0.014195913856927759 -7.2129904516489947e-05 0 -0.014303614553149735 -0.0001415339771061538 0 -0.014334542172082611 1.3733705865048156e-06 0 -0.014234226531551644 0.00012915976991041247 0 -0.014195913856927759 -7.2129904516489947e-05 0 -0.014334542172082611 1.3733705865048156e-06 0 -0.014396120682527739 0.00012369397270597647 0 -0.014334542172082611 1.3733705865048156e-06 0 -0.014417177962236186 3.1317954476535168e-05 0 -0.014334542172082611 1.3733705865048156e-06 0 -0.014417177962236186 3.1317954476535168e-05 0 -0.014422973400747757 -6.0638415150548451e-05 0 -0.014303614553149735 -0.0001415339771061538 0 -0.014422973400747757 -6.0638415150548451e-05 0 -0.014431193930253074 -0.00015073727903932601 0 -0.014303614553149735 -0.0001415339771061538 0 -0.014334542172082611 1.3733705865048156e-06 0 -0.014422973400747757 -6.0638415150548451e-05 0 -0.014417177962236186 3.1317954476535168e-05 0 -0.014422973400747757 -6.0638415150548451e-05 0 -0.014438826624594019 1.2175159315552832e-05 0 -0.0096816047075133672 0.00044601257585022739 0 -0.010891233253580008 0.00089947120866090018 0 -0.014422973400747757 -6.0638415150548451e-05 0 -0.014424752580165165 -4.2730979115676576e-05 0 -0.014409063342773785 -3.7743244660398672e-05 0 -0.014322871817590822 -3.8165507340857542e-05 0 -0.014382024244067168 -0.00010967685575445148 0 -0.014409063342773785 -3.7743244660398672e-05 0 -0.010891233253580008 0.00089947120866090018 0 -0.01129474328458243 0.00090155014984826735 0 -0.014276676723286901 -0.00019381914455056514 0 -0.014322871817590822 -3.8165507340857542e-05 0 -0.014382024244067168 -0.00010967685575445148 0 -0.0058510003563379473 0.00017599823468248185 0 -0.0064339975554972154 -0.00045637115505778287 0 -0.0056333859564613158 -0.0012437298603610494 0 -0.010940167770999104 0.00086680179395047605 0 -0.010891233253580008 0.00089947120866090018 0 -0.014382024244067168 -0.00010967685575445148 0 -0.014502582888460288 -4.5582365228951227e-05 0 -0.014404269846106587 -0.00020861038903971743 0 -0.014382024244067168 -0.00010967685575445148 0 -0.014409063342773785 -3.7743244660398672e-05 0 -0.014502582888460288 -4.5582365228951227e-05 0 -0.0081590490482126559 0.0022657716920641978 0 -0.0079613030992377581 0.0018734871102880138 0 -0.014409063342773785 -3.7743244660398672e-05 0 -0.014481564303215545 3.6281955570607614e-05 0 -0.014438826624594019 1.2175159315552832e-05 0 -0.014422973400747757 -6.0638415150548451e-05 0 -0.014409063342773785 -3.7743244660398672e-05 0 -0.014438826624594019 1.2175159315552832e-05 0 -0.014409063342773785 -3.7743244660398672e-05 0 -0.014481564303215545 3.6281955570607614e-05 0 -0.014502582888460288 -4.5582365228951227e-05 0 -0.01445529979423288 8.2295926054564992e-05 0 -0.014417177962236186 3.1317954476535168e-05 0 -0.014438826624594019 1.2175159315552832e-05 0 -0.01445529979423288 8.2295926054564992e-05 0 -0.014481564303215545 3.6281955570607614e-05 0 -0.014438826624594019 1.2175159315552832e-05 0 -0.0084052703481707607 0.002525217299107544 0 -0.0081590490482126559 0.0022657716920641978 0 -0.014481564303215545 3.6281955570607614e-05 0 -0.014553767249335518 9.0411395385268849e-05 0 -0.014502582888460288 -4.5582365228951227e-05 0 -0.001826216160519743 0.0055260326331633604 0 -0.0016613476684620813 0.0050260755855778307 0 -0.0014546650365612132 0.0048457387489583567 0 -0.014495206760898939 0.00012790321933360782 0 -0.014481564303215545 3.6281955570607614e-05 0 -0.014553767249335518 9.0411395385268849e-05 0 -0.0019883336534517893 0.0050888936787519337 0 -0.001826216160519743 0.0055260326331633604 0 -0.0016613476684620813 0.0050260755855778307 0 -0.0016613476684620813 0.0050260755855778307 0 -0.0018208806477190045 0.0048682766080894481 0 -0.0016365465899346901 0.0045876578711554726 0 -0.0016613476684620813 0.0050260755855778307 0 -0.0016365465899346901 0.0045876578711554726 0 -0.0011053714006915463 0.0041663400152164784 0 -0.0016613476684620813 0.0050260755855778307 0 -0.0014546650365612132 0.0048457387489583567 0 -0.0013668770951890021 0.0042016043469879812 0 -0.0019883336534517893 0.0050888936787519337 0 -0.0016613476684620813 0.0050260755855778307 0 -0.0018208806477190045 0.0048682766080894481 0 -0.0030288918008399184 0.0037504746326455286 0 -0.0034186665416458596 0.003123034992646866 0 -0.0019902930333145909 0.0047588489967565935 0 -0.0018208806477190045 0.0048682766080894481 0 -0.0016365465899346901 0.0045876578711554726 0 -0.0019512990459717241 0.0044034819622100763 0 -0.0016365465899346901 0.0045876578711554726 0 -0.001561375161394587 0.0042173816371297206 0 -0.0019512990459717241 0.0044034819622100763 0 -0.001561375161394587 0.0042173816371297206 0 -0.001759868872301726 0.0040225680917630466 0 -0.001561375161394587 0.0042173816371297206 0 -0.001759868872301726 0.0040225680917630466 0 -0.0013543473926370324 0.0039092079982332969 0 -0.001561375161394587 0.0042173816371297206 0 -0.0011053714006915463 0.0041663400152164784 0 -0.0013543473926370324 0.0039092079982332969 0 -0.0016365465899346901 0.0045876578711554726 0 -0.001561375161394587 0.0042173816371297206 0 -0.0011053714006915463 0.0041663400152164784 0 -0.0014546650365612132 0.0048457387489583567 0 -0.001150627212966591 0.004177462735133787 0 -0.0013668770951890021 0.0042016043469879812 0 -0.0034186665416458596 0.003123034992646866 0 -0.0053820131138300961 0.0018632451641137757 0 -0.0011053714006915463 0.0041663400152164784 0 -0.00086184078346476312 0.0035816015467221335 0 -0.0013543473926370324 0.0039092079982332969 0 -0.00081421389578082771 0.0035690097008123931 0 -0.0013668770951890021 0.0042016043469879812 0 -0.0010436549801916639 0.0034530311695729721 0 -0.00086184078346476312 0.0035816015467221335 0 -0.0012660411330361438 0.0036022484253258364 0 -0.0013543473926370324 0.0039092079982332969 0 -0.0011053714006915463 0.0041663400152164784 0 -0.00086184078346476312 0.0035816015467221335 0 -0.00064411258166147275 0.0033002275581816257 0 -0.00081421389578082771 0.0035690097008123931 0 -0.001150627212966591 0.004177462735133787 0 -0.0013668770951890021 0.0042016043469879812 0 -0.00086184078346476312 0.0035816015467221335 0 -0.0010359182680847686 0.003501122405352513 0 -0.0012660411330361438 0.0036022484253258364 0 -0.00086184078346476312 0.0035816015467221335 0 -0.0010359182680847686 0.003501122405352513 0 -0.00085180448837553528 0.0033319617462325554 0 -0.0010359182680847686 0.003501122405352513 0 -0.0012660411330361438 0.0036022484253258364 0 -0.0009508585201780577 0.0033347690180623685 0 -0.0012660411330361438 0.0036022484253258364 0 -0.0017488292483986655 0.003486588215297657 0 -0.0009508585201780577 0.0033347690180623685 0 -0.001759868872301726 0.0040225680917630466 0 -0.0017488292483986655 0.003486588215297657 0 -0.0013543473926370324 0.0039092079982332969 0 -0.0012660411330361438 0.0036022484253258364 0 -0.0017488292483986655 0.003486588215297657 0 -0.0013543473926370324 0.0039092079982332969 0 -0.00042018608990270422 0.0032290523758669591 0 -0.00072244679756292712 0.0034568513402139203 0 -0.00053718602742170037 0.0035716590069879168 0 -0.0014877462835207131 0.0030595055115229825 0 -0.0013597777238673 0.0030773521121389333 0 -0.00042018608990270422 0.0032290523758669591 0 -0.00072244679756292712 0.0034568513402139203 0 -0.0009508585201780577 0.0033347690180623685 0 -0.00072244679756292712 0.0034568513402139203 0 -0.00093043340719386276 0.0033965721048303307 0 -0.00073636123770667405 0.0037431977751649372 0 -0.00072244679756292712 0.0034568513402139203 0 -0.00053718602742170037 0.0035716590069879168 0 -0.00073636123770667405 0.0037431977751649372 0 -0.00072244679756292712 0.0034568513402139203 0 -0.0009508585201780577 0.0033347690180623685 0 -0.00093043340719386276 0.0033965721048303307 0 -0.0010658906456515031 0.0033280785034399945 0 -0.00093043340719386276 0.0033965721048303307 0 -0.0010757711573289451 0.0038721682689040865 0 -0.0010359182680847686 0.003501122405352513 0 -0.0009508585201780577 0.0033347690180623685 0 -0.00085180448837553528 0.0033319617462325554 0 -0.0009508585201780577 0.0033347690180623685 0 -0.00085180448837553528 0.0033319617462325554 0 -0.00093043340719386276 0.0033965721048303307 0 -0.004541978451556879 0.0018619518649495954 0 -0.0042813524178702761 0.0019877827648284952 0 -0.004401261613919339 0.0020585897983728639 0 -0.004541978451556879 0.0018619518649495954 0 -0.00086184078346476312 0.0035816015467221335 0 -0.00064411258166147275 0.0033002275581816257 0 -0.00080651017284148491 0.0032172869224474567 0 -0.0053820131138300961 0.0018632451641137757 0 -0.004541978451556879 0.0018619518649495954 0 -0.00093043340719386276 0.0033965721048303307 0 -0.0010757711573289451 0.0038721682689040865 0 -0.00073636123770667405 0.0037431977751649372 0 -0.004541978451556879 0.0018619518649495954 0 -0.0041129625223316679 0.0020208349462220703 0 -0.0010757711573289451 0.0038721682689040865 0 -0.00073636123770667405 0.0037431977751649372 0 -0.00083954932038023632 0.004099743905488386 0 -0.00053718602742170037 0.0035716590069879168 0 -0.00073636123770667405 0.0037431977751649372 0 -0.00045960647040623468 0.0037870344633471275 0 -0.00027001058062219746 0.0036637568104759067 0 -0.00053718602742170037 0.0035716590069879168 0 -0.00045960647040623468 0.0037870344633471275 0 -0.00023732376707413466 0.003912885062339928 0 -0.00045960647040623468 0.0037870344633471275 0 -0.00052628310955720966 0.0040461862244858355 0 -0.00073636123770667405 0.0037431977751649372 0 -0.00045960647040623468 0.0037870344633471275 0 -0.00052628310955720966 0.0040461862244858355 0 -0.00073636123770667405 0.0037431977751649372 0 -0.00052628310955720966 0.0040461862244858355 0 -0.00083954932038023632 0.004099743905488386 0 -0.00052628310955720966 0.0040461862244858355 0 -0.00061212214764333657 0.0042913645957968899 0 -0.00083954932038023632 0.004099743905488386 0 -0.00033600611554134257 0.0043303575695397686 0 -0.00052628310955720966 0.0040461862244858355 0 -0.00061212214764333657 0.0042913645957968899 0 -0.00033600611554134257 0.0043303575695397686 0 -0.00061212214764333657 0.0042913645957968899 0 -0.00059029052819381121 0.0045343987321653408 0 -0.00061212214764333657 0.0042913645957968899 0 -0.00059029052819381121 0.0045343987321653408 0 -0.00086052875955440705 0.0043326089450759567 0 -0.00088695727819737937 0.0045283694211034724 0 -0.00086052875955440705 0.0043326089450759567 0 -0.0011278182869367387 0.0043641950282906298 0 -0.00088695727819737937 0.0045283694211034724 0 -0.0011278182869367387 0.0043641950282906298 0 -0.0011559911565053906 0.0045572023757909433 0 -0.00059029052819381121 0.0045343987321653408 0 -0.00088695727819737937 0.0045283694211034724 0 -0.00086052875955440705 0.0043326089450759567 0 -0.00061212214764333657 0.0042913645957968899 0 -0.00086052875955440705 0.0043326089450759567 0 -0.00083954932038023632 0.004099743905488386 0 -0.00086052875955440705 0.0043326089450759567 0 -0.00083954932038023632 0.004099743905488386 0 -0.0011236728583212637 0.0043712308738670545 0 -0.0028084636794075686 0.0020403634571537505 0 -0.0032264420323124786 0.0019411132964578389 0 -0.0010757711573289451 0.0038721682689040865 0 -0.00083954932038023632 0.004099743905488386 0 -0.0011236728583212637 0.0043712308738670545 0 -0.0041129625223316679 0.0020208349462220703 0 -0.0032264420323124786 0.0019411132964578389 0 -0.0087876440940376638 0.00018253105881708043 0 -0.0087505529467147378 0.00016434798146778014 0 -0.0087529890636379969 0.00012513974105442705 0 -0.0087876440940376638 0.00018253105881708043 0 -0.0087529890636379969 0.00012513974105442705 0 -0.0087699357973298458 8.6917720710363711e-05 0 -0.0087505529467147378 0.00016434798146778014 0 -0.0087338484518433845 0.00014686141751768078 0 -0.0087529890636379969 0.00012513974105442705 0 -0.0087338484518433845 0.00014686141751768078 0 -0.0086874273586220654 0.00020800798927323217 0 -0.0087297083921828219 0.00017807420776533994 0 -0.0087505529467147378 0.00016434798146778014 0 -0.0087338484518433845 0.00014686141751768078 0 -0.0087297083921828219 0.00017807420776533994 0 -0.0087338484518433845 0.00014686141751768078 0 -0.0087529890636379969 0.00012513974105442705 0 -0.0087259361818049028 0.0001044914221539211 0 -0.0087529890636379969 0.00012513974105442705 0 -0.0087699357973298458 8.6917720710363711e-05 0 -0.0087391110780772451 8.3642196484553504e-05 0 -0.0087529890636379969 0.00012513974105442705 0 -0.0087391110780772451 8.3642196484553504e-05 0 -0.0087259361818049028 0.0001044914221539211 0 -0.0032264420323124786 0.0019411132964578389 0 -0.0043387932267956765 0.0010991251500556674 0 -0.00032390101263061018 -0.0017009813291526041 0 0.00030349061295239588 -0.0012785737499977886 0 -7.0360740849029988e-05 -0.00086480564763447064 0 -0.0043387932267956765 0.0010991251500556674 0 -0.0025716184498790914 0.0016741673493075176 0 -0.0029954205816521053 0.00138284865017684 0 -0.0026557355545238971 0.0013316786878864464 0 -0.0029599378872574964 0.0011325535391800306 0 -0.0032264420323124786 0.0019411132964578389 0 -0.0025716184498790914 0.0016741673493075176 0 -0.0087391110780772451 8.3642196484553504e-05 0 -0.0087259361818049028 0.0001044914221539211 0 -0.0086700193512413686 7.7899680606146902e-05 0 -0.0043387932267956765 0.0010991251500556674 0 -0.005070778936320173 0.00016984766794599467 0 -0.00032390101263061018 -0.0017009813291526041 0 -0.0019231611893063222 -0.0014936834046944841 0 -0.0011754922533797221 -0.00074963202586954649 0 -0.0043387932267956765 0.0010991251500556674 0 -0.006720352754336939 -5.2693952307556358e-05 0 -0.0091105240505750147 -0.00022019682692688214 0 -0.0086700193512413686 7.7899680606146902e-05 0 -0.0085692636263783976 -0.00032145981713949351 0 -0.0087338484518433845 0.00014686141751768078 0 -0.0087259361818049028 0.0001044914221539211 0 -0.0086874273586220654 0.00020800798927323217 0 -0.0083237519988499462 0.0004196750152664069 0 -0.0082889963247930638 0.000517791804608958 0 -0.0087259361818049028 0.0001044914221539211 0 -0.0087221349769940268 0.00016728592253673722 0 -0.0086700193512413686 7.7899680606146902e-05 0 -0.0087259361818049028 0.0001044914221539211 0 -0.0087221349769940268 0.00016728592253673722 0 -0.0087741420855957635 0.00021414528677746745 0 -0.0087221349769940268 0.00016728592253673722 0 -0.0087326854072518525 0.00022359756535569151 0 -0.0086954588834624123 0.00026778426352147729 0 -0.0087458448537665202 0.00029580549086838305 0 -0.0087741420855957635 0.00021414528677746745 0 -0.0087553159370859623 0.00032860606504036969 0 -0.0087221349769940268 0.00016728592253673722 0 -0.0087326854072518525 0.00022359756535569151 0 -0.0087741420855957635 0.00021414528677746745 0 -0.0082889963247930638 0.000517791804608958 0 -0.0081810715931130689 0.00084544192931651388 0 -0.0087357566950726755 0.00026369335571773143 0 -0.0087316612602522676 0.0003080644857709355 0 -0.0086954588834624123 0.00026778426352147729 0 -0.0087326854072518525 0.00022359756535569151 0 -0.0087357566950726755 0.00026369335571773143 0 -0.0086954588834624123 0.00026778426352147729 0 -0.0087357566950726755 0.00026369335571773143 0 -0.0087458448537665202 0.00029580549086838305 0 -0.0087316612602522676 0.0003080644857709355 0 -0.0087357566950726755 0.00026369335571773143 0 -0.0087458448537665202 0.00029580549086838305 0 -0.0087741420855957635 0.00021414528677746745 0 -0.0087326854072518525 0.00022359756535569151 0 -0.0087357566950726755 0.00026369335571773143 0 -0.0087741420855957635 0.00021414528677746745 0 -0.0087297083921828219 0.00017807420776533994 0 -0.0087515344912710968 0.00020328212460744515 0 -0.0087447252793872374 0.00024667994857640522 0 -0.0087963453895333141 0.00031256650593345097 0 -0.0087876440940376638 0.00018253105881708043 0 -0.0087447252793872374 0.00024667994857640522 0 -0.0086874273586220654 0.00020800798927323217 0 -0.0087297083921828219 0.00017807420776533994 0 -0.0088136075496710493 0.00034128397518518272 0 -0.0063980004970748839 0.0013966914013416112 0 -0.0061633167367798839 0.0015226509378206154 0 -0.0086874273586220654 0.00020800798927323217 0 -0.0088136075496710493 0.00034128397518518272 0 -0.0087029840365383786 0.00041398083551173612 0 -0.0087505529467147378 0.00016434798146778014 0 -0.0087297083921828219 0.00017807420776533994 0 -0.0087515344912710968 0.00020328212460744515 0 -0.0087876440940376638 0.00018253105881708043 0 -0.0087505529467147378 0.00016434798146778014 0 -0.0087515344912710968 0.00020328212460744515 0 -0.0087876440940376638 0.00018253105881708043 0 -0.0087515344912710968 0.00020328212460744515 0 -0.0087447252793872374 0.00024667994857640522 0 -0.0088136075496710493 0.00034128397518518272 0 -0.0087029840365383786 0.00041398083551173612 0 -0.0088049646639084128 0.00046787051466976829 0 -0.0053820131138300961 0.0018632451641137757 0 -0.0061633167367798839 0.0015226509378206154 0 -0.0087722371363184327 0.00032504385966574783 0 -0.0087963453895333141 0.00031256650593345097 0 -0.0087447252793872374 0.00024667994857640522 0 -0.0089053686629706162 0.0005319492016223656 0 -0.0088136075496710493 0.00034128397518518272 0 -0.0088049646639084128 0.00046787051466976829 0 -0.0078347638597251659 0.001386238336040695 0 -0.0053820131138300961 0.0018632451641137757 0 -0.0087989536257082283 0.00058566048886069119 0 -0.0089053686629706162 0.0005319492016223656 0 -0.0088049646639084128 0.00046787051466976829 0 -0.0078347638597251659 0.001386238336040695 0 -0.0081810715931130689 0.00084544192931651388 0 -0.0084227056984296778 0.00064877731773447926 0 -0.0081810715931130689 0.00084544192931651388 0 -0.0087989536257082283 0.00058566048886069119 0 -0.0087029840365383786 0.00041398083551173612 0 -0.0088049646639084128 0.00046787051466976829 0 -0.0080741397005383436 0.0019142927880789514 0 -0.0085119284610331598 0.0016933043831184763 0 -0.0078743157189162249 0.00065582509636988209 0 -0.0086534249374289225 0.00025740187391097791 0 -0.0087156108433085345 0.00030712872535624972 0 -0.0087168700722701966 0.00029320712477421052 0 -0.0087168700722701966 0.00029320712477421052 0 -0.0087316612602522676 0.0003080644857709355 0 -0.0087760832503776687 0.00030215440091252861 0 -0.0087168700722701966 0.00029320712477421052 0 -0.0087316612602522676 0.0003080644857709355 0 -0.0087284759567607118 0.00030505765696739435 0 -0.0087458448537665202 0.00029580549086838305 0 -0.0087316612602522676 0.0003080644857709355 0 -0.0087284759567607118 0.00030505765696739435 0 -0.0087156108433085345 0.00030712872535624972 0 -0.0087168700722701966 0.00029320712477421052 0 -0.0087284759567607118 0.00030505765696739435 0 -0.0087458448537665202 0.00029580549086838305 0 -0.0087156108433085345 0.00030712872535624972 0 -0.0087284759567607118 0.00030505765696739435 0 -0.0081840340174620715 0.00083315506936188942 0 -0.0081810715931130689 0.00084544192931651388 0 -0.0087607986035885075 0.00031842520886624158 0 -0.0086847472548123687 0.00031935195943440654 0 -0.0086954588834624123 0.00026778426352147729 0 -0.0087316612602522676 0.0003080644857709355 0 -0.0087607986035885075 0.00031842520886624158 0 -0.0087760832503776687 0.00030215440091252861 0 -0.0087316612602522676 0.0003080644857709355 0 -0.0087607986035885075 0.00031842520886624158 0 -0.0086954588834624123 0.00026778426352147729 0 -0.0088890998596588451 0.00032290217182013892 0 -0.0087607986035885075 0.00031842520886624158 0 -0.0087760832503776687 0.00030215440091252861 0 -0.0088890998596588451 0.00032290217182013892 0 -0.0087607986035885075 0.00031842520886624158 0 -0.0086847472548123687 0.00031935195943440654 0 -0.0092397572275240165 0.00033195140365944342 0 -0.0088890998596588451 0.00032290217182013892 0 -0.0086847472548123687 0.00031935195943440654 0 -0.0092397572275240165 0.00033195140365944342 0 -0.0086847472548123687 0.00031935195943440654 0 -0.0082290557994874232 0.00031746348414822079 0 -0.0086847472548123687 0.00031935195943440654 0 -0.0085652219941555335 0.00018316066609912784 0 -0.0082427650657018545 0.0001414401976370656 0 -0.0086847472548123687 0.00031935195943440654 0 -0.0086954588834624123 0.00026778426352147729 0 -0.0085652219941555335 0.00018316066609912784 0 -0.0087221349769940268 0.00016728592253673722 0 -0.0086954588834624123 0.00026778426352147729 0 -0.0085652219941555335 0.00018316066609912784 0 -0.0087221349769940268 0.00016728592253673722 0 -0.0085652219941555335 0.00018316066609912784 0 -0.0086700193512413686 7.7899680606146902e-05 0 -0.0085652219941555335 0.00018316066609912784 0 -0.0086700193512413686 7.7899680606146902e-05 0 -0.0083728211295704923 -3.3757773258731218e-05 0 -0.0086700193512413686 7.7899680606146902e-05 0 -0.0085692636263783976 -0.00032145981713949351 0 -0.0083728211295704923 -3.3757773258731218e-05 0 -0.005070778936320173 0.00016984766794599467 0 -0.0056105256352799934 -9.246292795567493e-05 0 -0.0085692636263783976 -0.00032145981713949351 0 -0.0083728211295704923 -3.3757773258731218e-05 0 -0.0077891945214972518 -0.00035706845298325078 0 -0.0082427650657018545 0.0001414401976370656 0 -0.0083728211295704923 -3.3757773258731218e-05 0 -0.0077891945214972518 -0.00035706845298325078 0 -0.0085652219941555335 0.00018316066609912784 0 -0.0082427650657018545 0.0001414401976370656 0 -0.0083728211295704923 -3.3757773258731218e-05 0 -0.0082427650657018545 0.0001414401976370656 0 -0.0077922395578726928 0.00010882121990951817 0 -0.0077891945214972518 -0.00035706845298325078 0 -0.0070227958652182886 6.9548459312966853e-07 0 -0.0077922395578726928 0.00010882121990951817 0 -0.0077891945214972518 -0.00035706845298325078 0 -0.0070227958652182886 6.9548459312966853e-07 0 -0.0060241464261265561 -1.8477929184635763e-06 0 -0.0077891945214972518 -0.00035706845298325078 0 -0.0070227958652182886 6.9548459312966853e-07 0 -0.0077922395578726928 0.00010882121990951817 0 -0.0080238471733738749 3.9289789804071913e-07 0 -0.0080259272876309629 3.0863326365065308e-07 0 -0.0085639340338380908 0.00024181266679696714 0 -0.0077922395578726928 0.00010882121990951817 0 -0.0080238471733738749 3.9289789804071913e-07 0 -0.0082290557994874232 0.00031746348414822079 0 -0.0086847472548123687 0.00031935195943440654 0 -0.0082427650657018545 0.0001414401976370656 0 -0.0082290557994874232 0.00031746348414822079 0 -0.0082427650657018545 0.0001414401976370656 0 -0.0077922395578726928 0.00010882121990951817 0 -0.0082290557994874232 0.00031746348414822079 0 -0.008691879494076531 0.00025972256447857347 0 -0.0085639340338380908 0.00024181266679696714 0 -0.0098150277610695863 0.00013198803378208519 0 -0.0092397572275240165 0.00033195140365944342 0 -0.0095912604023793511 9.8162771676683721e-05 0 -0.0080266873229588344 -9.2828385771340573e-07 0 -0.0095912604023793511 9.8162771676683721e-05 0 -0.0093720353403790504 9.264106182508881e-07 0 -0.0098150277610695863 0.00013198803378208519 0 -0.0095912604023793511 9.8162771676683721e-05 0 -0.0093720353403790504 9.264106182508881e-07 0 -0.0033658212588699604 0.00025847440428608065 0 -0.0034565155424985602 8.2762425081043372e-07 0 -0.0037801175149172308 8.9760973549970737e-05 0 -0.0033658212588699604 0.00025847440428608065 0 -0.0032096076043509349 0.00015056254300334631 0 -0.0037801175149172308 8.9760973549970737e-05 0 -0.0033658212588699604 0.00025847440428608065 0 -0.0030894912418516795 0.00028625218183582485 0 -0.0031700237326263482 0.00046286999398160441 0 -0.0033658212588699604 0.00025847440428608065 0 -0.0034565155424985602 8.2762425081043372e-07 0 -0.0030894912418516795 0.00028625218183582485 0 -0.0025603587506516099 0.00034671731911599971 0 -0.0032096076043509349 0.00015056254300334631 0 -0.0019164208659445379 -9.352697776061779e-06 0 -0.0014313667664597664 0.00077042869939918806 0 -0.0031898873647105393 0.00086340402168080018 0 -0.0031258031149100688 0.00064506210468943611 0 -0.0033658212588699604 0.00025847440428608065 0 -0.0031700237326263482 0.00046286999398160441 0 -0.0031055822262961966 0.00037685711607340265 0 -0.0031700237326263482 0.00046286999398160441 0 -0.0030613061280453037 0.00050960656197490011 0 -0.0031258031149100688 0.00064506210468943611 0 -0.0031700237326263482 0.00046286999398160441 0 -0.0030613061280453037 0.00050960656197490011 0 -0.0031055822262961966 0.00037685711607340265 0 -0.0030613061280453037 0.00050960656197490011 0 -0.0027182184919462304 0.00051108795448664632 0 -0.0031258031149100688 0.00064506210468943611 0 -0.0030613061280453037 0.00050960656197490011 0 -0.0027182184919462304 0.00051108795448664632 0 -0.0031055822262961966 0.00037685711607340265 0 -0.0027182184919462304 0.00051108795448664632 0 -0.0025603587506516099 0.00034671731911599971 0 -0.0031055822262961966 0.00037685711607340265 0 -0.0025603587506516099 0.00034671731911599971 0 -0.0031055822262961966 0.00037685711607340265 0 -0.0032096076043509349 0.00015056254300334631 0 -0.0033658212588699604 0.00025847440428608065 0 -0.0031055822262961966 0.00037685711607340265 0 -0.0032096076043509349 0.00015056254300334631 0 -0.0039794604407514369 0.00038218435490956038 0 -0.0025833305315268833 0.00066906758202560888 0 -0.0042857381241239844 0.00068927272971831485 0 -0.0030336869127961892 0.00060504377955444811 0 -0.0027627393018839759 0.0013236093284154161 0 -0.0032096076043509349 0.00015056254300334631 0 -0.0037801175149172308 8.9760973549970737e-05 0 -0.0036651602565020078 -0.00042039283780155964 0 -0.0032096076043509349 0.00015056254300334631 0 -0.0036651602565020078 -0.00042039283780155964 0 -0.0019164208659445379 -9.352697776061779e-06 0 -0.0045376249935747256 -1.245471794000205e-08 0 -0.0037801175149172308 8.9760973549970737e-05 0 -0.0036651602565020078 -0.00042039283780155964 0 -0.0034565155424985602 8.2762425081043372e-07 0 -0.0045376249935747256 -1.245471794000205e-08 0 -0.0037801175149172308 8.9760973549970737e-05 0 -0.0056199102709189788 1.7375782872364848e-06 0 -0.0046391364244148837 -0.0001107109559342345 0 -0.0042857381241239844 0.00068927272971831485 0 -0.0045376249935747256 -1.245471794000205e-08 0 -0.0056161313275599287 -1.0755653758228076e-06 0 -0.0036651602565020078 -0.00042039283780155964 0 -0.0056155565313838847 -4.7406137889199665e-08 0 -0.0039794604407514369 0.00038218435490956038 0 -0.0056199102709189788 1.7375782872364848e-06 0 -0.0060187828382658095 -2.4486618175100733e-06 0 -0.0046391364244148837 -0.0001107109559342345 0 -0.0060187828382658095 -2.4486618175100733e-06 0 -0.0046391364244148837 -0.0001107109559342345 0 -0.003788282038855088 -0.0011630676324020837 0 -0.0060208965253593094 -2.4103857959867026e-07 0 -0.0056105256352799934 -9.246292795567493e-05 0 -0.0046391364244148837 -0.0001107109559342345 0 -0.003788282038855088 -0.0011630676324020837 0 -0.0030152199864815266 -0.00013510718076571772 0 -0.0042857381241239844 0.00068927272971831485 0 -0.0030336869127961892 0.00060504377955444811 0 -0.0030152199864815266 -0.00013510718076571772 0 -0.0046391364244148837 -0.0001107109559342345 0 -0.0042857381241239844 0.00068927272971831485 0 -0.0030152199864815266 -0.00013510718076571772 0 -0.0030336869127961892 0.00060504377955444811 0 -0.0030152199864815266 -0.00013510718076571772 0 -0.0021313152473760033 0.00052481989604256376 0 -0.0019231611893063222 -0.0014936834046944841 0 -0.003788282038855088 -0.0011630676324020837 0 -0.0030152199864815266 -0.00013510718076571772 0 -0.0019231611893063222 -0.0014936834046944841 0 -0.001669042862693002 -0.00018231746929599015 0 -0.0011754922533797221 -0.00074963202586954649 0 -0.0019231611893063222 -0.0014936834046944841 0 -0.0030152199864815266 -0.00013510718076571772 0 -0.001669042862693002 -0.00018231746929599015 0 -0.0030152199864815266 -0.00013510718076571772 0 -0.001669042862693002 -0.00018231746929599015 0 -0.0021313152473760033 0.00052481989604256376 0 -0.001669042862693002 -0.00018231746929599015 0 -0.0013703126838673866 0.00060037243465674728 0 -0.0010079173449535157 0.00022927229194756306 0 -0.001669042862693002 -0.00018231746929599015 0 -0.0021313152473760033 0.00052481989604256376 0 -0.0013703126838673866 0.00060037243465674728 0 -0.0021313152473760033 0.00052481989604256376 0 -0.0013703126838673866 0.00060037243465674728 0 -0.0017501921822419611 0.0011025471294070209 0 -0.0021313152473760033 0.00052481989604256376 0 -0.0017501921822419611 0.0011025471294070209 0 -0.0027627393018839759 0.0013236093284154161 0 -0.0013703126838673866 0.00060037243465674728 0 -0.0017501921822419611 0.0011025471294070209 0 -0.0010395913888616333 0.0011949528304498885 0 -0.0030336869127961892 0.00060504377955444811 0 -0.0021313152473760033 0.00052481989604256376 0 -0.0027627393018839759 0.0013236093284154161 0 -0.0014313667664597664 0.00077042869939918806 0 -0.0012616830335009871 0.0008741796093344645 0 -0.00090751092630406019 0.00069469281886933964 0 -0.0013287597167069682 8.7838027098938106e-05 0 -0.0014072690307533069 -4.415168210424999e-06 0 -0.0027182184919462304 0.00051108795448664632 0 -0.0014313667664597664 0.00077042869939918806 0 -0.0031258031149100688 0.00064506210468943611 0 -0.0019164208659445379 -9.352697776061779e-06 0 -0.0014313667664597664 0.00077042869939918806 0 -0.0012616830335009871 0.0008741796093344645 0 -0.0025603587506516099 0.00034671731911599971 0 -0.0019164208659445379 -9.352697776061779e-06 0 -0.0014313667664597664 0.00077042869939918806 0 -0.0027182184919462304 0.00051108795448664632 0 -0.0025603587506516099 0.00034671731911599971 0 -0.0014313667664597664 0.00077042869939918806 0 -0.0025833305315268833 0.00066906758202560888 0 -0.0013518447568290064 0.00087172952888805099 0 -0.0017501921822419611 0.0011025471294070209 0 -0.0027627393018839759 0.0013236093284154161 0 -0.0014889250499251208 0.0018044368151789933 0 -0.0017501921822419611 0.0011025471294070209 0 -0.0014889250499251208 0.0018044368151789933 0 -0.0010395913888616333 0.0011949528304498885 0 -0.00067803488275388127 0.0016648984653789077 0 -0.00028224369278800833 0.0012413585317774614 0 -0.0010395913888616333 0.0011949528304498885 0 -0.0014889250499251208 0.0018044368151789933 0 -0.00067803488275388127 0.0016648984653789077 0 -0.0010395913888616333 0.0011949528304498885 0 -0.00028224369278800833 0.0012413585317774614 0 0.00055826749622112516 0.0012123667911812135 0 -0.00011302784191756693 0.0017805730440905027 0 -0.00067803488275388127 0.0016648984653789077 0 -0.00028224369278800833 0.0012413585317774614 0 -0.00011302784191756693 0.0017805730440905027 0 -0.00028224369278800833 0.0012413585317774614 0 0.00017310780474118261 0.00068623571089350237 0 0.00055826749622112516 0.0012123667911812135 0 -0.00028224369278800833 0.0012413585317774614 0 0.00017310780474118261 0.00068623571089350237 0 -0.00058442407528767274 0.00066992773019335376 0 0.00017310780474118261 0.00068623571089350237 0 -0.00016874278585461203 0.00041492307287051321 0 9.4794927700640036e-05 0.00016486681696475301 0 0.00017310780474118261 0.00068623571089350237 0 -0.00058442407528767274 0.00066992773019335376 0 -0.00016874278585461203 0.00041492307287051321 0 -0.00058442407528767274 0.00066992773019335376 0 -0.000544895712941504 0.00024233923357721372 0 -0.00016874278585461203 0.00041492307287051321 0 -0.00028224369278800833 0.0012413585317774614 0 -0.00058442407528767274 0.00066992773019335376 0 -0.0010395913888616333 0.0011949528304498885 0 -0.0013703126838673866 0.00060037243465674728 0 -0.00058442407528767274 0.00066992773019335376 0 -0.0010395913888616333 0.0011949528304498885 0 -0.0013703126838673866 0.00060037243465674728 0 -0.00058442407528767274 0.00066992773019335376 0 -0.0010079173449535157 0.00022927229194756306 0 -0.0010079173449535157 0.00022927229194756306 0 -0.000544895712941504 0.00024233923357721372 0 -0.00088492457224441064 -0.00019016970383709263 0 -0.00058442407528767274 0.00066992773019335376 0 -0.0010079173449535157 0.00022927229194756306 0 -0.000544895712941504 0.00024233923357721372 0 -0.00088492457224441064 -0.00019016970383709263 0 -0.00062088546873267708 -0.00049741279013162118 0 -0.00033656604661346933 -0.000109930881445906 0 -0.000544895712941504 0.00024233923357721372 0 -0.00088492457224441064 -0.00019016970383709263 0 -0.00033656604661346933 -0.000109930881445906 0 -0.001669042862693002 -0.00018231746929599015 0 -0.0010079173449535157 0.00022927229194756306 0 -0.00088492457224441064 -0.00019016970383709263 0 -0.00088492457224441064 -0.00019016970383709263 0 -0.0011754922533797221 -0.00074963202586954649 0 -0.00062088546873267708 -0.00049741279013162118 0 -0.00032390101263061018 -0.0017009813291526041 0 -0.0011754922533797221 -0.00074963202586954649 0 -0.00047112511416369946 -0.00090169052619338023 0 -0.001669042862693002 -0.00018231746929599015 0 -0.00088492457224441064 -0.00019016970383709263 0 -0.0011754922533797221 -0.00074963202586954649 0 -0.0011754922533797221 -0.00074963202586954649 0 -0.00062088546873267708 -0.00049741279013162118 0 -0.00047112511416369946 -0.00090169052619338023 0 -0.00062088546873267708 -0.00049741279013162118 0 -0.00047112511416369946 -0.00090169052619338023 0 -0.00024737826774820591 -0.00054756306564169275 0 0.00030349061295239588 -0.0012785737499977886 0 -7.0360740849029988e-05 -0.00086480564763447064 0 0.00017397807032847493 -0.00039101731766371376 0 -0.0025716184498790914 0.0016741673493075176 0 -0.0014102075632413411 0.00094586088871591637 0 -0.00032390101263061018 -0.0017009813291526041 0 -0.00047112511416369946 -0.00090169052619338023 0 -7.0360740849029988e-05 -0.00086480564763447064 0 -7.0360740849029988e-05 -0.00086480564763447064 0 -0.00024737826774820591 -0.00054756306564169275 0 0.00017397807032847493 -0.00039101731766371376 0 -0.00047112511416369946 -0.00090169052619338023 0 -7.0360740849029988e-05 -0.00086480564763447064 0 -0.00024737826774820591 -0.00054756306564169275 0 -0.00062088546873267708 -0.00049741279013162118 0 -0.00024737826774820591 -0.00054756306564169275 0 -0.00033656604661346933 -0.000109930881445906 0 -0.00024737826774820591 -0.00054756306564169275 0 0.00017397807032847493 -0.00039101731766371376 0 -8.8358109290769736e-05 -0.00021972456177110758 0 0.00017397807032847493 -0.00039101731766371376 0 -8.8358109290769736e-05 -0.00021972456177110758 0 9.4794927700640036e-05 0.00016486681696475301 0 -0.0014102075632413411 0.00094586088871591637 0 -0.0013342950972654109 0.00079507540971495501 0 0.00019040849599707122 -0.00016850475382979829 0 9.4794927700640036e-05 0.00016486681696475301 0 0.00050257222011290768 4.9118313310878618e-05 0 -0.00024737826774820591 -0.00054756306564169275 0 -8.8358109290769736e-05 -0.00021972456177110758 0 -0.00033656604661346933 -0.000109930881445906 0 -8.8358109290769736e-05 -0.00021972456177110758 0 -0.00033656604661346933 -0.000109930881445906 0 9.4794927700640036e-05 0.00016486681696475301 0 -0.00033656604661346933 -0.000109930881445906 0 -0.00016874278585461203 0.00041492307287051321 0 9.4794927700640036e-05 0.00016486681696475301 0 -0.000544895712941504 0.00024233923357721372 0 -0.00033656604661346933 -0.000109930881445906 0 -0.00016874278585461203 0.00041492307287051321 0 0.00017310780474118261 0.00068623571089350237 0 9.4794927700640036e-05 0.00016486681696475301 0 0.00067171169126701365 0.0003466259978434333 0 0.00067171169126701365 0.0003466259978434333 0 0.00050257222011290768 4.9118313310878618e-05 0 0.0010122279329644816 -0.00011589507253085938 0 9.4794927700640036e-05 0.00016486681696475301 0 0.00067171169126701365 0.0003466259978434333 0 0.00050257222011290768 4.9118313310878618e-05 0 0.00019040849599707122 -0.00016850475382979829 0 0.00050257222011290768 4.9118313310878618e-05 0 0.0010122279329644816 -0.00011589507253085938 0 -0.0025716184498790914 0.0016741673493075176 0 -0.00034892510163457834 0.0016234939041994355 0 -0.0014102075632413411 0.00094586088871591637 0 -0.00034892510163457834 0.0016234939041994355 0 -0.0019698514795854199 0.0012904278567953805 0 -0.0020321956248665557 0.0017428892355729807 0 -0.0013593570740235953 0.0016866571981402393 0 -0.00088695727819737937 0.0045283694211034724 0 -0.0011559911565053906 0.0045572023757909433 0 -0.00069595610062268116 0.0048573389431776038 0 -0.00059029052819381121 0.0045343987321653408 0 -0.00069595610062268116 0.0048573389431776038 0 -0.00011123837209129845 0.0048061626908961364 0 -0.00034892510163457834 0.0016234939041994355 0 0.00047033151997661525 0.0022297427005844284 0 -0.00059029052819381121 0.0045343987321653408 0 -0.00088695727819737937 0.0045283694211034724 0 -0.00069595610062268116 0.0048573389431776038 0 -0.00034892510163457834 0.0016234939041994355 0 0.00035844408384622372 0.0014682512826762531 0 0.0010122279329644816 -0.00011589507253085938 0 0.0011695315615020468 0.00056304287291826212 0 0.001541567378725478 0.00049528866181604097 0 0.00067171169126701365 0.0003466259978434333 0 0.0010122279329644816 -0.00011589507253085938 0 0.0011695315615020468 0.00056304287291826212 0 0.0011695315615020468 0.00056304287291826212 0 0.00078483268521697003 0.00075167436748510151 0 0.001194502293071553 0.0009723569284255069 0 0.0011695315615020468 0.00056304287291826212 0 0.001194502293071553 0.0009723569284255069 0 0.0014362699554456247 0.00085210154171906475 0 0.00067171169126701365 0.0003466259978434333 0 0.0011695315615020468 0.00056304287291826212 0 0.00078483268521697003 0.00075167436748510151 0 0.00017310780474118261 0.00068623571089350237 0 0.00078483268521697003 0.00075167436748510151 0 0.00055826749622112516 0.0012123667911812135 0 0.00017310780474118261 0.00068623571089350237 0 0.00067171169126701365 0.0003466259978434333 0 0.00078483268521697003 0.00075167436748510151 0 0.00055826749622112516 0.0012123667911812135 0 0.001194502293071553 0.0009723569284255069 0 0.0013320806945543917 0.0012298891537962267 0 0.00078483268521697003 0.00075167436748510151 0 0.00055826749622112516 0.0012123667911812135 0 0.001194502293071553 0.0009723569284255069 0 0.001194502293071553 0.0009723569284255069 0 0.001433772653675299 0.0010561400187820093 0 0.0013320806945543917 0.0012298891537962267 0 0.001194502293071553 0.0009723569284255069 0 0.001433772653675299 0.0010561400187820093 0 0.0014362699554456247 0.00085210154171906475 0 0.001433772653675299 0.0010561400187820093 0 0.0015354877366303044 0.00088759460242363942 0 0.0015729505729172061 0.00087383780474492513 0 0.001433772653675299 0.0010561400187820093 0 0.0013320806945543917 0.0012298891537962267 0 0.0015354877366303044 0.00088759460242363942 0 0.0013320806945543917 0.0012298891537962267 0 0.0016146153185436394 0.00085945155860463066 0 0.0017485763153209219 0.00090415457167128692 0 0.00055826749622112516 0.0012123667911812135 0 0.0013320806945543917 0.0012298891537962267 0 0.00042897854062765912 0.0019490293133721706 0 0.00064409869886258712 0.0010207485137556432 0 0.00049086065878176045 0.0010066583327911437 0 0.0016146153185436394 0.00085945155860463066 0 0.0017447007833337148 0.00071699719878985581 0 0.0017485763153209219 0.00090415457167128692 0 0.0013320806945543917 0.0012298891537962267 0 0.0016146153185436394 0.00085945155860463066 0 0.0015354877366303044 0.00088759460242363942 0 0.0016146153185436394 0.00085945155860463066 0 0.0017202120125664095 0.00070378829374993237 0 0.0015354877366303044 0.00088759460242363942 0 0.0016146153185436394 0.00085945155860463066 0 0.0017202120125664095 0.00070378829374993237 0 0.0017447007833337148 0.00071699719878985581 0 0.0017202120125664095 0.00070378829374993237 0 0.0015354877366303044 0.00088759460242363942 0 0.0017019852181339196 0.00071847906017023973 0 0.0015354877366303044 0.00088759460242363942 0 0.0017019852181339196 0.00071847906017023973 0 0.0015729505729172061 0.00087383780474492513 0 0.0017019852181339196 0.00071847906017023973 0 0.0018511606296776929 0.00061413767792456724 0 0.0016918572654944755 0.00068182983886076309 0 0.0018497779492462191 0.00048356815521376001 0 0.0018511606296776929 0.00061413767792456724 0 0.0016918572654944755 0.00068182983886076309 0 0.0017202120125664095 0.00070378829374993237 0 0.0018511606296776929 0.00061413767792456724 0 0.0017728345994947536 0.00060388937799191937 0 0.0017202120125664095 0.00070378829374993237 0 0.0017019852181339196 0.00071847906017023973 0 0.0018511606296776929 0.00061413767792456724 0 0.0018511606296776929 0.00061413767792456724 0 0.0017728345994947536 0.00060388937799191937 0 0.0017493426371371595 0.00063881182938769067 0 0.0020446220223025117 0.00045318378127924894 0 0.0018511606296776929 0.00061413767792456724 0 0.0021768482811111343 0.00048260653068371351 0 0.0018573620877790882 0.00051737717722400692 0 0.0018689148924227752 0.00048953408870900197 0 0.0018689148924227752 0.00048953408870900197 0 0.0017880573549488065 0.00041824517691427016 0 0.0017728345994947536 0.00060388937799191937 0 0.0017493426371371595 0.00063881182938769067 0 0.0016252315470135742 0.00047848951365110431 0 0.0017493426371371595 0.00063881182938769067 0 0.0016252315470135742 0.00047848951365110431 0 0.0014467428123872814 0.00051337127712799459 0 0.0017728345994947536 0.00060388937799191937 0 0.0016252315470135742 0.00047848951365110431 0 0.0017064650273109845 0.00050335827523542319 0 0.0017064650273109845 0.00050335827523542319 0 0.0017540388683189557 0.00052813668664253278 0 0.0015172553793881417 0.00023102794536622375 0 0.0017064650273109845 0.00050335827523542319 0 0.0017958291022560234 0.00063371735046339225 0 0.0017540388683189557 0.00052813668664253278 0 0.0017202120125664095 0.00070378829374993237 0 0.0017728345994947536 0.00060388937799191937 0 0.0017447007833337148 0.00071699719878985581 0 0.0017728345994947536 0.00060388937799191937 0 0.0017064650273109845 0.00050335827523542319 0 0.0017958291022560234 0.00063371735046339225 0 0.0017728345994947536 0.00060388937799191937 0 0.0017447007833337148 0.00071699719878985581 0 0.0017958291022560234 0.00063371735046339225 0 0.00049086065878176045 0.0010066583327911437 0 2.3682366632944373e-05 0.00093810525585089001 0 0.0017958291022560234 0.00063371735046339225 0 0.0017485763153209219 0.00090415457167128692 0 0.0018455483291799106 0.00066498724589709383 0 0.00042897854062765912 0.0019490293133721706 0 -0.00011302784191756693 0.0017805730440905027 0 -0.00043396746704620835 0.0023267593722580714 0 8.9773213263521069e-05 0.00096438889100772978 0 2.3682366632944373e-05 0.00093810525585089001 0 0.0017447007833337148 0.00071699719878985581 0 0.0017958291022560234 0.00063371735046339225 0 0.0017485763153209219 0.00090415457167128692 0 0.00055826749622112516 0.0012123667911812135 0 0.00042897854062765912 0.0019490293133721706 0 -0.00011302784191756693 0.0017805730440905027 0 2.3682366632944373e-05 0.00093810525585089001 0 0.00020544320713491307 0.00056925174704656686 0 -0.0013518447568290064 0.00087172952888805099 0 2.3682366632944373e-05 0.00093810525585089001 0 -0.0014889250499251208 0.0018044368151789933 0 -0.00067803488275388127 0.0016648984653789077 0 -0.00043396746704620835 0.0023267593722580714 0 -0.00067803488275388127 0.0016648984653789077 0 -0.00011302784191756693 0.0017805730440905027 0 -0.00043396746704620835 0.0023267593722580714 0 -0.0012616830335009871 0.0008741796093344645 0 -0.0018362393935641937 0.00043030502769507732 0 -0.0011944954250277368 0.00021325431057476346 0 -0.0012616830335009871 0.0008741796093344645 0 -0.00090751092630406019 0.00069469281886933964 0 -0.0011944954250277368 0.00021325431057476346 0 -0.00090751092630406019 0.00069469281886933964 0 -0.00018841151866713494 0.00041284513942600596 0 -0.0011944954250277368 0.00021325431057476346 0 -0.0014313667664597664 0.00077042869939918806 0 -0.00090751092630406019 0.00069469281886933964 0 0.00025019288073072234 0.00092809850397370427 0 -0.00090751092630406019 0.00069469281886933964 0 -0.00018841151866713494 0.00041284513942600596 0 -2.7773859295130863e-05 0.00062237057707460188 0 0.00020544320713491307 0.00056925174704656686 0 0.00041547255433284141 0.00042049616077096476 0 -0.00018841151866713494 0.00041284513942600596 0 -0.0011944954250277368 0.00021325431057476346 0 0.00082357003020829846 2.1746910358097525e-05 0 0.0015172553793881417 0.00023102794536622375 0 0.0013755029957450112 0.0003330631431507723 0 0.00082357003020829846 2.1746910358097525e-05 0 0.0016252315470135742 0.00047848951365110431 0 0.0017064650273109845 0.00050335827523542319 0 0.0015172553793881417 0.00023102794536622375 0 0.0016252315470135742 0.00047848951365110431 0 0.0015172553793881417 0.00023102794536622375 0 0.0013755029957450112 0.0003330631431507723 0 0.0016252315470135742 0.00047848951365110431 0 0.0014467428123872814 0.00051337127712799459 0 0.0013755029957450112 0.0003330631431507723 0 0.0022164058867028468 0.00037616526858243947 0 0.0021768482811111343 0.00048260653068371351 0 0.0021683373540489141 0.00025823757939185863 0 0.0021683373540489141 0.00025823757939185863 0 0.0014589707024907281 0.00019594362146433593 0 0.0017666193418873159 0.00027809440993468098 0 0.0019960034538808544 0.00032785720274521393 0 0.0021683373540489141 0.00025823757939185863 0 0.0017666193418873159 0.00027809440993468098 0 0.0022164058867028468 0.00037616526858243947 0 0.0019960034538808544 0.00032785720274521393 0 0.0021683373540489141 0.00025823757939185863 0 0.0017880573549488065 0.00041824517691427016 0 0.0016800958343306607 0.00037017280750960865 0 0.0014467428123872814 0.00051337127712799459 0 0.0013755029957450112 0.0003330631431507723 0 0.0012335574104093447 0.00019724028834810486 0 0.0014467428123872814 0.00051337127712799459 0 0.0012335574104093447 0.00019724028834810486 0 0.0014589707024907281 0.00019594362146433593 0 0.0014589707024907281 0.00019594362146433593 0 0.0015748764903797008 0.00024639438886684404 0 0.00098062093548073083 -1.1362214108116521e-05 0 6.5186538325896063e-05 0.0001502018536351991 0 -0.00056141684573212856 9.0777079010866516e-06 0 0.0012335574104093447 0.00019724028834810486 0 0.0014589707024907281 0.00019594362146433593 0 0.00098062093548073083 -1.1362214108116521e-05 0 0.0014589707024907281 0.00019594362146433593 0 0.0017666193418873159 0.00027809440993468098 0 0.0015748764903797008 0.00024639438886684404 0 0.001865138662192315 0.00027548157581892141 0 0.0017666193418873159 0.00027809440993468098 0 0.0015748764903797008 0.00024639438886684404 0 0.0019960034538808544 0.00032785720274521393 0 0.001865138662192315 0.00027548157581892141 0 0.0017666193418873159 0.00027809440993468098 0 0.0020447137401832355 0.00022692797760851322 0 0.001865138662192315 0.00027548157581892141 0 0.0015748764903797008 0.00024639438886684404 0 0.00052729424955898316 0.0002864003038334293 0 6.5186538325896063e-05 0.0001502018536351991 0 0.00057436067801163392 -3.7904307594801052e-07 0 -0.00079982264921485218 4.4941196411112555e-05 0 -0.0009015908163836552 6.3898190983362681e-07 0 -0.0009015908163836552 6.3898190983362681e-07 0 -0.0011846812719635874 9.8040600783519467e-05 0 -0.0023746455976945873 -8.0525603139207874e-07 0 -0.00079982264921485218 4.4941196411112555e-05 0 -0.0011846812719635874 9.8040600783519467e-05 0 -0.0013928603350576061 0.00014518972261928472 0 -0.00079982264921485218 4.4941196411112555e-05 0 -0.0009015908163836552 6.3898190983362681e-07 0 -0.0011846812719635874 9.8040600783519467e-05 0 -0.0011846812719635874 9.8040600783519467e-05 0 -0.0013928603350576061 0.00014518972261928472 0 -0.0023746455976945873 -8.0525603139207874e-07 0 0.0013755029957450112 0.0003330631431507723 0 0.0012335574104093447 0.00019724028834810486 0 0.00082357003020829846 2.1746910358097525e-05 0 0.0012335574104093447 0.00019724028834810486 0 0.00082357003020829846 2.1746910358097525e-05 0 0.00098062093548073083 -1.1362214108116521e-05 0 -0.00018841151866713494 0.00041284513942600596 0 0.00082357003020829846 2.1746910358097525e-05 0 0.00040973143186374131 0.00038400843968556907 0 0.00098062093548073083 -1.1362214108116521e-05 0 0.00040973143186374131 0.00038400843968556907 0 0.00038570869277833135 0.00053964125467855363 0 0.00082357003020829846 2.1746910358097525e-05 0 0.00098062093548073083 -1.1362214108116521e-05 0 0.00040973143186374131 0.00038400843968556907 0 -0.00090751092630406019 0.00069469281886933964 0 -2.7773859295130863e-05 0.00062237057707460188 0 0.00025019288073072234 0.00092809850397370427 0 0.00098062093548073083 -1.1362214108116521e-05 0 0.00038570869277833135 0.00053964125467855363 0 0.00025019288073072234 0.00092809850397370427 0 -0.00056141684573212856 9.0777079010866516e-06 0 -0.0014072690307533069 -4.415168210424999e-06 0 -0.00018841151866713494 0.00041284513942600596 0 0.00040973143186374131 0.00038400843968556907 0 -2.7773859295130863e-05 0.00062237057707460188 0 0.00038570869277833135 0.00053964125467855363 0 -2.7773859295130863e-05 0.00062237057707460188 0 0.00025019288073072234 0.00092809850397370427 0 0.00040973143186374131 0.00038400843968556907 0 0.00038570869277833135 0.00053964125467855363 0 -2.7773859295130863e-05 0.00062237057707460188 0 -0.0014072690307533069 -4.415168210424999e-06 0 -0.0014166671191962778 7.5666620504497221e-06 0 -0.0030894912418516795 0.00028625218183582485 0 -0.0031700237326263482 0.00046286999398160441 0 -0.0032216625135741278 0.00047343928019204701 0 -0.0031700237326263482 0.00046286999398160441 0 -0.0032216625135741278 0.00047343928019204701 0 -0.0031258031149100688 0.00064506210468943611 0 -0.0034565155424985602 8.2762425081043372e-07 0 -0.0030894912418516795 0.00028625218183582485 0 -0.0023784923191407085 -1.4505066307844249e-07 0 -0.0014072690307533069 -4.415168210424999e-06 0 -0.0023758616230273527 3.6510114031256443e-07 0 -0.0013928603350576061 0.00014518972261928472 0 -0.0012953606134157357 -0.00064943868345586147 0 -0.0023746455976945873 -8.0525603139207874e-07 0 -0.0030894912418516795 0.00028625218183582485 0 -0.0032216625135741278 0.00047343928019204701 0 -0.0023784923191407085 -1.4505066307844249e-07 0 0.00026933464334869488 0.0030881280387976152 0 0.00059794674824895306 0.0023341401779345436 0 6.3840664243431023e-05 0.0025756121154854243 0 0.00026933464334869488 0.0030881280387976152 0 -0.00032849363087138417 0.0030965004186122133 0 -8.7526913235932163e-05 0.0035258240262781098 0 0.00026933464334869488 0.0030881280387976152 0 6.3840664243431023e-05 0.0025756121154854243 0 -0.00032849363087138417 0.0030965004186122133 0 0.00026933464334869488 0.0030881280387976152 0 0.00070755033777421988 0.0029318464932407938 0 0.00059794674824895306 0.0023341401779345436 0 0.00026933464334869488 0.0030881280387976152 0 0.00070755033777421988 0.0029318464932407938 0 0.00059588800008766288 0.0034184724279712705 0 0.00059794674824895306 0.0023341401779345436 0 6.3840664243431023e-05 0.0025756121154854243 0 0.00019320092323187065 0.0019390024994666531 0 6.3840664243431023e-05 0.0025756121154854243 0 -0.0004670806388383437 0.0021747380150282194 0 0.00019320092323187065 0.0019390024994666531 0 -0.0004670806388383437 0.0021747380150282194 0 -0.00038438788057454295 0.0026721243794638311 0 -0.00083900211501157951 0.0028429096412732301 0 6.3840664243431023e-05 0.0025756121154854243 0 -0.0004670806388383437 0.0021747380150282194 0 -0.00038438788057454295 0.0026721243794638311 0 -0.0004670806388383437 0.0021747380150282194 0 -0.0010698905447374322 0.0024191131059574066 0 -0.00083900211501157951 0.0028429096412732301 0 -0.0010698905447374322 0.0024191131059574066 0 -0.0012973814915672784 0.0020612444813417974 0 -0.0015905730738436988 0.002448800161544432 0 -0.0004670806388383437 0.0021747380150282194 0 -0.0010698905447374322 0.0024191131059574066 0 -0.00088292146316879623 0.0020160917065507465 0 -0.0010698905447374322 0.0024191131059574066 0 -0.0012973814915672784 0.0020612444813417974 0 -0.00088292146316879623 0.0020160917065507465 0 -0.0010698905447374322 0.0024191131059574066 0 -0.0014369110918836157 0.0028680914158018874 0 -0.00083900211501157951 0.0028429096412732301 0 -0.0010698905447374322 0.0024191131059574066 0 -0.0014369110918836157 0.0028680914158018874 0 -0.0015905730738436988 0.002448800161544432 0 -0.0014369110918836157 0.0028680914158018874 0 -0.00083900211501157951 0.0028429096412732301 0 -0.0013882225829107931 0.0032881436774987445 0 -0.00083900211501157951 0.0028429096412732301 0 -0.0013882225829107931 0.0032881436774987445 0 -0.0009098212085478166 0.0033997649196497942 0 6.3840664243431023e-05 0.0025756121154854243 0 -0.00038438788057454295 0.0026721243794638311 0 -0.00032849363087138417 0.0030965004186122133 0 -0.00038438788057454295 0.0026721243794638311 0 -0.00083900211501157951 0.0028429096412732301 0 -0.00032849363087138417 0.0030965004186122133 0 -0.00083900211501157951 0.0028429096412732301 0 -0.00032849363087138417 0.0030965004186122133 0 -0.0009098212085478166 0.0033997649196497942 0 -0.00032849363087138417 0.0030965004186122133 0 -0.00048195976249843777 0.0035838123871870264 0 -8.7526913235932163e-05 0.0035258240262781098 0 -0.00032849363087138417 0.0030965004186122133 0 -0.00048195976249843777 0.0035838123871870264 0 -0.0009098212085478166 0.0033997649196497942 0 -0.00048195976249843777 0.0035838123871870264 0 -0.00087162663983359531 0.0039921246000678423 0 -0.00029814044356004705 0.0038647246187219183 0 -0.00048195976249843777 0.0035838123871870264 0 -0.00029814044356004705 0.0038647246187219183 0 -8.7526913235932163e-05 0.0035258240262781098 0 -0.0013882225829107931 0.0032881436774987445 0 -0.0013728207913790865 0.0036248182071683646 0 -0.0009098212085478166 0.0033997649196497942 0 -0.00048195976249843777 0.0035838123871870264 0 -0.0009098212085478166 0.0033997649196497942 0 -0.00087162663983359531 0.0039921246000678423 0 -0.0013728207913790865 0.0036248182071683646 0 -0.0009098212085478166 0.0033997649196497942 0 -0.00087162663983359531 0.0039921246000678423 0 -0.0013728207913790865 0.0036248182071683646 0 -0.00087162663983359531 0.0039921246000678423 0 -0.0015952734191781864 0.0039903634601800722 0 -0.00033458561285312945 0.0051435711918455676 0 -0.00087162663983359531 0.0039921246000678423 0 -0.0014538480927970138 0.0046247811148611125 0 -0.00087162663983359531 0.0039921246000678423 0 -0.0014538480927970138 0.0046247811148611125 0 -0.0015952734191781864 0.0039903634601800722 0 -0.0012228980816889102 0.0045314258626000517 0 -0.0011620346426826553 0.0043901534525271468 0 -0.00024118028392040421 0.0041654934594095297 0 -0.00087162663983359531 0.0039921246000678423 0 -0.00037351629965304978 0.0040236730519822147 0 -0.00087162663983359531 0.0039921246000678423 0 -0.00029814044356004705 0.0038647246187219183 0 -0.00037351629965304978 0.0040236730519822147 0 -0.00029814044356004705 0.0038647246187219183 0 -0.00037351629965304978 0.0040236730519822147 0 -0.00011445630594276098 0.0040396753697759906 0 -0.00024118028392040421 0.0041654934594095297 0 -0.00037351629965304978 0.0040236730519822147 0 -0.00011445630594276098 0.0040396753697759906 0 -0.00011445630594276098 0.0040396753697759906 0 0.00012337629593372313 0.0040104538960758261 0 4.2405691558759116e-05 0.0038322796734971565 0 0.00012337629593372313 0.0040104538960758261 0 4.2405691558759116e-05 0.0038322796734971565 0 0.00031674819009066543 0.0039216607849537621 0 4.2405691558759116e-05 0.0038322796734971565 0 0.00029110545058744951 0.0036066275528785557 0 0.00031674819009066543 0.0039216607849537621 0 -0.00029814044356004705 0.0038647246187219183 0 -0.00011445630594276098 0.0040396753697759906 0 4.2405691558759116e-05 0.0038322796734971565 0 -0.00029814044356004705 0.0038647246187219183 0 4.2405691558759116e-05 0.0038322796734971565 0 -8.7526913235932163e-05 0.0035258240262781098 0 0.00026933464334869488 0.0030881280387976152 0 -8.7526913235932163e-05 0.0035258240262781098 0 0.00029110545058744951 0.0036066275528785557 0 4.2405691558759116e-05 0.0038322796734971565 0 -8.7526913235932163e-05 0.0035258240262781098 0 0.00029110545058744951 0.0036066275528785557 0 0.00026933464334869488 0.0030881280387976152 0 0.00059588800008766288 0.0034184724279712705 0 0.00029110545058744951 0.0036066275528785557 0 0.00059588800008766288 0.0034184724279712705 0 0.00029110545058744951 0.0036066275528785557 0 0.00053071850929945646 0.0037820861469334867 0 0.00029110545058744951 0.0036066275528785557 0 0.00053071850929945646 0.0037820861469334867 0 0.00031674819009066543 0.0039216607849537621 0 0.00050776714954149931 0.0040327881875361713 0 0.00053071850929945646 0.0037820861469334867 0 0.00031674819009066543 0.0039216607849537621 0 0.00050776714954149931 0.0040327881875361713 0 0.00053071850929945646 0.0037820861469334867 0 0.00070139903953406256 0.0039422430681351657 0 0.00053071850929945646 0.0037820861469334867 0 0.00070139903953406256 0.0039422430681351657 0 0.0007414149430112866 0.0036443837182851507 0 0.00070139903953406256 0.0039422430681351657 0 0.00096728887879864633 0.0036831234272593103 0 0.0007414149430112866 0.0036443837182851507 0 0.00070139903953406256 0.0039422430681351657 0 0.00085756367075351088 0.003894847268717418 0 0.00096728887879864633 0.0036831234272593103 0 0.00070139903953406256 0.0039422430681351657 0 0.00077153231783326916 0.0040475107165425473 0 0.00085756367075351088 0.003894847268717418 0 0.0006283133109753669 0.0041457063221108977 0 0.00070139903953406256 0.0039422430681351657 0 0.00077153231783326916 0.0040475107165425473 0 0.00063065669803048384 0.0042429210730989247 0 0.00077153231783326916 0.0040475107165425473 0 0.0010595618103077169 0.0038920943282705002 0 0.00077153231783326916 0.0040475107165425473 0 0.0010595618103077169 0.0038920943282705002 0 0.0010133518603645674 0.003894132231883471 0 0.00077153231783326916 0.0040475107165425473 0 0.00085756367075351088 0.003894847268717418 0 0.0010133518603645674 0.003894132231883471 0 0.00052213197855425705 0.0030734866355966368 0 0.00052226306790736541 0.0026852780738017448 0 0.00063065669803048384 0.0042429210730989247 0 0.00059580042966701741 0.0047424384282104661 0 0.00020377745079348212 0.004528277221061471 0 0.00052226306790736541 0.0026852780738017448 0 0.00052604691854132803 0.0026877511802658851 0 0.00085756367075351088 0.003894847268717418 0 0.0010133518603645674 0.003894132231883471 0 0.00096728887879864633 0.0036831234272593103 0 0.001106709239604053 0.0038843090197883136 0 0.0010133518603645674 0.003894132231883471 0 0.00096728887879864633 0.0036831234272593103 0 0.00052226306790736541 0.0026852780738017448 0 0.0010790037200342469 0.0019092143246683484 0 0.001106709239604053 0.0038843090197883136 0 0.00096728887879864633 0.0036831234272593103 0 0.0014764718499029946 0.0031304899703917697 0 0.00096728887879864633 0.0036831234272593103 0 0.00097063797016284014 0.0032743175308469676 0 0.0014764718499029946 0.0031304899703917697 0 0.001797061284740842 0.00034095911062219142 0 0.0016661736811192324 0.00047467166683123869 0 0.0017882660104210366 0.00060131560156038663 0 0.00070755033777421988 0.0029318464932407938 0 0.00059588800008766288 0.0034184724279712705 0 0.00097063797016284014 0.0032743175308469676 0 0.00059588800008766288 0.0034184724279712705 0 0.00053071850929945646 0.0037820861469334867 0 0.0007414149430112866 0.0036443837182851507 0 0.00059588800008766288 0.0034184724279712705 0 0.00097063797016284014 0.0032743175308469676 0 0.0007414149430112866 0.0036443837182851507 0 0.00096728887879864633 0.0036831234272593103 0 0.00097063797016284014 0.0032743175308469676 0 0.0007414149430112866 0.0036443837182851507 0 -9.8538178156888436e-05 0.004469112707027041 0 -0.00059029052819381121 0.0045343987321653408 0 -0.00011123837209129845 0.0048061626908961364 0 0.00059580042966701741 0.0047424384282104661 0 -0.00011123837209129845 0.0048061626908961364 0 0.00020377745079348212 0.004528277221061471 0 0.00052226306790736541 0.0026852780738017448 0 0.00047033151997661525 0.0022297427005844284 0 0.001797061284740842 0.00034095911062219142 0 0.0015544679819994597 0.00036566930196274837 0 0.0016661736811192324 0.00047467166683123869 0 -9.8538178156888436e-05 0.004469112707027041 0 -0.00011123837209129845 0.0048061626908961364 0 0.00020377745079348212 0.004528277221061471 0 0.0013519110654794254 0.00038521183671030249 0 0.0015544679819994597 0.00036566930196274837 0 0.001541567378725478 0.00049528866181604097 0 0.0015544679819994597 0.00036566930196274837 0 0.0016661736811192324 0.00047467166683123869 0 0.001541567378725478 0.00049528866181604097 0 0.0011695315615020468 0.00056304287291826212 0 0.001541567378725478 0.00049528866181604097 0 0.0014362699554456247 0.00085210154171906475 0 0.001541567378725478 0.00049528866181604097 0 0.0016231340579934926 0.00072831765807486958 0 0.0014362699554456247 0.00085210154171906475 0 0.0016661736811192324 0.00047467166683123869 0 0.001541567378725478 0.00049528866181604097 0 0.0016231340579934926 0.00072831765807486958 0 0.0016231340579934926 0.00072831765807486958 0 0.0017882660104210366 0.00060131560156038663 0 0.0017011272807813905 0.0008643993839172493 0 0.0016661736811192324 0.00047467166683123869 0 0.0016231340579934926 0.00072831765807486958 0 0.0017882660104210366 0.00060131560156038663 0 0.0016231340579934926 0.00072831765807486958 0 0.0017011272807813905 0.0008643993839172493 0 0.0015549472530566886 0.00096667852911139576 0 0.0016231340579934926 0.00072831765807486958 0 0.0014362699554456247 0.00085210154171906475 0 0.0015549472530566886 0.00096667852911139576 0 0.001433772653675299 0.0010561400187820093 0 0.0014362699554456247 0.00085210154171906475 0 0.0015549472530566886 0.00096667852911139576 0 0.00070755033777421988 0.0029318464932407938 0 0.00097063797016284014 0.0032743175308469676 0 0.0011105401465137216 0.0026180611111135937 0 0.0014764718499029946 0.0031304899703917697 0 0.0016945519098112663 0.0022570929600596464 0 0.0011105401465137216 0.0026180611111135937 0 0.0010790037200342469 0.0019092143246683484 0 0.0013584988848449892 0.0015175276546254581 0 0.00097063797016284014 0.0032743175308469676 0 0.0014764718499029946 0.0031304899703917697 0 0.0011105401465137216 0.0026180611111135937 0 0.0016945519098112663 0.0022570929600596464 0 0.0011105401465137216 0.0026180611111135937 0 0.0011900981514210837 0.0017057241324689397 0 0.00059794674824895306 0.0023341401779345436 0 0.0011105401465137216 0.0026180611111135937 0 0.0011900981514210837 0.0017057241324689397 0 0.00070755033777421988 0.0029318464932407938 0 0.00059794674824895306 0.0023341401779345436 0 0.0011105401465137216 0.0026180611111135937 0 0.0013584988848449892 0.0015175276546254581 0 0.0014773907616426581 0.001215797610721859 0 0.0016945519098112663 0.0022570929600596464 0 0.0011900981514210837 0.0017057241324689397 0 0.0017378306233511197 0.0013945207141125178 0 0.0011900981514210837 0.0017057241324689397 0 0.0013979635306440449 0.0010756190872965872 0 0.0017378306233511197 0.0013945207141125178 0 0.0013979635306440449 0.0010756190872965872 0 0.0017378306233511197 0.0013945207141125178 0 0.0015776185584888778 0.00075169411244004416 0 0.0014773907616426581 0.001215797610721859 0 0.001507019985095204 0.0010579305690149984 0 0.0011900981514210837 0.0017057241324689397 0 0.0013979635306440449 0.0010756190872965872 0 0.0010768000689505594 0.0011006616625229935 0 0.0011900981514210837 0.0017057241324689397 0 0.0010768000689505594 0.0011006616625229935 0 0.00070185352324691563 0.0015204051388304659 0 0.001433772653675299 0.0010561400187820093 0 0.0015549472530566886 0.00096667852911139576 0 0.0015729505729172061 0.00087383780474492513 0 0.0017011272807813905 0.0008643993839172493 0 0.0015725092650441279 0.00092175617269056262 0 0.0015549472530566886 0.00096667852911139576 0 0.0015725092650441279 0.00092175617269056262 0 0.0015922114135122024 0.00084916986514557789 0 0.0015776185584888778 0.00075169411244004416 0 0.0015725092650441279 0.00092175617269056262 0 0.0015549472530566886 0.00096667852911139576 0 0.0015922114135122024 0.00084916986514557789 0 0.0015549472530566886 0.00096667852911139576 0 0.0015922114135122024 0.00084916986514557789 0 0.0015729505729172061 0.00087383780474492513 0 0.0017019852181339196 0.00071847906017023973 0 0.0015729505729172061 0.00087383780474492513 0 0.0016918572654944755 0.00068182983886076309 0 0.0015922114135122024 0.00084916986514557789 0 0.0015729505729172061 0.00087383780474492513 0 0.0016918572654944755 0.00068182983886076309 0 0.0015922114135122024 0.00084916986514557789 0 0.0016918572654944755 0.00068182983886076309 0 0.0015776185584888778 0.00075169411244004416 0 0.0017302221373782908 0.00047182106598795841 0 0.0016918572654944755 0.00068182983886076309 0 0.0015776185584888778 0.00075169411244004416 0 0.0014333667531602565 0.00042990187088421777 0 0.0017302221373782908 0.00047182106598795841 0 0.0015776185584888778 0.00075169411244004416 0 0.0017302221373782908 0.00047182106598795841 0 0.0018497779492462191 0.00048356815521376001 0 0.0016918572654944755 0.00068182983886076309 0 0.0010768000689505594 0.0011006616625229935 0 0.0012747737198707694 0.00070721677459557343 0 0.00080270612877672424 0.00083126302255110795 0 0.0013979635306440449 0.0010756190872965872 0 0.0010768000689505594 0.0011006616625229935 0 0.0012747737198707694 0.00070721677459557343 0 0.0012747737198707694 0.00070721677459557343 0 0.0010089406617394634 0.00043933780164694011 0 0.00080270612877672424 0.00083126302255110795 0 0.0013979635306440449 0.0010756190872965872 0 0.0012747737198707694 0.00070721677459557343 0 0.0015776185584888778 0.00075169411244004416 0 0.0014333667531602565 0.00042990187088421777 0 0.0012747737198707694 0.00070721677459557343 0 0.0015776185584888778 0.00075169411244004416 0 0.0014333667531602565 0.00042990187088421777 0 0.0012747737198707694 0.00070721677459557343 0 0.0010089406617394634 0.00043933780164694011 0 0.001003213650207948 0.00025798999641656918 0 0.0010089406617394634 0.00043933780164694011 0 0.00085234461357540966 0.00023524130899652695 0 0.0010089406617394634 0.00043933780164694011 0 0.00085234461357540966 0.00023524130899652695 0 0.00065454921152023973 0.00042003859699488573 0 0.00085234461357540966 0.00023524130899652695 0 0.00063311520650636405 8.5555136812380655e-05 0 0.00065454921152023973 0.00042003859699488573 0 0.00082964808021672898 0.00013488507614912551 0 0.00085234461357540966 0.00023524130899652695 0 0.00063311520650636405 8.5555136812380655e-05 0 0.00063311520650636405 8.5555136812380655e-05 0 0.00065454921152023973 0.00042003859699488573 0 0.00035021643370454882 0.00030279767735771391 0 0.00065454921152023973 0.00042003859699488573 0 0.00037962446113019524 0.00075362524641695407 0 0.00080270612877672424 0.00083126302255110795 0 0.00065454921152023973 0.00042003859699488573 0 0.00037962446113019524 0.00075362524641695407 0 0.00035021643370454882 0.00030279767735771391 0 0.0010089406617394634 0.00043933780164694011 0 0.00065454921152023973 0.00042003859699488573 0 0.00080270612877672424 0.00083126302255110795 0 0.0010768000689505594 0.0011006616625229935 0 0.00080270612877672424 0.00083126302255110795 0 0.00070185352324691563 0.0015204051388304659 0 0.00080270612877672424 0.00083126302255110795 0 0.00032417192555283711 0.0012850915868996267 0 0.00070185352324691563 0.0015204051388304659 0 0.00037962446113019524 0.00075362524641695407 0 0.00080270612877672424 0.00083126302255110795 0 0.00032417192555283711 0.0012850915868996267 0 0.00037962446113019524 0.00075362524641695407 0 0.00032417192555283711 0.0012850915868996267 0 2.575785002098089e-05 0.0010849628095362055 0 0.00032417192555283711 0.0012850915868996267 0 -0.00015144727750759357 0.0016350411602937406 0 2.575785002098089e-05 0.0010849628095362055 0 0.00032417192555283711 0.0012850915868996267 0 0.00019320092323187065 0.0019390024994666531 0 -0.00015144727750759357 0.0016350411602937406 0 0.00032417192555283711 0.0012850915868996267 0 0.00019320092323187065 0.0019390024994666531 0 0.00070185352324691563 0.0015204051388304659 0 0.00059794674824895306 0.0023341401779345436 0 0.00019320092323187065 0.0019390024994666531 0 0.00070185352324691563 0.0015204051388304659 0 0.00059794674824895306 0.0023341401779345436 0 0.0011900981514210837 0.0017057241324689397 0 0.00070185352324691563 0.0015204051388304659 0 -0.0010315291432349547 0.0017011671420257217 0 -0.00078306871647667805 0.0013014687095887199 0 -0.001233426226844071 0.0013340655379285597 0 -0.0010315291432349547 0.0017011671420257217 0 -0.00060087276980253022 0.0016943695981654491 0 -0.00078306871647667805 0.0013014687095887199 0 -0.0010315291432349547 0.0017011671420257217 0 -0.001233426226844071 0.0013340655379285597 0 -0.0015250603991019776 0.0016631602115062725 0 -0.0010315291432349547 0.0017011671420257217 0 -0.0012973814915672784 0.0020612444813417974 0 -0.0015250603991019776 0.0016631602115062725 0 -0.0010315291432349547 0.0017011671420257217 0 -0.00088292146316879623 0.0020160917065507465 0 -0.00060087276980253022 0.0016943695981654491 0 -0.0010315291432349547 0.0017011671420257217 0 -0.0012973814915672784 0.0020612444813417974 0 -0.00088292146316879623 0.0020160917065507465 0 -0.0004670806388383437 0.0021747380150282194 0 -0.00088292146316879623 0.0020160917065507465 0 -0.00060087276980253022 0.0016943695981654491 0 -0.0004670806388383437 0.0021747380150282194 0 0.00019320092323187065 0.0019390024994666531 0 -0.00015144727750759357 0.0016350411602937406 0 -0.0004670806388383437 0.0021747380150282194 0 -0.00015144727750759357 0.0016350411602937406 0 -0.00060087276980253022 0.0016943695981654491 0 -0.00060087276980253022 0.0016943695981654491 0 -0.00034240956981604538 0.0013179822608103341 0 -0.00078306871647667805 0.0013014687095887199 0 -0.00015144727750759357 0.0016350411602937406 0 -0.00060087276980253022 0.0016943695981654491 0 -0.00034240956981604538 0.0013179822608103341 0 -0.00034240956981604538 0.0013179822608103341 0 -0.00057930000000065121 0.00075658121671829651 0 -0.00078306871647667805 0.0013014687095887199 0 -0.00015144727750759357 0.0016350411602937406 0 -0.00034240956981604538 0.0013179822608103341 0 2.575785002098089e-05 0.0010849628095362055 0 -0.00034240956981604538 0.0013179822608103341 0 2.575785002098089e-05 0.0010849628095362055 0 -5.850745198872052e-05 0.00070634803058382983 0 0.00037962446113019524 0.00075362524641695407 0 2.575785002098089e-05 0.0010849628095362055 0 -5.850745198872052e-05 0.00070634803058382983 0 -0.00034240956981604538 0.0013179822608103341 0 -0.00057930000000065121 0.00075658121671829651 0 -5.850745198872052e-05 0.00070634803058382983 0 -0.0009585699381700495 0.00097207483825203264 0 -0.00057930000000065121 0.00075658121671829651 0 -0.00078306871647667805 0.0013014687095887199 0 -0.0009585699381700495 0.00097207483825203264 0 -0.00057930000000065121 0.00075658121671829651 0 -0.0013081450607879685 0.00061446301668047546 0 -0.0009585699381700495 0.00097207483825203264 0 -0.00078306871647667805 0.0013014687095887199 0 -0.001233426226844071 0.0013340655379285597 0 -0.001233426226844071 0.0013340655379285597 0 -0.0013081450607879685 0.00061446301668047546 0 -0.00173468449916275 0.0011705130083744237 0 -0.0009585699381700495 0.00097207483825203264 0 -0.001233426226844071 0.0013340655379285597 0 -0.0013081450607879685 0.00061446301668047546 0 -0.00057930000000065121 0.00075658121671829651 0 -0.00070423947770179767 0.00020535068208424751 0 -9.7786394527690643e-05 0.00025927994070078751 0 -0.00057930000000065121 0.00075658121671829651 0 -0.0013081450607879685 0.00061446301668047546 0 -0.00070423947770179767 0.00020535068208424751 0 -0.0013081450607879685 0.00061446301668047546 0 -0.00070423947770179767 0.00020535068208424751 0 -0.0012514477360216064 -0.00018373075060824508 0 0.00037962446113019524 0.00075362524641695407 0 -5.850745198872052e-05 0.00070634803058382983 0 0.00035021643370454882 0.00030279767735771391 0 -0.00057930000000065121 0.00075658121671829651 0 -5.850745198872052e-05 0.00070634803058382983 0 -9.7786394527690643e-05 0.00025927994070078751 0 -9.7786394527690643e-05 0.00025927994070078751 0 0.00035021643370454882 0.00030279767735771391 0 0.00033878676073154692 -0.0001278423514797029 0 -5.850745198872052e-05 0.00070634803058382983 0 -9.7786394527690643e-05 0.00025927994070078751 0 0.00035021643370454882 0.00030279767735771391 0 -0.00027659086047469498 -0.0018953459080376608 0 0.00033878676073154692 -0.0001278423514797029 0 -0.00047116111994249934 -0.00069150142659934945 0 0.00063311520650636405 8.5555136812380655e-05 0 0.00035021643370454882 0.00030279767735771391 0 0.00033878676073154692 -0.0001278423514797029 0 -9.7786394527690643e-05 0.00025927994070078751 0 0.00033878676073154692 -0.0001278423514797029 0 -0.00047116111994249934 -0.00069150142659934945 0 0.00080103749635213246 4.9580768824249918e-06 0 0.00063311520650636405 8.5555136812380655e-05 0 0.00033878676073154692 -0.0001278423514797029 0 -0.0012514477360216064 -0.00018373075060824508 0 -0.00047116111994249934 -0.00069150142659934945 0 -0.0013317931078845597 -0.00087915125216389935 0 -0.00070423947770179767 0.00020535068208424751 0 -9.7786394527690643e-05 0.00025927994070078751 0 -0.00047116111994249934 -0.00069150142659934945 0 -0.00070423947770179767 0.00020535068208424751 0 -0.0012514477360216064 -0.00018373075060824508 0 -0.00047116111994249934 -0.00069150142659934945 0 -0.0010352177986379049 -0.0012966622387984462 0 -0.00047116111994249934 -0.00069150142659934945 0 -0.0013317931078845597 -0.00087915125216389935 0 -0.0010352177986379049 -0.0012966622387984462 0 -0.001463714363664986 -0.0014886045098523872 0 -0.0013317931078845597 -0.00087915125216389935 0 -0.0013317931078845597 -0.00087915125216389935 0 -0.001825278445719904 -0.0011408172644712953 0 -0.0019357860363490445 -0.00057058200847443831 0 -0.001463714363664986 -0.0014886045098523872 0 -0.0013317931078845597 -0.00087915125216389935 0 -0.001825278445719904 -0.0011408172644712953 0 -0.0012514477360216064 -0.00018373075060824508 0 -0.0013317931078845597 -0.00087915125216389935 0 -0.0019357860363490445 -0.00057058200847443831 0 -0.0019357860363490445 -0.00057058200847443831 0 -0.0028216243197244826 -0.00073162024216691889 0 -0.0023131454369777734 -7.161802697782513e-05 0 -0.001825278445719904 -0.0011408172644712953 0 -0.0019357860363490445 -0.00057058200847443831 0 -0.0024228680461902468 -0.00126256871138992 0 -0.003309744146662076 -0.0015066590554161591 0 -0.0028216243197244826 -0.00073162024216691889 0 -0.003970263216286918 -0.00086408373205984989 0 -0.003309744146662076 -0.0015066590554161591 0 -0.0024228680461902468 -0.00126256871138992 0 -0.0028216243197244826 -0.00073162024216691889 0 -0.0028216243197244826 -0.00073162024216691889 0 -0.003165989927782816 -8.6538950412456828e-05 0 -0.003970263216286918 -0.00086408373205984989 0 -0.0019357860363490445 -0.00057058200847443831 0 -0.0024228680461902468 -0.00126256871138992 0 -0.0028216243197244826 -0.00073162024216691889 0 -0.0028216243197244826 -0.00073162024216691889 0 -0.003165989927782816 -8.6538950412456828e-05 0 -0.0023131454369777734 -7.161802697782513e-05 0 -0.003165989927782816 -8.6538950412456828e-05 0 -0.0026458377545969607 0.0003608031904584804 0 -0.0030265217445648277 0.00076903519084231802 0 -0.003165989927782816 -8.6538950412456828e-05 0 -0.0026458377545969607 0.0003608031904584804 0 -0.0023131454369777734 -7.161802697782513e-05 0 -0.0026458377545969607 0.0003608031904584804 0 -0.0023131454369777734 -7.161802697782513e-05 0 -0.0019770089136869921 0.00061186780947180359 0 -0.0017364135630091346 9.1688263453184636e-05 0 -0.0023131454369777734 -7.161802697782513e-05 0 -0.0019770089136869921 0.00061186780947180359 0 -0.0013081450607879685 0.00061446301668047546 0 -0.0017364135630091346 9.1688263453184636e-05 0 -0.0019770089136869921 0.00061186780947180359 0 -0.0013081450607879685 0.00061446301668047546 0 -0.0012514477360216064 -0.00018373075060824508 0 -0.0017364135630091346 9.1688263453184636e-05 0 -0.0012514477360216064 -0.00018373075060824508 0 -0.0019357860363490445 -0.00057058200847443831 0 -0.0017364135630091346 9.1688263453184636e-05 0 -0.0019357860363490445 -0.00057058200847443831 0 -0.0017364135630091346 9.1688263453184636e-05 0 -0.0023131454369777734 -7.161802697782513e-05 0 -0.0051466460916463003 -0.001829110546219376 0 -0.0050676011332592029 -0.00093295709475101866 0 -0.003970263216286918 -0.00086408373205984989 0 -0.0050676011332592029 -0.00093295709475101866 0 -0.003970263216286918 -0.00086408373205984989 0 -0.0045163630581095144 -0.00037290114363171468 0 -0.003165989927782816 -8.6538950412456828e-05 0 -0.003970263216286918 -0.00086408373205984989 0 -0.0040087147956178945 0.00025591230018686431 0 -0.003970263216286918 -0.00086408373205984989 0 -0.0040087147956178945 0.00025591230018686431 0 -0.0045163630581095144 -0.00037290114363171468 0 -0.003165989927782816 -8.6538950412456828e-05 0 -0.0040087147956178945 0.00025591230018686431 0 -0.0030265217445648277 0.00076903519084231802 0 -0.0040087147956178945 0.00025591230018686431 0 -0.0045163630581095144 -0.00037290114363171468 0 -0.0050386717259132043 4.4096247685619321e-05 0 -0.0050676011332592029 -0.00093295709475101866 0 -0.0045163630581095144 -0.00037290114363171468 0 -0.0050386717259132043 4.4096247685619321e-05 0 -0.0050676011332592029 -0.00093295709475101866 0 -0.0050386717259132043 4.4096247685619321e-05 0 -0.0058542097014502841 -0.00066179013821432561 0 -0.0050386717259132043 4.4096247685619321e-05 0 -0.0047237641871378981 0.0010283990264922255 0 -0.0060523866113835877 0.00040186424351585731 0 -0.0040087147956178945 0.00025591230018686431 0 -0.0050386717259132043 4.4096247685619321e-05 0 -0.0047237641871378981 0.0010283990264922255 0 -0.0047237641871378981 0.0010283990264922255 0 -0.0035814160397357533 0.0010765189545180257 0 -0.0038868868437823803 0.0017805969355227603 0 -0.0040087147956178945 0.00025591230018686431 0 -0.0047237641871378981 0.0010283990264922255 0 -0.0035814160397357533 0.0010765189545180257 0 -0.0040087147956178945 0.00025591230018686431 0 -0.0035814160397357533 0.0010765189545180257 0 -0.0030265217445648277 0.00076903519084231802 0 -0.0035814160397357533 0.0010765189545180257 0 -0.0038868868437823803 0.0017805969355227603 0 -0.0032043925294994108 0.0016469373289123858 0 -0.0032999431249834603 0.0021253046809378766 0 -0.0038868868437823803 0.0017805969355227603 0 -0.0032043925294994108 0.0016469373289123858 0 -0.0032999431249834603 0.0021253046809378766 0 -0.0038868868437823803 0.0017805969355227603 0 -0.0040728657319685016 0.0024240448370343812 0 -0.0038868868437823803 0.0017805969355227603 0 -0.0046761322580508554 0.0018252340930823075 0 -0.0040728657319685016 0.0024240448370343812 0 -0.0047237641871378981 0.0010283990264922255 0 -0.0046761322580508554 0.0018252340930823075 0 -0.0058665783251902089 0.0015833756706349989 0 -0.0047237641871378981 0.0010283990264922255 0 -0.0038868868437823803 0.0017805969355227603 0 -0.0046761322580508554 0.0018252340930823075 0 -0.0022731549043914995 0.001033165394021098 0 -0.00173468449916275 0.0011705130083744237 0 -0.0020848330996814154 0.0016324664778914503 0 -0.0022731549043914995 0.001033165394021098 0 -0.002657190109166561 0.0012925705302670313 0 -0.0020848330996814154 0.0016324664778914503 0 -0.0013081450607879685 0.00061446301668047546 0 -0.00173468449916275 0.0011705130083744237 0 -0.0019770089136869921 0.00061186780947180359 0 -0.0022731549043914995 0.001033165394021098 0 -0.00173468449916275 0.0011705130083744237 0 -0.0019770089136869921 0.00061186780947180359 0 -0.0026458377545969607 0.0003608031904584804 0 -0.0022731549043914995 0.001033165394021098 0 -0.0019770089136869921 0.00061186780947180359 0 -0.0026458377545969607 0.0003608031904584804 0 -0.0022731549043914995 0.001033165394021098 0 -0.0030265217445648277 0.00076903519084231802 0 -0.0035814160397357533 0.0010765189545180257 0 -0.0030265217445648277 0.00076903519084231802 0 -0.002657190109166561 0.0012925705302670313 0 -0.0022731549043914995 0.001033165394021098 0 -0.0030265217445648277 0.00076903519084231802 0 -0.002657190109166561 0.0012925705302670313 0 -0.002657190109166561 0.0012925705302670313 0 -0.0026195292192435432 0.0019426481284757911 0 -0.0020848330996814154 0.0016324664778914503 0 -0.002657190109166561 0.0012925705302670313 0 -0.0032043925294994108 0.0016469373289123858 0 -0.0026195292192435432 0.0019426481284757911 0 -0.0035814160397357533 0.0010765189545180257 0 -0.002657190109166561 0.0012925705302670313 0 -0.0032043925294994108 0.0016469373289123858 0 -0.0032999431249834603 0.0021253046809378766 0 -0.0026195292192435432 0.0019426481284757911 0 -0.0028768588714455112 0.002287026216332783 0 -0.0032999431249834603 0.0021253046809378766 0 -0.0032043925294994108 0.0016469373289123858 0 -0.0026195292192435432 0.0019426481284757911 0 -0.0026195292192435432 0.0019426481284757911 0 -0.0021955431697992774 0.0021041391636717807 0 -0.0020848330996814154 0.0016324664778914503 0 -0.0021955431697992774 0.0021041391636717807 0 -0.0020848330996814154 0.0016324664778914503 0 -0.0017765673452322518 0.0020563613542901658 0 -0.001233426226844071 0.0013340655379285597 0 -0.00173468449916275 0.0011705130083744237 0 -0.0015250603991019776 0.0016631602115062725 0 -0.00173468449916275 0.0011705130083744237 0 -0.0020848330996814154 0.0016324664778914503 0 -0.0015250603991019776 0.0016631602115062725 0 -0.0012973814915672784 0.0020612444813417974 0 -0.0015250603991019776 0.0016631602115062725 0 -0.0017765673452322518 0.0020563613542901658 0 -0.0020848330996814154 0.0016324664778914503 0 -0.0015250603991019776 0.0016631602115062725 0 -0.0017765673452322518 0.0020563613542901658 0 -0.0012973814915672784 0.0020612444813417974 0 -0.0017765673452322518 0.0020563613542901658 0 -0.0015905730738436988 0.002448800161544432 0 -0.0017765673452322518 0.0020563613542901658 0 -0.0015905730738436988 0.002448800161544432 0 -0.002067528656649309 0.0024606346898773542 0 -0.0021955431697992774 0.0021041391636717807 0 -0.0017765673452322518 0.0020563613542901658 0 -0.002067528656649309 0.0024606346898773542 0 -0.0021955431697992774 0.0021041391636717807 0 -0.002067528656649309 0.0024606346898773542 0 -0.0024986607063714745 0.0023479828544896502 0 -0.002067528656649309 0.0024606346898773542 0 -0.0019139144654796347 0.0028116968515570539 0 -0.0024537532733179979 0.0028051132511321686 0 -0.0014369110918836157 0.0028680914158018874 0 -0.0015905730738436988 0.002448800161544432 0 -0.0019139144654796347 0.0028116968515570539 0 -0.0015905730738436988 0.002448800161544432 0 -0.002067528656649309 0.0024606346898773542 0 -0.0019139144654796347 0.0028116968515570539 0 -0.0014369110918836157 0.0028680914158018874 0 -0.0013882225829107931 0.0032881436774987445 0 -0.0018181113789427158 0.0031523019148348729 0 -0.0014369110918836157 0.0028680914158018874 0 -0.0019139144654796347 0.0028116968515570539 0 -0.0018181113789427158 0.0031523019148348729 0 -0.0019139144654796347 0.0028116968515570539 0 -0.0018181113789427158 0.0031523019148348729 0 -0.0022106765719641106 0.0030868544906095248 0 -0.0019139144654796347 0.0028116968515570539 0 -0.0022106765719641106 0.0030868544906095248 0 -0.0024537532733179979 0.0028051132511321686 0 -0.0018181113789427158 0.0031523019148348729 0 -0.0021487473397142224 0.0033630152756440137 0 -0.0018123846377636728 0.003480724351610523 0 -0.0018181113789427158 0.0031523019148348729 0 -0.0022106765719641106 0.0030868544906095248 0 -0.0021487473397142224 0.0033630152756440137 0 -0.0022106765719641106 0.0030868544906095248 0 -0.0021487473397142224 0.0033630152756440137 0 -0.0024742328183617766 0.0034268472116114569 0 -0.0021487473397142224 0.0033630152756440137 0 -0.0024742328183617766 0.0034268472116114569 0 -0.0021673434125231059 0.0036393149341977242 0 -0.0021487473397142224 0.0033630152756440137 0 -0.0018123846377636728 0.003480724351610523 0 -0.0021673434125231059 0.0036393149341977242 0 -0.0013882225829107931 0.0032881436774987445 0 -0.0018181113789427158 0.0031523019148348729 0 -0.0018123846377636728 0.003480724351610523 0 -0.0028600723616885246 0.0033094212466387046 0 -0.0028882034902729431 0.0035591620370078406 0 -0.0024742328183617766 0.0034268472116114569 0 -0.0028600723616885246 0.0033094212466387046 0 -0.0028882034902729431 0.0035591620370078406 0 -0.0032016517642732959 0.0033644328446583152 0 -0.0028882034902729431 0.0035591620370078406 0 -0.0032016517642732959 0.0033644328446583152 0 -0.0031926026446998123 0.0035741476305767698 0 -0.0028882034902729431 0.0035591620370078406 0 -0.0031926026446998123 0.0035741476305767698 0 -0.0030395004726869231 0.0037553941667729349 0 -0.0028882034902729431 0.0035591620370078406 0 -0.0024742328183617766 0.0034268472116114569 0 -0.002450692083323003 0.0038472324695743194 0 -0.0028600723616885246 0.0033094212466387046 0 -0.0024742328183617766 0.0034268472116114569 0 -0.0026559539207278702 0.0031201667027524033 0 -0.0022106765719641106 0.0030868544906095248 0 -0.0026559539207278702 0.0031201667027524033 0 -0.0024537532733179979 0.0028051132511321686 0 -0.0022106765719641106 0.0030868544906095248 0 -0.0024742328183617766 0.0034268472116114569 0 -0.0026559539207278702 0.0031201667027524033 0 -0.0026559539207278702 0.0031201667027524033 0 -0.0028295729186965097 0.0028844379470828272 0 -0.0024537532733179979 0.0028051132511321686 0 -0.0026559539207278702 0.0031201667027524033 0 -0.0031003739580194802 0.0030703330374023184 0 -0.0028295729186965097 0.0028844379470828272 0 -0.0028600723616885246 0.0033094212466387046 0 -0.0026559539207278702 0.0031201667027524033 0 -0.0031003739580194802 0.0030703330374023184 0 -0.0028600723616885246 0.0033094212466387046 0 -0.0031003739580194802 0.0030703330374023184 0 -0.0032016517642732959 0.0033644328446583152 0 -0.0031003739580194802 0.0030703330374023184 0 -0.0028295729186965097 0.0028844379470828272 0 -0.0032699239237411488 0.0026967999406064896 0 -0.0028126082259203435 0.0026051833141277655 0 -0.0028768588714455112 0.002287026216332783 0 -0.0032699239237411488 0.0026967999406064896 0 -0.0028295729186965097 0.0028844379470828272 0 -0.0028126082259203435 0.0026051833141277655 0 -0.0032699239237411488 0.0026967999406064896 0 -0.002067528656649309 0.0024606346898773542 0 -0.0024537532733179979 0.0028051132511321686 0 -0.0024986607063714745 0.0023479828544896502 0 -0.0028126082259203435 0.0026051833141277655 0 -0.0024537532733179979 0.0028051132511321686 0 -0.0024986607063714745 0.0023479828544896502 0 -0.0028295729186965097 0.0028844379470828272 0 -0.0028126082259203435 0.0026051833141277655 0 -0.0024537532733179979 0.0028051132511321686 0 -0.0026195292192435432 0.0019426481284757911 0 -0.0021955431697992774 0.0021041391636717807 0 -0.0024986607063714745 0.0023479828544896502 0 -0.0026195292192435432 0.0019426481284757911 0 -0.0024986607063714745 0.0023479828544896502 0 -0.0028768588714455112 0.002287026216332783 0 -0.0028126082259203435 0.0026051833141277655 0 -0.0024986607063714745 0.0023479828544896502 0 -0.0028768588714455112 0.002287026216332783 0 -0.0032999431249834603 0.0021253046809378766 0 -0.0028768588714455112 0.002287026216332783 0 -0.0032699239237411488 0.0026967999406064896 0 -0.0032999431249834603 0.0021253046809378766 0 -0.0040728657319685016 0.0024240448370343812 0 -0.0032699239237411488 0.0026967999406064896 0 -0.0040728657319685016 0.0024240448370343812 0 -0.0032699239237411488 0.0026967999406064896 0 -0.0037998810588095178 0.003000079301316844 0 -0.0040728657319685016 0.0024240448370343812 0 -0.0046412974811641666 0.0031669807705937184 0 -0.0037998810588095178 0.003000079301316844 0 -0.0046761322580508554 0.0018252340930823075 0 -0.0040728657319685016 0.0024240448370343812 0 -0.0050098744007552563 0.0023494712078750033 0 -0.0040728657319685016 0.0024240448370343812 0 -0.0050098744007552563 0.0023494712078750033 0 -0.0046412974811641666 0.0031669807705937184 0 -0.0046412974811641666 0.0031669807705937184 0 -0.0046846153007999609 0.0039634428784405019 0 -0.0059230622381124193 0.0038694615414007344 0 -0.0046412974811641666 0.0031669807705937184 0 -0.0037120012625664798 0.003491235405900951 0 -0.0046846153007999609 0.0039634428784405019 0 -0.0037120012625664798 0.003491235405900951 0 -0.0033686586479783048 0.003991323445458576 0 -0.0046846153007999609 0.0039634428784405019 0 -0.0031003739580194802 0.0030703330374023184 0 -0.0032699239237411488 0.0026967999406064896 0 -0.0034350948364777045 0.0031790676605996811 0 -0.0034350948364777045 0.0031790676605996811 0 -0.0037998810588095178 0.003000079301316844 0 -0.0037120012625664798 0.003491235405900951 0 -0.0032699239237411488 0.0026967999406064896 0 -0.0034350948364777045 0.0031790676605996811 0 -0.0037998810588095178 0.003000079301316844 0 -0.0031003739580194802 0.0030703330374023184 0 -0.0034350948364777045 0.0031790676605996811 0 -0.0032016517642732959 0.0033644328446583152 0 -0.0046412974811641666 0.0031669807705937184 0 -0.0037998810588095178 0.003000079301316844 0 -0.0037120012625664798 0.003491235405900951 0 -0.0034350948364777045 0.0031790676605996811 0 -0.0037120012625664798 0.003491235405900951 0 -0.0032016517642732959 0.0033644328446583152 0 -0.0037120012625664798 0.003491235405900951 0 -0.0032016517642732959 0.0033644328446583152 0 -0.0031926026446998123 0.0035741476305767698 0 -0.0037120012625664798 0.003491235405900951 0 -0.0031926026446998123 0.0035741476305767698 0 -0.0033996530975140601 0.0036824956263303808 0 -0.0037120012625664798 0.003491235405900951 0 -0.0033996530975140601 0.0036824956263303808 0 -0.0033686586479783048 0.003991323445458576 0 -0.0031926026446998123 0.0035741476305767698 0 -0.0033041825731836131 0.0038034555788506738 0 -0.0030395004726869231 0.0037553941667729349 0 -0.0031926026446998123 0.0035741476305767698 0 -0.0033996530975140601 0.0036824956263303808 0 -0.0033041825731836131 0.0038034555788506738 0 -0.0033041825731836131 0.0038034555788506738 0 -0.0033686586479783048 0.003991323445458576 0 -0.0030395004726869231 0.0037553941667729349 0 -0.0033996530975140601 0.0036824956263303808 0 -0.0033041825731836131 0.0038034555788506738 0 -0.0033686586479783048 0.003991323445458576 0 -0.00785927789474891 0.0031263891867353839 0 -0.0093581924894001536 0.0037701369161016406 0 -0.013840961068615432 0.0034550274031607663 0 -0.014180492072624883 0.0037038449014605004 0 -0.014460482244374451 0.0033978296801165093 0 -0.013840961068615432 0.0034550274031607663 0 -0.013929189882440266 0.0037862883403288242 0 -0.013731729928357883 0.003948205224404258 0 -0.013840961068615432 0.0034550274031607663 0 -0.014180492072624883 0.0037038449014605004 0 -0.013929189882440266 0.0037862883403288242 0 -0.014460482244374451 0.0033978296801165093 0 -0.014546766547218379 0.0039115381640450544 0 -0.01491161893289219 0.0037801876085597941 0 -0.014180492072624883 0.0037038449014605004 0 -0.014460482244374451 0.0033978296801165093 0 -0.014546766547218379 0.0039115381640450544 0 -0.014546766547218379 0.0039115381640450544 0 -0.014435519410516181 0.0042089346915737871 0 -0.014066930566947682 0.0040416857312567632 0 -0.014180492072624883 0.0037038449014605004 0 -0.014546766547218379 0.0039115381640450544 0 -0.014066930566947682 0.0040416857312567632 0 -0.014546766547218379 0.0039115381640450544 0 -0.014435519410516181 0.0042089346915737871 0 -0.014870513968437095 0.0041928301406879429 0 -0.013929189882440266 0.0037862883403288242 0 -0.014066930566947682 0.0040416857312567632 0 -0.013731729928357883 0.003948205224404258 0 -0.014180492072624883 0.0037038449014605004 0 -0.013929189882440266 0.0037862883403288242 0 -0.014066930566947682 0.0040416857312567632 0 -0.014066930566947682 0.0040416857312567632 0 -0.013731729928357883 0.003948205224404258 0 -0.013680452295746565 0.0043559191778692451 0 -0.013731729928357883 0.003948205224404258 0 -0.013349161374970855 0.0041069991329649013 0 -0.013680452295746565 0.0043559191778692451 0 -0.013840961068615432 0.0034550274031607663 0 -0.013731729928357883 0.003948205224404258 0 -0.013349161374970855 0.0041069991329649013 0 -0.0026051737259563932 0.0039744647162763044 0 -0.0023486645343751148 0.003993061836074516 0 -0.0023295105240780786 0.003957288563954232 0 -0.0027180475290179314 0.0037780738037167384 0 -0.0026051737259563932 0.0039744647162763044 0 -0.0023486645343751148 0.003993061836074516 0 -0.0014538480927970138 0.0046247811148611125 0 -0.0023295105240780786 0.003957288563954232 0 -0.0015952734191781864 0.0039903634601800722 0 -0.0020368384974784942 0.0041832015063681593 0 -0.0021561459979332681 0.0040784666335821514 0 -0.0013728207913790865 0.0036248182071683646 0 -0.0015952734191781864 0.0039903634601800722 0 -0.0018886038266431721 0.0037479736512768401 0 -0.0023295105240780786 0.003957288563954232 0 -0.0015952734191781864 0.0039903634601800722 0 -0.0018886038266431721 0.0037479736512768401 0 -0.0013728207913790865 0.0036248182071683646 0 -0.0018886038266431721 0.0037479736512768401 0 -0.0018123846377636728 0.003480724351610523 0 -0.0013882225829107931 0.0032881436774987445 0 -0.0013728207913790865 0.0036248182071683646 0 -0.0018123846377636728 0.003480724351610523 0 -0.0023295105240780786 0.003957288563954232 0 -0.0018886038266431721 0.0037479736512768401 0 -0.0021673434125231059 0.0036393149341977242 0 -0.0018886038266431721 0.0037479736512768401 0 -0.0018123846377636728 0.003480724351610523 0 -0.0021673434125231059 0.0036393149341977242 0 -0.0023295105240780786 0.003957288563954232 0 -0.0021673434125231059 0.0036393149341977242 0 -0.002450692083323003 0.0038472324695743194 0 -0.0024742328183617766 0.0034268472116114569 0 -0.0021673434125231059 0.0036393149341977242 0 -0.002450692083323003 0.0038472324695743194 0 -0.00785927789474891 0.0031263891867353839 0 -0.007766920911700604 0.0037804673441197492 0 -0.0026138470414634211 0.0038609003614355803 0 -0.0023486645343751148 0.003993061836074516 0 -0.0023295105240780786 0.003957288563954232 0 -0.0026138470414634211 0.0038609003614355803 0 -0.0023295105240780786 0.003957288563954232 0 -0.002450692083323003 0.0038472324695743194 0 -0.0028882034902729431 0.0035591620370078406 0 -0.002450692083323003 0.0038472324695743194 0 -0.0030395004726869231 0.0037553941667729349 0 -0.0033686586479783048 0.003991323445458576 0 -0.002450692083323003 0.0038472324695743194 0 -0.0030395004726869231 0.0037553941667729349 0 -0.00785927789474891 0.0031263891867353839 0 -0.0065356027100788444 0.0032671710976464288 0 -0.013695810310005246 0.0047576436005013966 0 -0.014382676225926138 0.00503585001462318 0 -0.013227081992903265 0.0053851430376408481 0 -0.013695810310005246 0.0047576436005013966 0 -0.014382676225926138 0.00503585001462318 0 -0.014198910482684523 0.0043571950747896843 0 -0.014382676225926138 0.00503585001462318 0 -0.013227081992903265 0.0053851430376408481 0 -0.014258428330309164 0.0059093541430593633 0 -0.013227081992903265 0.0053851430376408481 0 -0.012551177898624323 0.0053852065935351551 0 -0.012119966080683574 0.0061042492829216262 0 -0.012551177898624323 0.0053852065935351551 0 -0.012029862171434509 0.0054323129900086279 0 -0.012119966080683574 0.0061042492829216262 0 -0.012029862171434509 0.0054323129900086279 0 -0.012827433280487206 0.0046083656534822975 0 -0.011846722693694587 0.0044837844197731331 0 -0.012551177898624323 0.0053852065935351551 0 -0.012029862171434509 0.0054323129900086279 0 -0.012827433280487206 0.0046083656534822975 0 -0.013227081992903265 0.0053851430376408481 0 -0.012551177898624323 0.0053852065935351551 0 -0.012827433280487206 0.0046083656534822975 0 -0.013695810310005246 0.0047576436005013966 0 -0.013227081992903265 0.0053851430376408481 0 -0.012827433280487206 0.0046083656534822975 0 -0.012827433280487206 0.0046083656534822975 0 -0.013812893004720352 0.0041211822224704953 0 -0.013234494185274351 0.0033617504770742466 0 -0.012827433280487206 0.0046083656534822975 0 -0.012385008629326455 0.0038134156368894189 0 -0.013234494185274351 0.0033617504770742466 0 -0.012827433280487206 0.0046083656534822975 0 -0.012385008629326455 0.0038134156368894189 0 -0.011846722693694587 0.0044837844197731331 0 -0.014201158583697216 0.0036424761570368843 0 -0.013812893004720352 0.0041211822224704953 0 -0.013234494185274351 0.0033617504770742466 0 -0.014201158583697216 0.0036424761570368843 0 -0.013812893004720352 0.0041211822224704953 0 -0.014341663478045941 0.0039180974158859704 0 -0.013695810310005246 0.0047576436005013966 0 -0.013812893004720352 0.0041211822224704953 0 -0.014198910482684523 0.0043571950747896843 0 -0.013695810310005246 0.0047576436005013966 0 -0.012827433280487206 0.0046083656534822975 0 -0.013812893004720352 0.0041211822224704953 0 -0.014382676225926138 0.00503585001462318 0 -0.014198910482684523 0.0043571950747896843 0 -0.014623534126130362 0.0039848707465265348 0 -0.013812893004720352 0.0041211822224704953 0 -0.014198910482684523 0.0043571950747896843 0 -0.014341663478045941 0.0039180974158859704 0 -0.014198910482684523 0.0043571950747896843 0 -0.014623534126130362 0.0039848707465265348 0 -0.014341663478045941 0.0039180974158859704 0 -0.014623534126130362 0.0039848707465265348 0 -0.014341663478045941 0.0039180974158859704 0 -0.014629075087663564 0.0035112414931224452 0 -0.014201158583697216 0.0036424761570368843 0 -0.014341663478045941 0.0039180974158859704 0 -0.014629075087663564 0.0035112414931224452 0 -0.014201158583697216 0.0036424761570368843 0 -0.014629075087663564 0.0035112414931224452 0 -0.014452757539228542 0.0031384792093998399 0 -0.014717078991695677 0.0043853114160915148 0 -0.014990978191550448 0.0039951717833925839 0 -0.014832584480180534 0.0035531304044319058 0 -0.014988073235584987 0.003663147229148339 0 -0.014991591212633278 0.0031834748568748818 0 -0.014382676225926138 0.00503585001462318 0 -0.015173352973672781 0.0041418361362223618 0 -0.015170138649138023 0.0042378910502549258 0 -0.014382676225926138 0.00503585001462318 0 -0.014988073235584987 0.003663147229148339 0 -0.01551609905553953 0.0033626096268587063 0 -0.014382676225926138 0.00503585001462318 0 -0.014623534126130362 0.0039848707465265348 0 -0.014988073235584987 0.003663147229148339 0 -0.014623534126130362 0.0039848707465265348 0 -0.014832584480180534 0.0035531304044319058 0 -0.014988073235584987 0.003663147229148339 0 -0.014623534126130362 0.0039848707465265348 0 -0.014629075087663564 0.0035112414931224452 0 -0.014832584480180534 0.0035531304044319058 0 -0.014988073235584987 0.003663147229148339 0 -0.01551609905553953 0.0033626096268587063 0 -0.015234722759534466 0.0032726060761095552 0 -0.014546766547218379 0.0039115381640450544 0 -0.014870513968437095 0.0041928301406879429 0 -0.014899647692115502 0.0040221811381388594 0 -0.015170138649138023 0.0042378910502549258 0 -0.014870513968437095 0.0041928301406879429 0 -0.014899647692115502 0.0040221811381388594 0 -0.015173352973672781 0.0041418361362223618 0 -0.015170138649138023 0.0042378910502549258 0 -0.014870513968437095 0.0041928301406879429 0 -0.015170138649138023 0.0042378910502549258 0 -0.014899647692115502 0.0040221811381388594 0 -0.01491161893289219 0.0037801876085597941 0 -0.014546766547218379 0.0039115381640450544 0 -0.014899647692115502 0.0040221811381388594 0 -0.01491161893289219 0.0037801876085597941 0 -0.014460482244374451 0.0033978296801165093 0 -0.01491161893289219 0.0037801876085597941 0 -0.015118353901894803 0.0033211085024167832 0 -0.011609358391975192 0.0045408670279522912 0 -0.01039940021961307 0.0044859628452758359 0 -0.0093581924894001536 0.0037701369161016406 0 -0.01039940021961307 0.0044859628452758359 0 -0.015170138649138023 0.0042378910502549258 0 -0.01491161893289219 0.0037801876085597941 0 -0.015118353901894803 0.0033211085024167832 0 -0.014382676225926138 0.00503585001462318 0 -0.015430709843105676 0.0056151485467399913 0 -0.014258428330309164 0.0059093541430593633 0 -0.014382676225926138 0.00503585001462318 0 -0.015170138649138023 0.0042378910502549258 0 -0.015430709843105676 0.0056151485467399913 0 -0.0087014542829619863 0.0054243663451451953 0 -0.0068481454750580944 0.0072189698506229527 0 -0.009371463852661065 0.0069901465427361391 0 -0.0087014542829619863 0.0054243663451451953 0 -0.0068481454750580944 0.0072189698506229527 0 -0.0066548786360487678 0.0048014817912405711 0 -0.01039940021961307 0.0044859628452758359 0 -0.011238241911700792 0.005114328956515749 0 -0.0046412974811641666 0.0031669807705937184 0 -0.0059230622381124193 0.0038694615414007344 0 -0.0058411788244824552 0.0026935141502150628 0 -0.01039940021961307 0.0044859628452758359 0 -0.0086035347661175057 0.0034619021705459235 0 -0.0050098744007552563 0.0023494712078750033 0 -0.0058411788244824552 0.0026935141502150628 0 -0.0058665783251902089 0.0015833756706349989 0 -0.0050098744007552563 0.0023494712078750033 0 -0.0046412974811641666 0.0031669807705937184 0 -0.0058411788244824552 0.0026935141502150628 0 -0.0087014542829619863 0.0054243663451451953 0 -0.0066548786360487678 0.0048014817912405711 0 -0.0078238603742922137 0.0038670875278497365 0 -0.0066548786360487678 0.0048014817912405711 0 -0.0078238603742922137 0.0038670875278497365 0 -0.0064018148633917743 0.0025415303725183571 0 -0.0087014542829619863 0.0054243663451451953 0 -0.0078238603742922137 0.0038670875278497365 0 -0.0090984799311790328 0.0040158971524101019 0 -0.0090984799311790328 0.0040158971524101019 0 -0.010462197707286817 0.004489270734534364 0 -0.010016847933488868 0.0051072096753260266 0 -0.0090984799311790328 0.0040158971524101019 0 -0.010462197707286817 0.004489270734534364 0 -0.0095392205132185052 0.0031814133399706095 0 -0.010462197707286817 0.004489270734534364 0 -0.010016847933488868 0.0051072096753260266 0 -0.011042561755383968 0.005589456010654659 0 -0.0087014542829619863 0.0054243663451451953 0 -0.0090984799311790328 0.0040158971524101019 0 -0.010016847933488868 0.0051072096753260266 0 -0.013227081992903265 0.0053851430376408481 0 -0.014258428330309164 0.0059093541430593633 0 -0.012119966080683574 0.0061042492829216262 0 -0.0087014542829619863 0.0054243663451451953 0 -0.010293582810068461 0.0059538156321683258 0 -0.009371463852661065 0.0069901465427361391 0 -0.011238241911700792 0.005114328956515749 0 -0.011496154637907147 0.0052823579461810655 0 -0.0087014542829619863 0.0054243663451451953 0 -0.010016847933488868 0.0051072096753260266 0 -0.010293582810068461 0.0059538156321683258 0 -0.010293582810068461 0.0059538156321683258 0 -0.009371463852661065 0.0069901465427361391 0 -0.012119966080683574 0.0061042492829216262 0 -0.010016847933488868 0.0051072096753260266 0 -0.010293582810068461 0.0059538156321683258 0 -0.011042561755383968 0.005589456010654659 0 -0.012029862171434509 0.0054323129900086279 0 -0.012119966080683574 0.0061042492829216262 0 -0.012157854920792544 0.0060511602353034346 0 -0.010293582810068461 0.0059538156321683258 0 -0.012119966080683574 0.0061042492829216262 0 -0.011042561755383968 0.005589456010654659 0 -0.012119966080683574 0.0061042492829216262 0 -0.011042561755383968 0.005589456010654659 0 -0.012157854920792544 0.0060511602353034346 0 0.00046718379917471683 -0.002418428222265465 0 0.00067792601083359306 -0.0034050231303022942 0 0.0011367682115973373 -0.0038843057411250114 0 -0.0061088345385760436 0.00092704424601299711 0 -0.0049611875247707717 -0.00042651341865938516 0 -0.010462197707286817 0.004489270734534364 0 -0.012157854920792544 0.0060511602353034346 0 -0.01066147826134331 0.0031940246843856568 0 0.00046718379917471683 -0.002418428222265465 0 0.00041422017314434936 -0.0032353474966351509 0 0.00067792601083359306 -0.0034050231303022942 0 -0.010462197707286817 0.004489270734534364 0 -0.011042561755383968 0.005589456010654659 0 -0.012157854920792544 0.0060511602353034346 0 0.00041422017314434936 -0.0032353474966351509 0 0.00067792601083359306 -0.0034050231303022942 0 0.00068800120098109704 -0.0040864573193959324 0 0.00068800120098109704 -0.0040864573193959324 0 0.0011367682115973373 -0.0038843057411250114 0 0.001520016613750477 -0.0054780391828209958 0 0.0013522574942942244 -0.0046296910487074131 0 0.0010759677941310443 -0.0050470422388406008 0 0.00045431557561054843 -0.0046024367049885325 0 0.00067792601083359306 -0.0034050231303022942 0 0.00068800120098109704 -0.0040864573193959324 0 0.0011367682115973373 -0.0038843057411250114 0 -0.010462197707286817 0.004489270734534364 0 -0.01066147826134331 0.0031940246843856568 0 -0.0095392205132185052 0.0031814133399706095 0 -0.0090984799311790328 0.0040158971524101019 0 -0.0095392205132185052 0.0031814133399706095 0 -0.008306338730468165 0.0026063362788483042 0 -0.0092444532276245873 0.0020421691434427238 0 -0.008306338730468165 0.0026063362788483042 0 -0.0083966477017383828 0.0016567705462882819 0 -0.0095392205132185052 0.0031814133399706095 0 -0.0092444532276245873 0.0020421691434427238 0 -0.008306338730468165 0.0026063362788483042 0 -0.01066147826134331 0.0031940246843856568 0 -0.0095392205132185052 0.0031814133399706095 0 -0.0092444532276245873 0.0020421691434427238 0 -0.01066147826134331 0.0031940246843856568 0 -0.0092444532276245873 0.0020421691434427238 0 -0.0087018534861835611 0.00069302868552086169 0 0.0011367682115973373 -0.0038843057411250114 0 0.001520016613750477 -0.0054780391828209958 0 0.0016294172326814717 -0.0055491092273124406 0 0.0013522574942942244 -0.0046296910487074131 0 0.001520016613750477 -0.0054780391828209958 0 0.0013807988368380543 -0.0053226848948434366 0 0.0008287432594082277 -0.0041627425678799901 0 0.0012423790811986629 -0.0046902198000228698 0 -0.0049611875247707717 -0.00042651341865938516 0 -0.0038075061231499074 -0.0021200436536328911 0 -0.0092444532276245873 0.0020421691434427238 0 -0.0086337353563333621 0.0013591203427052328 0 -0.0087018534861835611 0.00069302868552086169 0 -0.0092444532276245873 0.0020421691434427238 0 -0.0086337353563333621 0.0013591203427052328 0 -0.0083966477017383828 0.0016567705462882819 0 -0.0086337353563333621 0.0013591203427052328 0 -0.0087018534861835611 0.00069302868552086169 0 -0.0082077167538301705 0.0010539990331424399 0 0.001520016613750477 -0.0054780391828209958 0 0.0014337399000000522 -0.0055436456698651467 0 0.0015133113258765608 -0.0055906875777681567 0 0.001520016613750477 -0.0054780391828209958 0 0.0016294172326814717 -0.0055491092273124406 0 0.0015133113258765608 -0.0055906875777681567 0 0.001520016613750477 -0.0054780391828209958 0 0.0014337399000000522 -0.0055436456698651467 0 0.0013807988368380543 -0.0053226848948434366 0 0.0014337399000000522 -0.0055436456698651467 0 0.0013807988368380543 -0.0053226848948434366 0 0.0013207294573101367 -0.0055841259638333912 0 0.0013522574942942244 -0.0046296910487074131 0 0.0013807988368380543 -0.0053226848948434366 0 0.0012808394735654696 -0.0052670100212791858 0 0.0013807988368380543 -0.0053226848948434366 0 0.0012808394735654696 -0.0052670100212791858 0 0.0013207294573101367 -0.0055841259638333912 0 0.0011013272989449441 -0.0056289552457613815 0 0.0012808394735654696 -0.0052670100212791858 0 0.0013207294573101367 -0.0055841259638333912 0 0.0011013272989449441 -0.0056289552457613815 0 0.0010759677941310443 -0.0050470422388406008 0 0.0012808394735654696 -0.0052670100212791858 0 0.0013522574942942244 -0.0046296910487074131 0 0.0010759677941310443 -0.0050470422388406008 0 0.0012808394735654696 -0.0052670100212791858 0 -0.0086035347661175057 0.0034619021705459235 0 -0.0076868251391569832 0.0021884775744631904 0 -0.0046761322580508554 0.0018252340930823075 0 -0.0050098744007552563 0.0023494712078750033 0 -0.0058665783251902089 0.0015833756706349989 0 -0.0078238603742922137 0.0038670875278497365 0 -0.0064018148633917743 0.0025415303725183571 0 -0.008306338730468165 0.0026063362788483042 0 -0.0064018148633917743 0.0025415303725183571 0 -0.008306338730468165 0.0026063362788483042 0 -0.0073715037414733243 0.0014163886406098865 0 -0.0078238603742922137 0.0038670875278497365 0 -0.0090984799311790328 0.0040158971524101019 0 -0.008306338730468165 0.0026063362788483042 0 -0.0083966477017383828 0.0016567705462882819 0 -0.0082077167538301705 0.0010539990331424399 0 -0.0073715037414733243 0.0014163886406098865 0 -0.008306338730468165 0.0026063362788483042 0 -0.0083966477017383828 0.0016567705462882819 0 -0.0073715037414733243 0.0014163886406098865 0 -0.0086337353563333621 0.0013591203427052328 0 -0.0083966477017383828 0.0016567705462882819 0 -0.0082077167538301705 0.0010539990331424399 0 -0.0087018534861835611 0.00069302868552086169 0 -0.0081151379104169793 0.00070248397365787205 0 -0.0076045259099590404 0.00019097351393566734 0 -0.0082077167538301705 0.0010539990331424399 0 -0.0077320121515276289 0.00077207496215418215 0 -0.0073715037414733243 0.0014163886406098865 0 -0.0087018534861835611 0.00069302868552086169 0 -0.0082077167538301705 0.0010539990331424399 0 -0.0081151379104169793 0.00070248397365787205 0 -0.0082077167538301705 0.0010539990331424399 0 -0.0081151379104169793 0.00070248397365787205 0 -0.0077320121515276289 0.00077207496215418215 0 -0.0081151379104169793 0.00070248397365787205 0 -0.0077320121515276289 0.00077207496215418215 0 -0.0076045259099590404 0.00019097351393566734 0 -0.0069867659430573681 0.00054198799596596179 0 -0.0073715037414733243 0.0014163886406098865 0 -0.0060523866113835877 0.00040186424351585731 0 -0.0077320121515276289 0.00077207496215418215 0 -0.0069867659430573681 0.00054198799596596179 0 -0.0073715037414733243 0.0014163886406098865 0 -0.0064018148633917743 0.0025415303725183571 0 -0.0073715037414733243 0.0014163886406098865 0 -0.0060523866113835877 0.00040186424351585731 0 -0.0047237641871378981 0.0010283990264922255 0 -0.0058665783251902089 0.0015833756706349989 0 -0.0060523866113835877 0.00040186424351585731 0 -0.0076868251391569832 0.0021884775744631904 0 -0.0073942913823759147 0.0014913847069846612 0 -0.0050386717259132043 4.4096247685619321e-05 0 -0.0058542097014502841 -0.00066179013821432561 0 -0.0060523866113835877 0.00040186424351585731 0 -0.0069867659430573681 0.00054198799596596179 0 -0.0060523866113835877 0.00040186424351585731 0 -0.0064808647813716577 -0.00028694023473293346 0 -0.0058542097014502841 -0.00066179013821432561 0 -0.0064808647813716577 -0.00028694023473293346 0 -0.0067644286562908882 -0.00097640315026743579 0 -0.0058542097014502841 -0.00066179013821432561 0 -0.0060523866113835877 0.00040186424351585731 0 -0.0064808647813716577 -0.00028694023473293346 0 0.0016294172326814717 -0.0055491092273124406 0 0.0014337214794580369 -0.0058024780187567104 0 0.0014905876849521929 -0.0056735683595449541 0 -0.0087018534861835611 0.00069302868552086169 0 -0.0076045259099590404 0.00019097351393566734 0 -0.0069622719995000512 -0.0012439325472667728 0 -0.0070332450058192266 -0.00044412446254606715 0 -0.0076045259099590404 0.00019097351393566734 0 -0.0069622719995000512 -0.0012439325472667728 0 -0.0038075061231499074 -0.0021200436536328911 0 -0.0027691246758774764 -0.003746885281255689 0 -0.0064808647813716577 -0.00028694023473293346 0 -0.0070332450058192266 -0.00044412446254606715 0 -0.0067644286562908882 -0.00097640315026743579 0 -0.0064808647813716577 -0.00028694023473293346 0 -0.0070332450058192266 -0.00044412446254606715 0 -0.0070752777186949417 3.6518408375965854e-05 0 -0.0069867659430573681 0.00054198799596596179 0 -0.0064808647813716577 -0.00028694023473293346 0 -0.0070752777186949417 3.6518408375965854e-05 0 -0.0070332450058192266 -0.00044412446254606715 0 -0.0070752777186949417 3.6518408375965854e-05 0 -0.0076045259099590404 0.00019097351393566734 0 -0.0077320121515276289 0.00077207496215418215 0 -0.0069867659430573681 0.00054198799596596179 0 -0.0076045259099590404 0.00019097351393566734 0 -0.0069867659430573681 0.00054198799596596179 0 -0.0070752777186949417 3.6518408375965854e-05 0 -0.0076045259099590404 0.00019097351393566734 0 0.0014337214794580369 -0.0058024780187567104 0 0.0014155257404763332 -0.005740816133901914 0 0.0014905876849521929 -0.0056735683595449541 0 0.0014337214794580369 -0.0058024780187567104 0 0.0014155257404763332 -0.005740816133901914 0 0.0013152386040069925 -0.0057988286085660446 0 -0.0070332450058192266 -0.00044412446254606715 0 -0.0069622719995000512 -0.0012439325472667728 0 -0.0067644286562908882 -0.00097640315026743579 0 -0.0068752312201944832 -0.0011212485427635685 0 -0.0067644286562908882 -0.00097640315026743579 0 -0.0061480709654259755 -0.0014612092288617332 0 -0.0027691246758774764 -0.003746885281255689 0 -0.0027974017623130579 -0.0037404204972797742 0 -0.0030647162198103048 -0.0035158501298308198 0 -0.0027691246758774764 -0.003746885281255689 0 -0.0060660067470319897 -0.002161509649824088 0 -0.0068752312201944832 -0.0011212485427635685 0 -0.0061480709654259755 -0.0014612092288617332 0 -0.0058542097014502841 -0.00066179013821432561 0 -0.0067644286562908882 -0.00097640315026743579 0 -0.0061480709654259755 -0.0014612092288617332 0 -0.0051466460916463003 -0.001829110546219376 0 -0.0050676011332592029 -0.00093295709475101866 0 -0.0061480709654259755 -0.0014612092288617332 0 -0.0050676011332592029 -0.00093295709475101866 0 -0.0058542097014502841 -0.00066179013821432561 0 -0.0061480709654259755 -0.0014612092288617332 0 0.0013050750502075091 -0.0057178090784219615 0 0.0011986340862195583 -0.0057857489097476976 0 0.0012921839303224444 -0.0057927148673300984 0 0.0011013272989449441 -0.0056289552457613815 0 0.0011986340862195583 -0.0057857489097476976 0 0.0013207294573101367 -0.0055841259638333912 0 0.0013050750502075091 -0.0057178090784219615 0 0.0011986340862195583 -0.0057857489097476976 0 0.0013207294573101367 -0.0055841259638333912 0 0.0014337399000000522 -0.0055436456698651467 0 0.0013207294573101367 -0.0055841259638333912 0 0.0014143951236101399 -0.0056724540077335 0 0.0013050750502075091 -0.0057178090784219615 0 0.0013207294573101367 -0.0055841259638333912 0 0.0014143951236101399 -0.0056724540077335 0 0.0014337399000000522 -0.0055436456698651467 0 0.0014143951236101399 -0.0056724540077335 0 0.0015133113258765608 -0.0055906875777681567 0 0.0016294172326814717 -0.0055491092273124406 0 0.0015133113258765608 -0.0055906875777681567 0 0.0014905876849521929 -0.0056735683595449541 0 0.0014143951236101399 -0.0056724540077335 0 0.0015133113258765608 -0.0055906875777681567 0 0.0014905876849521929 -0.0056735683595449541 0 0.0014143951236101399 -0.0056724540077335 0 0.0014155257404763332 -0.005740816133901914 0 0.0012921839303224444 -0.0057927148673300984 0 0.0014143951236101399 -0.0056724540077335 0 0.0014155257404763332 -0.005740816133901914 0 0.0014905876849521929 -0.0056735683595449541 0 0.0013050750502075091 -0.0057178090784219615 0 0.0014143951236101399 -0.0056724540077335 0 0.0012921839303224444 -0.0057927148673300984 0 0.0011198142849633632 -0.0058271160824054872 0 0.0012921839303224444 -0.0057927148673300984 0 0.0013152386040069925 -0.0057988286085660446 0 0.0011198142849633632 -0.0058271160824054872 0 0.0014337214794580369 -0.0058024780187567104 0 0.0013152386040069925 -0.0057988286085660446 0 0.0011198142849633632 -0.0058271160824054872 0 0.0012921839303224444 -0.0057927148673300984 0 0.0011602137762761879 -0.0058475606900046774 0 0.0014155257404763332 -0.005740816133901914 0 0.0012921839303224444 -0.0057927148673300984 0 0.0013152386040069925 -0.0057988286085660446 0 0.0011986340862195583 -0.0057857489097476976 0 0.0012921839303224444 -0.0057927148673300984 0 0.0011602137762761879 -0.0058475606900046774 0 0.0011986340862195583 -0.0057857489097476976 0 0.0011602137762761879 -0.0058475606900046774 0 0.0012273044127855594 -0.005955454936254787 0 0.0011986340862195583 -0.0057857489097476976 0 0.0012273044127855594 -0.005955454936254787 0 0.0012244119716647694 -0.0058227892221107058 0 0.0011013272989449441 -0.0056289552457613815 0 0.0011986340862195583 -0.0057857489097476976 0 0.0012244119716647694 -0.0058227892221107058 0 0.0012244119716647694 -0.0058227892221107058 0 0.0011522226152379342 -0.006109108364534265 0 0.00092283734619333 -0.0058713395432456444 0 0.0013126175344999056 -0.0060448061471766344 0 0.0012273044127855594 -0.005955454936254787 0 0.0011522226152379342 -0.006109108364534265 0 0.0012273044127855594 -0.005955454936254787 0 0.0012244119716647694 -0.0058227892221107058 0 0.0011522226152379342 -0.006109108364534265 0 0.0011522226152379342 -0.006109108364534265 0 0.0011132474985527921 -0.0062094892238743794 0 0.00048228238322596133 -0.006591226792747591 0 0.0013126175344999056 -0.0060448061471766344 0 0.0011522226152379342 -0.006109108364534265 0 0.0011132474985527921 -0.0062094892238743794 0 0.0011132474985527921 -0.0062094892238743794 0 0.0012254035496945719 -0.0062229816186865489 0 0.00048228238322596133 -0.006591226792747591 0 0.0012976209394216216 -0.0061177735698664231 0 0.0011132474985527921 -0.0062094892238743794 0 0.0012254035496945719 -0.0062229816186865489 0 0.00012313713866046473 -0.0072175468277305777 0 0.00022715783349406529 -0.0070462841693375517 0 -0.00047364321061018846 -0.0087162110615345099 0 0.00048228238322596133 -0.006591226792747591 0 -0.0011614924548545502 -0.0072175366039990956 0 0.00048228238322596133 -0.006591226792747591 0 -0.0011614924548545502 -0.0072175366039990956 0 -0.0009583050106136044 -0.0057123747238070994 0 0.00048228238322596133 -0.006591226792747591 0 0.00092283734619333 -0.0058713395432456444 0 -0.0009583050106136044 -0.0057123747238070994 0 0.0011522226152379342 -0.006109108364534265 0 0.00048228238322596133 -0.006591226792747591 0 0.00092283734619333 -0.0058713395432456444 0 0.00092283734619333 -0.0058713395432456444 0 0.0002086669736668586 -0.0045785496359645487 0 0.0012769226515220156 -0.0055234642860275459 0 -0.0013314910749464173 -0.0045861680636349548 0 -6.07107223115e-05 -0.0050875836142191657 0 0.00092283734619333 -0.0058713395432456444 0 0.0002086669736668586 -0.0045785496359645487 0 -0.0009583050106136044 -0.0057123747238070994 0 -0.0023766015626639899 -0.0045544723512677202 0 -0.003927890879964673 -0.0039089673733210886 0 -0.0028910380647640043 -0.0031129112499360479 0 -0.0023766015626639899 -0.0045544723512677202 0 -0.0006709173756961177 -0.0051959642680746822 0 -0.0014275342885950923 -0.0033282173582741535 0 -0.00036319719769160571 -0.0040625244286470897 0 0.00045431557561054843 -0.0046024367049885325 0 -0.0006709173756961177 -0.0051959642680746822 0 -0.00036319719769160571 -0.0040625244286470897 0 -0.0006709173756961177 -0.0051959642680746822 0 -0.0014275342885950923 -0.0033282173582741535 0 0.0013522574942942244 -0.0046296910487074131 0 0.00045431557561054843 -0.0046024367049885325 0 0.00019928866293518165 -0.0031078350288901639 0 -0.00036319719769160571 -0.0040625244286470897 0 0.00045431557561054843 -0.0046024367049885325 0 0.00019928866293518165 -0.0031078350288901639 0 0.0011013272989449441 -0.0056289552457613815 0 0.0010759677941310443 -0.0050470422388406008 0 0.00045431557561054843 -0.0046024367049885325 0 0.0011013272989449441 -0.0056289552457613815 0 0.00045431557561054843 -0.0046024367049885325 0 -0.0006709173756961177 -0.0051959642680746822 0 0.0011013272989449441 -0.0056289552457613815 0 0.0012244119716647694 -0.0058227892221107058 0 0.0012769226515220156 -0.0055234642860275459 0 0.00049091244813021374 -0.0053008659387313558 0 -6.07107223115e-05 -0.0050875836142191657 0 0.0012244119716647694 -0.0058227892221107058 0 0.00092283734619333 -0.0058713395432456444 0 0.0012769226515220156 -0.0055234642860275459 0 -0.0076386873978737746 -0.0060715078183319424 0 -0.0062413062256632037 -0.0079517699024715342 0 -0.0061250655512795427 -0.0053615364267995957 0 -0.0060388173480329654 -0.0089714154469375355 0 -0.0070079109702240183 -0.0087984356556410331 0 -0.0062413062256632037 -0.0079517699024715342 0 -0.0062413062256632037 -0.0079517699024715342 0 -0.0045988452724777746 -0.0069097831716828486 0 -0.0039206272824301083 -0.0091237507952351901 0 -0.0043230790494677776 -0.0073566311267679188 0 -0.0030600042041080805 -0.0075128458570247678 0 -0.0060388173480329654 -0.0089714154469375355 0 -0.0062413062256632037 -0.0079517699024715342 0 -0.0045968303932919924 -0.0087826038122901049 0 -0.0062413062256632037 -0.0079517699024715342 0 -0.0045988452724777746 -0.0069097831716828486 0 -0.0061250655512795427 -0.0053615364267995957 0 -0.0045988452724777746 -0.0069097831716828486 0 -0.0027459779681700274 -0.0070409283110147471 0 -0.0038268512623290318 -0.0053063605634448337 0 -0.0045988452724777746 -0.0069097831716828486 0 -0.0027459779681700274 -0.0070409283110147471 0 -0.0039206272824301083 -0.0091237507952351901 0 -0.0027459779681700274 -0.0070409283110147471 0 -0.0039206272824301083 -0.0091237507952351901 0 -0.0019660660506023238 -0.0084930790498470195 0 -0.0013737150804703205 -0.010368544562189335 0 -0.00047364321061018846 -0.0087162110615345099 0 -0.0019660660506023238 -0.0084930790498470195 0 -0.00047364321061018846 -0.0087162110615345099 0 -0.0019660660506023238 -0.0084930790498470195 0 -0.0011614924548545502 -0.0072175366039990956 0 -0.0027459779681700274 -0.0070409283110147471 0 -0.0011614924548545502 -0.0072175366039990956 0 -0.0009583050106136044 -0.0057123747238070994 0 -0.0027459779681700274 -0.0070409283110147471 0 -0.0019660660506023238 -0.0084930790498470195 0 -0.0011614924548545502 -0.0072175366039990956 0 -0.0009583050106136044 -0.0057123747238070994 0 -0.0022667122765202131 -0.0036915385007508842 0 -0.0038268512623290318 -0.0053063605634448337 0 -0.0013314910749464173 -0.0045861680636349548 0 -0.0028830796756242135 -0.0040331893356112892 0 0.0002086669736668586 -0.0045785496359645487 0 -0.0009583050106136044 -0.0057123747238070994 0 -0.0022667122765202131 -0.0036915385007508842 0 -0.0028830796756242135 -0.0040331893356112892 0 -0.0038248121316403114 -0.0037354038989610202 0 -0.0022667122765202131 -0.0036915385007508842 0 -0.0038268512623290318 -0.0053063605634448337 0 -0.0052292574585631919 -0.0033682402034553487 0 -0.0027459779681700274 -0.0070409283110147471 0 -0.0009583050106136044 -0.0057123747238070994 0 -0.0038268512623290318 -0.0053063605634448337 0 -0.0045988452724777746 -0.0069097831716828486 0 -0.0038268512623290318 -0.0053063605634448337 0 -0.0061250655512795427 -0.0053615364267995957 0 -0.0038268512623290318 -0.0053063605634448337 0 -0.0061250655512795427 -0.0053615364267995957 0 -0.0052292574585631919 -0.0033682402034553487 0 -0.0078953000232678087 -0.0046551259961673044 0 -0.0061250655512795427 -0.0053615364267995957 0 -0.0070379789709387386 -0.0034984003563535062 0 -0.0061250655512795427 -0.0053615364267995957 0 -0.0070379789709387386 -0.0034984003563535062 0 -0.0052292574585631919 -0.0033682402034553487 0 -0.0065288350379265822 -0.0021599238444633129 0 -0.0052292574585631919 -0.0033682402034553487 0 -0.0053060557602498922 -0.0014734163289280109 0 -0.0077184135451194517 -0.0024268573693709021 0 -0.0065288350379265822 -0.0021599238444633129 0 -0.0070379789709387386 -0.0034984003563535062 0 -0.0077184135451194517 -0.0024268573693709021 0 -0.0075329410653580346 -0.001436664829522245 0 -0.0065288350379265822 -0.0021599238444633129 0 -0.0065288350379265822 -0.0021599238444633129 0 -0.0070379789709387386 -0.0034984003563535062 0 -0.0052292574585631919 -0.0033682402034553487 0 -0.0052292574585631919 -0.0033682402034553487 0 -0.0043333914587713298 -0.0025661780561637869 0 -0.0053060557602498922 -0.0014734163289280109 0 -0.0043333914587713298 -0.0025661780561637869 0 -0.0042258301761377154 -0.00139924530004033 0 -0.0053060557602498922 -0.0014734163289280109 0 -0.003927890879964673 -0.0039089673733210886 0 -0.0052292574585631919 -0.0033682402034553487 0 -0.0043333914587713298 -0.0025661780561637869 0 -0.003927890879964673 -0.0039089673733210886 0 -0.0043333914587713298 -0.0025661780561637869 0 -0.0028910380647640043 -0.0031129112499360479 0 -0.0043333914587713298 -0.0025661780561637869 0 -0.0033218068195171517 -0.0018546875322906753 0 -0.0028910380647640043 -0.0031129112499360479 0 -0.0043333914587713298 -0.0025661780561637869 0 -0.0033218068195171517 -0.0018546875322906753 0 -0.0042258301761377154 -0.00139924530004033 0 -0.0033218068195171517 -0.0018546875322906753 0 -0.0034855354453323119 -0.00073896692103264812 0 -0.0042258301761377154 -0.00139924530004033 0 -0.0034855354453323119 -0.00073896692103264812 0 -0.002729363558109355 -0.00023475181265696129 0 -0.0035699159474346888 0.0004036885705696334 0 -0.0034855354453323119 -0.00073896692103264812 0 -0.0047050730783008109 -0.00031837245299844142 0 -0.0035699159474346888 0.0004036885705696334 0 -0.0047050730783008109 -0.00031837245299844142 0 -0.0044903629896707493 0.00062405927637166334 0 -0.0035699159474346888 0.0004036885705696334 0 -0.0047050730783008109 -0.00031837245299844142 0 -0.0057608060056420652 0.00063856949123057452 0 -0.0044903629896707493 0.00062405927637166334 0 -0.0034855354453323119 -0.00073896692103264812 0 -0.0047050730783008109 -0.00031837245299844142 0 -0.0042258301761377154 -0.00139924530004033 0 -0.0047050730783008109 -0.00031837245299844142 0 -0.0042258301761377154 -0.00139924530004033 0 -0.0053060557602498922 -0.0014734163289280109 0 -0.0047050730783008109 -0.00031837245299844142 0 -0.0053060557602498922 -0.0014734163289280109 0 -0.0064716103564725694 -0.00058296853110855786 0 -0.0065288350379265822 -0.0021599238444633129 0 -0.0053060557602498922 -0.0014734163289280109 0 -0.0064716103564725694 -0.00058296853110855786 0 -0.0047050730783008109 -0.00031837245299844142 0 -0.0064716103564725694 -0.00058296853110855786 0 -0.0057608060056420652 0.00063856949123057452 0 -0.0078484686650877687 -0.00027085418172508594 0 -0.0074660429604747622 0.0010134412833013573 0 -0.0064716103564725694 -0.00058296853110855786 0 -0.0075329410653580346 -0.001436664829522245 0 -0.0065288350379265822 -0.0021599238444633129 0 -0.0064716103564725694 -0.00058296853110855786 0 -0.0078484686650877687 -0.00027085418172508594 0 -0.0075329410653580346 -0.001436664829522245 0 -0.0064716103564725694 -0.00058296853110855786 0 -0.0011606819329328956 -0.0017547851836776371 0 -0.00028475744227770563 -0.002010666059533023 0 -0.00023432587341766308 -0.0028687871521858466 0 -0.0011606819329328956 -0.0017547851836776371 0 0.00019928866293518165 -0.0031078350288901639 0 -0.0014275342885950923 -0.0033282173582741535 0 -0.00053450425350148672 -0.0025673325014196036 0 -4.0259045160584323e-07 -0.0031712787392377657 0 0.00046718379917471683 -0.002418428222265465 0 -0.00028475744227770563 -0.002010666059533023 0 -0.00016420840256894931 -0.0017188876197479718 0 0.00046718379917471683 -0.002418428222265465 0 3.4531293326672446e-05 -0.0025271621020415938 0 0.00019741231556017036 -0.0028116151361216074 0 0.00046718379917471683 -0.002418428222265465 0 -0.00028475744227770563 -0.002010666059533023 0 3.4531293326672446e-05 -0.0025271621020415938 0 -0.00028475744227770563 -0.002010666059533023 0 3.4531293326672446e-05 -0.0025271621020415938 0 -0.00023432587341766308 -0.0028687871521858466 0 0.00041422017314434936 -0.0032353474966351509 0 0.00068800120098109704 -0.0040864573193959324 0 -0.00023432587341766308 -0.0028687871521858466 0 0.0008287432594082277 -0.0041627425678799901 0 -4.0259045160584323e-07 -0.0031712787392377657 0 0.00041422017314434936 -0.0032353474966351509 0 -0.00023432587341766308 -0.0028687871521858466 0 0.00019741231556017036 -0.0028116151361216074 0 3.4531293326672446e-05 -0.0025271621020415938 0 -0.00023432587341766308 -0.0028687871521858466 0 0.00019741231556017036 -0.0028116151361216074 0 0.00046718379917471683 -0.002418428222265465 0 0.00041422017314434936 -0.0032353474966351509 0 0.00019741231556017036 -0.0028116151361216074 0 -0.00036319719769160571 -0.0040625244286470897 0 0.00019928866293518165 -0.0031078350288901639 0 -0.0014275342885950923 -0.0033282173582741535 0 -0.0023766015626639899 -0.0045544723512677202 0 -0.0014275342885950923 -0.0033282173582741535 0 -0.0028910380647640043 -0.0031129112499360479 0 -0.0014275342885950923 -0.0033282173582741535 0 -0.0028910380647640043 -0.0031129112499360479 0 -0.0021636303503319836 -0.001990477983128007 0 -0.0033218068195171517 -0.0018546875322906753 0 -0.0028910380647640043 -0.0031129112499360479 0 -0.0021636303503319836 -0.001990477983128007 0 -0.0011606819329328956 -0.0017547851836776371 0 -0.0014275342885950923 -0.0033282173582741535 0 -0.0021636303503319836 -0.001990477983128007 0 -0.0011606819329328956 -0.0017547851836776371 0 -0.0021636303503319836 -0.001990477983128007 0 -0.0014762362652412167 -0.0010386238322785898 0 -0.0021636303503319836 -0.001990477983128007 0 -0.0014762362652412167 -0.0010386238322785898 0 -0.0025050100834857827 -0.0009827474522210956 0 -0.0014762362652412167 -0.0010386238322785898 0 -0.0025050100834857827 -0.0009827474522210956 0 -0.0020169466030147795 -0.00036952672841272848 0 -0.0033218068195171517 -0.0018546875322906753 0 -0.0021636303503319836 -0.001990477983128007 0 -0.0025050100834857827 -0.0009827474522210956 0 -0.0033218068195171517 -0.0018546875322906753 0 -0.0034855354453323119 -0.00073896692103264812 0 -0.0025050100834857827 -0.0009827474522210956 0 -0.002729363558109355 -0.00023475181265696129 0 -0.0021220591984315003 0.00042673095984959835 0 -0.0035699159474346888 0.0004036885705696334 0 -0.0034855354453323119 -0.00073896692103264812 0 -0.0025050100834857827 -0.0009827474522210956 0 -0.002729363558109355 -0.00023475181265696129 0 -0.0025050100834857827 -0.0009827474522210956 0 -0.002729363558109355 -0.00023475181265696129 0 -0.0020169466030147795 -0.00036952672841272848 0 -0.002729363558109355 -0.00023475181265696129 0 -0.0020169466030147795 -0.00036952672841272848 0 -0.0021220591984315003 0.00042673095984959835 0 -0.0014762362652412167 -0.0010386238322785898 0 -0.0020169466030147795 -0.00036952672841272848 0 -0.0013182861806531956 -0.00018334779196981085 0 -0.004069639977102182 -5.0980790382039409e-05 0 -0.0069017317264036867 0.0013397245040257801 0 -0.0020169466030147795 -0.00036952672841272848 0 -0.0013182861806531956 -0.00018334779196981085 0 -0.0021220591984315003 0.00042673095984959835 0 -0.011155790276154123 0.0050426975233072921 0 -0.010988243777608774 0.0038049908518684077 0 -0.0098818726051476333 0.0029689306773915719 0 -0.0071982666670276536 0.0012328967960601746 0 -0.0096229336227278972 0.0015739224438206852 0 -0.0014762362652412167 -0.0010386238322785898 0 -0.0013182861806531956 -0.00018334779196981085 0 -0.00059141794155417491 -0.00074153286878095922 0 -0.00059141794155417491 -0.00074153286878095922 0 -0.00017021018576770757 -0.0010318758643173614 0 -0.0011414728043336834 0.0007365805461178839 0 -0.0016022913009195742 -6.315927383809434e-05 0 -0.00059141794155417491 -0.00074153286878095922 0 -0.0011414728043336834 0.0007365805461178839 0 -0.004069639977102182 -5.0980790382039409e-05 0 -0.0031981819241341321 -0.00047854264682863556 0 -0.0011606819329328956 -0.0017547851836776371 0 -0.00028475744227770563 -0.002010666059533023 0 -0.00069157191752045922 -0.0014104482711353376 0 -0.0014762362652412167 -0.0010386238322785898 0 -0.00059141794155417491 -0.00074153286878095922 0 -0.00069157191752045922 -0.0014104482711353376 0 -0.00059141794155417491 -0.00074153286878095922 0 -0.00069157191752045922 -0.0014104482711353376 0 -0.00017021018576770757 -0.0010318758643173614 0 -0.00028475744227770563 -0.002010666059533023 0 -0.00069157191752045922 -0.0014104482711353376 0 -0.00016420840256894931 -0.0017188876197479718 0 -0.0011606819329328956 -0.0017547851836776371 0 -0.0014762362652412167 -0.0010386238322785898 0 -0.00069157191752045922 -0.0014104482711353376 0 -0.0061088345385760436 0.00092704424601299711 0 -0.0071982666670276536 0.0012328967960601746 0 -0.012029862171434509 0.0054323129900086279 0 -0.012157854920792544 0.0060511602353034346 0 -0.011155790276154123 0.0050426975233072921 0 0.00046718379917471683 -0.002418428222265465 0 -0.00016420840256894931 -0.0017188876197479718 0 -0.00017021018576770757 -0.0010318758643173614 0 -0.00069157191752045922 -0.0014104482711353376 0 -0.00016420840256894931 -0.0017188876197479718 0 -0.00017021018576770757 -0.0010318758643173614 0 -0.012029862171434509 0.0054323129900086279 0 -0.011155790276154123 0.0050426975233072921 0 -0.011846722693694587 0.0044837844197731331 0 -0.011155790276154123 0.0050426975233072921 0 -0.011846722693694587 0.0044837844197731331 0 -0.010988243777608774 0.0038049908518684077 0 -0.012385008629326455 0.0038134156368894189 0 -0.011858225802597414 0.0037177936098255122 0 -0.012217297871537944 0.0027535749372125029 0 -0.010988243777608774 0.0038049908518684077 0 -0.011858225802597414 0.0037177936098255122 0 -0.012217297871537944 0.0027535749372125029 0 -0.012385008629326455 0.0038134156368894189 0 -0.011846722693694587 0.0044837844197731331 0 -0.011858225802597414 0.0037177936098255122 0 -0.011846722693694587 0.0044837844197731331 0 -0.010988243777608774 0.0038049908518684077 0 -0.011858225802597414 0.0037177936098255122 0 -0.010988243777608774 0.0038049908518684077 0 -0.0098818726051476333 0.0029689306773915719 0 -0.012217297871537944 0.0027535749372125029 0 -0.0096229336227278972 0.0015739224438206852 0 -0.013017263647834405 0.0019997046790914594 0 -0.015255760995724997 0.0025475445900597481 0 -0.015317974722074182 0.0024488634088389045 0 -0.015157771970182468 0.0024720685716003508 0 -0.015175555506110921 0.0025801245530048225 0 -0.015255760995724997 0.0025475445900597481 0 -0.015157771970182468 0.0024720685716003508 0 -0.015255760995724997 0.0025475445900597481 0 -0.015211436977978927 0.0025713811744131872 0 -0.015242848829688427 0.0025655157147099175 0 -0.015175555506110921 0.0025801245530048225 0 -0.015211436977978927 0.0025713811744131872 0 -0.01518422559201783 0.0025844235736144621 0 -0.015175555506110921 0.0025801245530048225 0 -0.015255760995724997 0.0025475445900597481 0 -0.015211436977978927 0.0025713811744131872 0 -0.015255760995724997 0.0025475445900597481 0 -0.01550946850998969 0.0025192061590822135 0 -0.015297100669380805 0.0025854430781815925 0 -0.01582044764399352 0.0026969798434460564 0 -0.015869096490088812 0.0027446285709531578 0 -0.015255760995724997 0.0025475445900597481 0 -0.015317974722074182 0.0024488634088389045 0 -0.01550946850998969 0.0025192061590822135 0 -0.015317974722074182 0.0024488634088389045 0 -0.015336570002114922 0.0022943024651672843 0 -0.015157771970182468 0.0024720685716003508 0 -0.015317974722074182 0.0024488634088389045 0 -0.015336570002114922 0.0022943024651672843 0 -0.01550946850998969 0.0025192061590822135 0 -0.015056359999581661 0.0015070019058075245 0 -0.01603462087020115 0.001437990700142062 0 -0.016153951430310964 0.0021529209925845263 0 -0.0016022913009195742 -6.315927383809434e-05 0 -0.0011414728043336834 0.0007365805461178839 0 -0.0026428901542612931 0.00064813868887704507 0 -0.0096229336227278972 0.0015739224438206852 0 -0.0069017317264036867 0.0013397245040257801 0 -0.0069017317264036867 0.0013397245040257801 0 -0.0048250311501640527 0.0012660366029629655 0 -0.0020001153406257318 0.00052477350593755094 0 -0.0035699159474346888 0.0004036885705696334 0 -0.0035850411331059691 0.0016515281278800861 0 -0.01603462087020115 0.001437990700142062 0 -0.016153951430310964 0.0021529209925845263 0 -0.01716145308645347 0.0023285405923921549 0 -0.0069017317264036867 0.0013397245040257801 0 -0.0097360004105376749 0.0022497880769428422 0 -0.016153951430310964 0.0021529209925845263 0 -0.016674914965109831 0.0027530847517952739 0 -0.01716145308645347 0.0023285405923921549 0 -0.016153951430310964 0.0021529209925845263 0 -0.015765979025856375 0.002711289647108477 0 -0.016674914965109831 0.0027530847517952739 0 -0.0096229336227278972 0.0015739224438206852 0 -0.011995707859875455 0.0031988256436379166 0 -0.015336570002114922 0.0022943024651672843 0 -0.01550946850998969 0.0025192061590822135 0 -0.015765979025856375 0.002711289647108477 0 -0.01550946850998969 0.0025192061590822135 0 -0.015765979025856375 0.002711289647108477 0 -0.0153533894899668 0.0029859983999789021 0 -0.015056359999581661 0.0015070019058075245 0 -0.016153951430310964 0.0021529209925845263 0 -0.015765979025856375 0.002711289647108477 0 -0.015765979025856375 0.002711289647108477 0 -0.015657370844965532 0.0032074339425523196 0 -0.0153533894899668 0.0029859983999789021 0 -0.015765979025856375 0.002711289647108477 0 -0.015657370844965532 0.0032074339425523196 0 -0.016176375181751333 0.0030779131937103002 0 -0.015657370844965532 0.0032074339425523196 0 -0.016176375181751333 0.0030779131937103002 0 -0.015844635998098676 0.0035723127503527342 0 -0.015765979025856375 0.002711289647108477 0 -0.016674914965109831 0.0027530847517952739 0 -0.016176375181751333 0.0030779131937103002 0 -0.016176375181751333 0.0030779131937103002 0 -0.016623441635094219 0.003405792866998724 0 -0.015844635998098676 0.0035723127503527342 0 -0.016674914965109831 0.0027530847517952739 0 -0.016176375181751333 0.0030779131937103002 0 -0.016623441635094219 0.003405792866998724 0 -0.016674914965109831 0.0027530847517952739 0 -0.016623441635094219 0.003405792866998724 0 -0.017265195360929703 0.0029997891472523966 0 -0.016653722075428652 0.0026970379598313982 0 -0.016279090821435915 0.0027406564652908447 0 -0.017489336548086612 0.0030316933795059846 0 -0.017504369077762497 0.0029423766768893241 0 -0.017658168337927757 0.0029488048750859978 0 -0.017504369077762497 0.0029423766768893241 0 -0.017658168337927757 0.0029488048750859978 0 -0.017594220445909321 0.0028774604009382254 0 -0.016653722075428652 0.0026970379598313982 0 -0.016714458921893445 0.0025713227413111071 0 -0.017489336548086612 0.0030316933795059846 0 -0.017504369077762497 0.0029423766768893241 0 -0.017359951747591921 0.0029937804319450992 0 -0.016459974926135896 0.0026895853353238307 0 -0.016468293582697389 0.0026550637118062247 0 -0.0163530845789253 0.0026832670175019869 0 -0.016279090821435915 0.0027406564652908447 0 -0.016114101622065703 0.0026397189719150776 0 -0.015657370844965532 0.0032074339425523196 0 -0.015844635998098676 0.0035723127503527342 0 -0.015157668177531175 0.0037269671410652431 0 -0.016584451274959736 0.0026277517937512112 0 -0.016459974926135896 0.0026895853353238307 0 -0.016468293582697389 0.0026550637118062247 0 -0.016714458921893445 0.0025713227413111071 0 -0.016413719615337895 0.0024755699815728004 0 -0.016459974926135896 0.0026895853353238307 0 -0.0163530845789253 0.0026832670175019869 0 -0.016336513193879385 0.0027520485604862243 0 -0.015198930824035338 0.0025045056763522227 0 -0.015233305841367945 0.0024886085588473059 0 -0.015234583656114424 0.0025437054611223884 0 -0.016114101622065703 0.0026397189719150776 0 -0.016413719615337895 0.0024755699815728004 0 -0.015198930824035338 0.0025045056763522227 0 -0.015256666386541868 0.0023623472020706114 0 -0.015233305841367945 0.0024886085588473059 0 -0.016076663172415153 0.0021167327244490629 0 -0.015927745088856509 0.0021505771403915767 0 -0.016060018390366668 0.0021858176427427644 0 -0.016114101622065703 0.0026397189719150776 0 -0.01580569625457055 0.0025194666354735047 0 -0.015256666386541868 0.0023623472020706114 0 -0.015233305841367945 0.0024886085588473059 0 -0.015307052016306029 0.0024749573627316302 0 -0.015233305841367945 0.0024886085588473059 0 -0.015228764624325876 0.002547008663347383 0 -0.015234583656114424 0.0025437054611223884 0 -0.015228764624325876 0.002547008663347383 0 -0.015242848829688427 0.0025655157147099175 0 -0.015234583656114424 0.0025437054611223884 0 -0.015233305841367945 0.0024886085588473059 0 -0.015228764624325876 0.002547008663347383 0 -0.015307052016306029 0.0024749573627316302 0 -0.015211436977978927 0.0025713811744131872 0 -0.015228764624325876 0.002547008663347383 0 -0.01518422559201783 0.0025844235736144621 0 -0.015211436977978927 0.0025713811744131872 0 -0.015228764624325876 0.002547008663347383 0 -0.015242848829688427 0.0025655157147099175 0 -0.016114101622065703 0.0026397189719150776 0 -0.015869096490088812 0.0027446285709531578 0 -0.015657370844965532 0.0032074339425523196 0 -0.015157668177531175 0.0037269671410652431 0 -0.0153533894899668 0.0029859983999789021 0 -0.015255760995724997 0.0025475445900597481 0 -0.015242848829688427 0.0025655157147099175 0 -0.015297100669380805 0.0025854430781815925 0 -0.015242848829688427 0.0025655157147099175 0 -0.015297100669380805 0.0025854430781815925 0 -0.015234583656114424 0.0025437054611223884 0 -0.015198930824035338 0.0025045056763522227 0 -0.015297100669380805 0.0025854430781815925 0 -0.015234583656114424 0.0025437054611223884 0 -0.0074660429604747622 0.0010134412833013573 0 -0.0073589411282828183 0.0024141622078088405 0 -0.006147450406363008 0.0019938931106073098 0 -0.0074660429604747622 0.0010134412833013573 0 -0.0057608060056420652 0.00063856949123057452 0 -0.006147450406363008 0.0019938931106073098 0 -0.0074660429604747622 0.0010134412833013573 0 -0.0064716103564725694 -0.00058296853110855786 0 -0.0057608060056420652 0.00063856949123057452 0 -0.0057608060056420652 0.00063856949123057452 0 -0.006147450406363008 0.0019938931106073098 0 -0.0048573641264373114 0.0015424850440578293 0 -0.006147450406363008 0.0019938931106073098 0 -0.0048573641264373114 0.0015424850440578293 0 -0.0052012999714073568 0.0028292635178055144 0 -0.0048573641264373114 0.0015424850440578293 0 -0.0035850411331059691 0.0016515281278800861 0 -0.0052012999714073568 0.0028292635178055144 0 -0.01716145308645347 0.0023285405923921549 0 -0.017251575511657336 0.0027058321845562327 0 -0.017510149313114197 0.002938120445846668 0 -0.0097360004105376749 0.0022497880769428422 0 -0.011242053288250639 0.0027473802717893534 0 -0.0048573641264373114 0.0015424850440578293 0 -0.0044903629896707493 0.00062405927637166334 0 -0.0035850411331059691 0.0016515281278800861 0 -0.0057608060056420652 0.00063856949123057452 0 -0.0048573641264373114 0.0015424850440578293 0 -0.0044903629896707493 0.00062405927637166334 0 -0.0044903629896707493 0.00062405927637166334 0 -0.0035699159474346888 0.0004036885705696334 0 -0.0035850411331059691 0.0016515281278800861 0 -0.016674914965109831 0.0027530847517952739 0 -0.01716145308645347 0.0023285405923921549 0 -0.017251575511657336 0.0027058321845562327 0 -0.016674914965109831 0.0027530847517952739 0 -0.017251575511657336 0.0027058321845562327 0 -0.017265195360929703 0.0029997891472523966 0 -0.017251575511657336 0.0027058321845562327 0 -0.017265195360929703 0.0029997891472523966 0 -0.017374904901094231 0.0029199949051131988 0 -0.017265195360929703 0.0029997891472523966 0 -0.017359951747591921 0.0029937804319450992 0 -0.017374904901094231 0.0029199949051131988 0 -0.016653722075428652 0.0026970379598313982 0 -0.016752509616749966 0.0026953665939116718 0 -0.017489336548086612 0.0030316933795059846 0 -0.017265195360929703 0.0029997891472523966 0 -0.017359951747591921 0.0029937804319450992 0 -0.017359951747591921 0.0029937804319450992 0 -0.017380231327623723 0.0029566819760576909 0 -0.017374904901094231 0.0029199949051131988 0 -0.017504369077762497 0.0029423766768893241 0 -0.017359951747591921 0.0029937804319450992 0 -0.017380231327623723 0.0029566819760576909 0 -0.017504369077762497 0.0029423766768893241 0 -0.017380231327623723 0.0029566819760576909 0 -0.017469831078909492 0.0028927250397564152 0 -0.017966508111897487 0.0026185170045205861 0 -0.018150656132747106 0.0024412689891619684 0 -0.017380231327623723 0.0029566819760576909 0 -0.017374904901094231 0.0029199949051131988 0 -0.017319904564696311 0.0029355857016156147 0 -0.017251575511657336 0.0027058321845562327 0 -0.017510149313114197 0.002938120445846668 0 -0.017374904901094231 0.0029199949051131988 0 -0.017510149313114197 0.002938120445846668 0 -0.017374904901094231 0.0029199949051131988 0 -0.017510577214685498 0.0028951225982159225 0 -0.011242053288250639 0.0027473802717893534 0 -0.012438520628233226 0.0030106586711203397 0 -0.006147450406363008 0.0019938931106073098 0 -0.0052012999714073568 0.0028292635178055144 0 -0.0068792899173140886 0.0040042602205075115 0 -0.017510149313114197 0.002938120445846668 0 -0.017391991035528021 0.0029266700251995535 0 -0.017510577214685498 0.0028951225982159225 0 -0.0080557005104756035 0.0031877856655734768 0 -0.0073589411282828183 0.0024141622078088405 0 -0.0068792899173140886 0.0040042602205075115 0 -0.0073589411282828183 0.0024141622078088405 0 -0.006147450406363008 0.0019938931106073098 0 -0.0068792899173140886 0.0040042602205075115 0 -0.017345857555854036 0.0027090634622027277 0 -0.017413450576638383 0.00272935564351092 0 -0.017398016830769233 0.0026437459282989567 0 -0.017413450576638383 0.00272935564351092 0 -0.01743509394414388 0.0026726182986553603 0 -0.017398016830769233 0.0026437459282989567 0 -0.017345857555854036 0.0027090634622027277 0 -0.017413450576638383 0.00272935564351092 0 -0.017394324686012503 0.0028138775476418422 0 -0.017308600257544035 0.0028012866865396216 0 -0.017345857555854036 0.0027090634622027277 0 -0.017394324686012503 0.0028138775476418422 0 -0.017308600257544035 0.0028012866865396216 0 -0.017391991035528021 0.0029266700251995535 0 -0.017394324686012503 0.0028138775476418422 0 -0.017391991035528021 0.0029266700251995535 0 -0.017394324686012503 0.0028138775476418422 0 -0.017510577214685498 0.0028951225982159225 0 -0.017413450576638383 0.00272935564351092 0 -0.017394324686012503 0.0028138775476418422 0 -0.017510577214685498 0.0028951225982159225 0 -0.01873285544208764 0.0015302265733099756 0 -0.018150656132747106 0.0024412689891619684 0 -0.017413450576638383 0.00272935564351092 0 -0.017485665130059027 0.0027015391296277206 0 -0.017510577214685498 0.0028951225982159225 0 -0.017153528555836739 0.0026478552886333023 0 -0.017254586887222419 0.0027205451656538487 0 -0.017319904564696311 0.0029355857016156147 0 -0.017413450576638383 0.00272935564351092 0 -0.017485665130059027 0.0027015391296277206 0 -0.01743509394414388 0.0026726182986553603 0 -0.017153528555836739 0.0026478552886333023 0 -0.017193471795927392 0.0026377826089716444 0 -0.01721220444693394 0.0026648946952295798 0 -0.017153528555836739 0.0026478552886333023 0 -0.017193471795927392 0.0026377826089716444 0 -0.017217791674190075 0.0025787981766656532 0 -0.017193471795927392 0.0026377826089716444 0 -0.017241247514381681 0.0026462897424486568 0 -0.017217791674190075 0.0025787981766656532 0 -0.017193471795927392 0.0026377826089716444 0 -0.017241247514381681 0.0026462897424486568 0 -0.01721220444693394 0.0026648946952295798 0 -0.017153528555836739 0.0026478552886333023 0 -0.01721220444693394 0.0026648946952295798 0 -0.017254586887222419 0.0027205451656538487 0 -0.017241247514381681 0.0026462897424486568 0 -0.01721220444693394 0.0026648946952295798 0 -0.017254586887222419 0.0027205451656538487 0 -0.017293822748408547 0.0026741335273567004 0 -0.01729479448178995 0.0026052396079578911 0 -0.017404780922277929 0.0026250385508503424 0 -0.017241247514381681 0.0026462897424486568 0 -0.017293822748408547 0.0026741335273567004 0 -0.017254586887222419 0.0027205451656538487 0 -0.017241247514381681 0.0026462897424486568 0 -0.017293822748408547 0.0026741335273567004 0 -0.01729479448178995 0.0026052396079578911 0 -0.017241247514381681 0.0026462897424486568 0 -0.01729479448178995 0.0026052396079578911 0 -0.017217791674190075 0.0025787981766656532 0 -0.017404780922277929 0.0026250385508503424 0 -0.017358668679739338 0.0027234582412930348 0 -0.017470356130643128 0.0027298390583893467 0 -0.017293822748408547 0.0026741335273567004 0 -0.017404780922277929 0.0026250385508503424 0 -0.017358668679739338 0.0027234582412930348 0 -0.017358668679739338 0.0027234582412930348 0 -0.01738375453506933 0.0028630574060590731 0 -0.017470356130643128 0.0027298390583893467 0 -0.017293822748408547 0.0026741335273567004 0 -0.017358668679739338 0.0027234582412930348 0 -0.017254586887222419 0.0027205451656538487 0 -0.017358668679739338 0.0027234582412930348 0 -0.017254586887222419 0.0027205451656538487 0 -0.01738375453506933 0.0028630574060590731 0 -0.017380231327623723 0.0029566819760576909 0 -0.017319904564696311 0.0029355857016156147 0 -0.01738375453506933 0.0028630574060590731 0 -0.017254586887222419 0.0027205451656538487 0 -0.017319904564696311 0.0029355857016156147 0 -0.01738375453506933 0.0028630574060590731 0 -0.01738375453506933 0.0028630574060590731 0 -0.017495035544499233 0.002815950725843622 0 -0.017470356130643128 0.0027298390583893467 0 -0.01738375453506933 0.0028630574060590731 0 -0.017469831078909492 0.0028927250397564152 0 -0.017495035544499233 0.002815950725843622 0 -0.017380231327623723 0.0029566819760576909 0 -0.01738375453506933 0.0028630574060590731 0 -0.017469831078909492 0.0028927250397564152 0 -0.017469831078909492 0.0028927250397564152 0 -0.017495035544499233 0.002815950725843622 0 -0.017594220445909321 0.0028774604009382254 0 -0.017716159133427136 0.0026270970710900532 0 -0.017822137832813615 0.0024618474608373337 0 -0.017495035544499233 0.002815950725843622 0 -0.017593512348106459 0.0026426135952266911 0 -0.017832019544167504 0.0025162865895607595 0 -0.017495035544499233 0.002815950725843622 0 -0.017470356130643128 0.0027298390583893467 0 -0.017593512348106459 0.0026426135952266911 0 -0.017404780922277929 0.0026250385508503424 0 -0.017470356130643128 0.0027298390583893467 0 -0.017593512348106459 0.0026426135952266911 0 -0.017593512348106459 0.0026426135952266911 0 -0.01779411853850307 0.0023891939697019797 0 -0.017832019544167504 0.0025162865895607595 0 -0.017593512348106459 0.0026426135952266911 0 -0.017491262767799477 0.0024835062402345596 0 -0.017679263933875825 0.002328157993644866 0 -0.017797069483074898 0.0024501006987470643 0 -0.017858967634830508 0.0022934096799346374 0 -0.017404780922277929 0.0026250385508503424 0 -0.017593512348106459 0.0026426135952266911 0 -0.017491262767799477 0.0024835062402345596 0 -0.017491262767799477 0.0024835062402345596 0 -0.017679263933875825 0.002328157993644866 0 -0.017451335009834423 0.0023253642944644198 0 -0.017761569764745015 0.0020007293366908542 0 -0.017679263933875825 0.002328157993644866 0 -0.017553400468369701 0.0021481641780679624 0 -0.017679263933875825 0.002328157993644866 0 -0.017553400468369701 0.0021481641780679624 0 -0.017451335009834423 0.0023253642944644198 0 -0.017553400468369701 0.0021481641780679624 0 -0.017451335009834423 0.0023253642944644198 0 -0.017301790965976515 0.0021737664599348352 0 -0.017451335009834423 0.0023253642944644198 0 -0.017301790965976515 0.0021737664599348352 0 -0.017267328063775754 0.0023818154403494897 0 -0.017267328063775754 0.0023818154403494897 0 -0.01733635623232237 0.0024943893909299352 0 -0.017190070050041337 0.0024989921334619886 0 -0.017491262767799477 0.0024835062402345596 0 -0.017451335009834423 0.0023253642944644198 0 -0.01733635623232237 0.0024943893909299352 0 -0.017451335009834423 0.0023253642944644198 0 -0.017267328063775754 0.0023818154403494897 0 -0.01733635623232237 0.0024943893909299352 0 -0.01729479448178995 0.0026052396079578911 0 -0.017404780922277929 0.0026250385508503424 0 -0.01733635623232237 0.0024943893909299352 0 -0.017404780922277929 0.0026250385508503424 0 -0.017491262767799477 0.0024835062402345596 0 -0.01733635623232237 0.0024943893909299352 0 -0.01729479448178995 0.0026052396079578911 0 -0.01733635623232237 0.0024943893909299352 0 -0.017217791674190075 0.0025787981766656532 0 -0.01733635623232237 0.0024943893909299352 0 -0.017190070050041337 0.0024989921334619886 0 -0.017217791674190075 0.0025787981766656532 0 -0.018760582337475771 0.0012386894061701937 0 -0.018816532758321722 0.0013933001813529974 0 -0.018848630974688956 0.0013639698114077034 0 -0.01873285544208764 0.0015302265733099756 0 -0.01903724736368206 0.00084451500548555982 0 -0.017153528555836739 0.0026478552886333023 0 -0.017190070050041337 0.0024989921334619886 0 -0.017059399154709342 0.0024130969158580816 0 -0.017153528555836739 0.0026478552886333023 0 -0.017190070050041337 0.0024989921334619886 0 -0.017217791674190075 0.0025787981766656532 0 -0.01873285544208764 0.0015302265733099756 0 -0.018942109104874535 0.0011081344983635156 0 -0.017485665130059027 0.0027015391296277206 0 -0.01743509394414388 0.0026726182986553603 0 -0.01743512295935502 0.0026107204297426577 0 -0.01903724736368206 0.00084451500548555982 0 -0.018942109104874535 0.0011081344983635156 0 -0.017267328063775754 0.0023818154403494897 0 -0.017190070050041337 0.0024989921334619886 0 -0.017059399154709342 0.0024130969158580816 0 -0.020933445871489761 -0.001527903020250268 0 -0.020663457984448838 -0.0023057235586358849 0 -0.02056190504177953 -0.001761821500257225 0 -0.02009927559428594 -0.0018085786627608257 0 -0.020663457984448838 -0.0023057235586358849 0 -0.02056190504177953 -0.001761821500257225 0 -0.017301790965976515 0.0021737664599348352 0 -0.017267328063775754 0.0023818154403494897 0 -0.017059399154709342 0.0024130969158580816 0 -0.01889155956711534 0.00057961055181276892 0 -0.01903724736368206 0.00084451500548555982 0 -0.020933445871489761 -0.001527903020250268 0 -0.02073339306441371 -0.002087150325073844 0 -0.02103077305944219 -0.0018545364874970934 0 -0.019192974915605565 -0.00039319312485995095 0 -0.01903724736368206 0.00084451500548555982 0 -0.019250023555610216 0.00044937029034696738 0 -0.018942109104874535 0.0011081344983635156 0 -0.021279786224119947 -0.0015321269482719752 0 -0.021106886711487454 -0.0015413474116486279 0 -0.02103077305944219 -0.0018545364874970934 0 -0.019616690616434201 -0.00011036486630426105 0 -0.019250023555610216 0.00044937029034696738 0 -0.017307525392953719 0.0025856980050486121 0 -0.017382936105561634 0.0024977575392661762 0 -0.017382209722891579 0.0025713815504328839 0 -0.017307525392953719 0.0025856980050486121 0 -0.017382209722891579 0.0025713815504328839 0 -0.017398016830769233 0.0026437459282989567 0 -0.017307525392953719 0.0025856980050486121 0 -0.017345857555854036 0.0027090634622027277 0 -0.017398016830769233 0.0026437459282989567 0 -0.017382209722891579 0.0025713815504328839 0 -0.017449106193771068 0.0025988159944299095 0 -0.017398016830769233 0.0026437459282989567 0 -0.02073339306441371 -0.002087150325073844 0 -0.02103077305944219 -0.0018545364874970934 0 -0.020811080759269997 -0.0021576460796884148 0 -0.017382936105561634 0.0024977575392661762 0 -0.017382209722891579 0.0025713815504328839 0 -0.017449106193771068 0.0025988159944299095 0 -0.01743509394414388 0.0026726182986553603 0 -0.01743512295935502 0.0026107204297426577 0 -0.017398016830769233 0.0026437459282989567 0 -0.018942109104874535 0.0011081344983635156 0 -0.018787730718754822 0.001252700789556337 0 -0.017713085779639304 0.0028247914799757927 0 -0.017766700111538272 0.0027848645472745882 0 -0.017723416727324644 0.0027393641756317325 0 -0.016956391111607117 0.0024653543663071763 0 -0.016413719615337895 0.0024755699815728004 0 -0.017713085779639304 0.0028247914799757927 0 -0.017655807023857047 0.0028131614241689645 0 -0.017723416727324644 0.0027393641756317325 0 -0.017713085779639304 0.0028247914799757927 0 -0.017766700111538272 0.0027848645472745882 0 -0.017740152150744207 0.0029014393617593447 0 -0.016099990622259818 0.0022745934536647569 0 -0.016050026580854606 0.0022591962741397901 0 -0.016063058852016258 0.0021940381470253109 0 -0.016099990622259818 0.0022745934536647569 0 -0.016050026580854606 0.0022591962741397901 0 -0.016068988266329239 0.0022879837317392529 0 -0.015927745088856509 0.0021505771403915767 0 -0.015920898489928927 0.002254135845983051 0 -0.016060018390366668 0.0021858176427427644 0 -0.016099990622259818 0.0022745934536647569 0 -0.016063058852016258 0.0021940381470253109 0 -0.016138195245750959 0.0021564338579377479 0 -0.016191125971754414 0.002437599823965895 0 -0.016413719615337895 0.0024755699815728004 0 -0.017713085779639304 0.0028247914799757927 0 -0.017740152150744207 0.0029014393617593447 0 -0.017675344940985969 0.0028781126547931454 0 -0.017658168337927757 0.0029488048750859978 0 -0.017740152150744207 0.0029014393617593447 0 -0.017675344940985969 0.0028781126547931454 0 -0.017675344940985969 0.0028781126547931454 0 -0.017594220445909321 0.0028774604009382254 0 -0.017655807023857047 0.0028131614241689645 0 -0.017658168337927757 0.0029488048750859978 0 -0.017675344940985969 0.0028781126547931454 0 -0.017594220445909321 0.0028774604009382254 0 -0.017495035544499233 0.002815950725843622 0 -0.017594220445909321 0.0028774604009382254 0 -0.017732940751563845 0.0026746430670399452 0 -0.017504369077762497 0.0029423766768893241 0 -0.017469831078909492 0.0028927250397564152 0 -0.017594220445909321 0.0028774604009382254 0 -0.017670926862603437 0.0026670492573304559 0 -0.017715900202428435 0.0025842692514665361 0 -0.017495035544499233 0.002815950725843622 0 -0.017732940751563845 0.0026746430670399452 0 -0.017717380208890424 0.002446884072799724 0 -0.017594220445909321 0.0028774604009382254 0 -0.017732940751563845 0.0026746430670399452 0 -0.017989388359117033 0.0026901278763826193 0 -0.017713085779639304 0.0028247914799757927 0 -0.017675344940985969 0.0028781126547931454 0 -0.017655807023857047 0.0028131614241689645 0 -0.017732940751563845 0.0026746430670399452 0 -0.017989388359117033 0.0026901278763826193 0 -0.017916658297284619 0.0025073253820741695 0 -0.017715900202428435 0.0025842692514665361 0 -0.017733900677278865 0.0024125931118650127 0 -0.017916658297284619 0.0025073253820741695 0 -0.018029217189816309 0.0023350675843270378 0 -0.018286966757824298 0.002429456603674432 0 -0.017989388359117033 0.0026901278763826193 0 -0.017916658297284619 0.0025073253820741695 0 -0.018286966757824298 0.002429456603674432 0 -0.017916658297284619 0.0025073253820741695 0 -0.017717380208890424 0.002446884072799724 0 -0.018029217189816309 0.0023350675843270378 0 -0.017732940751563845 0.0026746430670399452 0 -0.017916658297284619 0.0025073253820741695 0 -0.017717380208890424 0.002446884072799724 0 -0.018089903959869372 0.0022164079103350397 0 -0.017942078787251535 0.0021428741724915162 0 -0.01779411853850307 0.0023891939697019797 0 -0.017994722008999733 0.0022055081184613801 0 -0.017822137832813615 0.0024618474608373337 0 -0.018021115987894742 0.0020988202147967233 0 -0.017717380208890424 0.002446884072799724 0 -0.018029217189816309 0.0023350675843270378 0 -0.018089903959869372 0.0022164079103350397 0 -0.01779411853850307 0.0023891939697019797 0 -0.017832019544167504 0.0025162865895607595 0 -0.018016782333053219 0.0019095195177084173 0 -0.017858967634830508 0.0022934096799346374 0 -0.018021115987894742 0.0020988202147967233 0 -0.018029217189816309 0.0023350675843270378 0 -0.018117146943304591 0.0021798531539772726 0 -0.018029217189816309 0.0023350675843270378 0 -0.018243396555532778 0.0022199803032133762 0 -0.018286966757824298 0.002429456603674432 0 -0.018029217189816309 0.0023350675843270378 0 -0.018117146943304591 0.0021798531539772726 0 -0.018243396555532778 0.0022199803032133762 0 -0.018189210785993774 0.0021059485660888844 0 -0.018117146943304591 0.0021798531539772726 0 -0.018243396555532778 0.0022199803032133762 0 -0.017733900677278865 0.0024125931118650127 0 -0.017553688622423905 0.0022450300926146406 0 -0.018243396555532778 0.0022199803032133762 0 -0.018286966757824298 0.002429456603674432 0 -0.018477425168996361 0.0021983741891241282 0 -0.018302294080155358 0.0020568191309575522 0 -0.018243396555532778 0.0022199803032133762 0 -0.018477425168996361 0.0021983741891241282 0 -0.017766700111538272 0.0027848645472745882 0 -0.017723416727324644 0.0027393641756317325 0 -0.017793818792588994 0.0026650882034764578 0 -0.016099990622259818 0.0022745934536647569 0 -0.016096250728260528 0.0022743659804664025 0 -0.016068988266329239 0.0022879837317392529 0 -0.016956391111607117 0.0024653543663071763 0 -0.017553688622423905 0.0022450300926146406 0 -0.016096250728260528 0.0022743659804664025 0 -0.016132058674186094 0.0022762359617040412 0 -0.016261966067333676 0.0022507927392465391 0 -0.016132058674186094 0.0022762359617040412 0 -0.016261966067333676 0.0022507927392465391 0 -0.016112251811273251 0.0022399265842209162 0 -0.016252369272430792 0.0022113221629117977 0 -0.016261966067333676 0.0022507927392465391 0 -0.016112251811273251 0.0022399265842209162 0 -0.016132058674186094 0.0022762359617040412 0 -0.016005910092778356 0.0022670076741229217 0 -0.016112251811273251 0.0022399265842209162 0 -0.016096250728260528 0.0022743659804664025 0 -0.016132058674186094 0.0022762359617040412 0 -0.016068988266329239 0.0022879837317392529 0 -0.016132058674186094 0.0022762359617040412 0 -0.016005910092778356 0.0022670076741229217 0 -0.016068988266329239 0.0022879837317392529 0 -0.016191125971754414 0.002437599823965895 0 -0.016118456998470979 0.0024292131818153093 0 -0.016005910092778356 0.0022670076741229217 0 -0.016068988266329239 0.0022879837317392529 0 -0.015921028217524488 0.0022591122435567123 0 -0.016050026580854606 0.0022591962741397901 0 -0.016063058852016258 0.0021940381470253109 0 -0.015921028217524488 0.0022591122435567123 0 -0.016050026580854606 0.0022591962741397901 0 -0.016068988266329239 0.0022879837317392529 0 -0.015921028217524488 0.0022591122435567123 0 -0.016005910092778356 0.0022670076741229217 0 -0.015921028217524488 0.0022591122435567123 0 -0.015867908314319109 0.0022474348951344539 0 -0.015921028217524488 0.0022591122435567123 0 -0.015867908314319109 0.0022474348951344539 0 -0.015687922979750225 0.002232251352626538 0 -0.015867908314319109 0.0022474348951344539 0 -0.015687922979750225 0.002232251352626538 0 -0.015773909271280549 0.0022449763047664617 0 -0.015927745088856509 0.0021505771403915767 0 -0.015687922979750225 0.002232251352626538 0 -0.015861258461322428 0.002244205459267561 0 -0.015920898489928927 0.002254135845983051 0 -0.015921028217524488 0.0022591122435567123 0 -0.015861258461322428 0.002244205459267561 0 -0.015921028217524488 0.0022591122435567123 0 -0.015687922979750225 0.002232251352626538 0 -0.015861258461322428 0.002244205459267561 0 -0.01580569625457055 0.0025194666354735047 0 -0.015757237914087084 0.002472841875255853 0 -0.015927745088856509 0.0021505771403915767 0 -0.015920898489928927 0.002254135845983051 0 -0.015861258461322428 0.002244205459267561 0 -0.015809356115165717 0.0022478745072806268 0 -0.015773909271280549 0.0022449763047664617 0 -0.01574998696870555 0.0022924195730821828 0 -0.015809356115165717 0.0022478745072806268 0 -0.015773909271280549 0.0022449763047664617 0 -0.015976060684158598 0.0022730120766939347 0 -0.015867908314319109 0.0022474348951344539 0 -0.015773909271280549 0.0022449763047664617 0 -0.015976060684158598 0.0022730120766939347 0 -0.016005910092778356 0.0022670076741229217 0 -0.015867908314319109 0.0022474348951344539 0 -0.015976060684158598 0.0022730120766939347 0 -0.015809356115165717 0.0022478745072806268 0 -0.015976060684158598 0.0022730120766939347 0 -0.015831855920421266 0.0022791278943044106 0 -0.015997587495341099 0.0023628528664466548 0 -0.015974556580322721 0.0024146468749960404 0 -0.015976060684158598 0.0022730120766939347 0 -0.015891053938599992 0.00247295329434268 0 -0.015831855920421266 0.0022791278943044106 0 -0.015976060684158598 0.0022730120766939347 0 -0.016112251811273251 0.0022399265842209162 0 -0.016094247260869946 0.0021846020725524097 0 -0.016005910092778356 0.0022670076741229217 0 -0.015976060684158598 0.0022730120766939347 0 -0.016112251811273251 0.0022399265842209162 0 -0.016252369272430792 0.0022113221629117977 0 -0.016112251811273251 0.0022399265842209162 0 -0.016094247260869946 0.0021846020725524097 0 -0.015909423253486678 0.0025581841752755322 0 -0.015974556580322721 0.0024146468749960404 0 -0.015779554829713618 0.0026826459536770622 0 -0.015891053938599992 0.00247295329434268 0 -0.01567769150260135 0.0024961566517225611 0 -0.01567769150260135 0.0024961566517225611 0 -0.015763251224044626 0.0023569636761220859 0 -0.015648004309194202 0.0023019295611995047 0 -0.015891053938599992 0.00247295329434268 0 -0.015763251224044626 0.0023569636761220859 0 -0.015831855920421266 0.0022791278943044106 0 -0.015891053938599992 0.00247295329434268 0 -0.01567769150260135 0.0024961566517225611 0 -0.015763251224044626 0.0023569636761220859 0 -0.015365480759060286 0.0026316646563337757 0 -0.015467252134361216 0.0024474043367414514 0 -0.01527258157217988 0.0024554579194770677 0 -0.015570131546635694 0.0026834829125766311 0 -0.01567769150260135 0.0024961566517225611 0 -0.015520539721289611 0.0025639573431556254 0 -0.015365480759060286 0.0026316646563337757 0 -0.015520539721289611 0.0025639573431556254 0 -0.015467252134361216 0.0024474043367414514 0 -0.01567769150260135 0.0024961566517225611 0 -0.015520539721289611 0.0025639573431556254 0 -0.015467252134361216 0.0024474043367414514 0 -0.01567769150260135 0.0024961566517225611 0 -0.015467252134361216 0.0024474043367414514 0 -0.015648004309194202 0.0023019295611995047 0 -0.015467252134361216 0.0024474043367414514 0 -0.015425750315405096 0.002307208051531744 0 -0.015648004309194202 0.0023019295611995047 0 -0.015467252134361216 0.0024474043367414514 0 -0.015349017245776999 0.0023614010311705908 0 -0.01527258157217988 0.0024554579194770677 0 -0.015425750315405096 0.002307208051531744 0 -0.015349017245776999 0.0023614010311705908 0 -0.015322850730295953 0.0022375651763051371 0 -0.015467252134361216 0.0024474043367414514 0 -0.015425750315405096 0.002307208051531744 0 -0.015349017245776999 0.0023614010311705908 0 -0.015224480171689089 0.0023295444951918964 0 -0.015349017245776999 0.0023614010311705908 0 -0.015322850730295953 0.0022375651763051371 0 -0.015224480171689089 0.0023295444951918964 0 -0.015349017245776999 0.0023614010311705908 0 -0.01527258157217988 0.0024554579194770677 0 -0.014357954062012766 0.0018026663610951361 0 -0.015356605709091184 0.0017678774498872429 0 -0.015001536240711381 0.0021689690767985517 0 -0.013815703427053277 0.0033629776183116611 0 -0.013897537926609433 0.0032718325223207749 0 -0.015330343433342716 0.0020639026917703722 0 -0.015001536240711381 0.0021689690767985517 0 -0.015322850730295953 0.0022375651763051371 0 -0.015425750315405096 0.002307208051531744 0 -0.015330343433342716 0.0020639026917703722 0 -0.015322850730295953 0.0022375651763051371 0 -0.015648004309194202 0.0023019295611995047 0 -0.015684144725902585 0.002275319296617498 0 -0.015738749551317203 0.00226478628659684 0 -0.013815703427053277 0.0033629776183116611 0 -0.014456276320932694 0.0033348431153259056 0 -0.015425750315405096 0.002307208051531744 0 -0.015330343433342716 0.0020639026917703722 0 -0.015648004309194202 0.0023019295611995047 0 -0.015640804843770815 0.002287410830596308 0 -0.015648004309194202 0.0023019295611995047 0 -0.015684144725902585 0.002275319296617498 0 -0.013815703427053277 0.0033629776183116611 0 -0.014327922235823097 0.0037733989621803981 0 -0.015640804843770815 0.002287410830596308 0 -0.015684144725902585 0.002275319296617498 0 -0.015719431033671946 0.0022458905272777969 0 -0.015684144725902585 0.002275319296617498 0 -0.015738749551317203 0.00226478628659684 0 -0.015719431033671946 0.0022458905272777969 0 -0.013088369783052825 0.0065523341376019827 0 -0.012885943123245806 0.0061238729104813065 0 -0.013161874264938981 0.0059637219411003365 0 -0.013088369783052825 0.0065523341376019827 0 -0.013161874264938981 0.0059637219411003365 0 -0.013589723836507056 0.0059789537764731232 0 -0.012885943123245806 0.0061238729104813065 0 -0.012879878857742773 0.0058875630060311879 0 -0.013161874264938981 0.0059637219411003365 0 -0.015831855920421266 0.0022791278943044106 0 -0.015764127557006194 0.0022812774432260301 0 -0.015790765330078914 0.0022567324716754752 0 -0.015763251224044626 0.0023569636761220859 0 -0.015831855920421266 0.0022791278943044106 0 -0.015764127557006194 0.0022812774432260301 0 -0.015763251224044626 0.0023569636761220859 0 -0.015648004309194202 0.0023019295611995047 0 -0.015764127557006194 0.0022812774432260301 0 -0.015648004309194202 0.0023019295611995047 0 -0.015764127557006194 0.0022812774432260301 0 -0.015738749551317203 0.00226478628659684 0 -0.015738749551317203 0.00226478628659684 0 -0.015790765330078914 0.0022567324716754752 0 -0.01579056716198968 0.0022588492825364528 0 -0.015764127557006194 0.0022812774432260301 0 -0.015738749551317203 0.00226478628659684 0 -0.015790765330078914 0.0022567324716754752 0 -0.015738749551317203 0.00226478628659684 0 -0.01579056716198968 0.0022588492825364528 0 -0.015719431033671946 0.0022458905272777969 0 -0.015809356115165717 0.0022478745072806268 0 -0.015790765330078914 0.0022567324716754752 0 -0.015793308481167109 0.0022746022045139706 0 -0.015809356115165717 0.0022478745072806268 0 -0.015831855920421266 0.0022791278943044106 0 -0.015790765330078914 0.0022567324716754752 0 -0.015790765330078914 0.0022567324716754752 0 -0.015793308481167109 0.0022746022045139706 0 -0.01579056716198968 0.0022588492825364528 0 -0.015793308481167109 0.0022746022045139706 0 -0.01579056716198968 0.0022588492825364528 0 -0.015802048225655698 0.0023686255341270018 0 -0.015717438655581822 0.0023322370785405122 0 -0.015636738729458768 0.0024032254460436132 0 -0.01579056716198968 0.0022588492825364528 0 -0.015826176484799774 0.0023009387904122454 0 -0.015719431033671946 0.0022458905272777969 0 -0.014762777711446183 0.00378049746056076 0 -0.014327922235823097 0.0037733989621803981 0 -0.014104869568704978 0.0054114717649759655 0 -0.013589723836507056 0.0059789537764731232 0 -0.013667849374632401 0.0054916103258941728 0 -0.014104869568704978 0.0054114717649759655 0 -0.013803208571148876 0.0051387685863293594 0 -0.01410884460418434 0.0049308469974722238 0 -0.014104869568704978 0.0054114717649759655 0 -0.013803208571148876 0.0051387685863293594 0 -0.013667849374632401 0.0054916103258941728 0 -0.01579056716198968 0.0022588492825364528 0 -0.015826176484799774 0.0023009387904122454 0 -0.015733585853967579 0.0023210637787229784 0 -0.015826176484799774 0.0023009387904122454 0 -0.015733585853967579 0.0023210637787229784 0 -0.015787775547941613 0.002604788037117185 0 -0.012990525367787628 0.0056729560004000149 0 -0.012879878857742773 0.0058875630060311879 0 -0.013161874264938981 0.0059637219411003365 0 -0.012990525367787628 0.0056729560004000149 0 -0.013361207926965988 0.005629874848251129 0 -0.013115475065239785 0.0053946857826826615 0 -0.012990525367787628 0.0056729560004000149 0 -0.013161874264938981 0.0059637219411003365 0 -0.013361207926965988 0.005629874848251129 0 -0.013361207926965988 0.005629874848251129 0 -0.013589723836507056 0.0059789537764731232 0 -0.013667849374632401 0.0054916103258941728 0 -0.013161874264938981 0.0059637219411003365 0 -0.013361207926965988 0.005629874848251129 0 -0.013589723836507056 0.0059789537764731232 0 -0.013803208571148876 0.0051387685863293594 0 -0.013481025482699249 0.005294461255846883 0 -0.013529603169478851 0.0049753351104356459 0 -0.013803208571148876 0.0051387685863293594 0 -0.013667849374632401 0.0054916103258941728 0 -0.013481025482699249 0.005294461255846883 0 -0.013361207926965988 0.005629874848251129 0 -0.013481025482699249 0.005294461255846883 0 -0.013115475065239785 0.0053946857826826615 0 -0.013361207926965988 0.005629874848251129 0 -0.013667849374632401 0.0054916103258941728 0 -0.013481025482699249 0.005294461255846883 0 -0.013481025482699249 0.005294461255846883 0 -0.013115475065239785 0.0053946857826826615 0 -0.013201703170210978 0.0050264121681171644 0 -0.012833747468594515 0.0052229980821557973 0 -0.013115475065239785 0.0053946857826826615 0 -0.013201703170210978 0.0050264121681171644 0 -0.012845718011466492 0.0054942452429456497 0 -0.012990525367787628 0.0056729560004000149 0 -0.013115475065239785 0.0053946857826826615 0 -0.012833747468594515 0.0052229980821557973 0 -0.012845718011466492 0.0054942452429456497 0 -0.013115475065239785 0.0053946857826826615 0 -0.012861863668023022 0.0047494003820773237 0 -0.012833747468594515 0.0052229980821557973 0 -0.013201703170210978 0.0050264121681171644 0 -0.012861863668023022 0.0047494003820773237 0 -0.013201703170210978 0.0050264121681171644 0 -0.013396173126221923 0.0046643403323597355 0 -0.013201703170210978 0.0050264121681171644 0 -0.013529603169478851 0.0049753351104356459 0 -0.013396173126221923 0.0046643403323597355 0 -0.013481025482699249 0.005294461255846883 0 -0.013201703170210978 0.0050264121681171644 0 -0.013529603169478851 0.0049753351104356459 0 -0.013803208571148876 0.0051387685863293594 0 -0.013529603169478851 0.0049753351104356459 0 -0.013767626180724029 0.0047504207610198001 0 -0.013529603169478851 0.0049753351104356459 0 -0.013396173126221923 0.0046643403323597355 0 -0.013767626180724029 0.0047504207610198001 0 -0.013349161374970855 0.0041069991329649013 0 -0.013680452295746565 0.0043559191778692451 0 -0.013396173126221923 0.0046643403323597355 0 -0.013680452295746565 0.0043559191778692451 0 -0.013396173126221923 0.0046643403323597355 0 -0.013767626180724029 0.0047504207610198001 0 -0.007762724866228198 0.0040319851693230453 0 -0.007766920911700604 0.0037804673441197492 0 -0.012861863668023022 0.0047494003820773237 0 -0.013349161374970855 0.0041069991329649013 0 -0.013396173126221923 0.0046643403323597355 0 -0.0027180475290179314 0.0037780738037167384 0 -0.0026298644489518947 0.0035576336214617056 0 -0.0023486645343751148 0.003993061836074516 0 -0.014762777711446183 0.00378049746056076 0 -0.015019608894292213 0.0037797172411050319 0 -0.014104869568704978 0.0054114717649759655 0 -0.014646889662264035 0.0048344387921715783 0 -0.01410884460418434 0.0049308469974722238 0 -0.014646889662264035 0.0048344387921715783 0 -0.01410884460418434 0.0049308469974722238 0 -0.014207729681056777 0.0045174573834944678 0 -0.013803208571148876 0.0051387685863293594 0 -0.01410884460418434 0.0049308469974722238 0 -0.013767626180724029 0.0047504207610198001 0 -0.01410884460418434 0.0049308469974722238 0 -0.013767626180724029 0.0047504207610198001 0 -0.014207729681056777 0.0045174573834944678 0 -0.014066930566947682 0.0040416857312567632 0 -0.013680452295746565 0.0043559191778692451 0 -0.014207729681056777 0.0045174573834944678 0 -0.013680452295746565 0.0043559191778692451 0 -0.013767626180724029 0.0047504207610198001 0 -0.014207729681056777 0.0045174573834944678 0 -0.014646889662264035 0.0048344387921715783 0 -0.014207729681056777 0.0045174573834944678 0 -0.014682420234802008 0.0044115673824760169 0 -0.014435519410516181 0.0042089346915737871 0 -0.014066930566947682 0.0040416857312567632 0 -0.014207729681056777 0.0045174573834944678 0 -0.014435519410516181 0.0042089346915737871 0 -0.014207729681056777 0.0045174573834944678 0 -0.014682420234802008 0.0044115673824760169 0 -0.014435519410516181 0.0042089346915737871 0 -0.014870513968437095 0.0041928301406879429 0 -0.014682420234802008 0.0044115673824760169 0 -0.014990978191550448 0.0039951717833925839 0 -0.015019608894292213 0.0037797172411050319 0 -0.015173352973672781 0.0041418361362223618 0 -0.014870513968437095 0.0041928301406879429 0 -0.014682420234802008 0.0044115673824760169 0 -0.015173352973672781 0.0041418361362223618 0 -0.014646889662264035 0.0048344387921715783 0 -0.014682420234802008 0.0044115673824760169 0 -0.01551609905553953 0.0033626096268587063 0 -0.015787775547941613 0.002604788037117185 0 -0.015347891078082954 0.0029567733288949276 0 -0.015787775547941613 0.002604788037117185 0 -0.015352261934035426 0.0025872781602800515 0 -0.015347891078082954 0.0029567733288949276 0 -0.015636738729458768 0.0024032254460436132 0 -0.015364666293862817 0.0026228915984061341 0 -0.015733585853967579 0.0023210637787229784 0 -0.015787775547941613 0.002604788037117185 0 -0.015352261934035426 0.0025872781602800515 0 -0.015654041525135009 0.0025684214747619151 0 -0.014751403530643097 0.0028844039276853441 0 -0.015190190781315912 0.0025918555800664694 0 -0.015654041525135009 0.0025684214747619151 0 -0.015190190781315912 0.0025918555800664694 0 -0.015461132925427216 0.0024345428777743342 0 -0.015654041525135009 0.0025684214747619151 0 -0.014751403530643097 0.0028844039276853441 0 -0.014452757539228542 0.0031384792093998399 0 -0.015364666293862817 0.0026228915984061341 0 -0.015065013537786916 0.002858246272388214 0 -0.015352261934035426 0.0025872781602800515 0 -0.015347891078082954 0.0029567733288949276 0 -0.014991591212633278 0.0031834748568748818 0 -0.015352261934035426 0.0025872781602800515 0 -0.014991591212633278 0.0031834748568748818 0 -0.014452757539228542 0.0031384792093998399 0 -0.015347891078082954 0.0029567733288949276 0 -0.015234722759534466 0.0032726060761095552 0 -0.014991591212633278 0.0031834748568748818 0 -0.01551609905553953 0.0033626096268587063 0 -0.015347891078082954 0.0029567733288949276 0 -0.015234722759534466 0.0032726060761095552 0 -0.014988073235584987 0.003663147229148339 0 -0.015234722759534466 0.0032726060761095552 0 -0.014991591212633278 0.0031834748568748818 0 -0.014629075087663564 0.0035112414931224452 0 -0.014832584480180534 0.0035531304044319058 0 -0.014991591212633278 0.0031834748568748818 0 -0.014751403530643097 0.0028844039276853441 0 -0.014452757539228542 0.0031384792093998399 0 -0.013234494185274351 0.0033617504770742466 0 -0.014629075087663564 0.0035112414931224452 0 -0.014991591212633278 0.0031834748568748818 0 -0.014452757539228542 0.0031384792093998399 0 -0.014201158583697216 0.0036424761570368843 0 -0.014452757539228542 0.0031384792093998399 0 -0.013234494185274351 0.0033617504770742466 0 -0.013905189929254054 0.0021526630473063498 0 -0.013017263647834405 0.0019997046790914594 0 -0.014751403530643097 0.0028844039276853441 0 -0.015157771970182468 0.0024720685716003508 0 -0.015054994116728051 0.002664787936759319 0 -0.014751403530643097 0.0028844039276853441 0 -0.012217297871537944 0.0027535749372125029 0 -0.013234494185274351 0.0033617504770742466 0 -0.012385008629326455 0.0038134156368894189 0 -0.012217297871537944 0.0027535749372125029 0 -0.013234494185274351 0.0033617504770742466 0 -0.015054994116728051 0.002664787936759319 0 -0.01518422559201783 0.0025844235736144621 0 -0.015288922796416663 0.0025170144320850628 0 -0.015175555506110921 0.0025801245530048225 0 -0.015157771970182468 0.0024720685716003508 0 -0.015054994116728051 0.002664787936759319 0 -0.015175555506110921 0.0025801245530048225 0 -0.015054994116728051 0.002664787936759319 0 -0.01518422559201783 0.0025844235736144621 0 -0.014751403530643097 0.0028844039276853441 0 -0.015054994116728051 0.002664787936759319 0 -0.015190190781315912 0.0025918555800664694 0 -0.015054994116728051 0.002664787936759319 0 -0.015190190781315912 0.0025918555800664694 0 -0.015288922796416663 0.0025170144320850628 0 -0.015288922796416663 0.0025170144320850628 0 -0.015307052016306029 0.0024749573627316302 0 -0.015531311673650362 0.0023658459544002195 0 -0.015190190781315912 0.0025918555800664694 0 -0.015288922796416663 0.0025170144320850628 0 -0.015461132925427216 0.0024345428777743342 0 -0.015288922796416663 0.0025170144320850628 0 -0.015531311673650362 0.0023658459544002195 0 -0.015461132925427216 0.0024345428777743342 0 -0.015228764624325876 0.002547008663347383 0 -0.01518422559201783 0.0025844235736144621 0 -0.015247866743914273 0.0025300633296777178 0 -0.01518422559201783 0.0025844235736144621 0 -0.015288922796416663 0.0025170144320850628 0 -0.015247866743914273 0.0025300633296777178 0 -0.015288922796416663 0.0025170144320850628 0 -0.015247866743914273 0.0025300633296777178 0 -0.015307052016306029 0.0024749573627316302 0 -0.015228764624325876 0.002547008663347383 0 -0.015247866743914273 0.0025300633296777178 0 -0.015307052016306029 0.0024749573627316302 0 -0.015256666386541868 0.0023623472020706114 0 -0.015687922979750225 0.002232251352626538 0 -0.015307052016306029 0.0024749573627316302 0 -0.015687922979750225 0.002232251352626538 0 -0.015307052016306029 0.0024749573627316302 0 -0.015531311673650362 0.0023658459544002195 0 -0.015687922979750225 0.002232251352626538 0 -0.015773909271280549 0.0022449763047664617 0 -0.015531311673650362 0.0023658459544002195 0 -0.015773909271280549 0.0022449763047664617 0 -0.01563574978102919 0.0023368436639720383 0 -0.01574998696870555 0.0022924195730821828 0 -0.015773909271280549 0.0022449763047664617 0 -0.015531311673650362 0.0023658459544002195 0 -0.01563574978102919 0.0023368436639720383 0 -0.01563574978102919 0.0023368436639720383 0 -0.01574998696870555 0.0022924195730821828 0 -0.015671656075323424 0.0023843572131484938 0 -0.015793308481167109 0.0022746022045139706 0 -0.015802048225655698 0.0023686255341270018 0 -0.01574998696870555 0.0022924195730821828 0 -0.015809356115165717 0.0022478745072806268 0 -0.015793308481167109 0.0022746022045139706 0 -0.01574998696870555 0.0022924195730821828 0 -0.015802048225655698 0.0023686255341270018 0 -0.015654041525135009 0.0025684214747619151 0 -0.015671656075323424 0.0023843572131484938 0 -0.015802048225655698 0.0023686255341270018 0 -0.01574998696870555 0.0022924195730821828 0 -0.015671656075323424 0.0023843572131484938 0 -0.015654041525135009 0.0025684214747619151 0 -0.015461132925427216 0.0024345428777743342 0 -0.015671656075323424 0.0023843572131484938 0 -0.01563574978102919 0.0023368436639720383 0 -0.015461132925427216 0.0024345428777743342 0 -0.015671656075323424 0.0023843572131484938 0 -0.015531311673650362 0.0023658459544002195 0 -0.01563574978102919 0.0023368436639720383 0 -0.015461132925427216 0.0024345428777743342 0 
</DataArray>
</PointData>
<CellData Scalars="region_id,cross_section_updated," Vectors="" Tensors="stress,">
<DataArray type="Float64" Name="region_id" format="ascii">
5 5 5 5 5 6 5 5 5 5 5 5 5 6 5 5 5 5 6 5 5 6 5 5 5 5 6 5 5 5 5 6 5 5 5 5 5 5 5 5 5 5 5 5 5 6 5 5 6 5 5 5 5 5 6 5 5 5 5 5 5 5 6 5 5 5 5 6 5 5 5 5 5 5 5 5 5 6 5 5 6 5 5 6 5 5 5 5 6 5 5 5 5 5 5 5 6 6 6 5 5 6 5 5 5 5 5 6 5 5 5 5 5 5 5 5 5 5 5 5 5 6 5 5 5 6 5 5 5 5 5 5 6 5 5 5 5 5 5 5 5 5 5 5 5 5 5 5 5 5 5 5 5 5 5 5 5 5 6 5 5 5 6 5 5 6 5 5 5 5 5 5 5 5 5 5 5 6 5 5 5 5 5 5 5 5 6 5 5 5 5 5 5 5 5 6 5 5 5 5 5 5 5 5 5 6 5 5 5 5 5 5 5 5 5 5 5 5 5 5 5 5 5 5 5 5 5 5 5 6 5 5 5 6 5 6 5 6 5 5 6 5 5 5 6 5 6 5 6 5 6 6 5 6 5 5 6 5 6 5 5 5 6 5 6 6 5 5 6 5 5 5 6 5 6 6 6 5 6 5 5 5 6 5 6 6 6 5 5 6 6 5 5 5 5 6 5 6 5 5 6 5 5 5 6 5 6 6 6 5 5 5 6 5 6 6 6 6 5 5 5 6 6 5 5 6 6 6 5 6 5 5 5 5 6 5 5 5 5 5 5 5 6 5 5 5 5 5 5 6 6 5 5 5 6 5 5 5 6 5 6 5 6 6 5 5 5 5 6 5 5 6 5 5 5 5 6 5 6 5 5 5 5 5 6 6 5 5 5 5 5 5 5 5 6 5 5 5 6 5 5 6 5 6 5 5 5 5 5 5 5 5 5 5 5 6 5 6 5 6 5 5 5 6 5 6 5 6 5 5 5 5 5 5 6 5 6 5 5 5 6 5 5 5 6 5 6 6 5 5 5 5 6 5 5 5 5 6 6 5 5 6 5 6 5 6 6 5 5 5 6 5 5 5 5 6 5 5 5 5 5 5 5 5 5 5 5 6 5 5 5 5 6 5 5 5 6 5 6 6 6 5 5 5 6 6 5 6 5 5 6 5 5 5 5 6 5 5 5 5 5 5 5 5 5 5 5 6 6 5 5 6 5 5 5 6 5 5 5 5 5 5 6 5 5 5 6 5 5 5 6 5 5 5 5 5 5 5 5 5 5 5 6 5 5 5 6 5 5 5 5 5 5 5 6 5 5 5 5 5 6 5 5 5 5 5 5 5 5 5 5 5 5 5 5 5 5 5 5 5 6 5 5 5 5 6 5 5 6 5 5 5 5 5 5 5 6 5 5 5 5 5 5 5 5 6 5 6 5 5 6 5 5 5 6 5 5 6 5 5 5 6 5 6 5 5 6 5 6 5 5 5 5 5 5 5 5 5 5 5 5 5 5 5 5 5 5 5 5 5 5 6 5 6 5 6 5 5 5 5 5 5 5 5 5 5 5 5 5 5 5 6 5 5 5 5 5 5 5 5 5 6 5 5 5 5 5 5 5 5 5 5 5 5 5 5 5 5 5 5 5 5 5 5 5 5 5 5 5 5 5 6 5 5 6 5 5 5 6 6 5 6 5 5 5 5 5 6 5 5 5 5 5 6 5 5 5 5 5 5 5 5 5 5 5 5 5 5 5 5 5 5 5 5 5 5 5 5 5 5 5 5 5 5 5 5 5 5 5 5 5 5 5 5 5 5 5 5 5 5 5 5 5 6 5 5 5 5 5 5 5 5 5 5 5 5 5 5 5 6 5 5 5 5 6 5 5 5 5 5 5 5 5 5 5 5 5 5 5 5 5 5 5 5 5 5 5 5 5 5 5 5 6 5 5 6 5 6 6 6 6 5 5 6 5 5 5 5 5 5 5 5 5 5 5 5 5 5 5 5 5 6 5 5 6 5 6 5 5 5 5 6 5 6 5 5 5 5 6 5 5 5 6 5 5 5 5 5 6 5 6 5 5 6 6 5 6 5 5 5 5 5 5 5 5 5 5 5 6 5 5 5 6 5 5 5 6 5 5 6 6 6 5 5 5 5 5 5 5 5 5 5 5 6 5 5 5 5 5 5 5 5 6 6 6 5 5 5 5 5 5 5 5 6 6 5 5 5 6 5 5 6 5 5 5 5 5 5 5 5 5 5 5 6 5 5 5 5 5 5 5 5 6 5 5 5 5 5 5 5 5 5 5 6 5 6 6 6 5 5 5 5 5 5 5 6 6 5 6 5 5 5 5 5 6 5 6 6 5 5 5 6 5 6 5 5 5 5 6 5 5 5 5 5 5 5 5 5 5 5 5 5 5 5 5 5 6 5 5 5 6 5 5 5 5 5 6 5 5 5 5 5 5 6 5 6 5 5 5 5 5 5 5 5 6 5 5 5 6 5 5 5 5 5 5 5 5 5 5 5 5 5 5 5 5 5 5 5 5 5 5 5 5 5 6 6 6 5 5 5 5 6 5 5 5 5 6 5 5 5 5 5 5 5 6 5 5 5 5 5 5 5 5 6 5 5 5 5 5 5 5 5 5 5 5 5 6 5 5 5 5 5 5 6 5 5 5 5 5 5 5 5 6 5 5 5 6 5 5 5 5 5 5 5 5 5 5 5 5 6 5 5 5 5 5 5 5 5 5 5 5 5 5 5 5 5 5 5 5 5 5 5 5 5 5 5 5 5 5 5 5 5 5 5 5 5 5 5 5 5 5 5 5 5 5 5 5 6 5 5 5 5 5 5 5 5 5 5 5 5 5 5 5 5 5 5 5 5 5 5 5 5 6 5 5 5 5 5 5 5 5 5 5 6 5 5 6 5 5 5 5 5 5 5 5 5 6 5 6 5 5 5 5 6 5 5 6 5 6 5 5 5 5 5 6 5 5 5 5 5 5 5 5 6 5 5 5 5 5 5 5 5 5 5 5 5 5 5 6 5 6 6 5 5 5 5 5 6 5 5 5 5 5 5 5 5 5 5 5 5 5 5 5 6 5 5 5 5 5 5 5 5 5 5 5 5 5 5 5 5 6 5 5 5 5 5 6 6 5 5 6 5 5 5 5 5 5 5 5 5 5 6 5 5 5 5 5 5 5 5 5 6 5 6 5 5 5 5 5 6 5 5 5 5 6 5 5 5 6 5 5 5 6 5 5 6 5 5 5 5 5 5 5 5 5 5 5 5 5 5 5 5 6 5 5 5 5 5 5 5 6 5 5 5 5 5 5 5 5 5 5 5 5 5 5 5 5 5 5 5 5 5 5 5 5 5 5 5 6 5 5 5 5 6 5 5 5 6 5 5 5 5 5 5 5 5 5 6 5 6 5 5 5 5 5 5 5 5 5 5 5 5 5 5 5 5 5 5 6 6 5 5 5 6 5 5 6 5 5 6 5 5 5 6 5 5 6 5 5 5 5 5 5 5 5 5 5 5 5 5 5 5 5 5 5 5 5 6 5 6 5 5 5 5 5 5 5 5 5 5 5 6 5 6 5 5 5 6 5 5 5 5 5 6 5 5 5 5 5 5 6 5 5 5 5 5 5 5 5 5 5 5 6 5 5 5 5 5 5 5 5 6 5 5 5 6 5 5 6 5 5 5 5 5 6 5 5 5 5 5 5 5 5 5 6 5 5 6 5 6 5 6 6 6 5 6 5 5 5 5 5 5 6 5 5 5 5 5 5 6 5 5 5 5 5 5 5 6 5 5 5 5 6 5 5 5 5 5 6 5 6 5 5 5 5 5 5 5 5 5 5 6 5 5 5 5 5 5 5 6 5 5 5 5 5 5 5 6 5 6 5 5 5 5 5 5 5 5 6 5 5 5 6 6 5 5 5 5 5 6 6 5 6 5 5 6 5 5 6 5 5 5 5 5 5 5 5 6 5 5 5 5 5 6 5 5 5 5 6 5 5 6 5 5 5 5 5 5 5 5 5 5 5 5 5 5 5 5 5 5 5 5 5 5 5 5 5 5 5 5 5 5 5 5 5 5 5 5 5 5 5 5 5 6 5 5 6 5 5 5 5 5 6 5 5 5 5 6 5 5 5 5 5 5 5 5 5 5 5 5 5 5 5 5 5 5 5 5 5 5 5 5 6 5 5 5 6 5 5 5 5 5 5 6 5 5 5 5 5 5 5 5 5 5 5 6 5 6 6 5 5 6 5 5 5 5 5 5 5 5 5 5 5 6 5 5 6 5 5 5 5 5 5 5 5 5 5 5 5 5 5 5 6 5 5 5 5 5 5 5 6 5 6 5 5 5 5 6 5 6 5 5 5 5 5 5 5 5 5 6 5 5 5 5 5 5 5 5 5 5 5 5 5 5 5 5 5 6 5 5 5 5 5 5 5 5 5 5 5 5 5 5 5 5 5 5 5 5 5 5 5 5 5 6 6 5 5 5 5 5 5 5 5 5 5 5 6 5 5 5 5 6 5 5 5 5 6 5 5 5 5 5 5 5 5 6 5 5 5 5 5 5 5 5 5 6 5 5 5 5 5 5 5 5 5 5 5 5 5 5 5 5 5 5 5 5 6 5 5 5 5 5 5 5 5 5 5 5 5 5 5 6 5 6 5 5 5 5 5 5 5 5 6 5 5 6 5 5 5 5 5 5 5 5 5 5 5 5 5 5 5 5 5 5 5 5 5 5 5 5 5 5 5 5 5 5 5 5 5 5 5 5 6 5 5 6 5 5 5 5 6 5 6 5 5 6 5 6 5 5 5 5 5 6 5 5 5 5 5 5 5 5 5 5 5 5 6 5 5 5 6 5 5 5 5 5 5 5 5 5 6 5 5 5 5 6 6 5 5 5 5 5 5 5 5 6 5 5 5 5 5 6 5 5 5 6 5 5 5 6 5 5 5 5 6 5 5 5 5 5 5 5 5 5 5 5 5 5 5 6 5 5 5 5 5 5 6 5 6 6 5 6 5 6 5 5 5 5 6 5 5 5 5 6 5 5 5 5 5 5 5 5 5 6 5 5 5 5 5 5 5 5 5 5 5 5 5 5 6 5 5 5 6 5 5 5 6 5 6 5 5 5 5 5 5 5 5 5 5 5 5 5 5 5 5 6 5 5 5 5 5 5 6 5 5 5 5 5 5 5 5 5 5 5 5 5 5 5 5 5 5 6 5 5 5 5 5 5 5 5 5 5 5 5 5 5 5 5 5 5 5 5 5 5 5 5 5 5 5 5 5 5 5 5 5 5 6 5 5 5 5 6 5 5 5 5 5 5 5 6 5 5 5 5 5 5 5 5 5 6 5 5 6 5 5 5 5 5 6 5 5 5 6 5 5 6 5 5 5 5 5 5 5 5 5 5 5 5 5 5 5 5 5 5 5 5 6 5 5 5 5 5 5 5 5 5 5 6 6 5 6 5 5 5 5 5 6 5 5 5 5 6 5 5 5 5 5 6 5 6 5 5 6 5 5 5 5 5 5 5 5 6 5 5 5 5 5 5 6 5 5 5 5 5 5 6 5 5 5 5 6 5 5 6 5 6 5 5 6 5 5 5 5 5 5 6 5 5 5 5 6 5 5 5 5 5 5 5 5 6 6 5 5 5 5 5 5 5 5 6 5 5 5 5 5 5 6 5 5 5 5 5 5 5 6 5 5 5 6 5 5 5 5 5 5 5 5 5 5 5 5 6 5 5 5 5 6 5 5 6 5 5 5 5 6 5 5 5 6 6 5 5 5 6 5 5 5 6 5 5 5 5 5 5 5 5 5 6 5 5 5 6 5 5 5 5 5 5 5 5 5 5 5 5 6 5 6 5 5 6 5 5 6 5 5 5 5 5 5 5 6 5 5 5 5 5 6 5 6 5 5 5 6 6 5 6 6 5 6 5 5 5 5 5 5 6 5 6 5 5 5 5 5 5 5 5 5 5 5 5 5 6 5 5 6 5 6 5 5 6 5 5 5 6 6 5 5 6 5 5 5 5 5 5 5 5 5 5 5 5 5 5 5 5 5 5 5 5 5 5 5 6 6 5 6 5 6 5 5 6 6 5 5 6 5 5 6 5 5 6 5 6 5 5 5 5 6 5 5 5 5 6 5 6 6 5 6 5 5 6 6 5 5 5 6 5 5 5 5 6 6 5 5 5 5 5 6 5 5 5 5 5 5 5 5 5 5 5 6 5 6 5 6 5 5 6 5 6 5 5 5 5 5 5 5 5 6 5 5 6 5 5 5 5 6 5 5 5 5 5 5 5 5 5 5 5 5 6 5 5 5 5 5 5 5 5 5 5 5 6 5 5 5 5 5 5 6 5 6 5 5 6 5 5 5 5 5 5 5 5 5 5 5 5 5 5 5 5 5 6 6 5 5 5 6 5 5 6 5 5 5 5 5 5 5 5 5 5 5 5 5 5 5 5 5 5 5 5 5 5 5 5 5 6 6 5 5 5 5 5 5 5 5 5 5 5 6 5 5 5 5 5 5 5 5 5 5 5 5 5 5 5 5 5 5 5 5 5 5 5 5 5 5 5 5 5 5 5 5 5 6 5 5 5 5 5 6 5 5 6 5 5 6 6 5 5 5 5 5 5 5 5 5 5 5 5 5 6 5 5 6 5 5 5 5 5 5 6 5 5 6 5 5 5 5 5 5 5 5 5 5 5 5 5 6 5 5 5 5 5 5 5 6 5 5 5 5 5 5 5 5 5 5 5 5 6 5 5 6 5 5 5 5 5 5 5 5 5 5 5 5 5 5 5 5 5 5 5 5 6 5 5 6 5 6 5 5 5 6 5 5 6 5 6 5 5 5 6 5 5 5 5 6 5 5 5 5 5 5 5 6 5 5 5 6 5 5 5 5 5 5 5 5 5 5 5 5 6 5 5 5 5 5 5 5 5 6 5 5 5 5 5 5 5 5 5 5 5 6 5 5 5 5 5 5 5 5 5 5 5 5 5 5 5 5 5 5 5 6 6 5 5 5 6 5 5 5 5 5 5 5 5 5 5 5 5 6 5 5 5 5 5 5 5 5 5 6 5 5 5 5 5 5 5 5 5 5 5 5 5 5 5 5 6 5 6 5 5 5 5 5 6 5 5 5 5 6 5 5 5 6 5 5 5 6 5 5 5 5 5 5 5 5 5 6 5 5 5 6 5 5 6 5 5 5 5 5 5 6 5 5 5 5 5 5 5 5 6 5 5 5 6 5 5 5 5 5 5 5 5 5 5 5 5 5 5 5 5 5 5 5 5 5 5 5 5 5 5 5 6 5 5 5 5 5 5 5 6 5 5 5 5 5 5 5 5 5 5 5 5 5 5 5 5 5 5 5 5 5 5 5 5 5 6 5 6 5 5 5 5 5 5 6 5 5 5 6 5 5 6 5 5 5 5 5 5 5 5 5 5 5 5 6 5 5 5 5 5 6 5 5 5 5 5 5 5 5 5 5 5 5 5 6 5 5 5 6 5 5 5 5 5 5 5 5 5 5 5 5 6 6 5 5 5 5 6 5 5 5 5 5 5 5 5 5 6 6 5 5 5 5 5 6 5 5 5 5 5 6 5 5 5 5 5 6 5 6 5 5 5 5 6 5 6 5 6 6 5 5 5 5 5 5 5 6 6 5 5 5 5 5 5 6 6 6 5 6 6 5 5 5 6 5 5 5 5 5 6 6 6 5 6 5 5 5 6 5 6 6 5 5 5 5 5 5 5 6 6 5 5 6 6 6 5 5 5 5 5 5 5 5 5 5 5 5 5 5 5 5 5 5 5 5 5 5 5 5 5 5 5 5 5 5 5 5 5 5 5 5 5 5 5 5 6 5 5 5 5 5 5 5 5 5 5 6 5 5 5 5 5 5 6 5 5 6 5 5 5 5 5 5 5 5 5 5 5 5 5 6 5 6 5 5 5 5 6 5 5 5 6 5 5 6 5 5 5 6 5 5 6 5 5 5 5 5 6 5 5 5 5 5 5 5 6 5 5 5 5 5 5 5 6 5 5 6 5 5 5 5 6 5 6 5 5 5 5 5 6 5 5 5 5 6 5 5 5 5 5 5 6 6 5 5 5 5 5 6 5 5 6 5 5 5 5 5 5 5 5 5 5 6 5 5 5 5 5 5 5 5 5 5 5 5 5 5 5 5 5 5 6 5 5 5 5 5 5 6 5 5 5 5 5 5 5 6 6 5 5 5 5 6 5 5 5 5 5 5 5 6 5 5 6 5 6 6 6 5 5 5 5 5 5 6 5 5 5 5 5 6 5 5 5 5 6 5 5 5 6 5 5 5 6 5 5 5 5 5 5 5 5 5 5 5 5 5 5 5 5 5 5 5 5 5 5 5 5 5 6 5 5 5 5 5 5 5 6 5 6 5 5 5 5 5 5 6 5 5 6 5 5 5 6 5 5 6 5 5 5 5 5 6 5 5 5 6 6 5 5 5 5 5 5 5 5 5 5 5 5 6 5 5 5 5 5 5 5 5 5 6 5 5 5 5 5 6 6 5 5 5 5 5 5 5 5 5 6 5 5 5 5 5 5 5 5 6 5 5 5 5 5 5 5 5 5 5 5 5 5 5 5 5 5 5 6 5 5 5 5 6 5 6 5 6 5 5 5 5 5 5 5 5 5 5 5 5 5 5 5 5 5 6 5 5 5 5 5 6 5 5 5 6 6 5 5 5 5 5 6 5 5 5 5 6 5 5 5 5 5 5 5 5 6 5 5 5 5 5 5 5 6 5 5 5 5 5 5 5 5 5 6 5 5 5 5 5 5 5 5 5 5 5 5 5 5 5 5 5 5 6 5 5 5 5 5 5 5 5 5 5 5 5 5 6 5 5 5 5 5 5 6 5 5 6 5 5 6 5 5 5 5 5 5 5 5 5 5 5 5 5 5 5 5 5 5 5 5 5 5 5 5 5 5 6 5 6 5 6 6 5 5 5 6 5 5 5 5 5 5 5 5 5 6 6 5 6 5 5 5 5 5 5 5 5 5 5 5 5 5 5 6 5 6 6 5 6 5 5 5 5 5 5 5 5 5 6 6 5 5 5 5 5 5 5 5 5 5 5 5 5 5 5 5 5 5 5 5 5 5 6 5 5 5 5 5 6 5 5 5 5 5 6 5 5 5 6 5 5 5 5 5 5 5 5 5 6 5 5 5 5 6 5 5 5 5 5 5 6 5 5 5 5 5 5 5 6 5 5 5 5 6 5 5 5 5 5 5 5 5 5 5 6 5 5 5 5 6 5 5 5 6 5 5 5 5 5 6 5 5 5 5 5 5 5 5 5 5 5 5 5 5 6 6 5 5 6 5 5 5 5 5 5 5 6 5 5 5 5 5 5 6 5 5 5 5 5 5 5 5 5 5 5 5 5 5 5 5 5 5 5 5 5 5 5 6 5 5 5 5 5 5 5 5 6 5 5 5 5 6 5 5 5 5 5 6 5 6 5 6 5 5 5 5 5 5 5 6 5 5 5 6 5 5 5 5 5 6 5 5 5 5 5 6 5 6 5 5 6 5 6 5 5 5 5 5 6 5 5 5 6 5 5 5 5 5 5 5 5 5 5 6 5 5 5 5 5 5 5 5 5 5 5 5 5 5 5 5 5 5 5 5 5 5 6 5 5 5 5 5 5 5 5 5 5 5 5 5 5 5 5 5 5 6 5 5 5 6 5 5 5 5 5 5 6 5 5 5 6 6 5 6 5 6 6 5 6 5 5 6 5 5 6 6 5 5 5 5 5 5 5 5 6 5 6 5 5 5 5 5 5 5 5 5 5 5 5 5 5 5 5 5 5 5 5 5 5 6 5 5 5 5 5 5 5 5 6 5 5 6 5 5 6 6 5 5 6 5 5 5 5 5 5 5 5 5 5 5 5 5 5 5 5 5 5 5 5 5 5 5 5 5 5 5 5 5 5 5 5 5 5 5 5 5 5 5 6 5 6 5 5 5 5 5 5 5 5 5 5 5 5 5 5 5 5 5 5 5 5 5 5 5 5 5 5 5 5 5 5 5 5 5 5 5 5 5 5 5 5 6 5 5 6 5 5 5 5 5 6 5 6 5 5 6 5 5 5 5 5 5 6 5 5 5 5 5 5 5 5 5 5 5 6 5 5 6 6 5 6 5 5 6 5 5 5 5 6 5 5 5 5 5 5 5 5 5 6 5 6 5 5 5 5 5 5 5 6 5 6 5 5 5 5 5 5 5 5 5 6 5 6 5 5 5 5 5 5 5 5 5 5 6 5 5 5 6 5 5 6 5 5 6 5 5 5 5 6 5 5 5 6 5 5 5 5 5 5 5 5 5 5 5 5 5 5 6 5 5 5 5 5 5 6 5 6 5 6 5 5 5 6 5 5 5 5 5 5 5 5 6 5 5 5 5 5 6 5 5 6 5 5 5 5 5 5 5 5 5 6 5 5 5 6 5 5 5 5 5 5 6 5 5 5 5 5 5 5 5 5 5 5 5 5 5 5 5 5 5 5 5 5 5 5 5 5 5 5 5 5 5 5 6 5 5 5 5 5 6 5 5 6 6 5 5 5 5 6 5 5 5 5 5 6 5 5 5 5 5 5 5 5 5 5 5 5 5 5 5 5 6 5 5 5 5 5 5 5 5 6 6 5 5 5 5 5 5 6 5 5 5 5 6 5 5 5 5 5 5 5 5 5 5 5 5 5 5 5 5 5 5 5 5 5 5 5 5 6 5 5 6 5 5 5 5 5 5 5 5 5 5 5 5 5 5 5 5 5 5 5 5 5 5 5 5 5 5 5 6 5 6 5 5 5 5 5 6 5 5 5 5 5 5 5 5 5 5 5 5 5 5 5 5 5 5 5 5 6 6 5 6 5 5 5 5 5 5 5 5 5 5 5 5 5 5 5 5 6 5 5 5 6 5 5 5 5 5 5 5 5 5 5 5 5 5 6 5 5 5 5 5 5 5 5 5 5 5 5 5 5 5 5 5 5 5 5 5 5 6 5 5 5 5 5 5 5 5 5 5 5 5 5 6 5 6 5 5 6 6 5 5 5 5 5 5 5 5 5 5 5 5 5 5 5 5 5 5 5 5 6 5 5 6 5 5 5 6 5 5 5 5 5 5 6 5 5 5 6 5 5 5 5 5 5 5 5 6 5 5 6 5 5 6 5 6 5 5 5 5 6 6 5 5 6 6 5 5 6 5 5 5 5 6 5 5 6 6 5 6 5 5 5 5 5 5 5 5 5 5 5 5 5 5 5 5 5 5 5 5 6 5 5 5 5 6 5 5 5 5 6 6 5 5 5 5 5 5 5 5 5 5 5 5 6 5 5 5 6 5 5 5 5 5 5 5 6 5 5 5 6 5 5 6 6 5 5 5 6 5 5 5 6 5 5 5 5 5 5 5 5 5 5 5 5 5 5 5 5 5 5 6 5 5 5 5 5 5 5 5 5 5 5 5 5 5 5 5 5 5 6 6 5 5 5 5 5 6 6 5 6 5 5 5 5 5 5 5 5 5 6 5 5 5 6 5 5 5 5 5 5 5 5 5 5 5 5 5 5 6 5 5 5 5 5 5 5 6 5 5 6 5 5 5 5 5 5 6 5 5 5 5 6 5 5 5 5 5 5 6 5 5 5 5 5 5 5 5 6 6 5 5 5 6 6 5 5 5 5 5 6 5 5 5 5 5 5 6 5 5 5 5 6 5 5 5 5 5 6 5 5 5 5 6 5 5 5 5 5 5 5 5 5 5 5 5 5 5 5 5 5 5 5 5 5 5 5 5 5 6 5 5 5 5 6 5 6 5 6 5 5 6 5 5 6 5 5 6 5 5 5 5 5 5 6 5 5 6 5 6 6 6 5 5 6 5 6 6 5 5 5 6 5 6 5 5 5 5 5 5 6 5 5 5 6 5 5 5 5 5 5 5 6 5 5 5 6 5 6 6 5 5 5 5 5 5 5 6 5 5 5 5 5 5 5 5 6 6 5 5 5 5 6 5 5 6 5 5 5 6 5 5 5 6 6 5 5 5 5 6 5 5 5 5 5 6 6 5 5 5 5 5 5 5 5 5 5 5 5 5 5 5 5 5 5 5 5 5 5 5 5 5 5 5 5 5 5 5 6 5 5 5 6 5 5 5 5 5 5 5 5 5 5 5 5 5 5 5 6 5 6 6 5 5 6 5 5 5 5 5 5 5 5 5 5 5 5 5 5 5 5 5 5 5 5 5 5 5 6 5 5 6 6 5 5 5 5 5 5 5 6 5 5 5 6 5 5 5 5 6 6 5 5 5 5 5 5 5 6 5 5 5 5 6 5 5 5 5 6 5 5 5 5 5 5 5 5 5 5 5 5 5 5 5 5 5 5 5 6 5 5 5 5 5 5 5 5 5 5 5 5 5 5 5 5 6 5 5 5 6 5 5 5 5 5 5 5 5 5 6 5 5 5 5 5 5 5 5 5 5 5 5 5 5 5 5 5 5 5 5 5 6 5 5 5 5 5 5 5 5 5 5 5 5 5 5 5 5 5 6 5 5 5 5 5 6 5 5 5 5 5 5 5 5 5 5 5 5 5 5 5 5 5 5 5 5 5 5 5 5 5 5 5 6 5 5 6 5 5 5 6 5 5 5 5 5 5 5 5 5 5 5 5 5 5 5 6 5 6 5 5 5 5 5 5 5 5 5 6 5 5 5 5 5 5 5 5 5 6 6 5 5 5 5 5 5 5 5 5 5 5 5 5 5 5 5 5 5 5 5 5 5 5 5 5 5 5 5 5 5 5 5 5 5 5 5 5 5 5 5 5 5 5 5 5 5 5 5 5 5 5 5 5 5 5 5 5 5 5 5 5 5 5 5 5 5 5 5 5 5 5 6 5 5 5 5 5 5 6 5 5 5 5 5 5 5 5 5 6 5 6 5 5 5 5 5 5 5 5 5 5 5 5 5 5 5 5 5 5 5 5 5 5 5 5 5 5 5 5 5 5 5 5 5 5 6 5 5 5 6 6 5 5 5 5 5 5 5 5 5 5 5 5 5 5 5 5 5 5 5 5 5 5 6 6 5 5 5 5 5 5 5 5 6 5 5 5 5 5 5 6 5 5 5 5 5 6 5 5 5 5 6 5 5 5 6 5 5 5 6 5 5 6 5 5 5 5 5 5 5 5 5 5 5 5 5 6 5 5 5 5 5 5 5 5 6 5 5 5 5 5 5 5 5 5 5 5 6 5 5 5 6 5 5 5 5 6 5 5 5 5 5 5 5 5 6 5 6 5 5 6 5 5 5 5 5 6 5 5 5 5 5 5 5 5 5 5 5 5 6 5 5 5 5 5 5 5 5 5 6 5 5 5 5 5 5 6 5 5 5 5 5 5 5 6 5 5 5 5 5 6 5 5 5 5 5 5 5 5 5 5 5 5 5 5 5 5 5 5 5 5 5 5 5 5 5 5 5 5 5 5 5 5 5 5 5 5 5 5 5 5 5 5 5 5 5 5 5 6 5 6 5 5 5 5 5 5 5 5 5 5 5 5 5 5 6 5 5 5 5 5 5 5 5 5 5 5 5 5 5 5 6 5 5 6 5 6 5 5 5 5 5 6 5 5 5 5 5 5 5 5 5 5 5 5 5 5 5 5 5 5 5 5 6 5 5 5 5 5 5 5 5 5 5 5 6 5 6 5 5 6 5 6 5 5 5 5 5 5 5 6 5 6 5 5 5 5 6 5 5 5 5 6 6 5 5 6 5 5 5 5 5 5 5 5 5 5 5 5 5 5 5 5 6 5 5 5 5 5 5 5 5 5 5 5 5 5 5 6 5 6 5 5 5 5 5 5 5 6 5 6 5 5 5 5 5 5 5 5 5 6 6 5 5 5 6 5 5 5 5 6 5 6 5 5 6 5 6 6 6 5 5 6 5 5 5 6 6 6 5 5 5 5 5 5 5 5 5 5 5 6 5 5 5 5 5 5 6 5 5 5 6 5 5 5 5 5 5 5 5 6 5 5 5 6 5 5 5 5 5 5 5 5 5 5 5 5 5 5 5 5 5 5 5 5 5 5 5 5 5 5 5 5 5 5 5 5 5 5 5 5 5 5 5 5 5 5 5 5 5 5 5 5 5 5 5 5 5 5 5 5 5 5 5 5 6 5 5 5 5 5 6 5 5 5 5 6 5 5 5 6 5 5 5 5 5 5 5 5 5 5 5 5 5 5 5 5 5 5 5 5 5 5 5 5 5 5 5 5 5 5 5 5 5 5 5 5 5 5 5 5 6 5 5 6 5 5 5 5 5 5 5 6 5 5 5 5 5 5 5 5 5 5 5 6 5 5 6 5 6 5 5 5 6 5 5 5 5 5 5 5 5 6 5 5 5 5 6 5 5 5 5 6 5 6 5 5 5 5 5 5 5 5 5 5 5 5 6 5 6 5 5 5 5 5 5 5 5 5 5 5 5 5 6 5 5 5 5 5 5 5 5 5 6 5 5 5 6 5 5 5 5 5 5 5 5 5 5 5 5 5 5 5 5 5 5 5 5 5 5 5 5 5 5 5 5 5 5 5 5 5 5 5 6 5 5 6 5 5 5 5 6 5 5 5 5 5 5 5 5 5 5 5 5 5 5 5 6 5 5 5 5 5 5 5 5 5 6 5 6 5 5 5 5 5 5 5 6 5 5 5 5 5 5 5 5 5 5 5 5 5 5 6 5 5 5 5 5 5 5 5 5 5 5 6 5 5 5 5 5 5 5 5 5 5 5 5 5 5 5 5 5 5 5 5 5 5 5 6 5 6 5 5 5 5 5 5 6 5 6 5 5 5 6 5 5 5 6 5 5 5 6 5 5 6 5 5 5 5 5 5 5 6 5 5 5 5 5 5 5 6 5 5 5 5 5 5 5 5 5 5 5 5 5 6 5 5 5 5 5 5 5 5 6 5 5 5 5 5 5 5 5 5 5 5 5 5 5 5 5 5 5 5 5 6 5 5 5 5 5 5 5 5 5 5 5 5 5 5 5 5 5 5 5 5 5 5 5 5 5 5 5 5 5 5 5 5 5 5 5 5 5 5 5 5 5 5 5 5 5 5 5 5 5 5 6 5 6 5 5 5 6 5 5 6 6 5 6 5 5 5 5 5 5 5 5 5 5 5 5 5 5 5 5 5 5 5 5 5 5 5 5 5 5 5 5 5 5 5 5 5 5 5 6 5 5 5 5 6 5 5 6 5 5 5 6 5 5 5 5 6 5 6 6 5 5 5 5 6 5 5 5 6 5 5 5 6 5 5 5 5 5 5 6 5 5 5 5 5 5 5 5 5 5 5 5 5 5 5 5 5 5 5 5 6 5 5 5 5 5 5 5 5 5 5 5 5 5 5 5 5 5 5 6 5 5 6 5 5 6 5 5 5 5 5 5 5 5 5 5 5 6 5 5 5 5 6 5 5 5 5 6 5 5 5 6 5 5 5 5 5 5 5 5 5 5 5 5 5 5 5 5 5 5 5 5 5 5 5 5 5 6 5 5 5 5 5 5 5 5 6 5 5 5 6 5 5 5 5 5 5 5 5 5 5 5 5 5 5 5 5 5 5 5 5 5 5 5 5 6 5 5 5 6 5 5 5 5 5 5 5 5 6 5 5 6 5 5 5 5 6 5 5 5 5 5 5 5 6 5 6 5 5 6 5 5 6 6 5 5 5 5 5 5 5 5 5 5 5 5 5 5 5 5 5 5 5 5 5 6 5 5 5 5 6 5 5 5 5 5 5 5 5 5 5 5 5 5 6 5 5 6 5 5 5 5 5 5 5 5 5 5 5 5 5 5 5 5 5 5 5 5 5 5 5 5 5 5 5 5 5 5 5 5 5 5 5 5 5 5 5 5 5 5 5 5 5 5 5 5 5 5 5 5 5 5 5 5 5 5 5 5 5 5 5 5 5 5 5 5 5 5 5 5 5 5 5 5 5 5 5 5 5 5 5 5 5 5 5 5 5 5 5 5 5 5 5 5 5 5 5 5 5 5 5 5 5 5 5 5 5 5 5 5 5 5 5 5 5 5 5 5 5 5 5 5 5 5 5 5 6 5 5 5 5 5 5 5 6 5 5 5 5 5 5 5 5 5 6 5 6 5 5 5 6 5 5 6 5 5 5 5 5 5 5 5 5 5 5 5 5 5 5 5 5 5 5 5 5 5 5 5 5 5 5 5 5 5 5 5 5 5 5 5 5 6 5 5 6 6 5 5 6 5 5 6 5 5 5 6 5 5 5 5 5 5 5 5 5 6 5 5 5 5 5 5 6 5 5 5 5 5 5 5 5 5 5 5 5 5 5 5 5 5 5 5 5 5 5 5 5 5 5 5 5 5 5 5 6 5 5 5 5 5 5 5 5 5 5 5 5 5 5 5 5 5 5 5 5 5 5 5 5 5 5 5 5 5 5 5 5 5 5 5 5 5 5 5 5 5 5 5 5 5 5 6 5 6 5 5 5 5 6 5 5 5 5 6 5 5 5 5 6 5 5 5 5 5 5 5 5 6 5 5 6 5 6 5 5 5 5 6 5 5 6 6 5 5 5 5 5 5 6 5 5 5 5 5 5 5 5 5 5 6 6 5 5 5 5 5 6 5 5 6 5 5 5 5 6 5 5 6 5 5 5 5 5 5 5 5 5 5 5 5 5 5 5 5 5 5 5 5 5 5 5 5 5 5 5 5 5 6 5 6 5 5 5 5 5 5 5 5 5 5 5 5 5 6 5 5 5 5 6 6 5 5 5 5 5 5 5 5 5 5 5 5 5 5 5 5 5 5 5 5 5 5 5 5 5 5 5 5 5 5 5 5 5 5 5 5 5 5 5 5 5 5 6 5 5 5 6 5 5 5 5 5 5 5 5 5 5 5 5 5 5 5 5 5 5 5 5 6 5 5 6 5 5 5 5 5 5 5 5 5 6 5 5 5 5 5 6 5 5 5 5 5 6 5 6 5 5 5 5 5 5 5 5 5 5 5 5 5 6 5 5 5 6 6 5 5 5 5 5 5 5 5 6 5 5 6 5 5 6 6 5 5 5 5 5 6 5 5 5 5 5 5 5 6 5 5 6 6 5 5 5 5 5 5 6 6 5 5 5 6 5 5 5 5 5 5 5 6 5 5 5 5 5 5 5 5 5 5 5 5 5 5 5 5 5 5 5 5 5 5 5 5 5 5 6 5 5 5 5 5 5 5 6 5 5 5 5 5 5 5 5 5 5 5 6 5 5 5 5 5 5 5 5 6 5 5 5 5 5 5 5 5 5 5 5 5 5 5 5 5 6 5 5 5 6 5 5 5 5 5 6 5 5 5 5 5 5 5 5 5 5 5 5 5 5 6 5 5 5 5 6 5 5 6 5 5 5 5 5 6 5 5 5 5 5 5 5 5 5 5 5 5 5 5 6 5 6 5 5 5 6 5 6 5 6 5 5 5 5 5 5 6 6 5 5 5 5 5 5 6 5 6 5 5 5 5 5 5 5 5 5 5 5 5 5 5 5 5 5 6 5 5 5 6 6 5 5 5 5 5 6 5 5 6 6 5 5 5 5 5 5 5 5 5 5 5 5 5 5 5 5 5 5 5 5 5 5 5 5 5 5 5 5 5 5 5 5 5 5 5 5 5 5 5 5 5 5 5 5 6 5 5 6 6 6 5 5 5 5 5 5 6 5 5 5 5 5 5 5 5 5 6 5 5 5 6 5 5 5 5 5 5 5 5 5 5 5 5 5 5 5 5 5 5 5 5 6 5 5 5 5 6 5 5 5 5 5 5 5 5 5 5 5 5 5 5 5 5 5 5 5 5 5 5 5 5 5 5 5 5 5 5 5 5 5 5 6 5 6 5 5 5 5 5 5 5 5 6 5 5 5 6 5 6 5 5 5 5 5 5 5 5 6 5 5 5 5 6 5 5 5 5 6 5 5 5 5 5 5 5 6 5 5 5 5 6 5 5 5 5 5 5 5 5 5 5 5 5 5 5 5 5 5 5 5 5 5 5 5 5 5 5 5 5 5 5 5 5 5 5 5 5 5 5 5 5 5 5 5 5 5 5 6 5 5 5 5 6 6 5 5 6 6 5 5 5 5 5 5 5 5 5 5 5 5 5 5 5 5 5 5 5 6 5 5 5 6 6 5 5 5 5 5 5 5 5 5 5 5 5 5 5 5 5 5 5 5 5 5 5 5 5 5 5 5 6 5 5 5 5 5 5 5 6 5 5 5 5 5 5 5 5 5 5 5 5 5 5 5 6 5 5 5 5 5 5 5 5 6 5 6 6 5 5 5 5 5 5 5 5 5 5 5 5 6 5 5 5 5 5 5 5 5 5 5 5 5 5 5 5 5 5 5 6 5 5 5 6 5 5 5 5 5 5 5 5 6 5 5 5 5 5 5 5 5 5 5 5 5 5 5 5 6 5 5 5 6 5 5 5 5 5 5 5 5 5 5 5 5 5 5 5 5 5 5 5 5 5 5 5 5 5 5 5 5 5 5 5 5 5 6 5 6 5 5 5 5 5 5 5 5 6 5 5 5 5 5 5 5 5 5 6 5 5 6 5 5 5 5 5 6 5 5 5 5 6 5 5 5 5 6 5 5 5 6 5 6 5 5 6 5 5 5 5 5 5 5 5 5 5 5 5 5 5 6 5 5 6 5 6 5 5 5 6 5 5 6 5 5 5 5 6 5 6 5 5 5 5 5 5 6 5 6 5 5 5 5 5 6 5 5 5 5 6 5 5 5 5 5 5 6 5 5 5 5 5 5 5 5 5 5 5 5 5 5 5 5 5 5 5 5 5 5 5 5 5 5 5 5 5 5 5 5 5 6 6 5 5 5 5 5 5 5 5 5 5 6 5 5 6 6 5 6 5 5 5 5 5 5 5 6 5 5 5 5 5 5 5 5 5 5 5 5 6 5 5 5 5 6 5 5 5 5 5 5 5 5 5 5 5 5 6 5 5 5 5 5 5 5 5 5 5 5 5 5 5 5 5 5 6 5 5 5 5 5 6 5 5 5 6 5 5 5 5 5 5 6 5 6 5 5 5 6 5 5 5 5 5 5 5 5 5 6 5 5 6 5 5 5 5 5 5 5 6 5 5 5 5 5 5 5 5 5 5 5 5 5 6 5 5 6 5 5 5 5 5 5 6 5 5 5 5 5 5 6 5 5 5 5 5 5 5 6 5 5 5 5 5 5 5 5 5 5 5 5 5 5 5 5 5 5 5 5 5 5 6 5 5 5 5 5 5 5 5 5 5 6 5 5 5 5 6 6 5 5 5 5 6 5 5 5 5 5 5 5 5 5 6 5 5 5 5 5 5 5 5 5 5 5 6 5 5 5 6 5 5 5 6 5 5 5 5 5 5 5 5 5 5 5 5 6 5 5 5 5 5 6 5 5 6 5 5 5 5 5 5 5 5 5 5 5 5 5 5 6 5 5 5 5 5 5 5 6 5 5 5 6 5 5 5 5 5 6 5 5 5 5 5 5 5 5 5 6 5 5 5 5 5 5 5 5 6 5 5 5 5 5 6 5 5 5 5 5 5 5 6 5 5 5 5 5 5 5 5 5 5 5 5 5 5 5 5 5 5 5 5 5 5 5 5 5 5 5 5 5 5 5 5 5 5 5 5 5 5 5 5 5 5 5 5 5 5 5 5 6 5 5 5 5 5 5 5 6 5 5 5 5 5 5 5 5 5 5 5 5 5 5 5 5 5 5 5 5 5 5 6 6 5 5 6 6 5 5 5 5 5 5 5 6 5 5 5 5 5 5 5 5 5 5 5 5 5 5 6 5 5 5 5 5 5 5 5 6 5 5 6 5 5 5 6 5 5 5 5 5 5 5 5 5 5 5 5 5 5 5 5 5 5 5 5 5 5 5 5 5 5 5 5 6 5 5 5 5 5 5 5 5 6 5 5 5 5 5 5 6 6 5 5 5 5 6 5 5 6 5 5 6 5 5 5 5 5 5 6 5 5 5 5 5 5 5 5 6 5 5 5 5 5 5 5 5 5 5 5 6 5 5 6 5 5 5 5 5 5 5 6 5 5 5 6 5 6 5 6 5 5 5 5 5 5 5 5 5 5 5 5 5 5 5 5 5 6 5 6 5 5 5 5 5 5 5 5 5 5 6 5 5 5 5 5 5 5 6 5 5 5 6 5 6 6 5 5 6 5 5 5 5 6 5 5 5 6 5 5 5 6 5 6 6 5 5 5 5 5 5 6 5 5 5 5 5 5 5 5 6 6 6 5 6 5 5 6 6 5 5 6 5 5 5 5 5 5 5 5 5 5 5 6 5 5 5 5 5 5 5 5 5 5 5 5 5 6 6 5 5 5 5 6 5 5 5 6 5 5 5 5 5 6 6 5 5 5 6 5 5 5 5 5 5 5 5 5 5 5 5 5 5 5 6 5 5 5 6 5 5 5 6 5 5 5 5 5 5 6 5 5 5 5 5 6 5 5 5 5 5 5 5 5 6 5 5 5 5 5 5 5 5 5 6 5 5 5 5 6 5 6 5 5 6 5 6 5 5 5 5 5 5 6 5 6 6 5 5 5 5 5 5 5 5 6 5 6 5 6 5 6 5 5 5 5 5 5 5 5 5 5 5 6 5 5 5 6 5 5 5 5 5 5 5 5 6 5 5 5 5 5 5 5 5 5 6 5 5 5 5 6 5 5 6 5 5 5 5 5 5 5 5 5 6 5 5 5 6 5 5 5 5 5 5 5 5 5 5 5 5 5 5 5 5 5 5 5 6 5 5 5 5 5 5 5 5 5 5 6 5 5 5 5 5 5 5 5 5 5 5 5 5 5 5 5 5 5 5 5 5 5 5 5 5 5 5 5 5 5 5 5 5 5 5 5 5 5 5 5 5 5 5 5 5 6 6 5 5 5 5 5 5 5 5 5 5 5 5 5 6 6 5 5 5 6 5 5 6 5 5 5 6 5 5 5 6 5 5 5 5 5 5 5 5 6 5 5 6 5 6 6 5 5 5 5 5 5 6 5 6 6 6 5 5 6 5 5 6 6 5 5 5 5 5 5 5 5 5 5 5 5 5 5 5 5 5 5 5 5 5 6 5 5 5 5 5 5 5 5 5 6 5 5 5 5 5 5 5 6 6 5 5 5 5 5 5 5 5 5 5 5 5 5 5 5 5 5 5 5 5 5 5 5 6 5 6 5 5 5 5 5 5 5 6 5 5 5 6 6 5 5 6 5 5 5 5 6 5 5 5 6 5 5 5 6 5 5 5 5 5 5 5 5 5 6 6 5 5 5 5 5 6 5 5 6 6 6 5 5 5 5 5 6 5 5 5 5 5 5 5 5 5 6 5 6 5 5 5 5 5 5 5 5 5 5 5 5 5 5 5 5 5 5 5 5 5 5 5 5 6 5 5 5 5 6 6 5 5 5 6 5 5 5 5 5 5 5 5 5 5 5 5 5 5 5 5 6 5 5 5 6 5 5 6 5 5 5 5 5 5 5 5 5 5 5 5 5 6 5 5 6 5 5 5 6 5 6 5 6 5 6 6 6 5 5 5 5 5 5 5 5 6 5 5 5 5 5 5 5 5 6 5 5 6 5 5 5 5 5 5 5 5 5 5 5 5 5 5 5 5 5 5 5 5 5 6 5 5 5 5 5 5 5 5 5 5 6 5 6 5 5 6 5 6 5 6 5 5 6 5 6 5 5 6 5 5 5 6 5 5 5 5 5 5 5 5 5 5 5 5 5 5 5 5 5 5 5 5 5 5 5 5 5 5 5 5 5 5 5 5 5 5 5 5 5 5 5 5 5 5 5 5 5 5 5 5 5 5 5 5 5 5 5 5 5 5 5 5 5 6 5 5 6 5 5 5 5 5 5 6 6 5 5 5 5 5 5 5 5 5 5 5 5 5 5 5 5 5 5 6 5 5 5 6 5 5 5 5 5 5 5 5 5 5 5 5 5 5 5 5 6 5 5 5 5 5 5 5 6 5 5 5 5 5 5 5 5 6 5 6 5 5 5 5 5 5 5 5 5 5 5 5 5 5 5 5 6 5 5 5 5 5 5 5 6 5 5 5 5 6 5 5 5 5 5 5 5 6 5 5 6 6 5 5 6 5 5 5 5 5 5 6 5 5 5 5 5 5 5 5 5 6 5 5 6 5 5 6 5 5 6 5 5 5 5 5 6 5 5 5 5 5 5 5 5 6 5 5 5 5 5 5 5 6 5 5 5 5 5 5 5 5 5 5 5 5 6 5 5 5 5 5 5 5 6 6 5 6 5 6 5 5 5 5 5 5 5 5 5 5 5 5 5 5 5 6 5 6 5 5 5 5 5 5 5 5 6 5 6 5 6 5 6 5 6 5 5 6 5 5 5 5 5 6 5 5 5 5 5 5 5 5 6 5 5 5 5 5 6 5 5 6 5 6 6 5 5 5 5 5 5 5 5 6 5 5 5 5 5 5 5 5 5 5 5 5 5 6 5 5 5 5 5 5 5 6 5 5 5 6 5 5 5 5 5 5 5 5 5 5 5 5 5 5 5 5 5 6 5 5 5 5 5 5 5 6 5 5 6 5 5 5 5 5 5 5 5 5 5 5 5 5 5 5 6 5 5 5 5 6 5 5 5 5 5 5 5 5 5 5 5 5 5 5 5 5 5 5 5 5 5 5 5 5 5 6 5 5 5 5 5 5 6 5 5 5 5 5 5 5 5 5 6 6 5 5 5 6 5 6 5 5 5 5 5 5 5 5 5 5 5 5 5 5 5 6 5 5 5 5 5 5 5 5 5 5 5 5 6 6 5 5 5 5 5 5 5 5 6 5 5 6 5 5 6 6 5 5 5 5 5 5 5 6 5 5 5 5 5 5 5 5 5 6 5 5 5 6 5 5 5 5 5 6 5 5 5 5 5 5 5 5 5 5 5 5 6 5 5 5 6 5 5 5 6 5 5 5 5 5 5 5 5 5 5 5 5 5 5 5 5 5 5 5 5 5 5 5 5 5 5 5 5 5 5 5 5 6 5 5 5 5 5 5 5 5 5 5 5 5 5 5 5 5 5 5 5 5 5 5 5 5 6 5 6 5 5 6 5 5 5 5 5 5 5 5 5 6 5 5 5 5 5 5 5 5 5 5 5 5 5 5 6 5 5 5 5 6 5 5 5 6 5 5 5 5 5 5 5 5 5 5 5 5 5 5 5 5 5 5 5 5 5 5 5 5 5 5 5 5 5 5 5 5 5 5 5 5 5 5 5 5 5 5 5 5 5 5 5 5 5 5 5 5 5 5 5 5 5 5 5 5 5 5 5 5 5 5 5 5 5 5 5 5 5 5 5 5 5 5 5 5 5 5 5 5 5 5 5 5 5 5 5 5 5 5 5 5 5 5 5 5 5 5 5 5 5 5 5 5 5 5 5 5 5 5 5 5 5 5 5 5 5 5 5 5 5 5 5 5 5 5 5 5 5 5 5 5 5 5 5 5 5 5 5 5 5 5 5 5 5 5 5 5 5 5 5 5 5 5 5 5 5 5 5 5 5 5 5 5 5 5 5 5 5 5 5 5 5 5 5 5 5 5 5 5 5 5 5 5 5 6 5 5 5 5 5 5 5 5 5 5 5 5 5 5 5 5 6 5 5 5 5 5 5 5 5 6 5 5 5 5 6 5 5 5 5 5 5 5 5 5 5 5 5 5 5 5 5 5 5 5 5 5 5 6 5 5 5 5 5 5 5 5 5 5 5 5 5 6 6 5 5 5 5 5 6 5 6 5 5 5 5 5 5 5 5 5 5 5 6 5 5 5 5 5 5 5 6 5 5 5 5 5 5 5 5 5 5 5 5 5 5 5 6 6 5 5 5 5 5 5 5 5 5 5 5 5 6 5 5 5 5 5 5 5 5 5 5 5 5 5 5 5 5 6 5 5 5 5 5 5 5 6 5 5 5 5 5 5 5 5 5 5 6 6 5 5 5 5 5 5 5 5 5 5 5 5 5 5 5 5 5 5 5 5 5 5 5 5 5 5 5 5 5 5 6 5 5 5 5 5 6 5 5 5 5 5 5 5 5 5 5 6 5 5 5 5 6 5 5 5 5 5 5 5 5 5 5 6 5 6 5 5 5 5 5 5 5 5 5 5 5 5 5 5 5 5 5 5 5 5 5 5 5 5 5 5 5 5 5 5 5 6 5 5 5 5 5 6 5 5 5 5 5 5 5 5 5 5 5 5 5 5 5 5 5 5 6 5 5 6 5 5 5 6 5 5 5 5 5 6 5 5 5 5 5 5 5 5 5 5 6 5 5 5 5 5 5 6 5 5 5 5 5 6 6 5 5 6 5 5 6 5 5 5 5 5 5 5 5 5 5 6 5 5 6 5 5 6 5 5 6 5 5 6 5 5 6 5 5 5 5 5 5 6 5 5 5 5 5 5 5 5 5 5 5 6 5 5 5 5 5 5 5 6 5 5 5 5 6 5 5 5 6 5 5 5 5 5 5 5 5 5 5 5 6 5 5 5 5 5 5 5 5 5 5 5 5 5 5 5 5 5 5 5 5 5 5 5 5 6 5 5 5 5 5 6 5 5 5 5 5 5 5 5 5 5 5 5 5 5 6 5 5 6 5 6 5 5 5 5 6 5 6 6 5 6 5 5 5 5 5 5 5 6 5 6 5 5 5 5 5 5 6 5 5 5 5 5 5 6 5 5 5 5 6 5 5 5 5 5 6 5 5 6 5 5 5 5 6 5 5 5 5 6 5 5 5 5 5 5 6 5 5 5 5 5 5 5 5 5 6 5 5 5 5 5 5 6 5 5 5 5 6 5 5 5 5 5 5 5 5 5 5 5 5 5 5 5 5 6 5 5 5 6 5 5 6 5 5 5 5 5 5 5 5 5 5 5 5 5 5 5 5 6 5 6 5 5 5 5 5 5 5 5 5 5 5 5 5 5 5 5 5 5 5 5 5 5 5 5 5 5 6 5 5 6 5 5 5 5 5 5 5 5 5 5 6 5 5 5 5 6 5 5 5 5 6 5 5 5 5 5 5 5 5 5 6 5 5 5 5 5 5 5 5 5 5 5 5 5 5 5 5 5 5 5 5 5 5 5 5 5 5 5 5 
</DataArray>
<DataArray type="Float64" Name="stress" NumberOfComponents="9" format="ascii">
-835056678.91611481 83848231.346047491 0 83848231.346047491 135453.64246708882 0 0 0 0 -1409718708.0050869 163163761.25180861 0 163163761.25180861 53980017.673576728 0 0 0 0 -1572892597.6524334 248451468.03270441 0 248451468.03270441 128133878.15533027 0 0 0 0 -1336865213.9580898 301807044.20376301 0 301807044.20376301 -46226979.619166479 0 0 0 0 -1077673056.5459061 443785928.96192312 0 443785928.96192312 -43012803.737955198 0 0 0 0 -1025106.8412848338 2717.6999658350833 0 2717.6999658350833 -8690.4910175250698 0 0 0 0 -17726535.4949646 -70851705.190990508 0 -70851705.190990508 -132590309.62013945 0 0 0 0 -354471379.19004822 -124563546.92022391 0 -124563546.92022391 -58766429.250008084 0 0 0 0 -946577391.39660263 66374001.050104097 0 66374001.050104097 12663407.134009421 0 0 0 0 -719092423.89916229 398669728.40108627 0 398669728.40108627 -208592442.7409817 0 0 0 0 -75657969.926952362 37535463.883653268 0 37535463.883653268 -129959291.71474633 0 0 0 0 -357324242.02851486 237620306.50565687 0 237620306.50565687 -76530792.908030525 0 0 0 0 -1751083.8249454498 249182.60537047725 0 249182.60537047725 524.90366760641211 0 0 0 0 -985437.66462704726 -364310.30093776807 0 -364310.30093776807 -147574.11733332611 0 0 0 0 -1948900.7958688736 639256.40253212769 0 639256.40253212769 791732.32891264767 0 0 0 0 -1052258.0515899658 892226.36110370723 0 892226.36110370723 1111.9406592456303 0 0 0 0 -1815396.6376876831 338575.55417029932 0 338575.55417029932 284425.2890029655 0 0 0 0 -2583869.6197052002 12546.269094273157 0 12546.269094273157 372093.11688440182 0 0 0 0 -1504573.8588307463 -440870.47847149149 0 -440870.47847149149 58450.707823887984 0 0 0 0 -1980626.6905555725 440723.06235853158 0 440723.06235853158 192546.10960379086 0 0 0 0 -1662424.3241577148 147130.05462904042 0 147130.05462904042 462034.45560423913 0 0 0 0 -1737454.8895495236 204838.92515616771 0 204838.92515616771 131609.94794429501 0 0 0 0 7497224.5921020508 -8569588.7023848891 0 -8569588.7023848891 6786269.6167700291 0 0 0 0 17448097.074707031 -8436073.2762005329 0 -8436073.2762005329 -4901050.8654025793 0 0 0 0 6591755.9098358154 -2116945.4480918646 0 -2116945.4480918646 1665378.5661417842 0 0 0 0 -2538459.9119529724 -3660293.9012506008 0 -3660293.9012506008 -13684082.687464595 0 0 0 0 -2087725.8596825991 -84535.193126482889 0 -84535.193126482889 -319603.81776303216 0 0 0 0 14110902.313209534 -11133354.518277541 0 -11133354.518277541 -11231242.273341231 0 0 0 0 -1602001.8569259644 3785918.6401970387 0 3785918.6401970387 -1455612.7255817652 0 0 0 0 9023568.2593002319 2948269.4974949062 0 2948269.4974949062 -9246562.8467071056 0 0 0 0 -2166839.7537841797 5425024.5599528253 0 5425024.5599528253 10261211.983022243 0 0 0 0 -2420837.3460793421 -101755.39986587549 0 -101755.39986587549 63255.2291049138 0 0 0 0 -88044049.252883911 60408824.091909118 0 60408824.091909118 -43193238.123057067 0 0 0 0 46558690.349914551 20244975.835738838 0 20244975.835738838 -72885361.08807084 0 0 0 0 19111848.444732666 -13020485.466003075 0 -13020485.466003075 -21100981.735705674 0 0 0 0 -47141402.138122559 46848196.10387212 0 46848196.10387212 -18136172.820521638 0 0 0 0 -1514438.0897767097 2310545.5683626356 0 2310545.5683626356 -79572704.93189624 0 0 0 0 -7105571.4064369202 -93224324.605787218 0 -93224324.605787218 -85503295.540327802 0 0 0 0 30171022.119979858 -73064365.618175566 0 -73064365.618175566 -12682704.68417633 0 0 0 0 37683774.608612061 -17064527.259073973 0 -17064527.259073973 -23013743.481940925 0 0 0 0 -1591741.9350341856 -15977014.999617726 0 -15977014.999617726 -10282600.995174974 0 0 0 0 56772581.783065796 -20332430.049137354 0 -20332430.049137354 -60961716.653757386 0 0 0 0 48502250.155532837 -1849774.9241625369 0 -1849774.9241625369 -8305487.5247424841 0 0 0 0 62115389.936534882 -42018314.474754184 0 -42018314.474754184 -11546020.21330297 0 0 0 0 -2693014.2238769531 -26719271.53871784 0 -26719271.53871784 34317809.08357235 0 0 0 0 -505680.17808914464 -183752.77723556943 0 -183752.77723556943 -16581.197038629944 0 0 0 0 61020628.43586731 -71697976.606820866 0 -71697976.606820866 56900738.114048056 0 0 0 0 -22871165.67600441 -448442.72885543248 0 -448442.72885543248 13121153.146706879 0 0 0 0 -516039.66013900749 -86231.384383574128 0 -86231.384383574128 134232.02489910601 0 0 0 0 142446870.93249512 -47391142.765999444 0 -47391142.765999444 -1976202.8265587091 0 0 0 0 37422704.645835876 -6530166.010610275 0 -6530166.010610275 52086056.74640131 0 0 0 0 139613242.63049316 -45674691.934719861 0 -45674691.934719861 9674857.165130794 0 0 0 0 29988911.059127808 -70647370.134075612 0 -70647370.134075612 49567528.574303403 0 0 0 0 13315029.362617493 -24494918.812560916 0 -24494918.812560916 -5017149.7713227607 0 0 0 0 -933168.34494394623 -1893326.0715430696 0 -1893326.0715430696 -758460.5849815011 0 0 0 0 10187601.58190155 -23124054.914754428 0 -23124054.914754428 2881217.3776467443 0 0 0 0 -31094497.225219727 -35247122.112887219 0 -35247122.112887219 17549324.78581655 0 0 0 0 -33268169.836299896 -15790961.407572243 0 -15790961.407572243 97681659.593078256 0 0 0 0 21097964.559484482 -57830438.405694291 0 -57830438.405694291 26553384.382476628 0 0 0 0 -2502684.5169754028 -71139271.582400069 0 -71139271.582400069 19255571.783226758 0 0 0 0 -19338176.388435364 -12596047.13966663 0 -12596047.13966663 666854.34741966426 0 0 0 0 1783407.116607666 8950147.6375848353 0 8950147.6375848353 -1935995.2491354942 0 0 0 0 -1900348.552616138 154526.95091590844 0 154526.95091590844 -902887.23212980211 0 0 0 0 -15749752.241043091 -5026406.1197498739 0 -5026406.1197498739 -2235931.4255284294 0 0 0 0 -15813407.63584137 -5854026.7181319036 0 -5854026.7181319036 2348879.4680128098 0 0 0 0 -2605872.3586578369 -10759585.109311009 0 -10759585.109311009 1189142.3792128004 0 0 0 0 -5383581.4664611816 -2091446.2787415385 0 -2091446.2787415385 -4374386.0199474394 0 0 0 0 -2967294.9807119928 1101916.2801219542 0 1101916.2801219542 866122.5976669474 0 0 0 0 -9032968.4115829468 -2443288.9225455225 0 -2443288.9225455225 3405378.6528315656 0 0 0 0 -3898390.1654663086 -6135552.2190825343 0 -6135552.2190825343 -763594.74284400046 0 0 0 0 -11821052.829673767 -7695184.9820498079 0 -7695184.9820498079 -3787724.7564500868 0 0 0 0 -16739454.839698792 -8088527.133340925 0 -8088527.133340925 -3524718.3098124117 0 0 0 0 -16684490.852277756 2824653.7857070342 0 2824653.7857070342 -3656831.0027596354 0 0 0 0 -19510623.439605713 -5901887.8850628436 0 -5901887.8850628436 -1677739.1064919233 0 0 0 0 -16765568.28014946 6839746.0294956416 0 6839746.0294956416 709857.13568925858 0 0 0 0 -22955161.546199799 -2267185.9972446561 0 -2267185.9972446561 1432477.2369003296 0 0 0 0 -5817422.8994216919 -5616401.2486679256 0 -5616401.2486679256 -9546859.61809358 0 0 0 0 -4641685.8652080931 608607.63154939376 0 608607.63154939376 786466.57965217682 0 0 0 0 -2937356.091501236 -274906.55646601319 0 -274906.55646601319 -481206.831346035 0 0 0 0 -3081604.0485267639 -524904.53169554472 0 -524904.53169554472 -400024.37521862984 0 0 0 0 -2262838.8433902971 -123937.81241604418 0 -123937.81241604418 -1648763.7156604368 0 0 0 0 -10390613.642089844 -806011.27716988325 0 -806011.27716988325 5846479.4189898968 0 0 0 0 -8909926.6234102249 -1728422.1538004689 0 -1728422.1538004689 1026310.2479180098 0 0 0 0 -5406455.5761300884 1401742.283496378 0 1401742.283496378 211928.71939246709 0 0 0 0 -7881115.1027984619 6525325.7533736825 0 6525325.7533736825 -612862.65461653471 0 0 0 0 -4454255.9138183594 -824200.83550786972 0 -824200.83550786972 -408404.18574905396 0 0 0 0 -3284623.0653114319 -16919862.49790284 0 -16919862.49790284 5035229.7964244783 0 0 0 0 -13563406.890220642 -3087904.1460793316 0 -3087904.1460793316 7356431.2270306051 0 0 0 0 -2593288.3126781057 -1991624.8259003628 0 -1991624.8259003628 -394847.0431292436 0 0 0 0 -6865337.4182739258 -2604830.706080392 0 -2604830.706080392 1293032.803396076 0 0 0 0 -8963043.4246444702 -4359096.181059584 0 -4359096.181059584 11736266.133045495 0 0 0 0 -13540405.836112976 1738165.0198190808 0 1738165.0198190808 4076474.661685288 0 0 0 0 -20436378.002197266 14096143.533655643 0 14096143.533655643 18098786.753050074 0 0 0 0 -17950762.87991333 19032760.948543429 0 19032760.948543429 -10213382.618521273 0 0 0 0 -732471443.0483551 484819977.04343402 0 484819977.04343402 -275799128.37580723 0 0 0 0 -13782041.916890144 -3733538.749061197 0 -3733538.749061197 19540362.437651634 0 0 0 0 -5823596.3324742541 -1118982.5714578917 0 -1118982.5714578917 559771.92677983339 0 0 0 0 -149443.57011540048 59856.47781182453 0 59856.47781182453 -2458.6271812350024 0 0 0 0 -210087.22628259659 2966415.697047567 0 2966415.697047567 1506050.7757694735 0 0 0 0 -14583215.113067627 9260710.6782688797 0 9260710.6782688797 5931974.5261965096 0 0 0 0 -10576692.141975403 2119116.0017232001 0 2119116.0017232001 1954424.4603009075 0 0 0 0 -452014.04142379481 3064530.9775971361 0 3064530.9775971361 644638.66762895032 0 0 0 0 -9434896.2461547852 10650733.907208867 0 10650733.907208867 2342329.4088052548 0 0 0 0 -7131077.9313850403 18673730.786582764 0 18673730.786582764 -35984.204426623881 0 0 0 0 -6112117.7266387939 14696723.906032838 0 14696723.906032838 -66291772.480370715 0 0 0 0 -5232184.7318382263 14378111.695677184 0 14378111.695677184 -19892622.732177734 0 0 0 0 -13483278.547683716 17882084.609319925 0 17882084.609319925 11166449.405517817 0 0 0 0 -2545177.2496261969 7641.7892292542383 0 7641.7892292542383 4396.5174663680955 0 0 0 0 -467215743.97768402 -541630376.30110836 0 -541630376.30110836 -561144354.16496015 0 0 0 0 -1572586594.7915535 1179046495.2052927 0 1179046495.2052927 -776462522.61735344 0 0 0 0 -744469457.2627697 490199956.96166319 0 490199956.96166319 -203503877.56541097 0 0 0 0 -1046483696.7607269 685171845.31590152 0 685171845.31590152 -175571322.26095557 0 0 0 0 -1575937045.6575062 603767227.86997116 0 603767227.86997116 67973135.091825515 0 0 0 0 -728148173.99948883 349514007.81647676 0 349514007.81647676 -69634675.250716656 0 0 0 0 -799273004.10543823 547646459.83754277 0 547646459.83754277 -125674915.3459397 0 0 0 0 -861356027.88220835 220844972.41116068 0 220844972.41116068 18592828.724972509 0 0 0 0 -234207685.81350708 52330130.615359634 0 52330130.615359634 17478164.499372754 0 0 0 0 -84085465.766708374 129087687.59049405 0 129087687.59049405 38280349.194009662 0 0 0 0 -108104154.16950226 -125070231.80684558 0 -125070231.80684558 43430821.595413953 0 0 0 0 19868764.343811035 -70746313.902455807 0 -70746313.902455807 190002431.1748414 0 0 0 0 -274069378.60562134 -51738818.95017913 0 -51738818.95017913 247056913.8361308 0 0 0 0 -1080991.7865032181 1125198.0901333895 0 1125198.0901333895 656721.26502963412 0 0 0 0 -88391381.938873291 231801931.29625827 0 231801931.29625827 -134119379.85278198 0 0 0 0 -177950344.23501587 75387774.587171316 0 75387774.587171316 25516745.419954777 0 0 0 0 -693195882.33469391 406181366.81993192 0 406181366.81993192 22230574.558843732 0 0 0 0 -3011709.7721922453 -1178937.6231310703 0 -1178937.6231310703 754661.85742972186 0 0 0 0 129956532.02738571 77168099.760814697 0 77168099.760814697 -183342367.94529593 0 0 0 0 3016577.5595245361 -15411649.134899415 0 -15411649.134899415 8739985.8535963669 0 0 0 0 -8850310.5598211288 -9929530.5910306573 0 -9929530.5910306573 7173482.9349228144 0 0 0 0 -8835457.6557846069 -10618626.604063734 0 -10618626.604063734 28416576.860477969 0 0 0 0 -8443489.7020492554 -33693735.295791589 0 -33693735.295791589 2320571.8156788647 0 0 0 0 5744207.0430717468 -15413961.807177559 0 -15413961.807177559 8406518.2192201167 0 0 0 0 -903086.39939062577 -188001.40544808283 0 -188001.40544808283 170945.91605861575 0 0 0 0 66922701.703819275 -24287742.673769433 0 -24287742.673769433 -23095904.255411848 0 0 0 0 -66811173.760155201 -116377590.26457973 0 -116377590.26457973 -140852528.01606995 0 0 0 0 -118833339.65290689 -59238839.592950106 0 -59238839.592950106 -10901165.384645693 0 0 0 0 -138784098.64000559 -188835560.70549685 0 -188835560.70549685 -52461070.077002943 0 0 0 0 -56657081.21723938 -24453390.672832746 0 -24453390.672832746 -96400.741802787728 0 0 0 0 7014134.3000221252 -58887150.089895129 0 -58887150.089895129 -22707905.956924416 0 0 0 0 -25039316.258735657 -16761639.779889653 0 -16761639.779889653 -2069003.6374997497 0 0 0 0 -40160917.765937805 -13069271.038430683 0 -13069271.038430683 -10568235.673122369 0 0 0 0 -24436976.928443909 -23878388.153347567 0 -23878388.153347567 -26758182.290474206 0 0 0 0 -56981349.753635406 -8183769.7834827555 0 -8183769.7834827555 11056.616177464181 0 0 0 0 -56835156.053627014 -15821109.771661095 0 -15821109.771661095 -28258199.012648776 0 0 0 0 -72842690.624420166 16153735.205075726 0 16153735.205075726 -26881810.740312699 0 0 0 0 -111865469.42629242 11667640.323105356 0 11667640.323105356 -6602363.2248433903 0 0 0 0 -44461380.660667419 -25721057.031767074 0 -25721057.031767074 -44926508.416089222 0 0 0 0 -35165661.245033264 249257.97496020794 0 249257.97496020794 -6105240.3852253109 0 0 0 0 -34374180.427791595 14469212.755488135 0 14469212.755488135 34139489.039486408 0 0 0 0 -26152093.056312561 -2630134.3529164791 0 -2630134.3529164791 20608264.101456091 0 0 0 0 -55318312.691955566 -1435310.0980230719 0 -1435310.0980230719 22523190.623144448 0 0 0 0 -24580599.384128571 -16108316.851616606 0 -16108316.851616606 15464329.919000819 0 0 0 0 -31468157.726127625 -28893743.196857981 0 -28893743.196857981 -5584351.7661431804 0 0 0 0 -17150556.9426651 -22156908.682685643 0 -22156908.682685643 19038722.654199243 0 0 0 0 -17692254.33370173 6902361.9246587027 0 6902361.9246587027 30809588.237530082 0 0 0 0 -15557424.300262451 10827.232844948769 0 10827.232844948769 37773242.853360116 0 0 0 0 -15061885.664398193 3802620.5273627639 0 3802620.5273627639 18740274.596433729 0 0 0 0 -1038281.1865463257 15058002.05674693 0 15058002.05674693 26311873.577341229 0 0 0 0 -523090.35206628218 -266597.72564153187 0 -266597.72564153187 -127669.29017283395 0 0 0 0 -6801246.5760116577 -10583160.030917704 0 -10583160.030917704 -68575.21112526767 0 0 0 0 18779501.429031372 41912891.257408932 0 41912891.257408932 25700754.564419538 0 0 0 0 -405398.53359985352 -4968893.4133760072 0 -4968893.4133760072 3617817.8529796153 0 0 0 0 -997399.75721398741 -400552.99771779217 0 -400552.99771779217 -111069.2956282213 0 0 0 0 -1221823.3094024658 -3139076.8997262418 0 -3139076.8997262418 1022852.3629591465 0 0 0 0 -4365731.6584625244 -7741736.4773634374 0 -7741736.4773634374 7867388.4092516899 0 0 0 0 -978158.78098274395 -365190.82004714385 0 -365190.82004714385 543238.12311634084 0 0 0 0 29771674.628311157 24403386.333739981 0 24403386.333739981 1083403.3461924791 0 0 0 0 -3004560.4796562195 -2392051.0067485571 0 -2392051.0067485571 5028304.8186678886 0 0 0 0 -2831973.3698196411 -3302182.8578615636 0 -3302182.8578615636 9827005.3310434818 0 0 0 0 -12653269.684005737 6233013.8155606389 0 6233013.8155606389 10932902.108855724 0 0 0 0 -10129405.593566895 -296021.90666785836 0 -296021.90666785836 27772139.632743597 0 0 0 0 -32210347.9920578 47903554.181511447 0 47903554.181511447 42961432.86248827 0 0 0 0 21218654.451305389 44629183.402046427 0 44629183.402046427 26269395.463800192 0 0 0 0 -11971860.352813721 24161458.195250705 0 24161458.195250705 26560650.135142148 0 0 0 0 -22791368.470993042 36012280.992573336 0 36012280.992573336 35030436.662193134 0 0 0 0 -59778755.636123657 3111578.7949736789 0 3111578.7949736789 31138117.733749166 0 0 0 0 -1553624.90965271 33249097.845587395 0 33249097.845587395 -116986535.15350181 0 0 0 0 -172825.82371700555 76014.979468611069 0 76014.979468611069 24687.361006943778 0 0 0 0 -24757468.111335754 -16102965.989934977 0 -16102965.989934977 3644263.087524238 0 0 0 0 12217109.900848389 -83820910.043084785 0 -83820910.043084785 -27483535.270015635 0 0 0 0 -7719863.7303924561 1412145.4231017006 0 1412145.4231017006 -10908.323258022003 0 0 0 0 -32834904.031829834 -4490081.1453671297 0 -4490081.1453671297 753773.07772954088 0 0 0 0 -54647745.18422699 -18218367.827310752 0 -18218367.827310752 8640012.9948122203 0 0 0 0 6486721.8504562378 -3661053.1559162661 0 -3661053.1559162661 -3071663.5523612369 0 0 0 0 6564089.0669127107 6889108.8410200514 0 6889108.8410200514 1438177.6130592921 0 0 0 0 -2472019.8356018066 -717843.45895552053 0 -717843.45895552053 -1070163.3519506371 0 0 0 0 -651753.99966887385 158913.14533439884 0 158913.14533439884 75615.358651114409 0 0 0 0 -1188713.2870025635 1663345.0141096832 0 1663345.0141096832 8820276.1259733085 0 0 0 0 4242421.2885742188 42202595.824269652 0 42202595.824269652 -36952371.390424453 0 0 0 0 -21153451.667770386 75652065.85560444 0 75652065.85560444 124752457.46610449 0 0 0 0 -15986209.2029953 56303837.248803273 0 56303837.248803273 12929250.703286573 0 0 0 0 -815345.45959281921 887026.07418957329 0 887026.07418957329 1442771.0491747549 0 0 0 0 1264114.0959777832 2348909.8587125735 0 2348909.8587125735 1451.59732611604 0 0 0 0 -638881.84410095215 1820537.547777032 0 1820537.547777032 1668650.6086914917 0 0 0 0 -1362323.1097412109 828323.70986851002 0 828323.70986851002 1747047.765770386 0 0 0 0 -1212333.4832155332 126204.34113816964 0 126204.34113816964 89268.037118178661 0 0 0 0 8050595.7091274261 22648395.703123741 0 22648395.703123741 -13159442.136484921 0 0 0 0 -60976012.534988403 -13417280.156987309 0 -13417280.156987309 21573297.7816948 0 0 0 0 -47164024.934661865 11723987.777677357 0 11723987.777677357 -1671936.5034687519 0 0 0 0 6089506.8899002075 7945429.3655283749 0 7945429.3655283749 -9575064.7737277746 0 0 0 0 2838731.1696472168 16011147.639061272 0 16011147.639061272 1550514.8101152182 0 0 0 0 -8040780.7118682861 9219286.6466046572 0 9219286.6466046572 -2098882.1429928541 0 0 0 0 -2790799.1524658203 3201309.2460050583 0 3201309.2460050583 3937861.7399522066 0 0 0 0 -51860128.305122375 -23887462.861507714 0 -23887462.861507714 -11175099.588957667 0 0 0 0 -993516.99528503418 -336801.70256376266 0 -336801.70256376266 -8149378.7204247713 0 0 0 0 -182989.2807443589 -101224.69093773514 0 -101224.69093773514 -162560.9021936733 0 0 0 0 -15504566.877365112 -9052356.2351824641 0 -9052356.2351824641 -13155822.926592827 0 0 0 0 -4502883.0266876221 654970.29146635532 0 654970.29146635532 262747.69887566566 0 0 0 0 -16129591.11730957 -804161.38737481833 0 -804161.38737481833 -1872494.6865742207 0 0 0 0 -10703268.39251709 -12186759.052453279 0 -12186759.052453279 3365135.7332849503 0 0 0 0 -9764916.5720672607 -9738655.4713113308 0 -9738655.4713113308 -712451.23220562935 0 0 0 0 -14975313.569732666 -11584924.529453635 0 -11584924.529453635 118458.2848842144 0 0 0 0 -21981575.667778015 -6609675.0304791331 0 -6609675.0304791331 4008138.752733469 0 0 0 0 -14272870.21812439 3004351.4032073021 0 3004351.4032073021 2860946.8252809644 0 0 0 0 -7961584.1549263 14720697.235662758 0 14720697.235662758 -4623981.0663108826 0 0 0 0 -37287815.20149231 -2554356.2095127106 0 -2554356.2095127106 1521282.2136064172 0 0 0 0 -6591670.3068962097 -746008.04516577721 0 -746008.04516577721 1671473.5856599808 0 0 0 0 -8495111.0399627686 927924.34793567657 0 927924.34793567657 4377012.2595009804 0 0 0 0 -9281243.9746017456 -3212863.1324330568 0 -3212863.1324330568 498626.95123124123 0 0 0 0 -7537141.84740448 -5163369.864780426 0 -5163369.864780426 -457027.90328121185 0 0 0 0 -15184879.979385376 -4675922.1584486961 0 -4675922.1584486961 3589232.0794537067 0 0 0 0 -11279412.491706848 -4445097.7823623419 0 -4445097.7823623419 905351.42832946777 0 0 0 0 -11955915.224700928 -3232081.0525286198 0 -3232081.0525286198 -1220036.0315556526 0 0 0 0 -10685396.185882568 -3278937.2540481091 0 -3278937.2540481091 3173289.4996311069 0 0 0 0 -7543657.7265701294 -318835.94346910715 0 -318835.94346910715 2412231.8644523621 0 0 0 0 -7292327.3055343628 -199046.58739352226 0 -199046.58739352226 2431570.0790307522 0 0 0 0 -8403154.9580841064 -3659426.7657806873 0 -3659426.7657806873 -3939778.5984470844 0 0 0 0 -15865946.998901367 -4366180.3321695328 0 -4366180.3321695328 936671.59049850702 0 0 0 0 -13393553.292762756 574179.11022293568 0 574179.11022293568 -145240.92458105087 0 0 0 0 211330.77400924265 -562044.62474357337 0 -562044.62474357337 -210744.70361239574 0 0 0 0 -7378949.9718856812 866478.49146687984 0 866478.49146687984 842121.71971607208 0 0 0 0 -3216252.2083816528 -6208099.6505048871 0 -6208099.6505048871 -2871281.6814136505 0 0 0 0 -2291292.9237365723 3878022.6043359041 0 3878022.6043359041 1950008.1077724695 0 0 0 0 -2387503.9343368616 230764.24341611005 0 230764.24341611005 -1459952.5210088044 0 0 0 0 -4131553.4925384521 -346942.96405875683 0 -346942.96405875683 258013.07350349426 0 0 0 0 -28554.148682739586 -143668.98853193055 0 -143668.98853193055 -334599.97617365199 0 0 0 0 -11147902.648452759 -11073451.421416283 0 -11073451.421416283 -12326077.408657033 0 0 0 0 -2598437.399006106 -944566.0151280202 0 -944566.0151280202 -1090571.7745117918 0 0 0 0 -5710154.9500236511 -3769227.6518848836 0 -3769227.6518848836 -3660071.5316718817 0 0 0 0 -6369076.5717697144 -4349902.540489018 0 -4349902.540489018 -3607756.7219816297 0 0 0 0 -4378540.1989245303 182139.78718314413 0 182139.78718314413 -466874.13594042516 0 0 0 0 -6574242.1695747375 -3421957.8643149734 0 -3421957.8643149734 -399886.67031431198 0 0 0 0 -3044355.5222015381 -462617.90181750059 0 -462617.90181750059 110146.62837100029 0 0 0 0 -2493465.1319179535 -304763.48030465841 0 -304763.48030465841 -488732.65971183777 0 0 0 0 -3643598.6965255793 205587.01610838808 0 205587.01610838808 -376865.16151030734 0 0 0 0 137993.04443359375 -895968.09829711914 0 -895968.09829711914 496194.16022470593 0 0 0 0 -883785.37387705594 -720169.32788022491 0 -720169.32788022491 -2267312.7075243955 0 0 0 0 -492096.41430664062 -67052.455115318298 0 -67052.455115318298 126588.29655104876 0 0 0 0 -1389021.2696111575 -230402.57855165476 0 -230402.57855165476 -1998049.7478519485 0 0 0 0 -3426148.8787231445 -123322.50165939331 0 -123322.50165939331 -59001.331539154053 0 0 0 0 -2794067.1828098744 -1286701.7611684296 0 -1286701.7611684296 -1559401.0794765106 0 0 0 0 -3569345.6954632923 -385967.63200051058 0 -385967.63200051058 -301631.85622172168 0 0 0 0 -2783287.3864631653 -296968.1386000514 0 -296968.1386000514 203771.52397632599 0 0 0 0 -1532114.9172954559 -627965.40937424311 0 -627965.40937424311 -1237599.1023753926 0 0 0 0 -2089116.1462783813 -385532.20805597305 0 -385532.20805597305 -630388.50848913193 0 0 0 0 -2226174.67237854 -547030.49125480652 0 -547030.49125480652 -767415.44555833936 0 0 0 0 -2598641.6206216663 133459.91217731789 0 133459.91217731789 -1969048.2975023813 0 0 0 0 -2239148.9084739685 -463907.83329826593 0 -463907.83329826593 -580707.37153482437 0 0 0 0 -1399005.4299267903 381315.70474770805 0 381315.70474770805 -1370396.0109652847 0 0 0 0 -1925627.255279541 1484.7166900634766 0 1484.7166900634766 -433631.50947189331 0 0 0 0 -553132.09880065918 115932.71086931229 0 115932.71086931229 -1034519.9574135095 0 0 0 0 -938948.37372589111 -81657.296738266945 0 -81657.296738266945 -1081965.2860193253 0 0 0 0 -3242530.6297975257 -1395053.5429678075 0 -1395053.5429678075 -1520458.9548011823 0 0 0 0 -1372711.1186771393 -119523.28045260906 0 -119523.28045260906 -454191.2270655632 0 0 0 0 -3247095.1541426927 -1108782.8955652248 0 -1108782.8955652248 -882881.13015386346 0 0 0 0 -1164048.9703919441 -246090.2922313686 0 -246090.2922313686 -886891.20167285355 0 0 0 0 -1575079.5568504333 -375554.28104674816 0 -375554.28104674816 -531666.80188417435 0 0 0 0 -1735274.4651107788 -256060.12355875969 0 -256060.12355875969 -156456.5911052227 0 0 0 0 -1183964.0598168336 -49576.605630233418 0 -49576.605630233418 -240682.27406927053 0 0 0 0 -1783137.7944068909 -393552.13873910904 0 -393552.13873910904 -213926.00206041336 0 0 0 0 -1176534.4925231934 -235330.49278926849 0 -235330.49278926849 -236347.04373168945 0 0 0 0 -1389286.849067688 -456611.82060539722 0 -456611.82060539722 -159288.15748659521 0 0 0 0 -2945476.4740496315 -878574.95826074108 0 -878574.95826074108 -463670.26533272723 0 0 0 0 -1422547.284236908 -157360.5998904705 0 -157360.5998904705 -270320.13805866241 0 0 0 0 -3274490.2719777972 -909837.44212265685 0 -909837.44212265685 -377858.62084592646 0 0 0 0 -2008072.3950108644 -1034992.8961054105 0 -1034992.8961054105 -396587.89147461113 0 0 0 0 -2443023.2807987407 -798645.85322208703 0 -798645.85322208703 -57287.208754791063 0 0 0 0 -422706.91577148438 -358955.0344042778 0 -358955.0344042778 15207.714557051659 0 0 0 0 -563093.27392625809 -523571.37459699181 0 -523571.37459699181 -614444.58985453611 0 0 0 0 -8502729.916229248 -3487244.6938793659 0 -3487244.6938793659 -3991130.4355670214 0 0 0 0 -1124705.5781059265 -386734.41749462485 0 -386734.41749462485 1713.1149125099182 0 0 0 0 -1083302.3050308228 -151722.60755085945 0 -151722.60755085945 -27760.5012550354 0 0 0 0 -704141.19658783451 -215949.33618013188 0 -215949.33618013188 -36769.302972239908 0 0 0 0 -3713782.9382629395 -1971992.4643626213 0 -1971992.4643626213 -1084648.5856182575 0 0 0 0 -2580094.6084571276 -1166335.7244311497 0 -1166335.7244311497 -201338.08652407257 0 0 0 0 -2609726.6517011151 -484274.96574313007 0 -484274.96574313007 -135285.64112851839 0 0 0 0 -1748440.8576360624 -843857.12425549328 0 -843857.12425549328 -389585.60770427523 0 0 0 0 -8079949.8172149658 -1171905.9366872907 0 -1171905.9366872907 988661.44796560705 0 0 0 0 -6868919.0206451416 -4968838.2480297983 0 -4968838.2480297983 -2238995.9021310806 0 0 0 0 -2846428.6413461119 -885186.79561424581 0 -885186.79561424581 199959.46675432363 0 0 0 0 -3171898.2437672876 -1254645.4296739751 0 -1254645.4296739751 82564.199784703655 0 0 0 0 -5903174.8605194092 2987822.682052955 0 2987822.682052955 18190231.563888371 0 0 0 0 -1473860.9053344727 -781808.86608052254 0 -781808.86608052254 167777.34954726696 0 0 0 0 -3933802.2511901855 -877715.51114843786 0 -877715.51114843786 -751881.78276062012 0 0 0 0 -1863188.6315765381 -14172551.875920087 0 -14172551.875920087 19135569.619652987 0 0 0 0 -4254865.6193752363 -1461891.4529318411 0 -1461891.4529318411 -151019.20157863217 0 0 0 0 -2237474.8957672119 -2367338.3539061546 0 -2367338.3539061546 -67540.708295345306 0 0 0 0 -844661.33581067435 -565812.90763778239 0 -565812.90763778239 143553.37342727755 0 0 0 0 -6126048.2122993469 3167526.3500468219 0 3167526.3500468219 11697244.536640674 0 0 0 0 -1975344.9851531982 -2212380.1015412807 0 -2212380.1015412807 -609916.68840765953 0 0 0 0 -2688671.9113913146 -991933.07358950749 0 -991933.07358950749 -466676.30453857523 0 0 0 0 -1853174.3153934479 -2352969.8561061919 0 -2352969.8561061919 -934261.19853115082 0 0 0 0 -2053807.6057815552 -1465281.3993501663 0 -1465281.3993501663 -663578.35766983032 0 0 0 0 -1642002.4723510742 -945963.28433358669 0 -945963.28433358669 8383.43434715271 0 0 0 0 -1860529.6842635311 -1081463.6851162557 0 -1081463.6851162557 -394819.84056239575 0 0 0 0 -1616654.8020095825 -544112.55578732491 0 -544112.55578732491 -309047.19072806835 0 0 0 0 -2889956.3377054594 -1478261.9379611313 0 -1478261.9379611313 -791478.01081705745 0 0 0 0 -2099860.6590627395 -1083100.0326461364 0 -1083100.0326461364 -597677.11486339686 0 0 0 0 -2936425.1740860585 -1483441.643679278 0 -1483441.643679278 -402353.62456325139 0 0 0 0 -1110932.5743865967 -446051.53273010254 0 -446051.53273010254 145937.07442867756 0 0 0 0 -979531.7847442627 45589.619987487793 0 45589.619987487793 -452051.03869771957 0 0 0 0 -1823661.7227783203 -1161838.4426994324 0 -1161838.4426994324 -295975.99219062924 0 0 0 0 -634414.32196637988 -732895.04904670652 0 -732895.04904670652 -1306934.2188322705 0 0 0 0 -831076.8565826416 -661089.23556566238 0 -661089.23556566238 -174264.83319473267 0 0 0 0 -2565462.8570604865 -1213656.467502242 0 -1213656.467502242 -961421.95166464569 0 0 0 0 -2633978.4642016655 -1081388.3934756685 0 -1081388.3934756685 -1511345.9069475224 0 0 0 0 -607226.47840272635 -112454.83918736642 0 -112454.83918736642 -3360875.1823819643 0 0 0 0 -1471662.7316898406 101402.37760544056 0 101402.37760544056 -912443.08464701241 0 0 0 0 -1501669.0664520264 -1059980.3937301636 0 -1059980.3937301636 -1059210.6532454491 0 0 0 0 -559040.06298828125 -549987.08680915833 0 -549987.08680915833 -1584868.4562869072 0 0 0 0 -2282372.947807312 -2051224.7438716888 0 -2051224.7438716888 -694549.11372375488 0 0 0 0 -3949952.8814490358 -1956072.3571993839 0 -1956072.3571993839 -308957.0891100741 0 0 0 0 74911.009644081816 -111503.87575604208 0 -111503.87575604208 -124822.5002356763 0 0 0 0 -614670.72933959961 -415153.86325454712 0 -415153.86325454712 -1842371.5087356567 0 0 0 0 227882.00579071045 -635825.95085573196 0 -635825.95085573196 -431116.07110595703 0 0 0 0 -1559038.9070860036 -1503738.0731606968 0 -1503738.0731606968 -880306.32129437942 0 0 0 0 -1648856.4975518659 -622250.29454835318 0 -622250.29454835318 -987377.53247547895 0 0 0 0 -473597.66949435323 -407242.92061618809 0 -407242.92061618809 -3498165.0156279085 0 0 0 0 -795097.02801513672 -2856885.7049627304 0 -2856885.7049627304 -3356305.9706859589 0 0 0 0 -325080.20319758728 -1513252.41339305 0 -1513252.41339305 -3058600.7724881596 0 0 0 0 -1022673.7098388672 -1952594.8874740601 0 -1952594.8874740601 -2410782.9921045303 0 0 0 0 -633752.55348205566 -1301301.3120341301 0 -1301301.3120341301 518116.10903358459 0 0 0 0 -1915559.3097839355 -3723917.0864706039 0 -3723917.0864706039 -4002394.3573570251 0 0 0 0 -4234817.9928798676 -4774830.2149459124 0 -4774830.2149459124 -2817332.4615821838 0 0 0 0 -40441.473648842424 -302235.0186543595 0 -302235.0186543595 -271027.35993632022 0 0 0 0 2315185.3190536499 -1864833.0735869408 0 -1864833.0735869408 -3469958.0756416321 0 0 0 0 1503765.957824707 -2919955.117732048 0 -2919955.117732048 -3815566.1963167191 0 0 0 0 945776.61782836914 -1912887.3612470627 0 -1912887.3612470627 -5238440.764339447 0 0 0 0 -127955.62986755371 -1500010.5536756516 0 -1500010.5536756516 -6022567.6866321564 0 0 0 0 -182335.66693878174 -2042984.457485199 0 -2042984.457485199 -3700251.0028495789 0 0 0 0 -2424810.1220245361 -5777141.7218370438 0 -5777141.7218370438 778055.10067844391 0 0 0 0 876131.89524459839 -3662956.8160502911 0 -3662956.8160502911 -9322315.6098670959 0 0 0 0 -1612657.2372647524 -2278604.4801538689 0 -2278604.4801538689 -1840335.4693458953 0 0 0 0 -97559.529251098633 -2206324.2445468903 0 -2206324.2445468903 -802044.98274278641 0 0 0 0 629465.23976135254 -3821268.4258141518 0 -3821268.4258141518 -4091925.9988975525 0 0 0 0 446150.98374176025 -3101283.3525314331 0 -3101283.3525314331 -2702911.0267486572 0 0 0 0 -595267.51507568359 -2295393.1484956741 0 -2295393.1484956741 -2944772.9859905243 0 0 0 0 464266.53570556641 -2528785.5307102203 0 -2528785.5307102203 -965200.40984344482 0 0 0 0 -2907768.0864868164 -338317.84184169769 0 -338317.84184169769 1006549.7655963898 0 0 0 0 -4638100.7042867541 -1824636.7351391558 0 -1824636.7351391558 96316.593960389262 0 0 0 0 -34264.240652658045 -17471.891967043281 0 -17471.891967043281 8087.5971595318988 0 0 0 0 -1992379.3831634521 -2727524.4438891411 0 -2727524.4438891411 -626692.78951406479 0 0 0 0 -1678630.1552410126 -4884666.2306085825 0 -4884666.2306085825 -1636503.7852773666 0 0 0 0 -2721940.1364533901 1484152.9040270895 0 1484152.9040270895 2865283.3605108261 0 0 0 0 -1624712.8648098409 -2544874.9422425879 0 -2544874.9422425879 -1840935.4345042731 0 0 0 0 -2435321.7434539795 -2905043.7010807991 0 -2905043.7010807991 -1450834.276308924 0 0 0 0 -3926302.4509277344 -10663427.716339111 0 -10663427.716339111 -5467512.9767284393 0 0 0 0 -4995243.6990966797 -1951687.5347099304 0 -1951687.5347099304 2438083.9822235107 0 0 0 0 -70768.069984003901 -738258.41005293466 0 -738258.41005293466 -282364.61132641695 0 0 0 0 -351490.3734664917 -1652437.454777956 0 -1652437.454777956 -4387979.4209461212 0 0 0 0 -503684.19768294692 -1836318.0981328071 0 -1836318.0981328071 -2330514.5262271157 0 0 0 0 5926015.1741790771 4438627.5636634827 0 4438627.5636634827 664673.9225435257 0 0 0 0 2319611.3906475976 -936133.46935563488 0 -936133.46935563488 -1796643.085518342 0 0 0 0 -2637934.1474962458 -3918364.1632001474 0 -3918364.1632001474 -630921.4084129855 0 0 0 0 31594660.23285675 639421.58439445496 0 639421.58439445496 -14975511.208421707 0 0 0 0 56646097.208557129 -7162481.2162561417 0 -7162481.2162561417 -14721836.120340347 0 0 0 0 10142615.517906189 -20172703.398246288 0 -20172703.398246288 10677666.227481842 0 0 0 0 14944144.333374023 40574723.593540192 0 40574723.593540192 53688169.037959099 0 0 0 0 -108076.09291266277 -1092808.1623242402 0 -1092808.1623242402 -936084.62370935315 0 0 0 0 10772755.12688446 -62430092.006637573 0 -62430092.006637573 73933640.715940475 0 0 0 0 -13454224.047637939 -12893971.856966972 0 -12893971.856966972 25367776.40923357 0 0 0 0 -4108450.928046057 -3800422.9502700288 0 -3800422.9502700288 -200801.13608456636 0 0 0 0 -3702650.2614707947 -2636116.2963135242 0 -2636116.2963135242 -436928.45740175247 0 0 0 0 -2682364.5671539307 -2600842.6384830475 0 -2600842.6384830475 -435803.11540850997 0 0 0 0 109336210.51124191 11270566.405308068 0 11270566.405308068 1831702.3468346596 0 0 0 0 136816666.69640923 55137122.862437248 0 55137122.862437248 -41417909.16934967 0 0 0 0 -689762.7736707502 -487560.75492342561 0 -487560.75492342561 -87827.650408403948 0 0 0 0 279913672.11531067 29689801.163251877 0 29689801.163251877 -21718821.810050964 0 0 0 0 341017.95957748406 67928.445750644431 0 67928.445750644431 -122531.42295405082 0 0 0 0 -2488421.0112838745 -2678475.9198610783 0 -2678475.9198610783 -433739.77716612816 0 0 0 0 -2419353.9030609131 -2609274.0009362698 0 -2609274.0009362698 -522722.23903083801 0 0 0 0 -1897648.7765951157 -2524891.3576956093 0 -2524891.3576956093 -555716.3286151886 0 0 0 0 -2709345.0894565582 -2275799.5570675135 0 -2275799.5570675135 457919.35608291626 0 0 0 0 -3222943.3061676025 -2661439.6953835487 0 -2661439.6953835487 1217638.4735107422 0 0 0 0 -4920409.576739803 -4449230.2836477458 0 -4449230.2836477458 270223.21302334173 0 0 0 0 -4111297.5019719675 -2616742.6630670214 0 -2616742.6630670214 -441981.92742582952 0 0 0 0 -3143141.4257659912 -2889479.8878498077 0 -2889479.8878498077 471002.95687675476 0 0 0 0 128778472.64283371 -39829761.119720459 0 -39829761.119720459 -48918307.139289856 0 0 0 0 491525187.77931976 113063646.5568037 0 113063646.5568037 -209814505.05299759 0 0 0 0 146270945.37143707 37399887.472523689 0 37399887.472523689 -137555988.59828186 0 0 0 0 334128505.97852325 28442176.839398384 0 28442176.839398384 -164440140.4679718 0 0 0 0 91278349.685512543 93993869.84127903 0 93993869.84127903 -60463520.611209869 0 0 0 0 450630488.39289856 -86237357.83244133 0 -86237357.83244133 -149549348.53559875 0 0 0 0 -5583320.7038803101 292301.47389221191 0 292301.47389221191 -7164210.4539356232 0 0 0 0 -34103.558312610723 -188538.86619810574 0 -188538.86619810574 -7627.2814218569547 0 0 0 0 225547161.09480286 -47424376.136146545 0 -47424376.136146545 -264572369.63226318 0 0 0 0 -5296460.4509658217 -32848912.048881158 0 -32848912.048881158 -11214817.52881813 0 0 0 0 8869097.1667404175 12639755.987077713 0 12639755.987077713 77805384.207054615 0 0 0 0 263383.04538250342 -972668.06570343301 0 -972668.06570343301 -484168.13420500699 0 0 0 0 -1491027.1857471466 24249299.266009808 0 24249299.266009808 70713888.456669807 0 0 0 0 39085172.921634674 13079487.980279446 0 13079487.980279446 -41970496.852491379 0 0 0 0 452920.62724506669 345118.1133538112 0 345118.1133538112 -3322150.215826856 0 0 0 0 32070866.003112793 37691388.214857101 0 37691388.214857101 28738730.856496811 0 0 0 0 27463.128000169992 -56897.180599259213 0 -56897.180599259213 -106034.0199079474 0 0 0 0 205698326.30443573 96106251.75135994 0 96106251.75135994 144500443.58937645 0 0 0 0 384393175.31876373 200160239.53781509 0 200160239.53781509 -48195114.155399323 0 0 0 0 361199567.21652031 112283669.83275819 0 112283669.83275819 -173299379.39451599 0 0 0 0 144603810.23893738 -22967481.642354965 0 -22967481.642354965 -29237612.852203369 0 0 0 0 105312396.09877205 48473744.83574152 0 48473744.83574152 -134712250.05604744 0 0 0 0 190732676.06216431 -131389262.02645969 0 -131389262.02645969 16605087.164500237 0 0 0 0 69644264.390644073 -176096661.74480963 0 -176096661.74480963 -114571607.71059608 0 0 0 0 150290329.3703804 -72472891.850534916 0 -72472891.850534916 -32643676.695814133 0 0 0 0 61067311.890586853 -102478953.43876362 0 -102478953.43876362 168725156.52636051 0 0 0 0 52451935.524715424 -166868533.71940422 0 -166868533.71940422 96363201.035029411 0 0 0 0 146029127.32439423 -136170606.67149544 0 -136170606.67149544 -47196398.354540825 0 0 0 0 814581.78994875029 -1254652.7233148459 0 -1254652.7233148459 -3348685.1076397831 0 0 0 0 546910.12782287598 -2012022.953622818 0 -2012022.953622818 151616.34191894531 0 0 0 0 -162412.07176413201 -2689369.1951365247 0 -2689369.1951365247 -1179763.4930063114 0 0 0 0 -4322717.2527236938 3280680.0172386169 0 3280680.0172386169 35491109.226387024 0 0 0 0 327296.86824764311 -2800892.5720414873 0 -2800892.5720414873 -1155354.1450570095 0 0 0 0 168379892.15926647 -67340012.603173256 0 -67340012.603173256 55769543.961315155 0 0 0 0 239188977.5285511 -74090227.677867413 0 -74090227.677867413 -27912272.606882095 0 0 0 0 -5739714.1669149399 -15874989.690459728 0 -15874989.690459728 -449887.43309211731 0 0 0 0 129311.62926406506 -2062490.6296648495 0 -2062490.6296648495 -219332.56149599329 0 0 0 0 -1130595.9916229248 -395934.65943145752 0 -395934.65943145752 -2065593.5346212387 0 0 0 0 108276.89626140893 186999.46581877768 0 186999.46581877768 -213449.37024014723 0 0 0 0 928867.97653198242 -1788070.2901244164 0 -1788070.2901244164 -1945300.7272305489 0 0 0 0 -451984.88947120495 -1404897.1870344579 0 -1404897.1870344579 -1654018.7406559922 0 0 0 0 1185867.9883270264 -1146106.0051555634 0 -1146106.0051555634 -2286511.7529765964 0 0 0 0 -494674.68361282349 -1503049.1249647141 0 -1503049.1249647141 -1072342.6184482574 0 0 0 0 -296522.81190490723 -972600.88691663742 0 -972600.88691663742 -1461579.6744011045 0 0 0 0 -542299.45713806152 -452872.47169399261 0 -452872.47169399261 -1548634.4417065084 0 0 0 0 -1026903.5353088379 -460169.35459470749 0 -460169.35459470749 -1319981.8121643066 0 0 0 0 -211464.41708374023 -254724.7372751236 0 -254724.7372751236 -1589753.8880310059 0 0 0 0 -1252971.5215964923 -562005.83355696313 0 -562005.83355696313 -1248356.1013809261 0 0 0 0 -609267.11015319824 26336.627768039703 0 26336.627768039703 -1143208.3630638123 0 0 0 0 -1193521.7386423647 -424177.85888661817 0 -424177.85888661817 -2106973.0177603094 0 0 0 0 3028999.2093238831 2675547.9855368137 0 2675547.9855368137 -5881300.2206697464 0 0 0 0 1740434.0039482117 -2128161.4940266609 0 -2128161.4940266609 -3517186.9629936218 0 0 0 0 -593975.10136795044 -1166221.8374114037 0 -1166221.8374114037 -1177748.0370423645 0 0 0 0 -1261535.9808585327 -365748.75833562948 0 -365748.75833562948 -1332739.1898980048 0 0 0 0 513153.51541137695 -446335.44333791733 0 -446335.44333791733 -1822950.9137067795 0 0 0 0 1059842.3440933228 -1955903.6546111107 0 -1955903.6546111107 -2866712.297355175 0 0 0 0 -1907636.1779918671 -1118287.2178808451 0 -1118287.2178808451 -190671.83800888062 0 0 0 0 -1693240.3858517129 -345007.58904700167 0 -345007.58904700167 -1534123.9831786389 0 0 0 0 268868.08724212646 -595586.89491319656 0 -595586.89491319656 -791495.55471992493 0 0 0 0 -273686.96472849324 -1055266.4373462126 0 -1055266.4373462126 -1898470.8723023664 0 0 0 0 422017.68078145757 -590442.80616929382 0 -590442.80616929382 -3176862.9729828844 0 0 0 0 -2486393.951385498 -52524.786950111389 0 -52524.786950111389 -437664.39957809448 0 0 0 0 1010002.67395401 1540222.9502120018 0 1540222.9502120018 -3670076.5004692078 0 0 0 0 2247850.3621063232 2206952.2691349983 0 2206952.2691349983 -3228949.0449829102 0 0 0 0 1867846.9392089844 1189788.5731143951 0 1189788.5731143951 -10035348.350538254 0 0 0 0 930398.582611572 173167.14441892691 0 173167.14441892691 -4173942.2034673588 0 0 0 0 -132786.71558380127 2978973.9926681519 0 2978973.9926681519 -11502751.674273968 0 0 0 0 1328456.2381973267 4022068.9455137253 0 4022068.9455137253 -4345501.4256095886 0 0 0 0 2936272.7683200836 -2980072.0624940395 0 -2980072.0624940395 -8529410.8816337585 0 0 0 0 -5497563.4162406921 2603495.6195092201 0 2603495.6195092201 -3003897.6660852432 0 0 0 0 262797.72109584697 2068604.3565549385 0 2068604.3565549385 -2763873.6265787538 0 0 0 0 -384896.31634675711 2631002.1321160896 0 2631002.1321160896 -3548748.546703184 0 0 0 0 1273037.2360687256 846284.12796783447 0 846284.12796783447 -1052945.3703117371 0 0 0 0 2626728.2249679565 846444.16156148911 0 846444.16156148911 -2005824.9410514832 0 0 0 0 -119743.18083657324 1861503.6614128037 0 1861503.6614128037 -4213478.1077139378 0 0 0 0 223769.23971557617 154158.74948310852 0 154158.74948310852 -128221.4301071167 0 0 0 0 -866988.42172765685 -48633.525731530041 0 -48633.525731530041 -635311.30702084862 0 0 0 0 -3733344.7714805603 3972093.7186934948 0 3972093.7186934948 -2731846.9711790085 0 0 0 0 -4050136.7876054086 2299714.3938959204 0 2299714.3938959204 -1814808.7005584568 0 0 0 0 -4041959.801783368 3494637.8504768745 0 3494637.8504768745 -1398044.4909516834 0 0 0 0 -7258643.1200237274 3962687.3015267849 0 3962687.3015267849 -845070.78739452362 0 0 0 0 -6629909.8577327728 5132208.8844997287 0 5132208.8844997287 -6256352.5427179337 0 0 0 0 -900469.41884326935 -3755096.0255013108 0 -3755096.0255013108 -5066383.7523202896 0 0 0 0 460255.26394481957 -273725.59771591239 0 -273725.59771591239 -849924.21648430196 0 0 0 0 -8912322.8817977905 -417531.76812458038 0 -417531.76812458038 -793980.57900953293 0 0 0 0 1076875.3646478653 -1541521.6616815329 0 -1541521.6616815329 -8453638.3799514771 0 0 0 0 2640980.8196744919 1357296.2379852533 0 1357296.2379852533 -8863278.7160930634 0 0 0 0 -13428459.97517395 720382.04708647728 0 720382.04708647728 -1406337.9078674316 0 0 0 0 -2049884.0270679966 76912.806111682206 0 76912.806111682206 -1813999.8626874196 0 0 0 0 -1495594.1549263 1923980.014800787 0 1923980.014800787 -1308380.2373490334 0 0 0 0 -6935715.3631820679 2938618.3417515755 0 2938618.3417515755 -1060081.5762095451 0 0 0 0 -8045611.9442062378 811739.23942661285 0 811739.23942661285 1048104.3420111686 0 0 0 0 -4119768.3677520752 476656.12127274275 0 476656.12127274275 -642233.03022432327 0 0 0 0 -9941180.8437042236 -2622371.4530959129 0 -2622371.4530959129 -2670498.1538848877 0 0 0 0 -8658531.699798584 135650.2506070137 0 135650.2506070137 -478699.89263236523 0 0 0 0 -7210931.5967216492 -2428895.7353833914 0 -2428895.7353833914 -7360748.3534297943 0 0 0 0 -8250534.6742362976 -1258579.8645708561 0 -1258579.8645708561 -4448931.5523664951 0 0 0 0 -7546926.890171051 1529077.8364111781 0 1529077.8364111781 -1832993.2929286957 0 0 0 0 -4892348.8159217834 1285552.9511992931 0 1285552.9511992931 -3163473.4979624748 0 0 0 0 -7149191.9245605469 902555.55008840561 0 902555.55008840561 -1303571.7308759689 0 0 0 0 -836899.04893052951 -176983.49692329019 0 -176983.49692329019 140745.25713030668 0 0 0 0 -6152216.7807693481 891377.37661314011 0 891377.37661314011 -2241787.914744854 0 0 0 0 -2891837.7115783691 1747071.4168820381 0 1747071.4168820381 2023467.0157615095 0 0 0 0 -6123686.4352340698 477102.88894367218 0 477102.88894367218 -2112200.4786629677 0 0 0 0 -5966583.1254615784 -5418747.6325988173 0 -5418747.6325988173 -558594.1722202301 0 0 0 0 -2911192.2940404378 -449388.76816911064 0 -449388.76816911064 -1567263.0520646968 0 0 0 0 18075.17333984375 -844193.80294895172 0 -844193.80294895172 529006.79582977295 0 0 0 0 -2187470.684753418 294503.07326316833 0 294503.07326316833 -688974.13233566284 0 0 0 0 -9444061.0208978653 -5313061.3478974104 0 -5313061.3478974104 -34295.559666633606 0 0 0 0 -3591943.711606795 -614187.89218584448 0 -614187.89218584448 -912818.64584543766 0 0 0 0 -6949718.3905029297 -80932.517798423767 0 -80932.517798423767 773373.98767089844 0 0 0 0 -3342726.8343656249 668880.70939818397 0 668880.70939818397 -72576.936289595673 0 0 0 0 -7022058.0749330819 -253906.94303199835 0 -253906.94303199835 492741.02980694477 0 0 0 0 -179253.05522203445 -85336.746649654582 0 -85336.746649654582 49689.720810651081 0 0 0 0 -3016072.0866165161 2509594.4966305494 0 2509594.4966305494 1737927.5761008859 0 0 0 0 -5735364.9503746033 1303793.0895389318 0 1303793.0895389318 -358017.03319215775 0 0 0 0 -5920534.82899189 1621968.5257059932 0 1621968.5257059932 -124662.04755163193 0 0 0 0 -4252366.1271325499 2658749.891247944 0 2658749.891247944 -636328.99279096862 0 0 0 0 -8286549.8497919552 2029086.0823539672 0 2029086.0823539672 -529564.39075567108 0 0 0 0 -3837903.7863731384 2850500.4382575154 0 2850500.4382575154 -1569270.9370961189 0 0 0 0 -6949976.7938282024 3070249.2803325979 0 3070249.2803325979 -1298344.1318649438 0 0 0 0 -283888.21326446533 12378635.348528147 0 12378635.348528147 -4096144.9685139656 0 0 0 0 -7305167.6773223877 3765555.925766468 0 3765555.925766468 -1656101.8016611338 0 0 0 0 -1564998.35667862 3843744.6757458039 0 3843744.6757458039 -220315.03062772634 0 0 0 0 -3784238.88879776 12557094.65624404 0 12557094.65624404 -3423834.8266860247 0 0 0 0 -6265396.4561309814 22827904.143822253 0 22827904.143822253 9113925.8408896923 0 0 0 0 -6875217.6640281677 14724900.585176945 0 14724900.585176945 28747002.150135696 0 0 0 0 1847823.8278217316 20525704.996490896 0 20525704.996490896 6407782.5926542282 0 0 0 0 -4912016.9734422956 3922133.9977990128 0 3922133.9977990128 -1106688.3994242342 0 0 0 0 -5606294.2835736275 26117289.887688369 0 26117289.887688369 3960120.7476086617 0 0 0 0 -11763156.717691898 13394628.175117612 0 13394628.175117612 3640113.1367328167 0 0 0 0 8267809.7627096176 14885880.57727249 0 14885880.57727249 -16250813.195667505 0 0 0 0 -1437670.2636394501 52284786.11501269 0 52284786.11501269 -33384461.104245663 0 0 0 0 47896566.04019165 53353268.395094812 0 53353268.395094812 -39893689.896926045 0 0 0 0 -31724761.90851593 15931025.526960015 0 15931025.526960015 -29941501.398220472 0 0 0 0 58670370.104473114 7965524.5156649947 0 7965524.5156649947 -35799538.074644029 0 0 0 0 27683419.18022728 -17982759.007192135 0 -17982759.007192135 2786590.2701686621 0 0 0 0 18399063.09982872 13773204.105483413 0 13773204.105483413 -18718559.261944771 0 0 0 0 -2267939.3943042755 6127149.8540205956 0 6127149.8540205956 -188100.89137840271 0 0 0 0 14863960.985280991 10944297.632400155 0 10944297.632400155 -3858260.7243925035 0 0 0 0 -3553001.6960377805 4301171.7259631949 0 4301171.7259631949 -1974125.0698828199 0 0 0 0 -2213945.2394469604 2843450.4517794931 0 2843450.4517794931 -1067029.7015213324 0 0 0 0 11484612.451871872 -1793643.2429868579 0 -1793643.2429868579 -6498007.9869974405 0 0 0 0 -1256886.264755249 3774819.9438567162 0 3774819.9438567162 -1486757.2046289444 0 0 0 0 2770081.9519705735 2049491.4214427862 0 2049491.4214427862 -2887016.3884343877 0 0 0 0 2945839.6929283142 3739254.331094265 0 3739254.331094265 -2910300.3871655464 0 0 0 0 -1289894.5618772507 4057552.3028921336 0 4057552.3028921336 -1247660.4121551514 0 0 0 0 7541851.8926925659 3159573.0025401115 0 3159573.0025401115 -3092036.1500082016 0 0 0 0 -508701.0491964817 225957.87529733498 0 225957.87529733498 -64373.088364625815 0 0 0 0 -1543968.0458517075 4891633.1991087198 0 4891633.1991087198 -2884143.6926851273 0 0 0 0 -1735869.6680958271 6184125.5364294946 0 6184125.5364294946 -717355.62124824524 0 0 0 0 -1640812.5493431091 3429676.672829628 0 3429676.672829628 -2954816.4446282387 0 0 0 0 -608124.26171112061 5597920.8697421551 0 5597920.8697421551 -1298912.8650466204 0 0 0 0 -3009044.7677707672 3737457.7663762569 0 3737457.7663762569 -1037208.3207550049 0 0 0 0 -3378365.3125905991 2220398.1720397472 0 2220398.1720397472 -3160464.0988016129 0 0 0 0 -1003708.0671630912 3098182.900277419 0 3098182.900277419 -4046023.4392442442 0 0 0 0 -5320404.0459938049 3443702.7369816303 0 3443702.7369816303 -2228233.5270042419 0 0 0 0 14643869.947624207 -12501310.140846729 0 -12501310.140846729 -6464573.6495075226 0 0 0 0 13133139.372795105 -11964088.19661665 0 -11964088.19661665 -2524470.95677948 0 0 0 0 2751611.4191671498 -1629065.4398164209 0 -1629065.4398164209 -318173.92808519304 0 0 0 0 13227509.095863342 -10730759.904794693 0 -10730759.904794693 -8106283.1385498047 0 0 0 0 2716294.628036499 201537.57707881927 0 201537.57707881927 -1381046.3044834137 0 0 0 0 -860244.39114379883 677895.03227233887 0 677895.03227233887 -552452.98398017883 0 0 0 0 170795.35215943307 547880.30687370524 0 547880.30687370524 -2232250.518814397 0 0 0 0 795637.16194534302 6728022.4762587547 0 6728022.4762587547 9696220.0735168457 0 0 0 0 12379644.287902832 -9499759.9955310822 0 -9499759.9955310822 -10475459.976600647 0 0 0 0 8981247.0558776855 -6768017.1438560486 0 -6768017.1438560486 -11507429.539867401 0 0 0 0 5633212.2270812988 -6068073.629825592 0 -6068073.629825592 -5691872.8650512695 0 0 0 0 2363663.9692382812 -233803.02252578735 0 -233803.02252578735 -13259568.258558273 0 0 0 0 -5685734.876914978 -5942439.5683927536 0 -5942439.5683927536 -3781526.819070816 0 0 0 0 9464125.7875518799 -3259981.2198448181 0 -3259981.2198448181 -11365847.286502838 0 0 0 0 -13945772.198432922 1839840.3276453018 0 1839840.3276453018 -4484571.0746803284 0 0 0 0 14592593.491523743 -6499798.8653707504 0 -6499798.8653707504 -11263305.81419754 0 0 0 0 15703655.715621948 7114962.5336484909 0 7114962.5336484909 -2931353.6843881607 0 0 0 0 40045870.808689117 -3773075.8882557154 0 -3773075.8882557154 -13849698.914302826 0 0 0 0 -1421938.244292201 4037592.4999995772 0 4037592.4999995772 -2790540.286508373 0 0 0 0 9256219.726231575 -3019948.890221715 0 -3019948.890221715 2912896.8195476532 0 0 0 0 -5060758.4390716553 3388004.1769394875 0 3388004.1769394875 481370.40003967285 0 0 0 0 15357924.619674683 420829.47639894485 0 420829.47639894485 4614813.8364906311 0 0 0 0 -3200728.3108644737 4428936.632370444 0 4428936.632370444 -1368379.7186428877 0 0 0 0 35992097.433036804 11329139.574016809 0 11329139.574016809 -14408512.166674137 0 0 0 0 2078311.3981552124 -5173496.7685494423 0 -5173496.7685494423 -16477439.196310043 0 0 0 0 21331433.809234619 12429183.683328629 0 12429183.683328629 -34438711.328162193 0 0 0 0 15524219.1783638 470359.3304104805 0 470359.3304104805 -19261129.424523354 0 0 0 0 -1537398.8269577026 -4693503.3716840744 0 -4693503.3716840744 -2169366.6878414154 0 0 0 0 -2457494.7839241028 197150.18135786057 0 197150.18135786057 -17905076.085202456 0 0 0 0 1028217.6705322266 -10522681.552667022 0 -10522681.552667022 -24988508.119506836 0 0 0 0 -608889.53197715059 119634.39774474688 0 119634.39774474688 517446.03477352858 0 0 0 0 -14416524.851625443 -27095190.95402801 0 -27095190.95402801 -76079340.047300339 0 0 0 0 -43536978.325450897 128758853.34187651 0 128758853.34187651 2695626.5432041883 0 0 0 0 -54471365.137119293 10717330.250498295 0 10717330.250498295 31717338.520760536 0 0 0 0 109035332.1965332 60121336.594537735 0 60121336.594537735 -21643505.718412399 0 0 0 0 -16287468.072847843 -20786762.190052748 0 -20786762.190052748 -9697146.4725437164 0 0 0 0 -372461.34793245606 58002.105480430648 0 58002.105480430648 194778.27993729152 0 0 0 0 89885836.375497818 17350141.751647472 0 17350141.751647472 -21767774.086763382 0 0 0 0 83520144.958717346 25547172.832896233 0 25547172.832896233 4882120.653503418 0 0 0 0 132508302.87536621 -6875694.6811065674 0 -6875694.6811065674 -8592860.2215614319 0 0 0 0 81114865.661682129 -13881652.007518768 0 -13881652.007518768 -8466952.8475990295 0 0 0 0 67883330.067764282 -14995078.61561203 0 -14995078.61561203 -5990783.8133354187 0 0 0 0 128054909.30216217 -42848933.532300949 0 -42848933.532300949 -23277176.184326172 0 0 0 0 18249461.466491699 10992411.477329254 0 10992411.477329254 2838431.4098925591 0 0 0 0 58653301.886180878 1819427.0502643585 0 1819427.0502643585 -1909337.1506195068 0 0 0 0 14733887.876876831 1109031.9222517014 0 1109031.9222517014 -7112114.3982162476 0 0 0 0 17890843.278503418 6316298.3122386932 0 6316298.3122386932 -425302.2524638176 0 0 0 0 29808610.599254608 -22630865.509215355 0 -22630865.509215355 -5446235.1632919312 0 0 0 0 73110946.794677734 -38042751.380310059 0 -38042751.380310059 -22695053.365898132 0 0 0 0 197622672.7350235 -70780277.982084274 0 -70780277.982084274 13720425.05969429 0 0 0 0 27058325.757614136 19681372.153928757 0 19681372.153928757 18668327.242118835 0 0 0 0 218499314.58669186 -93405335.377927661 0 -93405335.377927661 28078974.652511597 0 0 0 0 167261798.16381836 -23533468.495714188 0 -23533468.495714188 -32423220.871566772 0 0 0 0 141942844.85650349 153744164.42670846 0 153744164.42670846 154298201.85391617 0 0 0 0 14922296.779979706 10298603.82628122 0 10298603.82628122 -14846926.228473037 0 0 0 0 -5837204.6762580872 -61502471.217145562 0 -61502471.217145562 55539043.351695463 0 0 0 0 -7185086.0844907239 -2533532.7174285678 0 -2533532.7174285678 -1377022.1509833145 0 0 0 0 8098252.1432442665 -13038903.681419842 0 -13038903.681419842 4373989.7002794743 0 0 0 0 -1092631.6597414017 132975030.10829127 0 132975030.10829127 -104860738.62033939 0 0 0 0 109913011.30019188 -100170849.3313145 0 -100170849.3313145 -176393633.54743004 0 0 0 0 123593388.13637924 -60207358.966365576 0 -60207358.966365576 -137159192.09753275 0 0 0 0 -5250887.4063680209 -2257777.544695552 0 -2257777.544695552 -1557847.3754603998 0 0 0 0 14071099.224338531 -178872552.94806415 0 -178872552.94806415 -35885393.236391068 0 0 0 0 -92120559.768829346 228464525.41082537 0 228464525.41082537 -161863434.41778448 0 0 0 0 -1958780.7128300369 -991171.17679042742 0 -991171.17679042742 -1435129.8712296796 0 0 0 0 -1571976332.2606163 451785921.27052301 0 451785921.27052301 78539972.515025422 0 0 0 0 -1010388868.4075966 688939924.66319096 0 688939924.66319096 -390049736.92881089 0 0 0 0 -1020705253.1662979 208862347.46585286 0 208862347.46585286 181144183.54934087 0 0 0 0 -48149510.831611633 40357369.748958349 0 40357369.748958349 -1819779.9980629086 0 0 0 0 -520898989.24321365 29688928.071818084 0 29688928.071818084 -24996658.59265548 0 0 0 0 -986205605.96004581 410577180.99849588 0 410577180.99849588 -67636415.666896313 0 0 0 0 71755438.313568115 -80720501.282218352 0 -80720501.282218352 -188406265.15062928 0 0 0 0 -643306.04053752031 57781.378050588071 0 57781.378050588071 48587.772221890569 0 0 0 0 -935314550.20145416 43072446.991579175 0 43072446.991579175 119367596.5175406 0 0 0 0 -979438581.76324463 -190381931.05053794 0 -190381931.05053794 287329267.60048544 0 0 0 0 -1575786146.1008186 107197760.9109758 0 107197760.9109758 320733009.7883817 0 0 0 0 -1571744330.8282952 -585865269.99577701 0 -585865269.99577701 279796818.44021028 0 0 0 0 -1058856251.1649094 -209907705.02099591 0 -209907705.02099591 283102299.01541239 0 0 0 0 -185616178.32102203 -44073228.662866652 0 -44073228.662866652 -38983886.220760487 0 0 0 0 -187432833.86171913 -43840893.22525195 0 -43840893.22525195 -12599390.809279386 0 0 0 0 -723750004.68106651 -583387292.95858729 0 -583387292.95858729 -217928282.34902701 0 0 0 0 184366.43874918669 742369.78635290428 0 742369.78635290428 -129953.57276788316 0 0 0 0 -10557334.485336304 9667112.8216078728 0 9667112.8216078728 -8545206.7440682054 0 0 0 0 -1824830.4285778357 658860.35408001393 0 658860.35408001393 162346.85926724121 0 0 0 0 -9881429.4683647156 1496896.6491699517 0 1496896.6491699517 -9377808.5781412721 0 0 0 0 -417009.64109611511 2963118.6360939443 0 2963118.6360939443 -7062454.3216488361 0 0 0 0 -6860109.9859483391 1357343.9438031332 0 1357343.9438031332 649460.71523129963 0 0 0 0 -5576017.862197876 -687779.74891731143 0 -687779.74891731143 -4046063.6592947245 0 0 0 0 -2718531.477684021 -1430702.2183672786 0 -1430702.2183672786 -5076647.4314944856 0 0 0 0 -4519257.51745224 -1141838.1898302734 0 -1141838.1898302734 -2825865.207128346 0 0 0 0 -6342245.6357058622 -761793.75293882622 0 -761793.75293882622 -178429.22357317511 0 0 0 0 -3817061.0592880249 -3960557.618388474 0 -3960557.618388474 -61546.704627737403 0 0 0 0 -6743943.8750631809 -27821063.769214362 0 -27821063.769214362 85555192.282104492 0 0 0 0 -9460162.3349109609 -1650118.062361921 0 -1650118.062361921 -615679.8220781805 0 0 0 0 -2022148.9107093811 -1872928.160336107 0 -1872928.160336107 -4987762.3062261194 0 0 0 0 -3469465.825176239 -256893.87563732266 0 -256893.87563732266 -8965.7914624214172 0 0 0 0 -4638655.0543670654 1657906.7686214447 0 1657906.7686214447 3248982.3895542882 0 0 0 0 -7350098.4921449982 -1923304.8202254009 0 -1923304.8202254009 -298039.88360791851 0 0 0 0 -3563772.7325363159 -385558.33367365599 0 -385558.33367365599 -180484.98579219729 0 0 0 0 -6159588.4188743159 -1175294.4982866216 0 -1175294.4982866216 -1503480.0780036687 0 0 0 0 -19061582.048881531 7405042.1330699921 0 7405042.1330699921 21363678.84871006 0 0 0 0 -34296381.362784386 -21259899.787345171 0 -21259899.787345171 93316884.494411469 0 0 0 0 -412269.04206674895 -153043.20098071359 0 -153043.20098071359 -29860.064480679575 0 0 0 0 -13988265.183729172 3472059.5050215721 0 3472059.5050215721 13283494.547971725 0 0 0 0 -8707665.6951268483 -2391449.6155404272 0 -2391449.6155404272 -1038913.9650460215 0 0 0 0 -18253098.751647949 1865435.0137958527 0 1865435.0137958527 24439515.59210968 0 0 0 0 -8509327.1886520386 11148342.028556347 0 11148342.028556347 6955644.2590355873 0 0 0 0 -13813966.219852448 18570951.563714266 0 18570951.563714266 -2961138.1502146721 0 0 0 0 -16654811.638773918 14168040.022042274 0 14168040.022042274 26271887.526867867 0 0 0 0 -7361120.6137895584 8215341.923126936 0 8215341.923126936 12381079.572840214 0 0 0 0 -15657735.667114258 15939290.797151327 0 15939290.797151327 9449515.1910676956 0 0 0 0 -22692472.280986786 28185429.374623299 0 28185429.374623299 -1843902.6306600571 0 0 0 0 -13629776.961826324 22838546.094020844 0 22838546.094020844 26703647.401914597 0 0 0 0 -24757233.888318539 8736661.7834620327 0 8736661.7834620327 15852521.315280914 0 0 0 0 -9078829.7959213257 21825564.879024267 0 21825564.879024267 -12340000.601721525 0 0 0 0 -11537963.569030762 36937329.802407265 0 36937329.802407265 -87230718.762120247 0 0 0 0 -6298781.6347942352 23312160.337225914 0 23312160.337225914 -26920985.001711845 0 0 0 0 -3788430.3449332155 10324325.720693367 0 10324325.720693367 -1559455.033498764 0 0 0 0 10692580.295921326 32968329.025786996 0 32968329.025786996 3957945.0011086464 0 0 0 0 -61327046.552940369 -80994229.105980873 0 -80994229.105980873 140596757.29911447 0 0 0 0 -50006493.883144379 -5276524.3625245094 0 -5276524.3625245094 102146049.49371195 0 0 0 0 -85635386.437232971 -39106747.600867867 0 -39106747.600867867 -40778395.734637499 0 0 0 0 -52296182.48528862 49578406.183140755 0 49578406.183140755 -16294962.770034075 0 0 0 0 -94618077.801427841 -29516428.850824237 0 -29516428.850824237 -50874194.668601751 0 0 0 0 -103687516.92606235 -31762068.665000439 0 -31762068.665000439 19327559.216685295 0 0 0 0 -100904694.36264253 -44888466.569379851 0 -44888466.569379851 -63943277.981724262 0 0 0 0 -137652162.74988174 -84490845.408536255 0 -84490845.408536255 -25773654.433560371 0 0 0 0 -477456.16706856154 345790.94831789844 0 345790.94831789844 -108880.0420312885 0 0 0 0 -29279374.510253906 -131903071.69031906 0 -131903071.69031906 -206649920.09223032 0 0 0 0 -444191.93088715523 819741.78811153281 0 819741.78811153281 -496510.63002876559 0 0 0 0 -27555697.688297272 4233992.2651281357 0 4233992.2651281357 64291741.620485902 0 0 0 0 -84130.728981558233 36587.374613457592 0 36587.374613457592 -227068.59394491825 0 0 0 0 -50278063.756275177 -65514753.165357351 0 -65514753.165357351 40266883.189725339 0 0 0 0 7360746.4511909485 2258558.0670596957 0 2258558.0670596957 2090721.6048614979 0 0 0 0 -46259073.068664551 -49592771.756188154 0 -49592771.756188154 -23030701.653704762 0 0 0 0 -75636723.066333771 -9169286.5067336559 0 -9169286.5067336559 8091634.4392656088 0 0 0 0 -44328680.880031586 34299794.505584955 0 34299794.505584955 -6358740.7730703354 0 0 0 0 -47774777.721755624 -15777671.891055755 0 -15777671.891055755 -20991453.242512465 0 0 0 0 -44464662.298801422 10180477.773830771 0 10180477.773830771 -28237192.509792864 0 0 0 0 -134542441.59822845 -56947215.141792536 0 -56947215.141792536 -8119289.4932969809 0 0 0 0 -90495560.426998138 1581155.9784607291 0 1581155.9784607291 -18897147.469432116 0 0 0 0 -232621546.32381821 2602824.7655410767 0 2602824.7655410767 -32486249.121351182 0 0 0 0 -160279554.96533203 -154303428.80339777 0 -154303428.80339777 -179337119.83607668 0 0 0 0 -126391737.74514389 -33047013.386041045 0 -33047013.386041045 -36781225.637103736 0 0 0 0 -108981903.00088215 54116889.500936627 0 54116889.500936627 -12251313.316593885 0 0 0 0 -50588867.255355835 49990803.632071555 0 49990803.632071555 -59343272.879424453 0 0 0 0 -110687145.59988785 -72279068.381474763 0 -72279068.381474763 -40444038.063217402 0 0 0 0 -257434.35717563704 145462.22370905802 0 145462.22370905802 -45694.604198073794 0 0 0 0 -83297845.797338486 -56386482.061597645 0 -56386482.061597645 -54902953.02233167 0 0 0 0 -323160513.67013168 -320634690.60643804 0 -320634690.60643804 -266709918.43809164 0 0 0 0 -602271114.99487495 -285717036.39915097 0 -285717036.39915097 -138498834.81275359 0 0 0 0 -261338745.23252678 -376809836.30940628 0 -376809836.30940628 -274519937.22473288 0 0 0 0 -268604072.45349884 -201818498.29657677 0 -201818498.29657677 -122407378.50293252 0 0 0 0 -200060841.63277721 -251431981.43181309 0 -251431981.43181309 -81722917.878511548 0 0 0 0 -234984422.91599274 -178676372.59368724 0 -178676372.59368724 -215038576.42361277 0 0 0 0 -50193056.930438995 53285854.870258152 0 53285854.870258152 -150250854.16414261 0 0 0 0 -161446999.19829178 -130302246.93764466 0 -130302246.93764466 -49315797.982827544 0 0 0 0 -337559.71452973597 279573.13585203327 0 279573.13585203327 32727.489988315385 0 0 0 0 -154151715.77997398 -167834463.26838648 0 -167834463.26838648 -107218770.8637678 0 0 0 0 159128920.26871872 55512893.220949531 0 55512893.220949531 -210540328.03769064 0 0 0 0 85797627.453163147 70777420.557410717 0 70777420.557410717 -184123758.89919162 0 0 0 0 -370867281.98658371 -854736345.19841206 0 -854736345.19841206 -1384440193.2611094 0 0 0 0 -67759419.236057281 -112891666.13317689 0 -112891666.13317689 -329272696.41882598 0 0 0 0 -390422130.67889023 -618116260.51914263 0 -618116260.51914263 -583900893.48435271 0 0 0 0 -975147940.04328537 -651902830.53375208 0 -651902830.53375208 -52929811.375947244 0 0 0 0 -1571574396.5062447 -966693309.55415666 0 -966693309.55415666 -210290099.1181528 0 0 0 0 -1575496021.7761993 -540032286.85255587 0 -540032286.85255587 142229713.45588839 0 0 0 0 -941141588.2691555 -500013089.8722313 0 -500013089.8722313 -105792587.30484146 0 0 0 0 -718019374.44348145 -490353735.85667634 0 -490353735.85667634 -121824688.56330578 0 0 0 0 -1123797485.1795063 -308694723.23762816 0 -308694723.23762816 141441007.68105081 0 0 0 0 -1574342330.6817875 10240370.136508895 0 10240370.136508895 275465542.02000213 0 0 0 0 -1002213143.3125648 -247792113.23857582 0 -247792113.23857582 139039036.33731771 0 0 0 0 -878184820.06550884 -46306155.263529487 0 -46306155.263529487 69444657.732838154 0 0 0 0 -797075572.64986801 -40551345.566302359 0 -40551345.566302359 68977397.714213431 0 0 0 0 -878385473.47007751 115997041.6591014 0 115997041.6591014 287106206.84620327 0 0 0 0 -313334082.88825035 -118035317.53512549 0 -118035317.53512549 -192033201.40437961 0 0 0 0 -492314996.67926025 -251149104.48229745 0 -251149104.48229745 -132418736.2303386 0 0 0 0 -575961063.02012825 157061548.32521629 0 157061548.32521629 46485016.430017054 0 0 0 0 -198062948.80567741 -119810429.98577417 0 -119810429.98577417 -193500869.02867672 0 0 0 0 -67754864.149617553 -273508257.85442454 0 -273508257.85442454 201933916.80649638 0 0 0 0 -121157694.68130302 123134805.15510103 0 123134805.15510103 -19247416.348322451 0 0 0 0 -357109484.06914902 -303802.79236145318 0 -303802.79236145318 168504282.42363924 0 0 0 0 -1574866637.3237629 342448347.96781731 0 342448347.96781731 323065835.60909903 0 0 0 0 -540552765.08224297 575740465.72908485 0 575740465.72908485 -177700119.91601315 0 0 0 0 -851487203.19462967 354200853.56478524 0 354200853.56478524 241998600.26331437 0 0 0 0 -1572703728.8102818 913359723.07125628 0 913359723.07125628 -38459822.489944927 0 0 0 0 -40959326.291824341 793865895.06385744 0 793865895.06385744 -1279299963.6827977 0 0 0 0 -827510.93095459789 160751.30628592474 0 160751.30628592474 -394419.65703584015 0 0 0 0 -1568104368.0629501 31531.808929150196 0 31531.808929150196 931219.88511074288 0 0 0 0 -36485905.441761017 -790122343.48667526 0 -790122343.48667526 -988979046.45416391 0 0 0 0 -2350112.7271880489 1026325.8644555539 0 1026325.8644555539 -351226.06433710293 0 0 0 0 25060244.147605896 -1780241.9740774632 0 -1780241.9740774632 -348575.86652959511 0 0 0 0 25733083.926902771 10186065.880851626 0 10186065.880851626 77816.727977180853 0 0 0 0 -143424266.294819 124103613.98120646 0 124103613.98120646 -143211724.91512996 0 0 0 0 -3987240.5152647365 1069865.1489214906 0 1069865.1489214906 -400802.29170535493 0 0 0 0 -1518926.5968714301 1257031.5950177833 0 1257031.5950177833 -40523.950380994414 0 0 0 0 -458344474.31070805 198561064.43655559 0 198561064.43655559 -68749050.940845996 0 0 0 0 -1535891.1841894388 -348622.96210572962 0 -348622.96210572962 -726594.77016130544 0 0 0 0 96007647.944561005 -56445106.637641549 0 -56445106.637641549 18347916.178519309 0 0 0 0 120562502.00678825 -22613019.395308495 0 -22613019.395308495 -79614058.183202744 0 0 0 0 93221371.535188675 18693446.266455173 0 18693446.266455173 -33299853.625537157 0 0 0 0 25831262.620307922 9601104.7027270794 0 9601104.7027270794 -15657390.314473227 0 0 0 0 24748439.822470665 -4034382.1282451451 0 -4034382.1282451451 -16396491.365903497 0 0 0 0 -4328126.2580177812 1073721.8497506152 0 1073721.8497506152 -231239.06539433962 0 0 0 0 -62726912.581354141 157997379.901665 0 157997379.901665 -34625296.524516471 0 0 0 0 77504217.264222145 51723740.581972271 0 51723740.581972271 17923911.519493103 0 0 0 0 67884333.747499466 74304824.683895111 0 74304824.683895111 76261143.130201876 0 0 0 0 82473347.340163231 40691170.959736086 0 40691170.959736086 -50148892.849003196 0 0 0 0 82393315.671199799 157895388.82399994 0 157895388.82399994 89772557.112109557 0 0 0 0 -4457984.8842780031 485875.51090904744 0 485875.51090904744 87197.137690533564 0 0 0 0 68839144.106615067 -40868191.177174777 0 -40868191.177174777 -78932263.738946289 0 0 0 0 -1338414217.8903065 -114821591.25934824 0 -114821591.25934824 137284164.08662832 0 0 0 0 -238754060.85655975 116063419.92490782 0 116063419.92490782 61623589.133877978 0 0 0 0 -1227117035.936121 -602692525.75763714 0 -602692525.75763714 -171844703.16177908 0 0 0 0 -1572910482.538203 -725390042.57497084 0 -725390042.57497084 128800243.6365082 0 0 0 0 -659812345.29996872 -1086828256.4109533 0 -1086828256.4109533 -563792029.1536603 0 0 0 0 -916746287.5074656 -268541621.86642236 0 -268541621.86642236 33004035.676181838 0 0 0 0 -112010954.56533813 -277073831.63877958 0 -277073831.63877958 -76174935.880823255 0 0 0 0 -98557081.930541992 94334537.428772509 0 94334537.428772509 -209981260.50756681 0 0 0 0 -275393035.77231026 79411941.493922517 0 79411941.493922517 25007712.063375294 0 0 0 0 -104611225.94841003 56982237.044077694 0 56982237.044077694 -8744486.0428307652 0 0 0 0 -215752877.49337912 -132932506.17586286 0 -132932506.17586286 -51389374.548510075 0 0 0 0 -487215151.29558182 18776329.133940652 0 18776329.133940652 -131643813.8189792 0 0 0 0 -29887303.478141785 -31660978.343085945 0 -31660978.343085945 -20952887.798841864 0 0 0 0 -170883093.19160652 35196220.615081489 0 35196220.615081489 177901527.92485714 0 0 0 0 -84285218.079364777 29554065.247585312 0 29554065.247585312 38014990.247714669 0 0 0 0 -50035880.858690262 120451417.06518388 0 120451417.06518388 -8479186.7495655417 0 0 0 0 -122890156.4192009 87517111.271959439 0 87517111.271959439 136036106.54470134 0 0 0 0 -51450886.957305908 56387630.650553465 0 56387630.650553465 147356430.66393769 0 0 0 0 -13093785.483917236 112037860.12574458 0 112037860.12574458 114493288.43177427 0 0 0 0 -29090797.471595764 107473184.97190541 0 107473184.97190541 174046242.74891329 0 0 0 0 18985955.798587799 77526263.291696504 0 77526263.291696504 127119694.78810513 0 0 0 0 -1197263.5001449585 124341131.23467374 0 124341131.23467374 133188937.55533035 0 0 0 0 -11945157.003898621 133653574.29375941 0 133653574.29375941 36401043.428241432 0 0 0 0 -53511396.659790039 87236215.127029717 0 87236215.127029717 114676541.88178985 0 0 0 0 109092524.90007401 73118528.594426423 0 73118528.594426423 103212052.11261356 0 0 0 0 52722951.684907913 132336595.21878038 0 132336595.21878038 42306231.883586943 0 0 0 0 77161286.468362808 61202853.683632284 0 61202853.683632284 -88614694.835748911 0 0 0 0 11740777.998249054 108903440.94245517 0 108903440.94245517 46589709.461647198 0 0 0 0 -35713309.034124374 129051758.37221646 0 129051758.37221646 -92654522.939518452 0 0 0 0 9226035.5070457458 62457285.805714011 0 62457285.805714011 -4320511.7878389955 0 0 0 0 -18134255.272502899 -4286234.7241562605 0 -4286234.7241562605 -171136260.40634263 0 0 0 0 7441053.4244232178 72290494.350518495 0 72290494.350518495 -80724608.752909899 0 0 0 0 94596734.428287506 24839806.786201239 0 24839806.786201239 -175468840.25652182 0 0 0 0 69648144.790334702 -10034592.705515504 0 -10034592.705515504 -3585081.1278214455 0 0 0 0 26455242.893508911 -81070020.104889035 0 -81070020.104889035 -108179993.68372929 0 0 0 0 -27647179.948564529 16280515.352438807 0 16280515.352438807 -172473617.59997046 0 0 0 0 -336160701.00639343 -66989551.163009048 0 -66989551.163009048 -325532106.87803602 0 0 0 0 -285630793.68201637 -145505038.85218728 0 -145505038.85218728 -223054328.48415601 0 0 0 0 -566040804.6496048 -308929228.4056797 0 -308929228.4056797 -184994010.58205307 0 0 0 0 -80374041.163999557 70011043.588353574 0 70011043.588353574 -252263222.9667604 0 0 0 0 -282699116.64891052 -32666909.142642975 0 -32666909.142642975 -171769884.95464227 0 0 0 0 -449606666.08570576 -405215352.07815796 0 -405215352.07815796 -1020436891.3079295 0 0 0 0 -546547786.62110138 -225896424.0542798 0 -225896424.0542798 -291003140.24689579 0 0 0 0 -216906188.33952332 -146713353.90166113 0 -146713353.90166113 -503642945.00186324 0 0 0 0 -923735573.79547119 -633160126.82445359 0 -633160126.82445359 -282773538.07119751 0 0 0 0 -465928541.28809738 -301989727.28136802 0 -301989727.28136802 -420201189.81859398 0 0 0 0 -960342641.82730484 -216556014.21663809 0 -216556014.21663809 -243044972.19288397 0 0 0 0 -1058544700.9815388 -540099375.2419014 0 -540099375.2419014 130474163.89429092 0 0 0 0 -94684.72976989951 -301154.37732240371 0 -301154.37732240371 -837389.9098857193 0 0 0 0 -60050806.85100174 -179527549.33899379 0 -179527549.33899379 -388404838.09332561 0 0 0 0 -998110292.15034008 -76528768.61901018 0 -76528768.61901018 66717983.843422651 0 0 0 0 -590892593.5792532 20520868.369079202 0 20520868.369079202 89754790.330946445 0 0 0 0 -622171401.23458099 -302472199.77221549 0 -302472199.77221549 -36718177.769013286 0 0 0 0 -835284882.28884029 -460183173.63256967 0 -460183173.63256967 -148185055.23831129 0 0 0 0 -584166598.87497711 -229418994.70807457 0 -229418994.70807457 -406828565.46134448 0 0 0 0 -343781012.21363068 -186901320.92662632 0 -186901320.92662632 -129549713.65674245 0 0 0 0 -620378259.59921765 -327345824.49376029 0 -327345824.49376029 99694136.240568638 0 0 0 0 -578179306.46507454 -423889608.11946529 0 -423889608.11946529 -92595437.1959562 0 0 0 0 -645409780.53610039 -420955034.51578325 0 -420955034.51578325 51150271.212856188 0 0 0 0 -505535091.2090683 -208259512.91139448 0 -208259512.91139448 24343471.082986116 0 0 0 0 -217910701.1287384 -81409824.963928014 0 -81409824.963928014 -11878758.017041922 0 0 0 0 -124616416.24710083 -28626359.459552169 0 -28626359.459552169 3504828.7870227098 0 0 0 0 -448440732.63639069 -268396339.12323558 0 -268396339.12323558 74277012.61152482 0 0 0 0 -672348778.58402252 -350673392.69215214 0 -350673392.69215214 63694660.465856791 0 0 0 0 -1546838.1020635944 -1026369.5604023905 0 -1026369.5604023905 -863151.41179488436 0 0 0 0 145651301.57513809 -239753699.11056066 0 -239753699.11056066 82334422.826555341 0 0 0 0 55486483.01934433 31613224.855255246 0 31613224.855255246 26774082.993556738 0 0 0 0 -341724741.8935318 -198263740.49493921 0 -198263740.49493921 -79822820.307538092 0 0 0 0 -575095802.00904846 -188271408.70569134 0 -188271408.70569134 287493753.1596632 0 0 0 0 -731425.40315853804 -569178.79909662483 0 -569178.79909662483 -425763.30302902206 0 0 0 0 -134772228.71161652 19876851.909384206 0 19876851.909384206 37156460.988359466 0 0 0 0 165107668.04580212 -280226986.87465185 0 -280226986.87465185 -371930907.63200986 0 0 0 0 -359270150.82226944 -364459907.35261631 0 -364459907.35261631 -293341180.01387012 0 0 0 0 -127327775.2232914 -283147245.06552321 0 -283147245.06552321 -310327200.28757465 0 0 0 0 -263350424.76963234 -86235261.085526019 0 -86235261.085526019 -44481627.818843842 0 0 0 0 -150381298.79529572 -120723251.01438284 0 -120723251.01438284 -38435666.948646188 0 0 0 0 -14802433.531692505 -39875936.859001637 0 -39875936.859001637 -75041094.567933917 0 0 0 0 -397812513.82378864 -42496296.162856728 0 -42496296.162856728 -108489516.12752271 0 0 0 0 -375475671.8227129 -317540406.50113058 0 -317540406.50113058 -261142877.80368376 0 0 0 0 -223842300.74570847 -88870681.799263299 0 -88870681.799263299 -254678605.31662947 0 0 0 0 -502114340.17057228 -266147972.01575211 0 -266147972.01575211 -126835513.89122647 0 0 0 0 -201759032.60298157 -97005796.998558581 0 -97005796.998558581 -136108189.20869434 0 0 0 0 -175591380.31883907 23186154.276786752 0 23186154.276786752 -26738734.83088851 0 0 0 0 -76162918.795265198 -32247441.273089588 0 -32247441.273089588 -119574712.67865568 0 0 0 0 -108918887.60489273 -18898647.315090358 0 -18898647.315090358 -34209385.804946899 0 0 0 0 -12635627.899185181 -12942392.881468534 0 -12942392.881468534 20600522.711993635 0 0 0 0 -39275705.805938721 36710754.436351299 0 36710754.436351299 -43067557.784659386 0 0 0 0 41196903.600600719 2140735.3965406939 0 2140735.3965406939 22388970.881663322 0 0 0 0 188847961.49443817 -44296546.665135503 0 -44296546.665135503 5698121.0245418549 0 0 0 0 58881826.687705994 -13547215.76132822 0 -13547215.76132822 48577322.460076809 0 0 0 0 196287321.84004974 48493308.38064146 0 48493308.38064146 32267330.44999218 0 0 0 0 51779786.263503075 33639471.362606719 0 33639471.362606719 17601252.905400276 0 0 0 0 76329608.551017761 -49332423.621827841 0 -49332423.621827841 -5016428.0404526293 0 0 0 0 69046112.694206238 -6188231.4791768193 0 -6188231.4791768193 93424159.829144239 0 0 0 0 -66435133.862354279 -69908785.985297441 0 -69908785.985297441 3787748.5224969387 0 0 0 0 140175433.59105301 549435.58869212866 0 549435.58869212866 -85017654.184600711 0 0 0 0 20922022.831787109 -98534577.950003862 0 -98534577.950003862 -67964501.151418567 0 0 0 0 -612387.66335037909 -872782.83167513832 0 -872782.83167513832 -1652853.2803863762 0 0 0 0 -23531137.972105026 -12798935.186167628 0 -12798935.186167628 15231731.823199511 0 0 0 0 156208428.09952736 -87621023.431425184 0 -87621023.431425184 -44871814.529153407 0 0 0 0 -2234716.0594625361 -970381.62842035387 0 -970381.62842035387 -495634.00745205279 0 0 0 0 616142.13902664185 -269299.7997751236 0 -269299.7997751236 -521585.51221990585 0 0 0 0 -2161032.7018541954 1224643.8522340804 0 1224643.8522340804 -850046.27096921206 0 0 0 0 -1379924.9368055956 687846.72960586334 0 687846.72960586334 -827348.6634013094 0 0 0 0 896550.76119487174 -1145402.3356811823 0 -1145402.3356811823 -448442.92325151246 0 0 0 0 -2212172.9543962702 1814071.2235193714 0 1814071.2235193714 -1096796.5250013978 0 0 0 0 -1424358.8526229858 -1196022.6126821637 0 -1196022.6126821637 2116998.8582930565 0 0 0 0 643399.81712627411 -5417397.2467083037 0 -5417397.2467083037 6328339.5657434464 0 0 0 0 -230485.70038230903 -466682.82432146929 0 -466682.82432146929 197149.89313903439 0 0 0 0 286875951.03728485 -16830563.676498294 0 -16830563.676498294 -25150498.848809719 0 0 0 0 -5185762.6635131836 4402184.3796746731 0 4402184.3796746731 544077.79740810394 0 0 0 0 -4357348.4523582458 2783211.4541788101 0 2783211.4541788101 -524704.49813175201 0 0 0 0 961494.43671798706 4787326.5462999344 0 4787326.5462999344 -738814.33269786835 0 0 0 0 -2321990.259513855 4482021.7053569555 0 4482021.7053569555 639782.83012771606 0 0 0 0 -2374027.1755867004 4316263.7477326393 0 4316263.7477326393 476754.60827445984 0 0 0 0 -579024.29256820679 3651110.6744549274 0 3651110.6744549274 -1274748.3462810516 0 0 0 0 -1139073.661365509 5223720.29398036 0 5223720.29398036 543937.45269680023 0 0 0 0 -1286720.8481483459 5759682.7954587936 0 5759682.7954587936 1515101.2846374512 0 0 0 0 -2441595.7554092407 4186781.3059256077 0 4186781.3059256077 412880.48145198822 0 0 0 0 -2544200.7526702881 4297172.1154079437 0 4297172.1154079437 581113.06150269508 0 0 0 0 -2722445.5651550293 4515013.0248844624 0 4515013.0248844624 1367947.7675590515 0 0 0 0 -2752445.1335678101 4512453.9027304649 0 4512453.9027304649 1620215.0165291429 0 0 0 0 -4102824.0058555603 3587614.2851014137 0 3587614.2851014137 183958.47311091423 0 0 0 0 752286.3828125 2436051.6439676285 0 2436051.6439676285 2118408.923997879 0 0 0 0 -4563267.8354721069 3481588.3375339508 0 3481588.3375339508 1217529.8944544792 0 0 0 0 -4485106.7270774841 3358463.617606163 0 3358463.617606163 1405572.9671640396 0 0 0 0 -3884420.0223094802 1081260.5460081175 0 1081260.5460081175 -379247.08019710332 0 0 0 0 -5384657.555896759 2837032.4214911461 0 2837032.4214911461 1235504.032171011 0 0 0 0 430114.69169998169 2738584.6294445992 0 2738584.6294445992 2853777.942864418 0 0 0 0 -4588951.3226108812 2375732.2005215492 0 2375732.2005215492 10190.919214202499 0 0 0 0 -2658741.6880836487 9557333.0259444714 0 9557333.0259444714 4915284.3418468833 0 0 0 0 -2313943.7033568043 4735081.0243728478 0 4735081.0243728478 62364.003627047903 0 0 0 0 -10191063.465190887 -9999600.7086606026 0 -9999600.7086606026 -4748168.2775971293 0 0 0 0 -3086681.6457748413 5698062.2199010849 0 5698062.2199010849 1190490.4210977554 0 0 0 0 -5734385.285369873 4385482.6272454262 0 4385482.6272454262 1718722.564129591 0 0 0 0 -22196966.555969238 -7170678.8586769104 0 -7170678.8586769104 -8123906.7150726318 0 0 0 0 -8145585.1446452234 931194.17596598668 0 931194.17596598668 1427836.2043315079 0 0 0 0 -21669877.152863026 2794981.3216402531 0 2794981.3216402531 -2015011.6697883606 0 0 0 0 -1865451.7022279575 -1586995.8018521182 0 -1586995.8018521182 -1059809.4866008728 0 0 0 0 -6535999.1468276978 869619.3973107338 0 869619.3973107338 1173361.7280035019 0 0 0 0 3503302.3478164673 -15588384.573616505 0 -15588384.573616505 -7312556.2577447891 0 0 0 0 -2648678.8010411263 -402451.88197475672 0 -402451.88197475672 -448813.67290592194 0 0 0 0 -3339397.4745330811 -2715781.9446861744 0 -2715781.9446861744 -2483297.4984354973 0 0 0 0 -1485319.7652896969 -145984.14314758964 0 -145984.14314758964 742949.49497793987 0 0 0 0 -1419819.8465766907 1046971.9894013405 0 1046971.9894013405 -2636629.4744784832 0 0 0 0 -2741502.5477771759 -1150001.0023789406 0 -1150001.0023789406 2899531.4793968201 0 0 0 0 -951982.1084022522 -702793.9897172451 0 -702793.9897172451 -413103.31978911161 0 0 0 0 -1935095.1019838457 -74754.994158212095 0 -74754.994158212095 -683536.42499353131 0 0 0 0 -1729930.757774353 -936375.05981361866 0 -936375.05981361866 -157582.16278743744 0 0 0 0 -9500952.5051593781 4359882.7037695646 0 4359882.7037695646 -2341173.5558929443 0 0 0 0 -6854210.3576164246 -1438295.1196850538 0 -1438295.1196850538 151111.09663081169 0 0 0 0 -409218.54652404785 6419.5121231079102 0 6419.5121231079102 -1963204.013633728 0 0 0 0 -10326.10050201416 -689662.00869846344 0 -689662.00869846344 374455.08691196144 0 0 0 0 -508491.71395803615 -1066331.245766528 0 -1066331.245766528 -1070468.412511186 0 0 0 0 -75255061.422935486 -122078084.8465541 0 -122078084.8465541 88681653.779214382 0 0 0 0 -75974.564204998314 -670732.50024988316 0 -670732.50024988316 -2092141.8267958784 0 0 0 0 100730095.18041992 -125315927.56830478 0 -125315927.56830478 19641513.645066857 0 0 0 0 -39539628.038059235 12744074.903226674 0 12744074.903226674 39951485.161380053 0 0 0 0 -1901162.4697624808 -267809.30907586683 0 -267809.30907586683 -36029.844368116464 0 0 0 0 -1287983.2818384347 -922769.57511619153 0 -922769.57511619153 -1210809.5456220987 0 0 0 0 -1258596.0679702759 -436420.57673096657 0 -436420.57673096657 -1670325.9698491096 0 0 0 0 -1310171.8940705415 -660404.6385910511 0 -660404.6385910511 -1105441.5631313196 0 0 0 0 -742303.89068603516 -451661.83549213409 0 -451661.83549213409 -453689.95996427536 0 0 0 0 -1215417.1222286224 -527774.78405666351 0 -527774.78405666351 -414163.79757452011 0 0 0 0 -19164331.861488342 14638298.898607671 0 14638298.898607671 -1248815.620370388 0 0 0 0 -34984599.261116028 45379216.063327551 0 45379216.063327551 103189021.08195114 0 0 0 0 -19621196.125749588 55311559.033136845 0 55311559.033136845 -67873505.646483898 0 0 0 0 -4670062.0563011169 20991995.501097679 0 20991995.501097679 -2170338.1842627525 0 0 0 0 4482830.0612335205 35539965.25650692 0 35539965.25650692 1088300.5426909924 0 0 0 0 -44732.174369812012 31323276.324390888 0 31323276.324390888 40565891.750207901 0 0 0 0 13887984.992790222 21518338.057479382 0 21518338.057479382 9191029.6415271759 0 0 0 0 5108522.5938491821 27948855.487534046 0 27948855.487534046 10989831.887380183 0 0 0 0 6394205.5327739716 34353804.851370096 0 34353804.851370096 -9930856.8570175171 0 0 0 0 -5131186.1711710226 5440273.4807799906 0 5440273.4807799906 -556871.69401644636 0 0 0 0 21480152.901428223 26329270.711480141 0 26329270.711480141 -637489.76872128248 0 0 0 0 21274026.496110439 13612080.746255815 0 13612080.746255815 845461.77664661407 0 0 0 0 1539002.6344075203 7746409.7861602902 0 7746409.7861602902 1649343.1866645813 0 0 0 0 -6424735.2766577844 4687431.0530418353 0 4687431.0530418353 973804.54232345661 0 0 0 0 -1111635.8535003662 5071999.2176995277 0 5071999.2176995277 1382730.2668525875 0 0 0 0 1006280.001789093 7474302.6416647434 0 7474302.6416647434 1819124.0589065552 0 0 0 0 -290345.17794132233 5790842.5922381878 0 5790842.5922381878 -1932850.5596065521 0 0 0 0 -3316386.2706407458 5278706.4013462067 0 5278706.4013462067 427840.46691071818 0 0 0 0 -8848266.3504180908 877662.92024230957 0 877662.92024230957 4484279.646512568 0 0 0 0 7700393.3575248718 17995769.181327224 0 17995769.181327224 -2946340.834376812 0 0 0 0 -9646705.9263799302 4368888.5192092881 0 4368888.5192092881 1638549.4719100255 0 0 0 0 -386451.37458687276 5005301.870998662 0 5005301.870998662 668073.41477578133 0 0 0 0 -32521.970121849328 862884.68614145264 0 862884.68614145264 122737.8795652648 0 0 0 0 -42408.488933563232 9415122.7466057539 0 9415122.7466057539 3086707.3828997612 0 0 0 0 -4748749.566280365 24469055.867556691 0 24469055.867556691 6624689.8701317757 0 0 0 0 -46410049.717849731 31642401.356915474 0 31642401.356915474 10553911.227217913 0 0 0 0 -25600753.06085968 26428209.942730725 0 26428209.942730725 10144534.621671438 0 0 0 0 -4202766.2907829285 40777984.812794924 0 40777984.812794924 9431334.3247928619 0 0 0 0 -9419863.6292266846 26356148.882718325 0 26356148.882718325 -24871561.029300213 0 0 0 0 -26804771.777894974 15873728.328577846 0 15873728.328577846 12988589.840231895 0 0 0 0 -11293694.196502686 22588271.95837307 0 22588271.95837307 15609200.848856449 0 0 0 0 -30492030.727157593 21115265.520148039 0 21115265.520148039 24747426.39674592 0 0 0 0 -32415941.61979866 12690249.789351165 0 12690249.789351165 21016643.273900032 0 0 0 0 -57210577.559951782 -17942481.009227991 0 -17942481.009227991 4084748.9008712769 0 0 0 0 -2661120.8510749219 -562345.83251626231 0 -562345.83251626231 -116655.39219860546 0 0 0 0 -33108782.927815914 16385843.494824741 0 16385843.494824741 17469341.623935461 0 0 0 0 -33200339.641624451 17133733.707203507 0 17133733.707203507 21512290.135843396 0 0 0 0 -35780128.855718613 20250149.684652001 0 20250149.684652001 18110227.861590624 0 0 0 0 -15988288.730840683 14828346.080362126 0 14828346.080362126 11812023.595505118 0 0 0 0 -28885921.982376099 20245920.646031022 0 20245920.646031022 17415545.74723196 0 0 0 0 -31195534.773801804 17037122.30279088 0 17037122.30279088 17217859.510590553 0 0 0 0 -41586786.261306763 27578954.673202276 0 27578954.673202276 16755834.358457208 0 0 0 0 -5901572.1967964172 -2282123.7207055092 0 -2282123.7207055092 5128298.3991565704 0 0 0 0 -11351386.511703748 3674372.2290515732 0 3674372.2290515732 2415287.0969624873 0 0 0 0 -6333246.0350930747 4010806.6308347723 0 4010806.6308347723 470005.97506351047 0 0 0 0 -15199701.572058357 2644731.8342312323 0 2644731.8342312323 3526252.2319727559 0 0 0 0 -4606454.0578289032 8449057.1009867191 0 8449057.1009867191 6481949.3726501465 0 0 0 0 -32427417.925367355 87029263.244301796 0 87029263.244301796 30903986.888302565 0 0 0 0 -166603230.57526207 -76605001.315355301 0 -76605001.315355301 -23164541.125196695 0 0 0 0 75305566.655662537 6338329.811768055 0 6338329.811768055 41580739.974632144 0 0 0 0 -72742073.751542091 -90773520.933418036 0 -90773520.933418036 25759977.90185833 0 0 0 0 59192961.894053459 -18754861.564614296 0 -18754861.564614296 -54008130.063879013 0 0 0 0 -4622165.1114196777 11195974.59825778 0 11195974.59825778 5773901.9255068302 0 0 0 0 -83354920.081113815 37120878.6897645 0 37120878.6897645 53114949.281085014 0 0 0 0 -8032910.4826834667 2396352.1531324554 0 2396352.1531324554 1553315.175365713 0 0 0 0 -232711.21947298478 -615279.87224214617 0 -615279.87224214617 -1341.7844722339651 0 0 0 0 -18945.398204803467 -37776805.527921438 0 -37776805.527921438 -2762248.7794305161 0 0 0 0 -5467454.7437171936 -5508234.7646613121 0 -5508234.7646613121 -31058457.966351509 0 0 0 0 -22947026.544998169 -1062780.3120117188 0 -1062780.3120117188 2985049.4509086609 0 0 0 0 -913511.81594009325 -1659568.1147213774 0 -1659568.1147213774 114570.93051236286 0 0 0 0 21487234.086063623 5588476.7640288025 0 5588476.7640288025 37454161.626433372 0 0 0 0 29624923.631955147 101861526.68893456 0 101861526.68893456 84578265.584147453 0 0 0 0 -2574929.2539543994 -448763.15631783055 0 -448763.15631783055 952327.32097373065 0 0 0 0 -99218517.345159531 -24415847.672823548 0 -24415847.672823548 -4967640.3687725067 0 0 0 0 -185397721.25770664 -36361034.94273828 0 -36361034.94273828 -21232614.058767125 0 0 0 0 -31177636.052401781 -45242993.768559605 0 -45242993.768559605 -57928219.58763504 0 0 0 0 -68631957.516352892 57609057.646095216 0 57609057.646095216 39239301.294217587 0 0 0 0 -86773221.896989584 -59435929.085106507 0 -59435929.085106507 -154350554.74169123 0 0 0 0 -295598301.7874155 -195868554.47484195 0 -195868554.47484195 -105673134.06516078 0 0 0 0 -96919437.574540138 -87905983.656113803 0 -87905983.656113803 -79115294.930007398 0 0 0 0 -113609362.97840786 11427851.008552343 0 11427851.008552343 16296181.618669271 0 0 0 0 -35846488.538946152 79157489.605069995 0 79157489.605069995 55935518.109787464 0 0 0 0 25197375.995260239 32365800.320807934 0 32365800.320807934 -32953036.032035112 0 0 0 0 72449042.984618723 145944251.72599715 0 145944251.72599715 35515130.740822315 0 0 0 0 -981402.08791487757 -109400.11950088944 0 -109400.11950088944 463304.5248822798 0 0 0 0 -30454407.827070236 9642499.4345707893 0 9642499.4345707893 51832958.615927577 0 0 0 0 -94802986.335624218 72813781.981297493 0 72813781.981297493 3416496.5380325317 0 0 0 0 82233459.123822212 7239543.3199927807 0 7239543.3199927807 -13691113.44174099 0 0 0 0 9651435.5330548286 -1805765.711599946 0 -1805765.711599946 6252444.6009163857 0 0 0 0 -2832943.8195109367 24395849.536075473 0 24395849.536075473 -32728228.864678144 0 0 0 0 -30663279.970006943 2439208.3499407768 0 2439208.3499407768 -11683737.54426831 0 0 0 0 -59391505.427088737 33228037.026885509 0 33228037.026885509 -29197500.206683636 0 0 0 0 -17743935.180740356 5568552.0821648538 0 5568552.0821648538 -64697106.369663715 0 0 0 0 -467836.45147442911 -22968.997296587797 0 -22968.997296587797 302146.70032299182 0 0 0 0 -41252567.503550529 -46662139.599712789 0 -46662139.599712789 -28630029.458036989 0 0 0 0 16550795.364006042 -17056708.862068191 0 -17056708.862068191 -16572523.386817079 0 0 0 0 -36334584.296787262 -10115622.663684905 0 -10115622.663684905 3807260.6190980077 0 0 0 0 9289271.5387816429 10404387.004097313 0 10404387.004097313 -7891913.1980473995 0 0 0 0 -9151967.1606760025 -16582714.190294147 0 -16582714.190294147 -12822121.763162136 0 0 0 0 25277345.314567566 908062.03364145756 0 908062.03364145756 -11357446.074724317 0 0 0 0 62283725.380744934 27583267.772985041 0 27583267.772985041 -323878.02307265997 0 0 0 0 32474081.831477165 -17214462.094157755 0 -17214462.094157755 -10370187.007851243 0 0 0 0 12484276.048306823 383752.23369114846 0 383752.23369114846 25562538.156245828 0 0 0 0 44883517.495741844 29145835.984323204 0 29145835.984323204 11460277.898766279 0 0 0 0 -404817.50628077472 500409.30373002263 0 500409.30373002263 210903.30237462444 0 0 0 0 -5284303.2862186432 -760058.95631301403 0 -760058.95631301403 413400.13820934296 0 0 0 0 -9375302.6542866491 1736914.7407013795 0 1736914.7407013795 -528816.27733026457 0 0 0 0 -6989242.1997186821 -1140117.4205843806 0 -1140117.4205843806 406690.40869460965 0 0 0 0 -7632240.8463273011 -1903329.0957927657 0 -1903329.0957927657 634457.98487739079 0 0 0 0 64408547.301017761 16656073.671281457 0 16656073.671281457 -11900327.37328887 0 0 0 0 86464696.913075447 728559.57143610716 0 728559.57143610716 -673315.13052272797 0 0 0 0 -3113141.9103050232 1584063.8823413365 0 1584063.8823413365 2473228.5092059076 0 0 0 0 54850787.964079857 22789694.04288888 0 22789694.04288888 -20350832.596076131 0 0 0 0 55790051.091723442 14859599.43464756 0 14859599.43464756 11953415.240828037 0 0 0 0 -4034145.9043579102 140183.07645988464 0 140183.07645988464 1037935.5584087372 0 0 0 0 93441957.425049782 53055753.540463567 0 53055753.540463567 851606.12376070023 0 0 0 0 -10042856.679707602 2004739.798864312 0 2004739.798864312 328116.96131490078 0 0 0 0 -12561826.787261205 2829040.6542523853 0 2829040.6542523853 3259365.8005981511 0 0 0 0 -22318547.503974915 12436380.972551346 0 12436380.972551346 8126349.0575494766 0 0 0 0 -10724467.381384583 -842739.45319626294 0 -842739.45319626294 653895.78465922293 0 0 0 0 -47405098.878458023 -233161073.84088743 0 -233161073.84088743 -278072094.27844691 0 0 0 0 -5321026.0218601227 -223931557.97437739 0 -223931557.97437739 -359368606.81587982 0 0 0 0 -187716644.70370293 -589778337.39269757 0 -589778337.39269757 -898641831.96943963 0 0 0 0 -996285163.44577217 -189005878.77488947 0 -189005878.77488947 -293464128.38183331 0 0 0 0 82204759.151477814 42221674.823326111 0 42221674.823326111 -406866632.87991667 0 0 0 0 26266.716571918689 -95184.849319996312 0 -95184.849319996312 -1343829.0491456403 0 0 0 0 -1089992616.590909 -199697251.71829009 0 -199697251.71829009 -38224979.394565582 0 0 0 0 84859.223658777773 -208946.37879735767 0 -208946.37879735767 -83643.906844388111 0 0 0 0 -1841023.6965248361 -2137755.4032411044 0 -2137755.4032411044 128148.8641111356 0 0 0 0 -1647734.402349472 -2786.4986367225647 0 -2786.4986367225647 1075101.8827085495 0 0 0 0 -114860887.70284939 17774471.446412325 0 17774471.446412325 122649943.53325462 0 0 0 0 -81088911.145936966 -73333285.156967163 0 -73333285.156967163 62395687.264180183 0 0 0 0 -3158437.7040914549 -1793355.7635079115 0 -1793355.7635079115 501739.16717619507 0 0 0 0 -3155593.7730445862 2168196.015537262 0 2168196.015537262 5413923.721157074 0 0 0 0 -4132792.998137705 -1576289.3174701373 0 -1576289.3174701373 834992.82842786529 0 0 0 0 -21257271.863685608 -1832490.2933154106 0 -1832490.2933154106 3289066.8793849945 0 0 0 0 -62460356.558336258 35273672.022287846 0 35273672.022287846 134893050.28114223 0 0 0 0 -5622861.9281272888 -5437674.5857114792 0 -5437674.5857114792 3155127.8347120285 0 0 0 0 -3182613.4235877991 -5872183.5038809776 0 -5872183.5038809776 3010593.8413381577 0 0 0 0 -529424.97772228159 -30321.244334749877 0 -30321.244334749877 307739.33363572229 0 0 0 0 2009138.205581665 -737055.06073188782 0 -737055.06073188782 1361292.5157053471 0 0 0 0 4258324.660785675 35006477.990240574 0 35006477.990240574 -2395785.5163331032 0 0 0 0 -85164917.875680923 -90598421.413815737 0 -90598421.413815737 -49045393.756580234 0 0 0 0 -75424449.273607254 26637851.018330097 0 26637851.018330097 42298753.985093355 0 0 0 0 6261008.6578946114 -63597068.984734833 0 -63597068.984734833 -88885030.489617348 0 0 0 0 -207828201.41792297 -288150970.85161769 0 -288150970.85161769 -205281174.74490201 0 0 0 0 -152972435.94000053 -176563296.78283292 0 -176563296.78283292 -163518996.76267129 0 0 0 0 -148273597.62865973 -58544073.522386938 0 -58544073.522386938 -61590907.535567284 0 0 0 0 -355996193.30365849 -71619471.513260603 0 -71619471.513260603 -210829245.02774364 0 0 0 0 -505474339.1724844 -437274231.64396137 0 -437274231.64396137 -160050256.66387129 0 0 0 0 -137408822.4872694 -504164944.19545704 0 -504164944.19545704 -336670534.01313829 0 0 0 0 -184537214.17768669 -467490724.89759147 0 -467490724.89759147 -367074194.57285309 0 0 0 0 -138358082.10762978 -354525359.68767267 0 -354525359.68767267 -142176720.64086682 0 0 0 0 -391353585.33713913 -401986242.73374015 0 -401986242.73374015 -152559348.76792562 0 0 0 0 -268681192.60228729 -348397306.42010689 0 -348397306.42010689 -262119814.62928718 0 0 0 0 -245923252.23211288 -90791946.845694005 0 -90791946.845694005 273425786.60686576 0 0 0 0 74450729.725467682 -180287839.61074686 0 -180287839.61074686 -135372005.67762566 0 0 0 0 -2150963.1941636512 -851964.44096402451 0 -851964.44096402451 -325514.26968516986 0 0 0 0 40093363.095746994 964215.20709189773 0 964215.20709189773 -6556576.480261445 0 0 0 0 -33676443.60383606 -228494872.83511162 0 -228494872.83511162 331473550.97111583 0 0 0 0 19413328.873602867 37161048.586018682 0 37161048.586018682 40380318.971253633 0 0 0 0 -4990290.5608414495 13786.671165690525 0 13786.671165690525 470348.94359237084 0 0 0 0 13244558.352916241 -80942899.142408133 0 -80942899.142408133 224668836.40425128 0 0 0 0 -213523080.32459402 -72614960.989726186 0 -72614960.989726186 44022011.846607447 0 0 0 0 44182747.292397499 56064864.902704954 0 56064864.902704954 -58700052.322920322 0 0 0 0 33500049.68172884 -19637222.408099353 0 -19637222.408099353 -67699873.682755232 0 0 0 0 -270006508.03822136 47944330.454201341 0 47944330.454201341 -1631777.984292686 0 0 0 0 -696942.28825722169 -693423.79034378333 0 -693423.79034378333 -340666.67378771643 0 0 0 0 -601930238.14071608 -316464615.79452258 0 -316464615.79452258 -78368020.021603227 0 0 0 0 -323233971.46937466 -398212008.6506303 0 -398212008.6506303 -389810858.49392551 0 0 0 0 -247654022.68380642 -255018954.42350188 0 -255018954.42350188 -118858376.64408457 0 0 0 0 -478180568.69768333 -376176045.01886117 0 -376176045.01886117 -164952357.28560948 0 0 0 0 -268728947.19417858 -378373524.29020715 0 -378373524.29020715 -317915772.73542786 0 0 0 0 -143540107.779109 -86639784.993208051 0 -86639784.993208051 -42689709.594233483 0 0 0 0 -3664096.4777210131 -27672.093256871536 0 -27672.093256871536 342384.55856754212 0 0 0 0 -121320619.49264812 27755494.766041636 0 27755494.766041636 391927506.1895197 0 0 0 0 -1456092.9915638193 -83479.948075623659 0 -83479.948075623659 126180.47637361853 0 0 0 0 10796096.700680733 213426430.98888841 0 213426430.98888841 177417419.81570172 0 0 0 0 -471558449.34504032 -558899677.56349754 0 -558899677.56349754 -465060484.18447948 0 0 0 0 -261763937.4654808 196636074.46249121 0 196636074.46249121 206475285.11067283 0 0 0 0 -115712705.6612606 71778390.22204423 0 71778390.22204423 230034129.47996315 0 0 0 0 -26775866.556655169 -17510532.644770801 0 -17510532.644770801 170627769.95303285 0 0 0 0 24131136.916769505 44046730.166345835 0 44046730.166345835 233904666.33869421 0 0 0 0 -47979291.831074357 -15743322.256909817 0 -15743322.256909817 310049900.90370381 0 0 0 0 -27593066.617063999 36733637.106151521 0 36733637.106151521 238927543.52649987 0 0 0 0 -769730.42204112932 -464692.17329182092 0 -464692.17329182092 343963.08229348023 0 0 0 0 -3336310.0933229551 3274686.2809031392 0 3274686.2809031392 12897421.42864275 0 0 0 0 31775313.954225302 6618997.9580636919 0 6618997.9580636919 -19661544.194563627 0 0 0 0 -3875126.3131688088 -25624581.13637815 0 -25624581.13637815 -23064529.212888956 0 0 0 0 -6020711.8713956317 -152010.43699947506 0 -152010.43699947506 -916958.79915401246 0 0 0 0 11016293.300486565 1191681.3938224912 0 1191681.3938224912 -17652587.490582466 0 0 0 0 26080509.545585632 56256679.358288944 0 56256679.358288944 24865068.421824694 0 0 0 0 33478111.314172268 -26800816.472806871 0 -26800816.472806871 -188300524.91594672 0 0 0 0 -515105923.82481098 -2348309.2800329924 0 -2348309.2800329924 -147917956.89279258 0 0 0 0 -142668554.6341157 -29264372.10950017 0 -29264372.10950017 -196901906.52754688 0 0 0 0 8207788.8676056862 125223444.7937866 0 125223444.7937866 9177308.6347303987 0 0 0 0 -120149980.28359747 -97217699.206748784 0 -97217699.206748784 7998311.2809385061 0 0 0 0 -374377553.84347057 -184682599.32099116 0 -184682599.32099116 -54146266.567381859 0 0 0 0 -163881624.48281384 -55297357.192433745 0 -55297357.192433745 -32050196.750687599 0 0 0 0 -764696722.1685276 -337840772.94361079 0 -337840772.94361079 -144825625.43594438 0 0 0 0 -337272339.73335791 -190261656.55407172 0 -190261656.55407172 -111489160.84337091 0 0 0 0 -375314844.92660928 -352616105.83514345 0 -352616105.83514345 -181443927.03702927 0 0 0 0 -540068704.14604318 -33691203.2417005 0 -33691203.2417005 123789435.67503703 0 0 0 0 -202311584.04127073 -172619706.45292556 0 -172619706.45292556 2240121.3848500252 0 0 0 0 -191287351.97284222 -277111009.3100332 0 -277111009.3100332 -50496296.224198878 0 0 0 0 -159949890.05857754 -121460392.62777722 0 -121460392.62777722 -380559869.39046431 0 0 0 0 -175836885.59025955 -126742428.57735336 0 -126742428.57735336 -60199373.116438627 0 0 0 0 -89644822.678233147 -158721031.97807848 0 -158721031.97807848 -150997149.30200696 0 0 0 0 -80252744.791491508 -107204075.39880434 0 -107204075.39880434 -29713362.417119503 0 0 0 0 -233320042.96486664 -164961109.47403777 0 -164961109.47403777 19052882.80108583 0 0 0 0 -80072739.706159592 -117267116.58052349 0 -117267116.58052349 -44225718.97493577 0 0 0 0 -100164161.19960403 -47524260.721286446 0 -47524260.721286446 1079659.3316867352 0 0 0 0 -40729221.295587063 -35662018.799387038 0 -35662018.799387038 -14230246.778813481 0 0 0 0 37198977.673583508 13899163.073698103 0 13899163.073698103 -29400011.585706472 0 0 0 0 5162102.7459659576 -93671624.070948839 0 -93671624.070948839 -131379091.25966251 0 0 0 0 -519041.85156474123 -1529761.703926729 0 -1529761.703926729 -294486.34728648607 0 0 0 0 -1040320.9014458102 -518608.88539871317 0 -518608.88539871317 499122.74032903509 0 0 0 0 -1633873.3759663086 -2752454.5212005945 0 -2752454.5212005945 -5032464.2494573519 0 0 0 0 -4261050.955552578 -11442592.601590157 0 -11442592.601590157 -29393611.813774109 0 0 0 0 -8618152.5226659775 472477.38086891174 0 472477.38086891174 729372.73431777954 0 0 0 0 -261523889.6497522 2544343.4261578321 0 2544343.4261578321 -60235919.007789135 0 0 0 0 -19524434.161960125 34977417.580856323 0 34977417.580856323 118935933.51641655 0 0 0 0 -451249.62603213894 912016.31833865202 0 912016.31833865202 1515113.4047899307 0 0 0 0 -739368683.10294485 47619787.015466988 0 47619787.015466988 116001977.37383366 0 0 0 0 -684319069.08292675 -53630272.292488456 0 -53630272.292488456 135857402.56682014 0 0 0 0 -291263857.79817009 363311980.31319451 0 363311980.31319451 -513663761.35831594 0 0 0 0 -353170470.11943197 28476288.808043003 0 28476288.808043003 70076453.500879765 0 0 0 0 -1295681.1158014263 -20077.999150626245 0 -20077.999150626245 3382883.919254303 0 0 0 0 -216588782.46263009 9667068.2000136226 0 9667068.2000136226 70398381.724501133 0 0 0 0 -202905236.08464921 -123446538.17104235 0 -123446538.17104235 75259788.708934784 0 0 0 0 -336605789.90886033 -114216227.6828399 0 -114216227.6828399 80015652.177754402 0 0 0 0 -415655623.28330231 -101540000.73084188 0 -101540000.73084188 103882464.16933775 0 0 0 0 -321248676.0296154 -283298456.42467666 0 -283298456.42467666 104250364.34227896 0 0 0 0 -215078118.84307814 -217797317.4661957 0 -217797317.4661957 55691302.996270418 0 0 0 0 -199303085.18386078 -232177720.26832634 0 -232177720.26832634 57723173.098515034 0 0 0 0 -1178659.4470035643 -43631.504945463501 0 -43631.504945463501 147218.54469196094 0 0 0 0 -659083165.59565973 199100412.29254287 0 199100412.29254287 374699357.83658057 0 0 0 0 -281482241.9091301 -305244551.28918314 0 -305244551.28918314 133848842.72885835 0 0 0 0 -543115135.50610542 -223453374.39761496 0 -223453374.39761496 129046315.81689668 0 0 0 0 -40669477.465059757 -289822631.45002407 0 -289822631.45002407 24430588.370027781 0 0 0 0 19293280.464180112 2884378.2485855967 0 2884378.2485855967 188818281.93081284 0 0 0 0 -183965894.24840021 104080717.38687243 0 104080717.38687243 171911785.84728622 0 0 0 0 -284117321.80079365 -203144654.76038611 0 -203144654.76038611 71819992.583362937 0 0 0 0 -168516655.62375212 -1033318.602715224 0 -1033318.602715224 402922759.27748895 0 0 0 0 -2065162.8079980887 -224125.96590647567 0 -224125.96590647567 231886.65985544771 0 0 0 0 -139872257.00461888 -253958053.43674126 0 -253958053.43674126 391477595.06311423 0 0 0 0 -31557737.532546759 -52003109.7721278 0 -52003109.7721278 118003104.75732365 0 0 0 0 22656731.336782694 -221785044.95373887 0 -221785044.95373887 -188735165.46807393 0 0 0 0 -157107848.29578066 -67910671.181417286 0 -67910671.181417286 -219308322.71118128 0 0 0 0 -292102461.99073768 57147105.261283204 0 57147105.261283204 -63872079.34895128 0 0 0 0 -459732815.64896321 55057877.465644516 0 55057877.465644516 -297259615.3922199 0 0 0 0 -538881499.3686626 -103934786.81210312 0 -103934786.81210312 -165382296.50949171 0 0 0 0 157338685.20462334 -109719599.74885522 0 -109719599.74885522 -19095928.866391361 0 0 0 0 -386514159.55237484 297101743.06746763 0 297101743.06746763 240621404.95075038 0 0 0 0 -642692061.27435398 109610914.29165201 0 109610914.29165201 -46164684.552384198 0 0 0 0 -698314741.43513632 96839765.611498892 0 96839765.611498892 112310863.80941367 0 0 0 0 -665515412.2108705 325620231.23913169 0 325620231.23913169 -94078372.872902587 0 0 0 0 -335875.95230940287 -415440.36711652117 0 -415440.36711652117 -1359008.1529356309 0 0 0 0 -1177964690.4776211 215510399.44852826 0 215510399.44852826 -125079589.76508863 0 0 0 0 -675958635.81369877 240111673.21479133 0 240111673.21479133 67015238.466423035 0 0 0 0 -619539831.47203255 348933021.46903419 0 348933021.46903419 -234906262.5280939 0 0 0 0 -626122581.39245749 215730072.99434784 0 215730072.99434784 -221969818.52138323 0 0 0 0 -115365207.91058004 146696299.3131839 0 146696299.3131839 -200190277.97015953 0 0 0 0 -77791159.377037287 188704075.07204854 0 188704075.07204854 119409350.88313544 0 0 0 0 -4984.7212734450877 432297.36358460831 0 432297.36358460831 -396426.04415519652 0 0 0 0 -82479823.05250597 141739951.67079479 0 141739951.67079479 -312703299.44481945 0 0 0 0 -40441900.162246704 70221368.581015587 0 70221368.581015587 -125362412.73865318 0 0 0 0 -59888831.218559265 124863719.59391665 0 124863719.59391665 -214612422.94876194 0 0 0 0 -80409517.902302742 103200020.06514168 0 103200020.06514168 -164349540.92877197 0 0 0 0 -107355721.11122894 132865675.10217094 0 132865675.10217094 -128422746.89689827 0 0 0 0 -104971606.96991539 93554182.864076614 0 93554182.864076614 -32636507.869029999 0 0 0 0 -131929481.4168129 121851574.4598484 0 121851574.4598484 -17326740.981369019 0 0 0 0 -118928461.82675982 141913214.6590786 0 141913214.6590786 -60184227.637111664 0 0 0 0 -1126102.8525789436 714966.90517171519 0 714966.90517171519 873153.14349321648 0 0 0 0 54467418.766240358 -70891667.325213432 0 -70891667.325213432 -66175505.779687881 0 0 0 0 -2687480.0722824335 -2798772.1999129057 0 -2798772.1999129057 2524912.2135887146 0 0 0 0 -649540662.16701984 143641858.89651686 0 143641858.89651686 217726369.79466677 0 0 0 0 -1069742.7522717444 -1645320.7490526931 0 -1645320.7490526931 -3583320.5674130004 0 0 0 0 -112244189.35185862 -152204139.02222919 0 -152204139.02222919 7945891.1645579338 0 0 0 0 -368337080.47688246 -55513068.538624495 0 -55513068.538624495 96628324.653762311 0 0 0 0 -102555825.69217396 -95622192.04928121 0 -95622192.04928121 -192638201.99941045 0 0 0 0 -86155461.911295176 -31040302.173266679 0 -31040302.173266679 14897196.414865971 0 0 0 0 -10272528.918789864 -50144452.375109583 0 -50144452.375109583 14886579.876864552 0 0 0 0 -152002113.08634806 -11454875.398999453 0 -11454875.398999453 171089438.49829814 0 0 0 0 -97820726.732390881 46511481.123670787 0 46511481.123670787 122804041.32348394 0 0 0 0 -139542863.06843662 30657986.661067784 0 30657986.661067784 190295893.05079633 0 0 0 0 -99865202.402976751 168351887.71326303 0 168351887.71326303 113881389.93027306 0 0 0 0 -86544796.385148525 164335243.92145431 0 164335243.92145431 103470975.08539534 0 0 0 0 -36439234.471624851 30074449.00915274 0 30074449.00915274 208364480.1207785 0 0 0 0 -242997477.87402201 205121707.51646602 0 205121707.51646602 144967386.41067994 0 0 0 0 -897950.396149965 -124715.45113275805 0 -124715.45113275805 81878.73794869089 0 0 0 0 -84824433.971004963 -255350105.48523745 0 -255350105.48523745 -125431299.66931495 0 0 0 0 50429395.534512401 -141914358.05887118 0 -141914358.05887118 -156372738.85942602 0 0 0 0 3025759.4346449375 -161082475.3499552 0 -161082475.3499552 -163408970.31932279 0 0 0 0 -307761555.97925544 -41084261.472526491 0 -41084261.472526491 -60638309.654466711 0 0 0 0 -150588112.17612195 97828945.088270962 0 97828945.088270962 -153720667.46602196 0 0 0 0 -102799992.86707044 21024236.974694312 0 21024236.974694312 -32171649.468715429 0 0 0 0 -52417290.906305313 -56132640.470880866 0 -56132640.470880866 29716736.543148585 0 0 0 0 -173162980.36227942 20201743.55703187 0 20201743.55703187 20649158.700688243 0 0 0 0 -41511064.474962234 -67273465.222238868 0 -67273465.222238868 -19378809.805954695 0 0 0 0 -104054661.75890064 13004964.237461716 0 13004964.237461716 -55507928.384670794 0 0 0 0 -30533060.708514214 -61492525.670392066 0 -61492525.670392066 11715016.545385957 0 0 0 0 -24527833.328737736 -79702052.892751634 0 -79702052.892751634 -54901384.021514915 0 0 0 0 -13114077.795239568 -93455271.657574967 0 -93455271.657574967 -11431386.349891067 0 0 0 0 -12944325.909053564 -91569901.50010556 0 -91569901.50010556 116945378.98491633 0 0 0 0 20162654.921212673 -73553548.748514295 0 -73553548.748514295 13089979.873848654 0 0 0 0 -28075387.034808159 -71547672.013733178 0 -71547672.013733178 118145543.57894886 0 0 0 0 -133397995.87139654 -150441195.62043837 0 -150441195.62043837 9950425.4468613863 0 0 0 0 -38915443.09346199 -70759568.773942351 0 -70759568.773942351 -17808443.170355916 0 0 0 0 -71652042.512061596 -66873164.600468129 0 -66873164.600468129 -30020023.426415995 0 0 0 0 -39490456.219344139 -79965082.001811206 0 -79965082.001811206 86285196.780942798 0 0 0 0 -3949270.997323513 -77737875.924069166 0 -77737875.924069166 13325101.030248564 0 0 0 0 -39152238.973286152 -99777344.653326929 0 -99777344.653326929 13483627.871161446 0 0 0 0 -40902586.824025154 -93952149.745424688 0 -93952149.745424688 -4816230.0797727704 0 0 0 0 -101198973.90245152 -101110575.52017981 0 -101110575.52017981 12798247.440302432 0 0 0 0 -124731505.47005177 -35766445.545309186 0 -35766445.545309186 57522495.925733685 0 0 0 0 -70389320.664852858 -100629908.73712644 0 -100629908.73712644 2556010.0970264673 0 0 0 0 -42789760.370996952 -72341012.447502524 0 -72341012.447502524 31166103.339297712 0 0 0 0 16127726.360116482 -86429809.997336149 0 -86429809.997336149 32446601.813252449 0 0 0 0 -18649143.684155941 13665302.862505436 0 13665302.862505436 83922916.253557384 0 0 0 0 -339640576.46934605 151008722.50815648 0 151008722.50815648 94047025.395329863 0 0 0 0 -348247473.31402588 139872588.72843945 0 139872588.72843945 175173104.14465892 0 0 0 0 -260078439.61741877 104547796.32459766 0 104547796.32459766 120529002.20699561 0 0 0 0 -419710676.97916198 104720872.19098321 0 104720872.19098321 248272280.93261707 0 0 0 0 -391894187.7603364 28661893.462856978 0 28661893.462856978 166945392.15172458 0 0 0 0 -133526055.64451694 -45549017.94349426 0 -45549017.94349426 57665116.954758227 0 0 0 0 -139971826.21282959 -37995792.619022071 0 -37995792.619022071 61933068.91898793 0 0 0 0 -148311754.44392681 -47329985.577493399 0 -47329985.577493399 62591914.243484497 0 0 0 0 -1490965745.3242197 -198404572.88492727 0 -198404572.88492727 -40322075.437105499 0 0 0 0 -481489817.17654657 -9419862.9020135403 0 -9419862.9020135403 69411559.825746238 0 0 0 0 -144003185.49813652 112744316.04738846 0 112744316.04738846 105547015.66685101 0 0 0 0 -398626598.45013046 183846583.7560631 0 183846583.7560631 138234221.04963174 0 0 0 0 -420959673.44778252 148621522.58817434 0 148621522.58817434 183695353.958628 0 0 0 0 -397323348.63205528 148121114.84055343 0 148121114.84055343 253015705.52274749 0 0 0 0 -417696759.4991703 204300523.82642439 0 204300523.82642439 298602280.45460868 0 0 0 0 -2004433367.8408909 -227486593.83294377 0 -227486593.83294377 -24625021.393861879 0 0 0 0 137778907.49402595 430229746.28972548 0 430229746.28972548 113139944.19305512 0 0 0 0 -1575705556.371279 530193295.53068769 0 530193295.53068769 108930840.06765705 0 0 0 0 -712787.80351403612 398429.32671087096 0 398429.32671087096 122730.58847276494 0 0 0 0 -397099324.50362873 571145859.44896662 0 571145859.44896662 406166609.08416522 0 0 0 0 -1183783630.1552334 361757970.14979219 0 361757970.14979219 358301076.20269316 0 0 0 0 -1354948706.3807859 289772129.80873299 0 289772129.80873299 363051540.47785205 0 0 0 0 -1091128125.5934029 506440857.4887951 0 506440857.4887951 410710794.11439753 0 0 0 0 -1167473224.0536203 186768540.68602639 0 186768540.68602639 281396940.93687487 0 0 0 0 -621646045.57685661 167606061.08551666 0 167606061.08551666 281160343.43610418 0 0 0 0 -580482864.44784057 198578489.79168907 0 198578489.79168907 298931474.70268083 0 0 0 0 -556036052.31153584 33622428.793924987 0 33622428.793924987 211502120.71338961 0 0 0 0 -744294739.20358109 13545907.07144466 0 13545907.07144466 175790169.04213262 0 0 0 0 -770860181.69631529 -15495705.511267573 0 -15495705.511267573 206086856.88335541 0 0 0 0 -1079105477.1687136 57172881.114161551 0 57172881.114161551 208372259.09340924 0 0 0 0 -1574515666.6326065 114030442.35598502 0 114030442.35598502 429281788.99021721 0 0 0 0 -303727636.52854156 -77247601.203930676 0 -77247601.203930676 60050940.889235437 0 0 0 0 -223081912.27139378 -69621179.392149985 0 -69621179.392149985 42916403.946920007 0 0 0 0 -309178229.16035199 -82199707.511717305 0 -82199707.511717305 83023175.211480856 0 0 0 0 -460393710.04127407 11363930.399484396 0 11363930.399484396 174934210.74913383 0 0 0 0 -458895686.74060249 13845916.849752486 0 13845916.849752486 173168118.08507144 0 0 0 0 -427703840.5088768 -68855851.033212781 0 -68855851.033212781 84128509.02050221 0 0 0 0 -433591612.24992275 -121739046.88299838 0 -121739046.88299838 74169510.359885335 0 0 0 0 -494027926.67320919 -152831344.7980119 0 -152831344.7980119 81310780.388069987 0 0 0 0 -433459600.9020586 -138222395.69242233 0 -138222395.69242233 65750836.770225041 0 0 0 0 -303220852.14027882 -158081043.67654356 0 -158081043.67654356 60687139.357199669 0 0 0 0 -186302060.54485941 -223867993.22120476 0 -223867993.22120476 -75356772.630738765 0 0 0 0 -283914659.18922663 -506729332.55681533 0 -506729332.55681533 -175002575.33873546 0 0 0 0 -871855.54375055898 -321381.27915113722 0 -321381.27915113722 -93837.301792379716 0 0 0 0 -45456755.196870446 13872237.525945079 0 13872237.525945079 41122311.983865261 0 0 0 0 -74053180.992325306 -82850978.405279577 0 -82850978.405279577 255631408.9013837 0 0 0 0 -1242105655.5140896 -37391714.526409708 0 -37391714.526409708 203017116.53866598 0 0 0 0 -697939512.18471146 -240643475.69542986 0 -240643475.69542986 151718376.52557829 0 0 0 0 -1239092381.7141552 -250253709.79919332 0 -250253709.79919332 163604314.81532651 0 0 0 0 -1124961250.4397802 14904128.106219258 0 14904128.106219258 191455735.05462569 0 0 0 0 -1574411708.7797565 -272161038.34808415 0 -272161038.34808415 8296755.0058361301 0 0 0 0 -1273897298.1579151 -381332648.4927361 0 -381332648.4927361 43774461.203614138 0 0 0 0 -1290356205.1686144 -337720034.46593028 0 -337720034.46593028 83755189.933479428 0 0 0 0 -1071481664.6590819 -632949705.48946393 0 -632949705.48946393 -240438036.77670771 0 0 0 0 -1292583.8956881063 -12006.454445352661 0 -12006.454445352661 82252.190444644992 0 0 0 0 -1517621629.3483233 -296972973.47191679 0 -296972973.47191679 132054367.03886989 0 0 0 0 -1575336528.2773151 -445319010.89020455 0 -445319010.89020455 -231405109.70460933 0 0 0 0 -2073396.8203928554 -330206.52695125301 0 -330206.52695125301 26757.37623677617 0 0 0 0 23190487.868236542 -5039669.7747093067 0 -5039669.7747093067 -12095714.521690123 0 0 0 0 83945357.045124292 -52214111.576247148 0 -52214111.576247148 11856650.066767124 0 0 0 0 -587321214.72412682 150868130.98903599 0 150868130.98903599 6914091.4142751768 0 0 0 0 125357624.02692032 -4251293.7097730897 0 -4251293.7097730897 -173873548.50713432 0 0 0 0 -189652946.56242371 -222408381.16744697 0 -222408381.16744697 -123831807.97012338 0 0 0 0 -79924765.570623398 187923581.66553408 0 187923581.66553408 -79173795.551283538 0 0 0 0 32149562.607475281 -31961838.610006526 0 -31961838.610006526 33503716.801363349 0 0 0 0 7290622.9540309906 65876053.238702394 0 65876053.238702394 82018121.489715084 0 0 0 0 7002261.5119838715 391297.92614945769 0 391297.92614945769 -7024724.9999531209 0 0 0 0 -2704946.1601968221 240656.84830865706 0 240656.84830865706 201714.15493661852 0 0 0 0 -8757249.7571563721 -4917416.9092248827 0 -4917416.9092248827 13418645.207087249 0 0 0 0 -3096363.6974143591 371441.29477231507 0 371441.29477231507 421902.05937215727 0 0 0 0 4592699.5495643616 89839505.823273361 0 89839505.823273361 207431796.60691977 0 0 0 0 5126847.1718554497 11312836.995507512 0 11312836.995507512 9757281.575490728 0 0 0 0 -26533614.883315086 7310671.8529705256 0 7310671.8529705256 197477600.2237817 0 0 0 0 894508.20558166504 1810697.0552737713 0 1810697.0552737713 2660896.0605951548 0 0 0 0 -3091035.7005513785 1003595.5113860188 0 1003595.5113860188 801916.56138143351 0 0 0 0 5896701.3005800247 24074717.498734988 0 24074717.498734988 175695396.23725042 0 0 0 0 84440405.138717651 14117106.007258892 0 14117106.007258892 127725078.92836237 0 0 0 0 -5872177.2425490022 -453883.25493526208 0 -453883.25493526208 1749854.9773963261 0 0 0 0 -1164607.0493164062 895157.45130586624 0 895157.45130586624 7736746.8750419617 0 0 0 0 -5444310.9461544584 -2663423.455144885 0 -2663423.455144885 1969335.0544636087 0 0 0 0 -10962741.030670166 132086657.26530731 0 132086657.26530731 211247099.67811435 0 0 0 0 82967367.448377609 75212143.536038041 0 75212143.536038041 188468023.05481672 0 0 0 0 24820691.889022827 62665946.506857395 0 62665946.506857395 204058594.61510801 0 0 0 0 19436062.390785217 136487490.84053826 0 136487490.84053826 203556516.75219584 0 0 0 0 74136409.136714935 50478145.873297572 0 50478145.873297572 185777463.70441055 0 0 0 0 -5928635.2025129898 -1025522.7954984074 0 -1025522.7954984074 1405263.0995619623 0 0 0 0 58801102.408294678 75356920.340567589 0 75356920.340567589 204773458.74108934 0 0 0 0 4358414.0749359131 83919119.714425564 0 83919119.714425564 186022238.82620454 0 0 0 0 -13798788.273532867 97570055.159630299 0 97570055.159630299 198805519.10413742 0 0 0 0 18409124.252658844 118093351.24540967 0 118093351.24540967 172111731.1711247 0 0 0 0 -55093672.078811646 86087244.829709768 0 86087244.829709768 188211374.54187751 0 0 0 0 -62993513.596931458 -51886343.675710201 0 -51886343.675710201 370659624.29698312 0 0 0 0 -59207516.445899963 107140154.83500457 0 107140154.83500457 181877694.61724806 0 0 0 0 -108842181.9028511 8953972.5343871117 0 8953972.5343871117 376497907.22999883 0 0 0 0 -3901268.921752125 1109500.1069165829 0 1109500.1069165829 750292.43610688986 0 0 0 0 -24455447.205635071 31506731.597224474 0 31506731.597224474 244280470.26501822 0 0 0 0 -100697250.87083817 50910963.313142419 0 50910963.313142419 276065755.20597982 0 0 0 0 -32965331.648628235 -14541313.789257288 0 -14541313.789257288 290462682.32869881 0 0 0 0 93669424.66015625 -14235900.282587051 0 -14235900.282587051 196497479.50543833 0 0 0 0 6351453.3519439697 25334357.58405304 0 25334357.58405304 231572996.67928457 0 0 0 0 39047139.436538696 -15802660.155440331 0 -15802660.155440331 267680830.09976172 0 0 0 0 78993410.131271362 -49877259.82322979 0 -49877259.82322979 242515334.19200277 0 0 0 0 -39979163.376229763 30129042.893648714 0 30129042.893648714 249466721.02472258 0 0 0 0 -22502109.10439682 88302028.762162685 0 88302028.762162685 292006138.67390013 0 0 0 0 -51293494.285335541 5217041.2129232883 0 5217041.2129232883 181817821.83678895 0 0 0 0 -5230338.3495283127 11706467.928128675 0 11706467.928128675 9243605.6093142033 0 0 0 0 8886537.8505644798 -42296097.465959847 0 -42296097.465959847 -21352400.963766813 0 0 0 0 2202840.7796421051 -9793623.643828392 0 -9793623.643828392 3354276.0824664831 0 0 0 0 -26795179.323204041 -4600836.8994679451 0 -4600836.8994679451 25408810.855182409 0 0 0 0 -6298089.742408799 -513996.37930637924 0 -513996.37930637924 845962.28637276753 0 0 0 0 4022252.3802504539 -4420257.5678594112 0 -4420257.5678594112 2116893.0082543492 0 0 0 0 -5596748.5656651556 2325905.145801709 0 2325905.145801709 993196.69741630321 0 0 0 0 -2694617.495962319 -2201116.6008180007 0 -2201116.6008180007 1813815.4725755639 0 0 0 0 645083.14129257202 38111596.116316184 0 38111596.116316184 180537445.43268999 0 0 0 0 -12374217.324939251 31432310.88682951 0 31432310.88682951 190677582.97677249 0 0 0 0 -12446420.968395233 35469350.879604965 0 35469350.879604965 180009475.32163304 0 0 0 0 21482282.105594635 128930183.59102067 0 128930183.59102067 421361964.28440028 0 0 0 0 -8163263.111166954 -100238733.31251895 0 -100238733.31251895 338072143.03523183 0 0 0 0 -615299.18075984577 -614979.48174285283 0 -614979.48174285283 408030.32688155997 0 0 0 0 -12372975.43623662 -37920974.776131094 0 -37920974.776131094 264571118.45653963 0 0 0 0 63621164.45501101 -97038672.960861236 0 -97038672.960861236 211923675.50574183 0 0 0 0 58624586.542198181 -39239134.284168363 0 -39239134.284168363 120008507.43927431 0 0 0 0 -28722578.034022808 -46733880.986129612 0 -46733880.986129612 198497705.04833043 0 0 0 0 5554802.7044196129 -41528123.802510098 0 -41528123.802510098 117580565.97428179 0 0 0 0 -40115521.054869533 -33102952.855927102 0 -33102952.855927102 147984083.05566466 0 0 0 0 -23227858.594100952 -33831096.628823102 0 -33831096.628823102 83616756.630657017 0 0 0 0 -29626708.798117161 -61545081.764502734 0 -61545081.764502734 42870041.816985801 0 0 0 0 -78366140.701612234 -68519482.503540307 0 -68519482.503540307 87042804.046569914 0 0 0 0 -18072809.9116292 14066865.747956667 0 14066865.747956667 131132649.92741537 0 0 0 0 -34810058.091269493 23620268.080070093 0 23620268.080070093 184478465.65758732 0 0 0 0 -18625307.912510395 9667911.5933593214 0 9667911.5933593214 127867473.8782354 0 0 0 0 -27733090.863227844 14628936.985028505 0 14628936.985028505 176619631.07554251 0 0 0 0 -90028042.785252571 34704423.640740991 0 34704423.640740991 445618199.00180888 0 0 0 0 -26847653.770667076 -21741633.280416965 0 -21741633.280416965 271137449.27499557 0 0 0 0 -1499660.3881092882 1024075.5989709818 0 1024075.5989709818 -630890.6119244406 0 0 0 0 314417813.30369759 205885481.51666927 0 205885481.51666927 211662428.81360465 0 0 0 0 162478728.46153784 519726765.92573369 0 519726765.92573369 444960502.89691162 0 0 0 0 -125019196.23161697 112478163.0537219 0 112478163.0537219 277055511.62265015 0 0 0 0 -48653439.195436478 89422532.367839813 0 89422532.367839813 201713910.60095692 0 0 0 0 -29270070.870485902 270604967.94292355 0 270604967.94292355 243542347.12717342 0 0 0 0 -188924613.91739655 239389628.09915924 0 239389628.09915924 382342498.92424393 0 0 0 0 -189446779.13807297 146314002.67044258 0 146314002.67044258 181363089.95237827 0 0 0 0 -81097633.675667763 155724134.46685839 0 155724134.46685839 105102827.05088329 0 0 0 0 -142679568.38909912 41074719.003477097 0 41074719.003477097 31563908.452713013 0 0 0 0 -48506017.628070951 40050214.863972664 0 40050214.863972664 -70147441.421581268 0 0 0 0 -120244777.16574955 135991208.51388788 0 135991208.51388788 227166172.19219685 0 0 0 0 50967262.091540575 -96850598.187054396 0 -96850598.187054396 -43050624.049084425 0 0 0 0 -118332607.25033951 -68791553.572915077 0 -68791553.572915077 -46609192.639827013 0 0 0 0 10391998.450756609 -93596059.41644001 0 -93596059.41644001 -102630021.51635313 0 0 0 0 -70746530.046172112 -96223419.044951722 0 -96223419.044951722 253570280.69710279 0 0 0 0 -21496990.559910774 -186375884.41466117 0 -186375884.41466117 56036864.74037087 0 0 0 0 270981.68514669902 -1093420.5869109412 0 -1093420.5869109412 -135008.73379687266 0 0 0 0 -344277671.44658518 65835235.048821032 0 65835235.048821032 300182334.28080416 0 0 0 0 35413784.007520676 59209861.208298057 0 59209861.208298057 150279625.24704054 0 0 0 0 57912780.708850384 116435216.73663676 0 116435216.73663676 295820534.38857698 0 0 0 0 -53329705.170578003 59795.178974747658 0 59795.178974747658 265699800.42801341 0 0 0 0 -1338489.7050197124 40543647.362188756 0 40543647.362188756 144022157.07378814 0 0 0 0 -5456954.8046744047 3587580.0333633451 0 3587580.0333633451 -2122103.8455764088 0 0 0 0 -727602.01357293315 130957.90288012102 0 130957.90288012102 -151769.58784485445 0 0 0 0 -5043030.7635688782 -113703542.06539178 0 -113703542.06539178 -7958069.1233295957 0 0 0 0 -373589148.73256493 157661711.43480206 0 157661711.43480206 -9643262.0615792274 0 0 0 0 -4091480.1516916417 2584321.7108704862 0 2584321.7108704862 -1342101.1342957099 0 0 0 0 -11044886.251195908 169762571.7265771 0 169762571.7265771 431985499.05877447 0 0 0 0 -256814373.35565948 -358419769.62426639 0 -358419769.62426639 -220198879.50055933 0 0 0 0 -409594204.71657181 -519636090.44830966 0 -519636090.44830966 -381146586.92777824 0 0 0 0 -331628633.07359123 -318687374.74072218 0 -318687374.74072218 -232063311.56115818 0 0 0 0 -739452971.9989357 -385946468.54806137 0 -385946468.54806137 -242742475.15522194 0 0 0 0 -167138274.97326279 -121274714.52656889 0 -121274714.52656889 -104620315.6579383 0 0 0 0 -147550198.69651794 -114449736.51906681 0 -114449736.51906681 -105411201.6577521 0 0 0 0 88149520.213873267 14480235.668243751 0 14480235.668243751 -20507567.648926735 0 0 0 0 -158246469.29706955 -82137077.73927927 0 -82137077.73927927 -90442226.81421113 0 0 0 0 127180776.46527004 -82796151.364444971 0 -82796151.364444971 119928245.35915184 0 0 0 0 -325840.40543882921 -45070.593684604391 0 -45070.593684604391 244475.04058354115 0 0 0 0 94329652.266029358 -43949574.152307987 0 -43949574.152307987 -2359424.0942640305 0 0 0 0 -209508628.6259346 -84110940.183343887 0 -84110940.183343887 -81146624.574490547 0 0 0 0 101290088.59984589 17705202.920657396 0 17705202.920657396 -212682662.26439667 0 0 0 0 137932814.42286682 -48582360.309129477 0 -48582360.309129477 -102362364.00324106 0 0 0 0 -188111176.15341723 46814103.546447635 0 46814103.546447635 -79629599.227034092 0 0 0 0 -199615832.00141525 -164213476.54616499 0 -164213476.54616499 -56055239.026984215 0 0 0 0 -282152269.00867367 -233810267.10500526 0 -233810267.10500526 -149915186.11760092 0 0 0 0 -377571101.08793259 -111568228.22581792 0 -111568228.22581792 47858761.263212204 0 0 0 0 -480632391.68351746 -314953393.73707533 0 -314953393.73707533 130367787.7808578 0 0 0 0 -1204031.4114826275 189439.88297411101 0 189439.88297411101 437263.02181650791 0 0 0 0 -608713805.89884567 -382185039.21016145 0 -382185039.21016145 -11556823.363493681 0 0 0 0 -9156737.9606487956 -9728700.8302169815 0 -9728700.8302169815 -3395050.3872422241 0 0 0 0 -7663933.9099779129 -12583002.64667666 0 -12583002.64667666 1763060.0465664864 0 0 0 0 -8215346.2242250443 -11966331.629958808 0 -11966331.629958808 5556167.6816649437 0 0 0 0 -15906300.507452011 -16273950.88461113 0 -16273950.88461113 15261750.651698112 0 0 0 0 -14133250.275302887 -61659438.885380745 0 -61659438.885380745 24245992.98377037 0 0 0 0 -5411737.0284099579 -26737073.419390678 0 -26737073.419390678 12320477.631331444 0 0 0 0 -2474370.0243499209 -548296.6614505453 0 -548296.6614505453 46433.426670576679 0 0 0 0 -31179288.962763786 -394919.46413624287 0 -394919.46413624287 -4048265.5592670441 0 0 0 0 -57581024.577453613 -44430457.077126503 0 -44430457.077126503 19939266.940561056 0 0 0 0 -55703408.833457947 -20159126.728617668 0 -20159126.728617668 11494257.384748816 0 0 0 0 57036107.870374203 -47243158.183509946 0 -47243158.183509946 -10551087.899692535 0 0 0 0 -8927490.4035102576 -10396892.616664674 0 -10396892.616664674 -3510076.3473361894 0 0 0 0 52031684.344025612 -31107154.308434963 0 -31107154.308434963 -16303840.145963669 0 0 0 0 48719939.442866325 -44720713.860089064 0 -44720713.860089064 -21470467.877458572 0 0 0 0 53850812.319255829 -26103560.804005623 0 -26103560.804005623 11197447.082745552 0 0 0 0 -8130394.6796804881 -2008342.2435725755 0 -2008342.2435725755 212832.22628090298 0 0 0 0 -345448862.18262863 127341401.61769199 0 127341401.61769199 149688486.34349251 0 0 0 0 -25317085.361789703 -12435815.156939983 0 -12435815.156939983 -11426469.93579936 0 0 0 0 -30601190.490762711 -11197478.144711733 0 -11197478.144711733 2719319.1855506897 0 0 0 0 -8174017.2731945515 -11953830.82010331 0 -11953830.82010331 -1328782.6769668059 0 0 0 0 17748919.526592255 -44548279.823282957 0 -44548279.823282957 146654081.42774463 0 0 0 0 -53137290.332893372 -171874409.49962759 0 -171874409.49962759 -50482918.23406899 0 0 0 0 -9008847.7926574238 -1551850.5785808549 0 -1551850.5785808549 1253784.2421578811 0 0 0 0 105066623.3817215 -2556642.6564893723 0 -2556642.6564893723 -11756478.69916153 0 0 0 0 76097522.993307114 -39260703.181871414 0 -39260703.181871414 -12031712.087663651 0 0 0 0 7999443.0802078247 -36268917.374176979 0 -36268917.374176979 2999133.1929674149 0 0 0 0 -783583683.71828842 -726875283.93293381 0 -726875283.93293381 -219413418.84968042 0 0 0 0 -126407911.28282928 597854756.06317472 0 597854756.06317472 718548999.64670944 0 0 0 0 -1272072999.3893585 -454084154.38695478 0 -454084154.38695478 134365272.27691555 0 0 0 0 -1198180535.3862114 -62967699.359588623 0 -62967699.359588623 -21056493.815030098 0 0 0 0 -625221231.98231888 -80771016.26985836 0 -80771016.26985836 -180180211.8905735 0 0 0 0 -1250726411.1309586 524707770.26397943 0 524707770.26397943 -330075896.00707054 0 0 0 0 -1610631097.2417526 110908545.42825413 0 110908545.42825413 72711979.256807327 0 0 0 0 -456031448.68880463 -143856845.74204063 0 -143856845.74204063 -29331155.736849785 0 0 0 0 -1020245580.6959991 -489824820.28704023 0 -489824820.28704023 -7423367.2717256546 0 0 0 0 -495523562.01122665 -259603539.66775608 0 -259603539.66775608 9545970.3867921829 0 0 0 0 170713019.99504423 159551511.70839012 0 159551511.70839012 -202327016.50053406 0 0 0 0 -173740682.48636436 -301264092.19196355 0 -301264092.19196355 -111579079.33447938 0 0 0 0 65390968.261001587 253488395.89817905 0 253488395.89817905 4979927.3691940308 0 0 0 0 -461501.14009991102 119459.2830365249 0 119459.2830365249 59917.675904780859 0 0 0 0 -469445053.65790176 -125109367.45393801 0 -125109367.45393801 -36969897.174831867 0 0 0 0 71793990.719062805 -177860282.64250994 0 -177860282.64250994 -90573210.59237957 0 0 0 0 -38351421.130123138 59939801.988818169 0 59939801.988818169 203226101.29067469 0 0 0 0 -93358969.004386902 18169340.276136875 0 18169340.276136875 -133774856.14531368 0 0 0 0 -179058791.04608536 227908513.9943471 0 227908513.9943471 -98565150.360881805 0 0 0 0 -251231705.03705668 115883189.6815587 0 115883189.6815587 -76901336.404462814 0 0 0 0 -250025720.82914734 126777058.08152485 0 126777058.08152485 -398664612.04243469 0 0 0 0 -3753538.2323016357 -2051608.571382612 0 -2051608.571382612 530589.22966397391 0 0 0 0 -421086177.25634766 -75613210.793621063 0 -75613210.793621063 187013840.37689018 0 0 0 0 18500393.158033371 -28328273.936333418 0 -28328273.936333418 92844101.624131888 0 0 0 0 -453058817.83416176 -124179564.49692392 0 -124179564.49692392 78885604.01871109 0 0 0 0 -58528468.738998413 66860335.489751101 0 66860335.489751101 165504370.74539614 0 0 0 0 -61056871.16701889 106672624.73961711 0 106672624.73961711 107466547.96662426 0 0 0 0 -493560258.94659042 -8547373.3084282875 0 -8547373.3084282875 268132386.13723755 0 0 0 0 -507995723.2193315 119148401.95072082 0 119148401.95072082 376842496.83649063 0 0 0 0 -503012625.05048919 5625723.842959702 0 5625723.842959702 425141074.66889191 0 0 0 0 -388150171.66094971 232830554.07735825 0 232830554.07735825 484572672.77397346 0 0 0 0 -709190604.59383583 60836878.938045979 0 60836878.938045979 602651513.69119835 0 0 0 0 -287690218.79850006 191170806.25468254 0 191170806.25468254 -1125077515.1428547 0 0 0 0 -980142619.5943222 -447158291.7204504 0 -447158291.7204504 4576149.359249115 0 0 0 0 -438490242.35943604 -306380474.98649311 0 -306380474.98649311 -173063794.47062397 0 0 0 0 -200605905.91722488 323514460.8045311 0 323514460.8045311 476315826.84543896 0 0 0 0 -533037201.68473816 279404544.5352478 0 279404544.5352478 813529138.17325234 0 0 0 0 -349581453.6184845 153453360.21354198 0 153453360.21354198 312554360.00914955 0 0 0 0 -165909177.68564987 169083159.14949179 0 169083159.14949179 134245610.54896927 0 0 0 0 -263403850.52819061 207698180.9033308 0 207698180.9033308 302912477.59846854 0 0 0 0 -330158716.12160873 92930277.931406975 0 92930277.931406975 129351478.41510773 0 0 0 0 -232375842.342134 123719115.48969841 0 123719115.48969841 105087245.4639492 0 0 0 0 -243670025.9359169 156647945.21955395 0 156647945.21955395 155406044.62889528 0 0 0 0 -189039159.09689927 151108792.2497499 0 151108792.2497499 23230988.703607559 0 0 0 0 -192484543.28808403 134217759.05735302 0 134217759.05735302 -6377910.0517120361 0 0 0 0 -234639486.98480225 106801117.01461792 0 106801117.01461792 65799507.761293411 0 0 0 0 -298633315.51442719 67893605.359117985 0 67893605.359117985 42329407.034111023 0 0 0 0 -277270096.50097704 -20737530.396934271 0 -20737530.396934271 -58108220.531250954 0 0 0 0 -112339750.8014946 33705125.351605415 0 33705125.351605415 -40192327.371660233 0 0 0 0 -4798067.0030019376 -10648227.645849714 0 -10648227.645849714 -6160016.2002354888 0 0 0 0 -8600525.0566902161 -26422020.623179436 0 -26422020.623179436 -6773090.4389190674 0 0 0 0 -150721905.81626081 124932234.69532728 0 124932234.69532728 -57796322.840623856 0 0 0 0 -125459811.02918434 83236878.109760284 0 83236878.109760284 -12925557.031349182 0 0 0 0 11075681.087306976 7561868.5056324005 0 7561868.5056324005 8141038.1851160526 0 0 0 0 -2659169.0725361314 -440205.08500950783 0 -440205.08500950783 402302.38491404988 0 0 0 0 94101.177146911621 -44781834.022111893 0 -44781834.022111893 10142976.564769745 0 0 0 0 -53716086.308319092 -15930992.85677433 0 -15930992.85677433 1794294.5268132687 0 0 0 0 -8807297.0237607956 -24829117.236923218 0 -24829117.236923218 -15656030.878334045 0 0 0 0 -5223938.9722163528 -9115961.3761685044 0 -9115961.3761685044 7152270.0606190227 0 0 0 0 -44443468.645801544 6451863.8384466171 0 6451863.8384466171 16041166.052349091 0 0 0 0 228723916.39336586 -35412331.846214056 0 -35412331.846214056 -44552737.225753784 0 0 0 0 167366084.72279358 -103978301.60173988 0 -103978301.60173988 -18966955.730976582 0 0 0 0 162204266.01159668 36968051.968198776 0 36968051.968198776 -26736633.29968071 0 0 0 0 45923234.817344666 84903870.817346573 0 84903870.817346573 48717690.365720749 0 0 0 0 -19745935.430046082 14471040.251442909 0 14471040.251442909 81438573.037914753 0 0 0 0 -60758577.246337891 -45845859.538101196 0 -45845859.538101196 -16876559.642822266 0 0 0 0 50328413.341072083 -73040516.142897606 0 -73040516.142897606 -15229007.996194839 0 0 0 0 -36424485.357735634 -54788836.336780548 0 -54788836.336780548 -40314330.344787598 0 0 0 0 -2333006.2529230379 -6815311.536179198 0 -6815311.536179198 7465321.755841013 0 0 0 0 -74038114.809020996 -99652527.817298889 0 -99652527.817298889 -121234146.7853241 0 0 0 0 -178727.95077544358 -71521.104587715119 0 -71521.104587715119 330972.72200922947 0 0 0 0 11697848.018375397 30123952.118211269 0 30123952.118211269 1653822.0518741608 0 0 0 0 16576236.423118591 37814020.156253338 0 37814020.156253338 -9316174.7685661316 0 0 0 0 13070721.714891434 31014661.902211189 0 31014661.902211189 -10213077.70167923 0 0 0 0 17733800.695400238 35521178.454696655 0 35521178.454696655 -26277941.313621521 0 0 0 0 -15068244.743461609 -27146831.709976196 0 -27146831.709976196 -45707407.770579815 0 0 0 0 -26191833.518866539 -19172759.092560291 0 -19172759.092560291 -8140212.2486381531 0 0 0 0 -2594365.2101488113 -24063293.280076027 0 -24063293.280076027 -30138126.842159271 0 0 0 0 -2390331.1559696198 -388202.58195114136 0 -388202.58195114136 7461442.3469734192 0 0 0 0 15028412.916923523 -6362459.7367477417 0 -6362459.7367477417 -16380489.713230133 0 0 0 0 6021925.0162506104 -976835.91426062584 0 -976835.91426062584 -19598515.440071106 0 0 0 0 -191257.81325292587 -29736348.190339565 0 -29736348.190339565 -50921365.473766327 0 0 0 0 508814.67408180237 -47498931.658295631 0 -47498931.658295631 -43800938.757362366 0 0 0 0 33179555.007312775 14716912.10896492 0 14716912.10896492 -29517296.762623787 0 0 0 0 -34648840.695335388 -34575632.462711334 0 -34575632.462711334 -13272297.73290062 0 0 0 0 -24893743.547092438 -68490593.053632736 0 -68490593.053632736 -133457744.54014587 0 0 0 0 -60623909.201522827 -33781730.519199371 0 -33781730.519199371 -40896985.843170166 0 0 0 0 -75286481.895256042 -92338405.345127106 0 -92338405.345127106 -98156074.063903809 0 0 0 0 -98806634.585111618 -142036834.68805504 0 -142036834.68805504 -137302586.5500946 0 0 0 0 671158.30714768916 -344560.50566049828 0 -344560.50566049828 -931020.64862525463 0 0 0 0 -4369564.3995547025 -6557777.2908285661 0 -6557777.2908285661 -4137808.7275245907 0 0 0 0 -39081210.318856239 16416446.680029869 0 16416446.680029869 -71192983.87670517 0 0 0 0 8292840.1276226044 -4919266.9451618195 0 -4919266.9451618195 -10428840.990675688 0 0 0 0 14060217.683915615 -10025936.567439556 0 -10025936.567439556 -11991649.962249756 0 0 0 0 -1899485.6349170948 -4059576.1623370084 0 -4059576.1623370084 -71697.648107719608 0 0 0 0 11078624.04635334 3948968.7179994583 0 3948968.7179994583 -2775740.7142419815 0 0 0 0 -45444723.488767624 33596504.168413162 0 33596504.168413162 15557404.174358368 0 0 0 0 -766895.64646510524 -2151527.1990209976 0 -2151527.1990209976 -3997014.6468727756 0 0 0 0 -288423089.69860554 -114516890.70341206 0 -114516890.70341206 -64566521.335690498 0 0 0 0 -414683512.73393297 -244938190.54007912 0 -244938190.54007912 6938213.8980903625 0 0 0 0 -4884522.917176499 -560599.76513786055 0 -560599.76513786055 -651491.06339022005 0 0 0 0 -394934978.47280264 -67932655.114560127 0 -67932655.114560127 -19262019.949719429 0 0 0 0 -935791911.28058362 -117949253.84204292 0 -117949253.84204292 -226378268.63687515 0 0 0 0 -883848717.27182913 -239476627.05109596 0 -239476627.05109596 43225463.85208416 0 0 0 0 73146.399184552603 -827792.20527737122 0 -827792.20527737122 -341511.35863140784 0 0 0 0 -952185872.26633954 -645830626.30627108 0 -645830626.30627108 -231890002.10713196 0 0 0 0 -537658684.97691 175026842.48535132 0 175026842.48535132 -1133159847.9436436 0 0 0 0 -1436678.0803335737 100715.95957898675 0 100715.95957898675 -535274.78261135705 0 0 0 0 -88207140.912969589 360959401.33934212 0 360959401.33934212 -714103066.48424625 0 0 0 0 -87217806.993679047 66082699.647561073 0 66082699.647561073 -85740984.370584488 0 0 0 0 -65850146.377346277 80255887.60738039 0 80255887.60738039 -78444246.437898636 0 0 0 0 -101746777.86085081 142206625.75219297 0 142206625.75219297 -190640188.565485 0 0 0 0 -258434042.49472618 232024612.35655975 0 232024612.35655975 -65026321.518857956 0 0 0 0 -319176470.90894985 123541495.68956375 0 123541495.68956375 74429349.362850189 0 0 0 0 -874504375.85778141 504837704.82815742 0 504837704.82815742 26248370.687711716 0 0 0 0 -1028059812.3882438 135834860.16165185 0 135834860.16165185 336996880.67815018 0 0 0 0 -598276433.47719872 -147581500.43025243 0 -147581500.43025243 405301321.07679939 0 0 0 0 -486191028.38704777 236422132.17997551 0 236422132.17997551 80560619.126286745 0 0 0 0 -252562928.71370029 -144841792.866364 0 -144841792.866364 -22149575.303848505 0 0 0 0 -334253294.39442015 -189845588.79944515 0 -189845588.79944515 134250574.33032799 0 0 0 0 -240419500.05887908 50721451.063444376 0 50721451.063444376 71105062.154968262 0 0 0 0 -190319618.04476166 165582834.7062397 0 165582834.7062397 40528411.584610939 0 0 0 0 -226534966.01684761 99492202.513205528 0 99492202.513205528 61440847.087616444 0 0 0 0 -97087006.279107094 151687544.13516164 0 151687544.13516164 81880000.697742462 0 0 0 0 -197169586.6189518 74160235.057844639 0 74160235.057844639 69087042.273736954 0 0 0 0 -55822187.748548597 -211208622.27387488 0 -211208622.27387488 -221964987.1710043 0 0 0 0 6864404.2761926055 55296126.491841793 0 55296126.491841793 -357543363.82252383 0 0 0 0 -350886192.87730432 -192518194.06404781 0 -192518194.06404781 -48981793.153265953 0 0 0 0 337277.44505291886 -1801149.3997828984 0 -1801149.3997828984 -429735.4508694578 0 0 0 0 82893659.588561296 -367531084.21875477 0 -367531084.21875477 -139228201.3232584 0 0 0 0 -676668.03808287345 53864.889480857877 0 53864.889480857877 198217.65238699038 0 0 0 0 70991554.977964371 -535753315.78470522 0 -535753315.78470522 215489357.11306381 0 0 0 0 359532770.56328845 -102399559.9217124 0 -102399559.9217124 -144281273.71386242 0 0 0 0 -150428134.47650811 -175507958.12781328 0 -175507958.12781328 328521579.62730217 0 0 0 0 -685142493.72326064 -309616918.4393996 0 -309616918.4393996 -53653510.542747498 0 0 0 0 -156167074.68646145 4655922.6841278076 0 4655922.6841278076 -50196357.611746311 0 0 0 0 -36097469.575992823 -101551888.48705387 0 -101551888.48705387 -352940948.58201218 0 0 0 0 -181011765.71065855 34400882.637435913 0 34400882.637435913 -383360571.91876793 0 0 0 0 -1448997.1401734352 21513300.574302673 0 21513300.574302673 -45361752.262439251 0 0 0 0 188822169.08009982 -68051084.929808617 0 -68051084.929808617 -170810681.21837234 0 0 0 0 -3291052.3921723366 9330970.5503406525 0 9330970.5503406525 -43137648.918740273 0 0 0 0 150999173.81496239 -110612481.64120579 0 -110612481.64120579 106292669.54724514 0 0 0 0 -894317.50772771332 979433.98013381334 0 979433.98013381334 -158631.18279460352 0 0 0 0 397288380.40756011 -363782093.39068604 0 -363782093.39068604 70457973.165520072 0 0 0 0 -1209785.037492825 3252032.3946297276 0 3252032.3946297276 -752334.39566752221 0 0 0 0 -3859745.2843642235 9650766.23691082 0 9650766.23691082 -1466519.0270539522 0 0 0 0 -22518596.779553413 -60218657.265649796 0 -60218657.265649796 -81477918.824100494 0 0 0 0 -148205757.32312775 -122925274.37320328 0 -122925274.37320328 -109601396.21628165 0 0 0 0 -2611351.9689909974 2247714.9664573139 0 2247714.9664573139 -3239619.3049642853 0 0 0 0 5619256.9183416367 15574379.050091743 0 15574379.050091743 -9321429.8954925537 0 0 0 0 -11752378.597033501 906747.95238780975 0 906747.95238780975 -3124336.3503804207 0 0 0 0 2677464.3826665878 -11989105.869115829 0 -11989105.869115829 -24313340.782355309 0 0 0 0 -21399545.078467846 -23690234.158639431 0 -23690234.158639431 -7642208.1849727631 0 0 0 0 -10268851.067704678 -9672508.0358941555 0 -9672508.0358941555 946153.74336242676 0 0 0 0 -76050.60943739349 57678.407103924546 0 57678.407103924546 -593189.80775522301 0 0 0 0 -5547884.5647373199 -36726538.841261387 0 -36726538.841261387 -92659694.313342094 0 0 0 0 18925808.461655021 -56232649.606330633 0 -56232649.606330633 -81629096.676220417 0 0 0 0 19013304.594110727 -59379989.80838871 0 -59379989.80838871 -164412558.36086845 0 0 0 0 -8086439.8114327192 -17012814.650871038 0 -17012814.650871038 -41932616.551692486 0 0 0 0 9704118.3860152364 9022918.6312432289 0 9022918.6312432289 -107895489.49885178 0 0 0 0 -3874432.0359027386 954903.19316315651 0 954903.19316315651 1560124.1837283373 0 0 0 0 -1208291.4121683231 -1706226.4157893865 0 -1706226.4157893865 -1133476.9105936107 0 0 0 0 -77480947.254083633 13717517.47473526 0 13717517.47473526 22207286.904445648 0 0 0 0 8615659.6865731478 54244624.669807494 0 54244624.669807494 -125577211.34962559 0 0 0 0 2815489.487159729 22347479.590990782 0 22347479.590990782 -82351447.389549255 0 0 0 0 -41777710.182008713 93866642.527590588 0 93866642.527590588 -139128160.39013767 0 0 0 0 -2547652.387635231 43437487.475247383 0 43437487.475247383 -191709381.40741539 0 0 0 0 13445921.563686848 64543367.167756319 0 64543367.167756319 -210334496.2629509 0 0 0 0 24594030.022838593 30350682.945253849 0 30350682.945253849 -137452974.62667263 0 0 0 0 34701805.393231392 17994195.995182514 0 17994195.995182514 -134918408.0618782 0 0 0 0 34743616.074707985 39479843.556293249 0 39479843.556293249 -169865728.39554977 0 0 0 0 4867935.723628521 41329916.381752491 0 41329916.381752491 -69429233.300805092 0 0 0 0 -2546259.3870487213 4686532.6996407509 0 4686532.6996407509 -48345945.984302282 0 0 0 0 -2850975.6727715437 -2706044.4585745269 0 -2706044.4585745269 -1545795.3132525403 0 0 0 0 -1284643.9373941422 14433160.555702209 0 14433160.555702209 -44426670.836245537 0 0 0 0 804618.19433879852 -19479597.551038742 0 -19479597.551038742 -85489211.400647163 0 0 0 0 34234382.617994815 6882511.4460204989 0 6882511.4460204989 -124490252.91698074 0 0 0 0 65302737.04698658 -6604300.8084771633 0 -6604300.8084771633 -159447522.34337115 0 0 0 0 57393478.602038383 -29743776.886778355 0 -29743776.886778355 -145030646.92553675 0 0 0 0 -20402835.683416367 -55033399.024009705 0 -55033399.024009705 -100036015.62533689 0 0 0 0 1641923.0855087042 -10949596.777799457 0 -10949596.777799457 -38034990.014420509 0 0 0 0 17451801.461497307 6857105.9592144489 0 6857105.9592144489 -7794285.1625289917 0 0 0 0 -2652869.6711832848 58155.705482848687 0 58155.705482848687 -1700975.0062375404 0 0 0 0 -6267646.6859951019 -7592036.7061295509 0 -7592036.7061295509 -38034401.348375537 0 0 0 0 1504204.9957213402 -2756131.0114803314 0 -2756131.0114803314 -39435532.424591064 0 0 0 0 -467269.80759429932 -11570504.883594513 0 -11570504.883594513 -78643983.075634956 0 0 0 0 466172.66176164726 -2900013.9004871524 0 -2900013.9004871524 -2891961.8587516076 0 0 0 0 1587022.9546897411 -5532263.3467776775 0 -5532263.3467776775 -4900903.0761003494 0 0 0 0 -2221882.2703948021 -10034546.056411386 0 -10034546.056411386 -557861.76306200027 0 0 0 0 -4247804.7402732978 -3837228.7466156147 0 -3837228.7466156147 -1909664.5143174743 0 0 0 0 -9950042.0972337723 -9115369.0540139675 0 -9115369.0540139675 -15693583.6501894 0 0 0 0 -3102711.3131008148 -4781152.0730886459 0 -4781152.0730886459 2005978.309625864 0 0 0 0 -6232525.9211361408 -7100200.8035163879 0 -7100200.8035163879 6619967.6511340141 0 0 0 0 -13368635.36066699 -10834670.84883213 0 -10834670.84883213 -879554.10637879372 0 0 0 0 -3903719.7170442343 1320553.4301525354 0 1320553.4301525354 -4625715.7935507298 0 0 0 0 -1170722.3499883485 -755351.07161676046 0 -755351.07161676046 49135.318719414761 0 0 0 0 -6400352.5750510246 -364337.90302168578 0 -364337.90302168578 230752.68505382538 0 0 0 0 -14001814.905357108 1936269.1605516523 0 1936269.1605516523 1253268.8884472847 0 0 0 0 -6591709.4598178864 2850393.0228838921 0 2850393.0228838921 -793362.08452606201 0 0 0 0 -5052796.4119229317 -1415306.8813402653 0 -1415306.8813402653 2508495.3105568886 0 0 0 0 -2220666.9781941175 -1139139.1904562712 0 -1139139.1904562712 1408071.723862648 0 0 0 0 -6528220.3022910953 508659.1728758812 0 508659.1728758812 2836923.0570497513 0 0 0 0 -4876783.7989931107 -7727977.2045936584 0 -7727977.2045936584 -515372.15318155289 0 0 0 0 -37755723.718277216 -20445880.002043724 0 -20445880.002043724 -9028845.0887954831 0 0 0 0 -39142523.2907601 -6358015.0917365551 0 -6358015.0917365551 -1093883.4169378281 0 0 0 0 273944.26050187554 256695.88910176361 0 256695.88910176361 -193646.49330556439 0 0 0 0 -94015.387917518616 1982115.4301748276 0 1982115.4301748276 850892.22742176056 0 0 0 0 11365177.121463537 10568610.837519646 0 10568610.837519646 -2601961.6899238229 0 0 0 0 -2319761.3261916381 -1346881.662609265 0 -1346881.662609265 -2831451.5545802801 0 0 0 0 -730573.44404220581 -858314.7046867609 0 -858314.7046867609 358312.70330429077 0 0 0 0 -1666522.0449786894 -1752199.6290979392 0 -1752199.6290979392 -1619525.2018285603 0 0 0 0 -522144.83278179169 -1202894.686473608 0 -1202894.686473608 -151745.29643058777 0 0 0 0 -1694252.8399946983 -1998990.6789128771 0 -1998990.6789128771 -2147320.5628078692 0 0 0 0 -2226952.1615022337 -1586510.7012072126 0 -1586510.7012072126 163455.12820858206 0 0 0 0 -890060.12427809951 -572351.12234784581 0 -572351.12234784581 281984.9049432344 0 0 0 0 -2924507.8566999435 -1457405.3361415863 0 -1457405.3361415863 33654.876176834106 0 0 0 0 -64194.137755848933 -176161.87298899633 0 -176161.87298899633 -245754.29769441951 0 0 0 0 4661333.887252152 2009217.9148377776 0 2009217.9148377776 -10625888.030365705 0 0 0 0 -12377237.312155008 21039.013653039932 0 21039.013653039932 -12678559.10206008 0 0 0 0 -6650129.2251112461 -9857408.6752842665 0 -9857408.6752842665 -170454.66248083115 0 0 0 0 -28661819.791724205 -16567644.800094247 0 -16567644.800094247 -139915.84914779663 0 0 0 0 -9317324.6565750837 -25229653.589686036 0 -25229653.589686036 -1387432.1686842442 0 0 0 0 -43192811.896299124 3677413.8974304199 0 3677413.8974304199 5950221.3179306388 0 0 0 0 1128102.5949418105 -3635222.0980883017 0 -3635222.0980883017 -2318853.2185124867 0 0 0 0 -40491804.137956619 -22636425.704754829 0 -22636425.704754829 -10324180.106130958 0 0 0 0 -28289949.12279129 -26351386.232827187 0 -26351386.232827187 -9217398.2455508709 0 0 0 0 -34528026.409649849 -39092731.308287203 0 -39092731.308287203 -730239.50625419617 0 0 0 0 -13840726.020734787 -42232136.19789362 0 -42232136.19789362 -14483918.628804445 0 0 0 0 -46810859.562999368 -44867491.622452676 0 -44867491.622452676 23806513.904184818 0 0 0 0 -51269839.965563774 -34050268.071108341 0 -34050268.071108341 -2235755.1454957724 0 0 0 0 -1110326.9978971104 300229.99430737109 0 300229.99430737109 591273.81819492602 0 0 0 0 -34085000.764747143 10762382.934117258 0 10762382.934117258 -8024943.0541856587 0 0 0 0 -113115784.02870309 56359564.590800993 0 56359564.590800993 -25104254.302023649 0 0 0 0 -42301871.092438698 -6547944.2448691726 0 -6547944.2448691726 -2824497.7909495831 0 0 0 0 -27252981.321281433 -15063039.034603536 0 -15063039.034603536 -4171460.257587567 0 0 0 0 -36465412.895084381 -26972251.237519503 0 -26972251.237519503 -14702629.923504949 0 0 0 0 -80465040.113039255 -27534978.96457532 0 -27534978.96457532 -3280216.9038386345 0 0 0 0 130168.25966835022 9311695.4393998384 0 9311695.4393998384 -20619756.935918808 0 0 0 0 -288958.06519218674 -4546245.8492343929 0 -4546245.8492343929 -1161090.0425181487 0 0 0 0 -29433328.087798119 -16028908.526452869 0 -16028908.526452869 -14740986.991073966 0 0 0 0 -16518402.480781555 -18177690.149766445 0 -18177690.149766445 -5489545.0924696326 0 0 0 0 -30381681.868079185 -26153489.280063868 0 -26153489.280063868 -10072479.201611996 0 0 0 0 -27055191.802892685 -3471922.3170833588 0 -3471922.3170833588 8641457.437069416 0 0 0 0 -6029395.354980397 -5080175.0769914314 0 -5080175.0769914314 1957027.2163372929 0 0 0 0 -20348566.669415236 1128764.5202827454 0 1128764.5202827454 6876466.3033914566 0 0 0 0 -21827515.748684883 -22283387.742917597 0 -22283387.742917597 8225592.7665655613 0 0 0 0 -26062105.016984463 607286.366065979 0 607286.366065979 13540617.191423893 0 0 0 0 11007423.421276569 -589657.12953609228 0 -589657.12953609228 -16370269.62755537 0 0 0 0 -9937171.1859652996 -14318047.370465517 0 -14318047.370465517 -18524001.597205162 0 0 0 0 -3391901.9690504111 -697264.56150982017 0 -697264.56150982017 -2324647.645070863 0 0 0 0 -22054604.804144621 -18438260.795327425 0 -18438260.795327425 7525932.3579760194 0 0 0 0 458772.59822249104 455436.79356524092 0 455436.79356524092 -224108.20296277083 0 0 0 0 -38054703.008688927 -79146346.304703116 0 -79146346.304703116 34636128.824454784 0 0 0 0 -73706831.522904202 -121338747.24395637 0 -121338747.24395637 141891431.68238664 0 0 0 0 -28599752.970422149 -68358590.288560867 0 -68358590.288560867 -9631501.6082564592 0 0 0 0 -24709862.368065357 -135927463.05500913 0 -135927463.05500913 -37469899.330966949 0 0 0 0 -22985571.916237354 -30272307.268765807 0 -30272307.268765807 -41954891.814632297 0 0 0 0 -19185171.290147305 -77836312.628815651 0 -77836312.628815651 -14627824.427201509 0 0 0 0 -14370568.57365799 -49144824.672109604 0 -49144824.672109604 -69982359.281885326 0 0 0 0 -20161910.929973692 -25502294.44359988 0 -25502294.44359988 57072605.931246996 0 0 0 0 25263671.397857189 -90867838.263750404 0 -90867838.263750404 47335299.008647472 0 0 0 0 -23375006.773505092 -24105067.755809993 0 -24105067.755809993 71632676.807373047 0 0 0 0 -2727438.186988214 957275.47320976248 0 957275.47320976248 981442.48522158177 0 0 0 0 -8010686.243878603 -44361144.25520891 0 -44361144.25520891 80102125.5539563 0 0 0 0 -13800471.786011457 -18895198.085640311 0 -18895198.085640311 68835985.421646595 0 0 0 0 -47248134.639121056 -24510390.801248074 0 -24510390.801248074 73023536.274907708 0 0 0 0 -48319309.326381743 -80287.970508694649 0 -80287.970508694649 130762365.43853402 0 0 0 0 -48612976.032521173 -15761498.26360099 0 -15761498.26360099 111700391.02494645 0 0 0 0 -3264649.8039947748 28189355.233689308 0 28189355.233689308 65851653.761975646 0 0 0 0 -8645237.1008375436 4699292.3800589666 0 4699292.3800589666 45754176.025124192 0 0 0 0 -6010205.7917157449 4515513.6775239389 0 4515513.6775239389 -3396798.0538383527 0 0 0 0 5582840.8371257782 20005698.347489595 0 20005698.347489595 11437366.897357225 0 0 0 0 10403221.33798027 21316204.066267252 0 21316204.066267252 4824454.4620662928 0 0 0 0 427705.26274108887 2053862.1829748154 0 2053862.1829748154 -5295831.0000767708 0 0 0 0 -8134337.3431873322 6018581.091733098 0 6018581.091733098 4231113.2057647705 0 0 0 0 5476440.8217105865 8297771.7336661816 0 8297771.7336661816 -2563775.0560894012 0 0 0 0 4223864.3407974243 12608425.295146942 0 12608425.295146942 1399458.578848362 0 0 0 0 -10744158.604660034 14887402.190142632 0 14887402.190142632 22205681.277088165 0 0 0 0 -432156.9453616282 202518.57482405147 0 202518.57482405147 110686.53947261441 0 0 0 0 -8694302.3772167861 5316526.540917486 0 5316526.540917486 40140258.716275811 0 0 0 0 -5264195.0897225281 2141708.5293303528 0 2141708.5293303528 1466720.335376204 0 0 0 0 -20542612.790646553 10456134.031308413 0 10456134.031308413 -3959953.2698736191 0 0 0 0 -47012462.277198792 29247794.479274988 0 29247794.479274988 -8016250.6884735823 0 0 0 0 -26039931.983899117 801957.12800955772 0 801957.12800955772 20931892.769884109 0 0 0 0 -31196911.904685497 13092187.941275954 0 13092187.941275954 11673943.267258883 0 0 0 0 -17612042.769181967 4553346.0821278095 0 4553346.0821278095 3985596.4206447005 0 0 0 0 -23190753.713047981 12512216.754081726 0 12512216.754081726 1044531.8907077312 0 0 0 0 -19240575.609574795 8675221.1708021164 0 8675221.1708021164 1111455.6301648542 0 0 0 0 -23181595.128201008 8454280.9925498962 0 8454280.9925498962 4647435.1990461349 0 0 0 0 -9920775.593119204 379976.44565323694 0 379976.44565323694 -1091811.7880390999 0 0 0 0 -5778031.4023475647 4113613.4090425968 0 4113613.4090425968 2356189.1739957333 0 0 0 0 -27223866.478767395 -25213115.831731796 0 -25213115.831731796 14948628.391590834 0 0 0 0 -13834516.562477112 -13245435.479108334 0 -13245435.479108334 11552679.707208276 0 0 0 0 -19849736.682559852 -3145562.7608449813 0 -3145562.7608449813 -1013756.9089620602 0 0 0 0 -4140835.3619457334 -1910149.4496892504 0 -1910149.4496892504 2077025.4592145672 0 0 0 0 -28921610.313121796 2583893.0691580176 0 2583893.0691580176 42092769.185654342 0 0 0 0 -19665583.161384583 -1126795.5122391433 0 -1126795.5122391433 37071546.342051029 0 0 0 0 -20748575.155038357 -6263105.1606396288 0 -6263105.1606396288 17729894.184230566 0 0 0 0 -11134138.878822327 -28089620.823442727 0 -28089620.823442727 46901232.801436603 0 0 0 0 1101755.6547164917 -12272407.154465556 0 -12272407.154465556 2190831.2722021639 0 0 0 0 -7042318.3727195561 -1284164.5550319131 0 -1284164.5550319131 -2144495.1814724952 0 0 0 0 -1689000.197710827 -486562.91196546238 0 -486562.91196546238 713480.91545497382 0 0 0 0 -57538862.141875744 -91975720.31364347 0 -91975720.31364347 -70523186.426001534 0 0 0 0 -4417057.4889408108 -1452792.7230688534 0 -1452792.7230688534 -577814.81632850308 0 0 0 0 11584128.285757065 -1674428.9314808846 0 -1674428.9314808846 -19801661.64675808 0 0 0 0 -7639027.4186320305 -9303921.9832376838 0 -9303921.9832376838 -12173354.972454071 0 0 0 0 -1870993.1541193742 -832377.00091907941 0 -832377.00091907941 -1005000.0377996882 0 0 0 0 -4996808.9213027954 -268083.02056932449 0 -268083.02056932449 -3929369.823143959 0 0 0 0 -3553136.1996469498 4970843.4326329231 0 4970843.4326329231 -3227789.5326576233 0 0 0 0 -13563607.083963566 1570568.5656754216 0 1570568.5656754216 -1415144.1964743787 0 0 0 0 -6020734.0581054688 5538834.9592971802 0 5538834.9592971802 1162331.2937936783 0 0 0 0 208718.95408630371 4788590.9500370026 0 4788590.9500370026 -4442484.4819641113 0 0 0 0 -3092302.1775741577 8255612.1042747498 0 8255612.1042747498 -844264.48355722427 0 0 0 0 -3172760.6907567978 7856774.1813385487 0 7856774.1813385487 -935955.70986175537 0 0 0 0 -5796622.1504325867 3738739.3881230354 0 3738739.3881230354 -1719852.3098478913 0 0 0 0 -3210456.6548643112 2160691.8116467595 0 2160691.8116467595 -5904453.5309524536 0 0 0 0 -3194941.2102661133 2705596.9347815514 0 2705596.9347815514 -6567199.6286299229 0 0 0 0 -27464768.90372467 1727740.0586557388 0 1727740.0586557388 9271097.7353202701 0 0 0 0 -12984388.540914107 2874144.4415116142 0 2874144.4415116142 2837153.1268237554 0 0 0 0 -28367877.964945793 -2953429.2065962553 0 -2953429.2065962553 20259029.87706089 0 0 0 0 -33116366.423797607 7461995.2748608589 0 7461995.2748608589 17107470.08135581 0 0 0 0 -28865200.30657959 952372.71034574509 0 952372.71034574509 16080592.123558223 0 0 0 0 -4323019.9188890457 1667536.3112920821 0 1667536.3112920821 2649583.9713108838 0 0 0 0 -13960534.614175797 -22066588.46706 0 -22066588.46706 7311271.1684133708 0 0 0 0 -18125197.200187121 3024944.9100372489 0 3024944.9100372489 1991916.7115301345 0 0 0 0 -16690351.665899754 -6769278.5358557701 0 -6769278.5358557701 -8129450.9453659058 0 0 0 0 -9949944.7393388748 -24120841.739313632 0 -24120841.739313632 11757137.170802116 0 0 0 0 -23454710.466843605 -30054791.439357162 0 -30054791.439357162 41034720.997643948 0 0 0 0 -33923884.243940353 -20782672.824741423 0 -20782672.824741423 14824986.225004792 0 0 0 0 -25455134.180872455 -6939810.9536944199 0 -6939810.9536944199 1622013.6838207503 0 0 0 0 -21787939.641014099 -12445558.63598454 0 -12445558.63598454 21744746.152200937 0 0 0 0 -27774521.727363586 -4852102.529081583 0 -4852102.529081583 12571011.282132864 0 0 0 0 -23019388.840816628 -5199581.1703225616 0 -5199581.1703225616 347353.63505412918 0 0 0 0 -42105675.561157703 -18585744.737617254 0 -18585744.737617254 46377832.788346767 0 0 0 0 -24613732.47725296 -16605480.801025391 0 -16605480.801025391 22257757.780956149 0 0 0 0 -24820018.96113205 -1758441.6374028325 0 -1758441.6374028325 28152014.532461584 0 0 0 0 -53518831.385497108 -18335060.392177727 0 -18335060.392177727 18600958.25967288 0 0 0 0 -54190342.91110301 13519376.599016869 0 13519376.599016869 11269544.002091527 0 0 0 0 -19299402.347518444 -10274139.792719603 0 -10274139.792719603 17189074.996101499 0 0 0 0 -1624345.7028636932 -18687140.509314835 0 -18687140.509314835 20025582.411992788 0 0 0 0 -14979186.981615543 -17508386.056725711 0 -17508386.056725711 21167866.07349205 0 0 0 0 -14065978.620380402 -12715120.563713938 0 -12715120.563713938 24542326.499078542 0 0 0 0 -11267041.502677917 -25521042.523204923 0 -25521042.523204923 29693857.948579699 0 0 0 0 -33587267.572937012 -32138769.974089146 0 -32138769.974089146 32460895.790192217 0 0 0 0 -1576889.8044586182 -38623488.69127351 0 -38623488.69127351 56489593.543848753 0 0 0 0 -495583.97550964355 -29718390.503660083 0 -29718390.503660083 32614461.901792347 0 0 0 0 -72514030.298284531 -58670277.452985287 0 -58670277.452985287 81181948.884460568 0 0 0 0 -38545184.935028076 -13071351.015344501 0 -13071351.015344501 30304061.573354959 0 0 0 0 -35555986.198516846 -4418787.0916929841 0 -4418787.0916929841 27617642.988143921 0 0 0 0 -37702345.818367004 -181929.08180189133 0 -181929.08180189133 20716857.535271049 0 0 0 0 -57777855.081718445 -3148808.0832623243 0 -3148808.0832623243 35511077.276030064 0 0 0 0 -38131906.071715355 -14814328.773528576 0 -14814328.773528576 31764033.35547781 0 0 0 0 -47833120.232398987 -14270114.828548193 0 -14270114.828548193 44873192.502313018 0 0 0 0 -96050975.916244507 1588040.1553162336 0 1588040.1553162336 46301997.56163726 0 0 0 0 -73241459.514633179 18434894.449508309 0 18434894.449508309 29354429.792146146 0 0 0 0 -50716930.545928955 11117354.527327657 0 11117354.527327657 31648605.108737528 0 0 0 0 -46142943.447242737 19643549.18241483 0 19643549.18241483 22035425.734247506 0 0 0 0 -47379263.216453552 20232963.750404835 0 20232963.750404835 22712729.129156351 0 0 0 0 -37427249.5814991 15025004.790916383 0 15025004.790916383 23394879.435562134 0 0 0 0 -37857820.594734192 14628369.264924049 0 14628369.264924049 23207196.243215799 0 0 0 0 -48651729.718910217 9465255.2974143028 0 9465255.2974143028 28446036.917378187 0 0 0 0 -41666269.303894043 7759620.5105876923 0 7759620.5105876923 26196178.244007111 0 0 0 0 -34456732.559123993 5000860.9323599339 0 5000860.9323599339 23761207.165412903 0 0 0 0 -31692111.511367798 11723575.672305584 0 11723575.672305584 20794759.758821487 0 0 0 0 -91823376.478672028 30453215.279064178 0 30453215.279064178 38531428.253778934 0 0 0 0 -86065979.739242554 31676588.48703599 0 31676588.48703599 56039628.258731365 0 0 0 0 -98903730.46100235 -313558.51011633873 0 -313558.51011633873 12458925.387436628 0 0 0 0 -51565574.429012299 20531920.92086038 0 20531920.92086038 9501614.4733281136 0 0 0 0 -56567499.647773743 28625219.978291154 0 28625219.978291154 16475924.931452036 0 0 0 0 -70596740.105564117 8958719.2201600522 0 8958719.2201600522 25809823.793992043 0 0 0 0 -155051494.79915619 4980304.4292368889 0 4980304.4292368889 29720089.770538568 0 0 0 0 -139550884.36053848 8628351.7547740936 0 8628351.7547740936 24432363.709512234 0 0 0 0 -100291770.21660233 7301551.0617406368 0 7301551.0617406368 179546.290538311 0 0 0 0 -1489438.0089454651 2365690.8837548494 0 2365690.8837548494 16169174.619403362 0 0 0 0 -1131043.9391716793 1266064.6440921333 0 1266064.6440921333 1306363.6480618352 0 0 0 0 -133620629.82149887 13746041.314874411 0 13746041.314874411 3308323.5019392967 0 0 0 0 -157053664.0296948 54275688.671007253 0 54275688.671007253 -14260512.112495899 0 0 0 0 241358.13506055251 -26316.027628752403 0 -26316.027628752403 -451498.79357874708 0 0 0 0 30503268.091522217 -99316011.567929745 0 -99316011.567929745 95069815.048721313 0 0 0 0 43454099.599310875 -31903517.835676625 0 -31903517.835676625 55312710.716940403 0 0 0 0 8690632.4477863312 -9523628.2114297822 0 -9523628.2114297822 42010240.547938347 0 0 0 0 15387857.25743866 -28047810.850253582 0 -28047810.850253582 80539893.561892509 0 0 0 0 20729120.313179016 -29788749.076366097 0 -29788749.076366097 46872023.056370139 0 0 0 0 540764.39144551381 -1266210.9445018563 0 -1266210.9445018563 -1240482.7538972322 0 0 0 0 45884380.390455246 -39828094.342261493 0 -39828094.342261493 46452868.719361782 0 0 0 0 28135162.1772995 -60495232.882341385 0 -60495232.882341385 78967999.264187843 0 0 0 0 -23070110.544225693 12856970.439242005 0 12856970.439242005 11069018.453523636 0 0 0 0 -25173033.797996521 35209993.064100027 0 35209993.064100027 -4261649.5521426201 0 0 0 0 -1070939.8360663485 1707810.8462332115 0 1707810.8462332115 1197132.5449847197 0 0 0 0 25619591.200141907 14738718.498181581 0 14738718.498181581 -2100676.3285512924 0 0 0 0 -110864506.76982498 11785257.431622505 0 11785257.431622505 8822213.4376306534 0 0 0 0 -186038951.67493439 -12626652.475296974 0 -12626652.475296974 13281453.141753316 0 0 0 0 -102546934.0382576 15620796.642588496 0 15620796.642588496 -25273030.356499672 0 0 0 0 -102328077.85439301 9170893.9673752785 0 9170893.9673752785 5430595.2955069542 0 0 0 0 -125197107.70559645 -152765754.64437401 0 -152765754.64437401 -91839774.226345539 0 0 0 0 -104561444.60955048 -93076002.165237188 0 -93076002.165237188 -16198580.272360086 0 0 0 0 -88716061.36066556 -183415442.89235061 0 -183415442.89235061 -156646989.24846768 0 0 0 0 -31324138.424295425 -4576889.6514805108 0 -4576889.6514805108 64363084.431159735 0 0 0 0 -64945551.260562897 3361015.2569862008 0 3361015.2569862008 58785240.466478825 0 0 0 0 -9659637.6853904724 -85424448.27541396 0 -85424448.27541396 -43953312.516077459 0 0 0 0 -46390012.81098175 14419064.543251395 0 14419064.543251395 35264643.336422682 0 0 0 0 -48499542.766998291 -10423401.022926807 0 -10423401.022926807 66259932.388618588 0 0 0 0 -30404800.013381958 205463.18662559986 0 205463.18662559986 44935091.31191349 0 0 0 0 -27877199.690275192 -4020882.0197300911 0 -4020882.0197300911 47393182.975973368 0 0 0 0 -3751089.1110229492 -4043243.2180306911 0 -4043243.2180306911 39952905.62940526 0 0 0 0 -9623670.781375885 -16989023.336548686 0 -16989023.336548686 54452142.950514317 0 0 0 0 7076263.203212738 -8374130.0415803194 0 -8374130.0415803194 34320485.842347145 0 0 0 0 -24180952.255844116 -11316357.068404913 0 -11316357.068404913 49663478.675899982 0 0 0 0 -135456520.36925125 -25634255.288296223 0 -25634255.288296223 33475348.961419106 0 0 0 0 -24138878.873664856 -10209030.978923559 0 -10209030.978923559 9231427.3611121178 0 0 0 0 -306337844.73865128 -72130419.241853714 0 -72130419.241853714 38101903.098666668 0 0 0 0 -16487415.263003349 1686571.8785766959 0 1686571.8785766959 10460111.728134155 0 0 0 0 5505516.8250541687 -53181497.350636482 0 -53181497.350636482 43130489.458541393 0 0 0 0 812037.73351163231 -1001323.3999753026 0 -1001323.3999753026 -1578853.4494559967 0 0 0 0 700693.12777805328 -28894481.29136622 0 -28894481.29136622 22660630.433761597 0 0 0 0 -79617955.209926605 -21303556.214180946 0 -21303556.214180946 23899804.497583866 0 0 0 0 -19761733.185022354 -42761710.419735432 0 -42761710.419735432 -70052776.864357948 0 0 0 0 504895.90478575602 -439130.00320551125 0 -439130.00320551125 -871275.76201081788 0 0 0 0 -82997645.763015747 -245787339.50400877 0 -245787339.50400877 -242579468.44238377 0 0 0 0 -199136869.68714619 -267064172.48233616 0 -267064172.48233616 -204559728.94099331 0 0 0 0 -134026474.03247833 -170071881.31257081 0 -170071881.31257081 -77247109.119466066 0 0 0 0 -132639383.49120617 -190186141.00800109 0 -190186141.00800109 -105894095.41295528 0 0 0 0 -193496763.3950882 -151352103.03595829 0 -151352103.03595829 -128554217.49618649 0 0 0 0 -185428903.40293503 -124966070.65491033 0 -124966070.65491033 -53875625.60316658 0 0 0 0 674083.06160375755 145044.6743036136 0 145044.6743036136 -840985.94225492049 0 0 0 0 -280325157.05589962 3080649.302993536 0 3080649.302993536 -22132989.177589417 0 0 0 0 -308459047.742836 -141451521.53815043 0 -141451521.53815043 80183071.054826736 0 0 0 0 -378484932.14845657 -35560316.654405594 0 -35560316.654405594 81394859.019509315 0 0 0 0 -310325254.00042915 -165037384.07286859 0 -165037384.07286859 -54779883.13077677 0 0 0 0 -239362665.28279877 -227583324.33463085 0 -227583324.33463085 -100593548.11578894 0 0 0 0 -71908198.923500061 25297463.490255833 0 25297463.490255833 -19545848.227771282 0 0 0 0 -67412282.226792336 40632231.14605999 0 40632231.14605999 29103100.802827835 0 0 0 0 -3686043.9137687683 -48707192.418875694 0 -48707192.418875694 -10322490.97712934 0 0 0 0 -174241243.78414917 -52327448.745993376 0 -52327448.745993376 -8887318.6125297546 0 0 0 0 -63009342.14494133 22391075.700237513 0 22391075.700237513 -23957879.166045189 0 0 0 0 -58858251.252480507 33525797.262575865 0 33525797.262575865 -14443559.871517658 0 0 0 0 -697795.70239553181 -98987.565285369754 0 -98987.565285369754 -1991629.5432435814 0 0 0 0 -72602832.586928368 56645046.835182309 0 56645046.835182309 -50699629.459705353 0 0 0 0 1074314.0427922066 115536.4081644523 0 115536.4081644523 -554715.21283346624 0 0 0 0 -906310.69445203245 -1652331.6409461508 0 -1652331.6409461508 -802087.26267313887 0 0 0 0 -168851.83579826355 -531401.2373098135 0 -531401.2373098135 47782.314461708069 0 0 0 0 -85347918.409141541 70717733.236252308 0 70717733.236252308 -58096980.798947334 0 0 0 0 -752195.60202270467 -109771.32748679025 0 -109771.32748679025 -992568.39128314191 0 0 0 0 -4766300.4571819305 6999916.9410283566 0 6999916.9410283566 7076555.5700454712 0 0 0 0 -188300540.50704575 300052056.61886668 0 300052056.61886668 136807161.7512325 0 0 0 0 -153720040.94967651 55161060.894928932 0 55161060.894928932 -26635135.813151717 0 0 0 0 -178063496.49371624 82537446.871728778 0 82537446.871728778 150552407.28161907 0 0 0 0 -100122417.19029045 -22978568.655536592 0 -22978568.655536592 -8420302.8914208412 0 0 0 0 -630542980.62253571 20691162.115241051 0 20691162.115241051 258538916.74623299 0 0 0 0 -235674804.1174674 10642219.552158862 0 10642219.552158862 67765103.783223629 0 0 0 0 -340074302.43618011 -378207789.20668364 0 -378207789.20668364 -892184996.77066541 0 0 0 0 -779007615.93828583 300654387.64035451 0 300654387.64035451 -136136799.26290131 0 0 0 0 192874885.4369812 -117242599.98406827 0 -117242599.98406827 -195803958.95992947 0 0 0 0 509161.65406131744 -2007638.7250443697 0 -2007638.7250443697 -2549849.2330684662 0 0 0 0 382781.84596076095 -676300.59146656189 0 -676300.59146656189 -3414842.4209469268 0 0 0 0 -478481800.75094986 -230469372.73980808 0 -230469372.73980808 34888825.358959913 0 0 0 0 -894033495.59365845 -295013577.65319312 0 -295013577.65319312 125312336.06068194 0 0 0 0 -1523458.437029358 -663663.16437007044 0 -663663.16437007044 -344615.59198565839 0 0 0 0 -242838761.53576088 -462490269.02494115 0 -462490269.02494115 -600783400.40378642 0 0 0 0 -82473674.820856094 -89359387.730443656 0 -89359387.730443656 -58465782.963659823 0 0 0 0 19753962.671665192 -17771778.9583956 0 -17771778.9583956 -91266916.106248379 0 0 0 0 19418413.226634979 -4058598.5906264782 0 -4058598.5906264782 -1645674.72732234 0 0 0 0 -384478928.26255345 -232299565.06367773 0 -232299565.06367773 20094816.861080647 0 0 0 0 -578628931.00279617 -301067839.12770844 0 -301067839.12770844 -26479133.078752995 0 0 0 0 -389243799.27343082 -199194918.7852383 0 -199194918.7852383 20851669.942762375 0 0 0 0 -632414343.0038414 -226126662.77568603 0 -226126662.77568603 160719654.31770277 0 0 0 0 -688902875.35500908 151626132.95824218 0 151626132.95824218 62239829.27692771 0 0 0 0 -950127768.13597202 -336184106.84496313 0 -336184106.84496313 131447235.88444138 0 0 0 0 -356169353.29516602 -365005930.07243705 0 -365005930.07243705 -68349753.315844178 0 0 0 0 -619164202.23123169 -198225108.9964329 0 -198225108.9964329 155687276.9793148 0 0 0 0 2691501.7780094147 -768528.90064167976 0 -768528.90064167976 -1761943.5978336334 0 0 0 0 25356529.816368103 -17523898.747476816 0 -17523898.747476816 6722399.1171188354 0 0 0 0 2022305.1532478333 -1358708.1649093628 0 -1358708.1649093628 -2323938.7933559418 0 0 0 0 -188641.39214485977 -996422.2639055457 0 -996422.2639055457 -2248193.5841661734 0 0 0 0 3377021.2352485657 -1536891.0907132626 0 -1536891.0907132626 -2964581.9111881256 0 0 0 0 5374295.6307678223 1906714.9399909973 0 1906714.9399909973 -1437412.5272692442 0 0 0 0 4407222.9864406586 -423407.11095714569 0 -423407.11095714569 -2616717.0589733124 0 0 0 0 3356123.3909759521 244020.82986879349 0 244020.82986879349 -679378.98829174042 0 0 0 0 -1373340443.711525 -99130047.799471855 0 -99130047.799471855 64568544.453435659 0 0 0 0 -888892990.09430695 -268448893.28711843 0 -268448893.28711843 139668712.97530866 0 0 0 0 -810071458.79863739 -191043778.24513769 0 -191043778.24513769 -87754233.22473526 0 0 0 0 -178861.70060883369 -78294.47916097194 0 -78294.47916097194 -44961.869208796415 0 0 0 0 -583427543.18968201 -276004692.85968399 0 -276004692.85968399 -78610244.770453453 0 0 0 0 76154.84687667992 -181529.84477427416 0 -181529.84477427416 -725085.38147751894 0 0 0 0 -751963849.76080275 -66630764.159313381 0 -66630764.159313381 -326540876.44194984 0 0 0 0 -630019201.2033577 -533549770.93236732 0 -533549770.93236732 -290622084.55879307 0 0 0 0 -1185651016.8004646 -423632553.04465175 0 -423632553.04465175 -17911963.052089214 0 0 0 0 -2865787.3861627579 -26569689.343200862 0 -26569689.343200862 -214937009.11706018 0 0 0 0 -635420.79086704645 -469918.58378432225 0 -469918.58378432225 73988.75446086796 0 0 0 0 -648685190.32049036 -395158469.24525964 0 -395158469.24525964 -124216229.70568419 0 0 0 0 -763438.68651888147 56954.076342018321 0 56954.076342018321 371417.16924068378 0 0 0 0 -130707822.29382324 -68994888.74591732 0 -68994888.74591732 -19763901.912361145 0 0 0 0 -171116730.05985451 -131655118.02594185 0 -131655118.02594185 11648371.037592649 0 0 0 0 -779061928.15575957 -171547504.80776674 0 -171547504.80776674 -44301258.575645924 0 0 0 0 -283665605.20169067 -422198020.88210535 0 -422198020.88210535 -61293967.398705453 0 0 0 0 22617436.015093803 71705648.637339875 0 71705648.637339875 3806109.4420595169 0 0 0 0 -1404652.276802063 -30390731.276493192 0 -30390731.276493192 -26408677.628930509 0 0 0 0 16860399.720620155 15506131.873238206 0 15506131.873238206 -14776774.25832653 0 0 0 0 -98219690.537353516 184526360.13375545 0 184526360.13375545 -153475923.72174549 0 0 0 0 -390894006.82326508 -116760848.13977385 0 -116760848.13977385 89097808.942089558 0 0 0 0 -1243093.2479736172 62929.775586429983 0 62929.775586429983 -805971.9445115875 0 0 0 0 -299109538.36710739 -125237646.03957939 0 -125237646.03957939 -174037928.33259869 0 0 0 0 -3873709.1142292023 -1158003.7343072891 0 -1158003.7343072891 -7286888.7016968727 0 0 0 0 14617390.892770767 -7915192.6439552307 0 -7915192.6439552307 -6006872.7315015793 0 0 0 0 -1180609.9729194641 -8572665.7837405205 0 -8572665.7837405205 -4501232.0121049881 0 0 0 0 -9602848.6472139359 -19800737.702625036 0 -19800737.702625036 6069619.3270816803 0 0 0 0 -6651025.8884706497 -15452040.215840816 0 -15452040.215840816 -1532384.5199899673 0 0 0 0 -11303080.4688797 -11443729.407785654 0 -11443729.407785654 1678918.6845598221 0 0 0 0 -3323847.7517518997 -16424045.905127406 0 -16424045.905127406 3500823.1639308929 0 0 0 0 2965865.380569458 -19399141.40764904 0 -19399141.40764904 2022418.4367351532 0 0 0 0 -4169712.7543468475 -17654905.67148757 0 -17654905.67148757 3962873.2640886307 0 0 0 0 4022233.4910545349 -26771331.920568943 0 -26771331.920568943 12310810.055845141 0 0 0 0 2920004.3795471191 -16253476.21131897 0 -16253476.21131897 3276831.835313797 0 0 0 0 2526612.3000664711 -13071846.444965661 0 -13071846.444965661 -3833536.3711853027 0 0 0 0 22416822.448787689 -28344978.197391033 0 -28344978.197391033 -4407674.7154426575 0 0 0 0 14211875.206018448 -19118058.710778713 0 -19118058.710778713 -3427081.6232194901 0 0 0 0 58891249.88109684 17061235.270694971 0 17061235.270694971 -20260505.782899857 0 0 0 0 3018692.765958786 15842465.161251068 0 15842465.161251068 -12401084.395782471 0 0 0 0 -649824.29915900156 -175564.18450709153 0 -175564.18450709153 326727.95482884999 0 0 0 0 -2070348.2627696991 8590003.3258545399 0 8590003.3258545399 517441.81924676895 0 0 0 0 -170093495.04851532 -162614501.23965311 0 -162614501.23965311 -62765945.741544008 0 0 0 0 -122372571.72500825 -96229969.205910921 0 -96229969.205910921 -94029317.292479515 0 0 0 0 3210249.570930481 960414.43055295944 0 960414.43055295944 250499.93165934086 0 0 0 0 5556546.061873436 621409.19591337442 0 621409.19591337442 -3431578.7288722992 0 0 0 0 3548725.6338443756 2815760.4250206947 0 2815760.4250206947 -9723226.9474167824 0 0 0 0 14538193.20424635 7612417.1692193374 0 7612417.1692193374 -7634908.4922742844 0 0 0 0 3411049.1098146439 2431578.2978158593 0 2431578.2978158593 -3190153.7747907639 0 0 0 0 5223008.0526714325 2951183.0974216461 0 2951183.0974216461 -12942945.79306221 0 0 0 0 2448758.8603343964 -4009708.9421977997 0 -4009708.9421977997 -10607194.208517075 0 0 0 0 5055260.8696517944 -755884.23929786682 0 -755884.23929786682 -7702384.3574004173 0 0 0 0 4218284.8806495667 -543714.37963438034 0 -543714.37963438034 -2366629.7731137276 0 0 0 0 4115893.4914894104 -4303790.7810964584 0 -4303790.7810964584 -4198467.8619065285 0 0 0 0 1988439.0610980988 -3671237.9839224815 0 -3671237.9839224815 -2436406.453578949 0 0 0 0 4907682.6569595337 -14471472.12807703 0 -14471472.12807703 -376600.09720277786 0 0 0 0 4142355.7947363853 -3833823.8972337246 0 -3833823.8972337246 -11778091.470858574 0 0 0 0 14026550.859327316 -5105308.3514032364 0 -5105308.3514032364 -22337720.633201599 0 0 0 0 -39782689.57901001 -8213314.4745745659 0 -8213314.4745745659 -7537275.3801870346 0 0 0 0 -9654880.6916255951 10741897.691346407 0 10741897.691346407 -19273386.314012527 0 0 0 0 -15929210.525268555 -1897975.9514117241 0 -1897975.9514117241 -5991351.8476057053 0 0 0 0 -11475538.896997809 -22787279.0987553 0 -22787279.0987553 -8062052.7809715271 0 0 0 0 -10856607.36207962 -15215264.248485565 0 -15215264.248485565 -14559175.727075577 0 0 0 0 -20349519.36214447 -20859424.025430679 0 -20859424.025430679 -3648756.7037382126 0 0 0 0 -31238550.777288437 -30510800.725749016 0 -30510800.725749016 -23301974.136752129 0 0 0 0 -47899952.069507599 7786341.4191455841 0 7786341.4191455841 53103692.093551636 0 0 0 0 -233111.91393788718 -283583.44969526399 0 -283583.44969526399 74584.568257401232 0 0 0 0 -41995.0077119302 -1561182.9036318217 0 -1561182.9036318217 -295894.7313216328 0 0 0 0 -36331716.480865479 -7256854.3467674255 0 -7256854.3467674255 33659169.015071869 0 0 0 0 -947100.15744400024 -22627730.290770054 0 -22627730.290770054 -49919148.151569366 0 0 0 0 -41533369.315107703 -26403995.020043075 0 -26403995.020043075 20927990.461621284 0 0 0 0 -43038933.773518562 -12747645.653994799 0 -12747645.653994799 5237945.426153183 0 0 0 0 -28920495.96145916 -34988330.626086473 0 -34988330.626086473 19632024.526917458 0 0 0 0 -29982145.276902199 -26986464.917617321 0 -26986464.917617321 -9680175.9223098755 0 0 0 0 -14817422.885860443 -27274856.294657707 0 -27274856.294657707 -22983401.401395798 0 0 0 0 -27401012.101131439 -64543239.851610661 0 -64543239.851610661 -37416933.297937393 0 0 0 0 -32491496.115097046 -62622672.679555893 0 -62622672.679555893 -10686099.030422211 0 0 0 0 -14804591.508895874 -55197763.680725098 0 -55197763.680725098 -69564534.175870895 0 0 0 0 -80681704.90795517 30598302.665500641 0 30598302.665500641 51724196.503290176 0 0 0 0 -99033.842300637625 -405977.63213174162 0 -405977.63213174162 -197955.04981770925 0 0 0 0 -114953001.02924538 20508073.557486057 0 20508073.557486057 60417869.488337517 0 0 0 0 3147893.9504051208 -15753606.991041183 0 -15753606.991041183 -86352725.755325317 0 0 0 0 -11731685.764223099 -27234240.750254154 0 -27234240.750254154 -35319288.794021606 0 0 0 0 1577147.9482345581 2709840.2309622765 0 2709840.2309622765 -33668576.289522171 0 0 0 0 -325995.57359633967 -1104224.7196062678 0 -1104224.7196062678 -397216.25943925418 0 0 0 0 833370.33009910583 -2289846.8654580116 0 -2289846.8654580116 -2478142.8509101868 0 0 0 0 20312516.627361298 7928235.1068401337 0 7928235.1068401337 6010129.0571775436 0 0 0 0 -1715984.7710571289 -3140447.1477351189 0 -3140447.1477351189 -2169622.239844799 0 0 0 0 -1042879.3287010193 -5841823.676109314 0 -5841823.676109314 8003581.0830526352 0 0 0 0 -370733.0884840982 -653378.0628562076 0 -653378.0628562076 -42629.145626007346 0 0 0 0 -64342068.551184416 51845626.078115463 0 51845626.078115463 34666872.041296959 0 0 0 0 50092500.280200958 -52960288.560653687 0 -52960288.560653687 -60026714.836751461 0 0 0 0 36474728.517503738 17586317.877049923 0 17586317.877049923 -68494420.604809761 0 0 0 0 18819017.700149536 -32865792.06831646 0 -32865792.06831646 16501426.205433846 0 0 0 0 16640923.64201355 -498528.56836128235 0 -498528.56836128235 -372535.12952518463 0 0 0 0 38715889.977478027 2920666.3874650002 0 2920666.3874650002 -1959532.9903964996 0 0 0 0 4376455.6923694611 452173.27643299103 0 452173.27643299103 -1349961.9434986115 0 0 0 0 1329339.2670173645 466572.84840106964 0 466572.84840106964 1922741.5715551376 0 0 0 0 -22492.731019051746 -1033603.3689289116 0 -1033603.3689289116 -900096.81871692184 0 0 0 0 -902397.642578125 2475244.5403594971 0 2475244.5403594971 795266.07746315002 0 0 0 0 1729913.6217546463 401678.31365466118 0 401678.31365466118 -7735264.2925662994 0 0 0 0 -7629997.8040733337 -11840305.110215187 0 -11840305.110215187 -11343847.619528532 0 0 0 0 -3910366.3459281921 -2595872.1747817993 0 -2595872.1747817993 -314024.50239038467 0 0 0 0 3592349.3157958984 2121654.7102584839 0 2121654.7102584839 -4552613.1738090515 0 0 0 0 -17050161.02028656 32122817.55385685 0 32122817.55385685 -38772273.341369748 0 0 0 0 18776637.735753059 -63117140.37141037 0 -63117140.37141037 -26938346.843482971 0 0 0 0 -58825410.268431664 32725527.366075993 0 32725527.366075993 50471141.69213295 0 0 0 0 -87129726.355083466 20898404.919284821 0 20898404.919284821 59359508.868847847 0 0 0 0 -98238.656894000247 -302076.73530933913 0 -302076.73530933913 -242550.77358767088 0 0 0 0 -16562418.608884811 -20646254.518678665 0 -20646254.518678665 -24429972.371340513 0 0 0 0 -66611273.111831665 -22656420.226828575 0 -22656420.226828575 1282482.3383970261 0 0 0 0 -28065570.04690361 -12404534.714887619 0 -12404534.714887619 3436864.6365969181 0 0 0 0 -85895928.830897331 19075922.26519227 0 19075922.26519227 17406395.358211517 0 0 0 0 -22656670.448177338 20030710.010478973 0 20030710.010478973 11664392.435502052 0 0 0 0 -21596094.773553848 4268427.2763180733 0 4268427.2763180733 5002141.124900341 0 0 0 0 -45199575.787311554 6462287.5757641792 0 6462287.5757641792 8007438.2253084183 0 0 0 0 -18001865.400103569 -6796788.229085207 0 -6796788.229085207 1785587.4921503067 0 0 0 0 -22885217.322494507 -6728397.377869606 0 -6728397.377869606 1856270.8435688019 0 0 0 0 -23174527.19124794 -3331004.5155854225 0 -3331004.5155854225 3959483.3178043365 0 0 0 0 -18535766.840778351 -3837590.3514108658 0 -3837590.3514108658 2306901.6717166901 0 0 0 0 -16692087.734178543 -1558522.9960289001 0 -1558522.9960289001 1033571.0780687332 0 0 0 0 -22003101.283223629 300426.66393840313 0 300426.66393840313 790254.40579032898 0 0 0 0 -18929397.971351624 -3486949.1752562523 0 -3486949.1752562523 -610576.06816673279 0 0 0 0 -18987461.762879372 -3829707.0823535919 0 -3829707.0823535919 2365779.0537796021 0 0 0 0 -17763758.10181427 -4570520.2593536377 0 -4570520.2593536377 234313.9422492981 0 0 0 0 -19202628.592370749 -4288119.8786916733 0 -4288119.8786916733 370024.38133621216 0 0 0 0 -18101625.122589111 -4990672.8271617889 0 -4990672.8271617889 -2501828.5595269203 0 0 0 0 -11007681.785305023 5129744.4906474352 0 5129744.4906474352 17022976.634296179 0 0 0 0 -19121880.32673645 -5286516.9925136566 0 -5286516.9925136566 -387116.14128983021 0 0 0 0 -9931028.5879545156 2380152.5550906025 0 2380152.5550906025 5585311.5017273929 0 0 0 0 -150156160.44412994 44264743.02154541 0 44264743.02154541 36996067.128708839 0 0 0 0 -46068848.394889832 -19237793.486849785 0 -19237793.486849785 17965663.676933289 0 0 0 0 -56940801.478660583 -25420065.841327667 0 -25420065.841327667 26501453.372341156 0 0 0 0 -128623330.30258703 -44083206.556990623 0 -44083206.556990623 24171096.961090088 0 0 0 0 -56080604.271186829 -19070891.598283768 0 -19070891.598283768 18015201.17310667 0 0 0 0 -62303863.727283478 39460882.93445015 0 39460882.93445015 36499785.914588928 0 0 0 0 -54383425.542137146 1961777.9973602295 0 1961777.9973602295 31142135.94975853 0 0 0 0 -101888053.07354355 -10443396.61652565 0 -10443396.61652565 30962208.456787109 0 0 0 0 -19612787.156499863 -2611965.1091880798 0 -2611965.1091880798 901251.23775100708 0 0 0 0 -14614654.291660309 -1823203.3247671127 0 -1823203.3247671127 393282.28463745117 0 0 0 0 -17930202.541538239 -3203689.1492815018 0 -3203689.1492815018 1691567.8443260193 0 0 0 0 -12846800.026752472 -2706760.2117681503 0 -2706760.2117681503 -326863.84844970703 0 0 0 0 -15104969.861980438 -4525702.6159105301 0 -4525702.6159105301 1382838.4480743408 0 0 0 0 -12320334.17735672 -3984595.3196396828 0 -3984595.3196396828 867090.54123306274 0 0 0 0 -2660713.6984586539 697271.62681480311 0 697271.62681480311 534699.98647579737 0 0 0 0 -161732643.60190129 64506703.344783485 0 64506703.344783485 -22007024.150651932 0 0 0 0 686723.79888961557 155042.72111433093 0 155042.72111433093 -827911.43415385019 0 0 0 0 -167643330.24963188 -2808191.5389127731 0 -2808191.5389127731 -35124379.291080475 0 0 0 0 -15343558.726638794 -60615792.080523968 0 -60615792.080523968 26416982.599873304 0 0 0 0 -12404248.342287064 -3383446.7688140869 0 -3383446.7688140869 1505899.1396660805 0 0 0 0 -12466943.83874321 -889208.53056669235 0 -889208.53056669235 3496646.4904614836 0 0 0 0 -14076694.964698792 -3422043.8875637054 0 -3422043.8875637054 1360347.7504885197 0 0 0 0 -17316509.184406281 -5310447.3101463318 0 -5310447.3101463318 1888422.5134925842 0 0 0 0 -14210730.762439728 -3616064.8710870743 0 -3616064.8710870743 3423484.6641368866 0 0 0 0 -110760238.5828743 35738915.460349202 0 35738915.460349202 17124296.045320511 0 0 0 0 -1075754.2879565652 558015.16876825644 0 558015.16876825644 -862775.95464503672 0 0 0 0 393181.93614768982 -4443281.8968964815 0 -4443281.8968964815 -4302859.3685808182 0 0 0 0 -61465922.246623993 -1288336.0117673874 0 -1288336.0117673874 2065299.0617847443 0 0 0 0 1092374.1277051978 222463.89891868131 0 222463.89891868131 -1391281.6887315866 0 0 0 0 -57866733.199220657 10951731.861600637 0 10951731.861600637 -3276634.6278896332 0 0 0 0 -81714862.793182373 33998456.646921158 0 33998456.646921158 12113655.108305454 0 0 0 0 -58070257.692978144 9265567.6880303621 0 9265567.6880303621 16996379.546518326 0 0 0 0 -57664974.165185928 40721803.133553505 0 40721803.133553505 -18028889.963212967 0 0 0 0 -49810882.558891296 25066050.546640396 0 25066050.546640396 20270916.569717646 0 0 0 0 -82774930.593978882 -69703240.744812489 0 -69703240.744812489 -92281682.66777873 0 0 0 0 -180067551.1187439 -49113604.692228317 0 -49113604.692228317 -21859062.652468681 0 0 0 0 -97176955.485961914 38251431.270141125 0 38251431.270141125 -16069214.296985984 0 0 0 0 -106096118.58665657 26093419.958408833 0 26093419.958408833 47905528.684793472 0 0 0 0 -93554678.895204544 -429926.18296813965 0 -429926.18296813965 41353262.595804214 0 0 0 0 -70256076.616859436 8937429.3151340485 0 8937429.3151340485 -4402408.3527519703 0 0 0 0 26853861.6771698 -13095401.130996704 0 -13095401.130996704 33548861.554280996 0 0 0 0 -94301170.105991364 15420392.369923592 0 15420392.369923592 50714291.219871521 0 0 0 0 -105399737.09346771 35336875.631711006 0 35336875.631711006 53735527.067316055 0 0 0 0 -290006921.20124054 -8533981.7554454803 0 -8533981.7554454803 50450561.370073318 0 0 0 0 -59144357.482336044 17014641.763859749 0 17014641.763859749 40673029.483961105 0 0 0 0 -60141006.556705475 21657667.857501507 0 21657667.857501507 72670924.998902321 0 0 0 0 4583458.4023857117 -33094162.231573582 0 -33094162.231573582 3291905.9785766602 0 0 0 0 -4500847.4646558762 6615686.3883597851 0 6615686.3883597851 10693764.7877388 0 0 0 0 -63480537.030509949 -28772245.922037125 0 -28772245.922037125 17946144.86028862 0 0 0 0 -66818266.334814072 12559195.632693291 0 12559195.632693291 37691201.606664658 0 0 0 0 -92058899.276091576 10987691.558450699 0 10987691.558450699 55609467.034822464 0 0 0 0 -81106548.996437073 13260186.990870476 0 13260186.990870476 37820193.766387343 0 0 0 0 -93111691.773378372 -64970626.512094498 0 -64970626.512094498 6309386.7539253235 0 0 0 0 -165848477.61186218 -5450865.2088108063 0 -5450865.2088108063 53782481.711196423 0 0 0 0 -4958782.0435791016 -54701754.980642319 0 -54701754.980642319 2080317.883731842 0 0 0 0 -23371744.440856934 -15050948.978975296 0 -15050948.978975296 16295140.506309509 0 0 0 0 -32036959.429309845 -27252790.358436584 0 -27252790.358436584 14798139.450526237 0 0 0 0 -31584400.088208199 -26853769.23081398 0 -26853769.23081398 5546952.053150177 0 0 0 0 -36573519.833003998 -29495335.518169403 0 -29495335.518169403 11379899.729025841 0 0 0 0 -26496364.82673645 -20792350.890922546 0 -20792350.890922546 6269422.6519021988 0 0 0 0 -38843196.719451904 -15404343.243795395 0 -15404343.243795395 18639380.353813171 0 0 0 0 -20548704.537204742 -13666174.613279343 0 -13666174.613279343 17690476.411956787 0 0 0 0 -31862400.912324905 -5590816.4932985306 0 -5590816.4932985306 20684888.574352264 0 0 0 0 -183723.18552398682 -17842219.622659683 0 -17842219.622659683 14465099.775762558 0 0 0 0 -24008535.361831665 -23570671.904417038 0 -23570671.904417038 21574421.989517212 0 0 0 0 -999347.03838403127 29740.965079864487 0 29740.965079864487 -34223.195424450561 0 0 0 0 -217520859.97960854 -80386496.110585213 0 -80386496.110585213 -30792243.703826904 0 0 0 0 50677406.686950684 -36693374.15372467 0 -36693374.15372467 -3936226.7810134888 0 0 0 0 -936554.65191966482 180581.06811330817 0 180581.06811330817 514815.65970534086 0 0 0 0 677251.39652919769 -14762077.652447701 0 -14762077.652447701 21587351.487388611 0 0 0 0 -224291510.72544479 125719341.55402565 0 125719341.55402565 97925263.274618149 0 0 0 0 -121111379.01379204 -108300563.61298227 0 -108300563.61298227 -262514595.48210907 0 0 0 0 -9565186.8552360535 -1192163.8374786377 0 -1192163.8374786377 5602263.7371873856 0 0 0 0 -3228727.3224202432 2033112.1390490308 0 2033112.1390490308 2629080.1409926005 0 0 0 0 -17747971.059715271 -10318943.985708237 0 -10318943.985708237 14784965.128204346 0 0 0 0 -9266906.9473364577 -3657277.7371530663 0 -3657277.7371530663 2776502.7135128658 0 0 0 0 -13038181.737063408 -8538907.7358484268 0 -8538907.7358484268 14454195.676715851 0 0 0 0 -3787286.2819900513 -21853626.21521759 0 -21853626.21521759 21770381.279077768 0 0 0 0 -5304927.7998838779 -3118590.7003383921 0 -3118590.7003383921 889261.97892763373 0 0 0 0 -4937261.0382728577 -24194199.779064178 0 -24194199.779064178 18439766.762412071 0 0 0 0 657434.29834732227 -1080159.2211715193 0 -1080159.2211715193 -1767171.4892529584 0 0 0 0 31265000.743533134 -77818161.157971263 0 -77818161.157971263 81675097.262345314 0 0 0 0 31337845.803222656 -75394472.271070004 0 -75394472.271070004 113053923.90878868 0 0 0 0 -36153033.591302872 78366113.144418716 0 78366113.144418716 -14269038.965139389 0 0 0 0 41283200.542190552 -102069812.54103374 0 -102069812.54103374 -60237202.160024643 0 0 0 0 -280180962.50563431 -6067665.2111041546 0 -6067665.2111041546 56136422.577898026 0 0 0 0 445241.06065080129 -510641.32263052859 0 -510641.32263052859 -936503.99962881487 0 0 0 0 67423816.337687492 -26603861.253581047 0 -26603861.253581047 -35627883.770626068 0 0 0 0 31211284.93474865 4363966.690772295 0 4363966.690772295 -25257673.566238403 0 0 0 0 -6556871.0499839783 -42003604.717018127 0 -42003604.717018127 -15215075.548030853 0 0 0 0 47574302.857177734 -39082527.626738548 0 -39082527.626738548 -43253043.390081406 0 0 0 0 -7397333.3375786543 -79655396.834964007 0 -79655396.834964007 8810672.2806777954 0 0 0 0 -113404796.13435364 -153729866.45199394 0 -153729866.45199394 -42936427.227935314 0 0 0 0 -104974182.84661484 -47266167.893835068 0 -47266167.893835068 16695950.635669708 0 0 0 0 -29059979.141194344 -25628112.125617981 0 -25628112.125617981 -1753630.4657173157 0 0 0 0 -32499569.009228706 -30715490.269364834 0 -30715490.269364834 20033239.193695068 0 0 0 0 3672334.6157484055 -15702086.208073139 0 -15702086.208073139 -7705952.451713562 0 0 0 0 -3503235.6865272522 -33482716.03736496 0 -33482716.03736496 -10222680.974608421 0 0 0 0 -9013628.4748916626 1209785.1720805168 0 1209785.1720805168 2898978.1488394737 0 0 0 0 -6663315.9020100087 225211.47142481618 0 225211.47142481618 3440309.0052391086 0 0 0 0 -7802650.1883850098 -796170.12977766991 0 -796170.12977766991 3597445.216835022 0 0 0 0 -4393984.2599177361 -4152105.7780725956 0 -4152105.7780725956 4381811.2905712128 0 0 0 0 -4779674.6162037849 -1152885.6787713766 0 -1152885.6787713766 633176.01440048218 0 0 0 0 -5597315.3170626909 892395.615205504 0 892395.615205504 5480542.2820868585 0 0 0 0 -26191810.188009262 14296332.550188065 0 14296332.550188065 27138653.248781204 0 0 0 0 -321848479.49643326 -54014386.373775482 0 -54014386.373775482 166590293.89065933 0 0 0 0 -80729355.467662811 20586914.901535034 0 20586914.901535034 109362170.43651962 0 0 0 0 -48376973.061929703 -13858915.476476669 0 -13858915.476476669 2601042.0683937073 0 0 0 0 -14143152.22977066 4578643.354167223 0 4578643.354167223 9622597.1862666905 0 0 0 0 -8108566.1581497192 2282979.7585697174 0 2282979.7585697174 9667354.2640204653 0 0 0 0 -15082453.398947239 -5253590.9267189205 0 -5253590.9267189205 17320257.924660683 0 0 0 0 -49508786.624397278 -13086789.71987915 0 -13086789.71987915 10354354.1299119 0 0 0 0 -8980473.6344223022 -3005068.8765845299 0 -3005068.8765845299 11886115.64682579 0 0 0 0 -8525226.2046068944 -1616691.6128057847 0 -1616691.6128057847 3620221.0885152454 0 0 0 0 -5297182.9147071838 -1981795.4299592972 0 -1981795.4299592972 5497639.6942679882 0 0 0 0 -16217125.417129517 2410112.9737796783 0 2410112.9737796783 3463456.03125453 0 0 0 0 -9481740.2905883789 2094830.5671987534 0 2094830.5671987534 4056604.1779956818 0 0 0 0 -4871282.3835792542 1076028.1852684021 0 1076028.1852684021 -386601.69730186462 0 0 0 0 -6068526.1610900126 -1821845.9339379426 0 -1821845.9339379426 2228288.7934505427 0 0 0 0 -3577034.7269298881 1932651.8327517156 0 1932651.8327517156 1934263.2286161282 0 0 0 0 -10104745.872714996 -247433.76194262505 0 -247433.76194262505 5529764.7040114403 0 0 0 0 -8494020.9187945127 -27394328.222417213 0 -27394328.222417213 11165715.074235916 0 0 0 0 8711493.5682830811 1812334.2453184128 0 1812334.2453184128 -5261839.5917596817 0 0 0 0 7379618.3511199951 6861237.9826922417 0 6861237.9826922417 -9145222.9536774158 0 0 0 0 11443568.872665405 4350177.488877058 0 4350177.488877058 -10602599.003740311 0 0 0 0 -6169472.1837100983 16569859.351090193 0 16569859.351090193 8291450.9504241943 0 0 0 0 9478707.4793243408 66367.244957923889 0 66367.244957923889 -1600940.8514680862 0 0 0 0 9941753.5036773682 10336708.870210171 0 10336708.870210171 -20619342.458395958 0 0 0 0 137321.06283857487 2797.9444631673396 0 2797.9444631673396 -132979.47804144491 0 0 0 0 -92724785.050443649 -35429721.84978497 0 -35429721.84978497 19721298.890863895 0 0 0 0 -4804804.0982971191 -13346205.472136497 0 -13346205.472136497 -1336306.4358189106 0 0 0 0 -71003668.111049652 22206837.072039366 0 22206837.072039366 21902426.942472935 0 0 0 0 -34273589.696121216 -18865305.806821585 0 -18865305.806821585 30284328.628366947 0 0 0 0 -19029312.958694458 -42426506.046093941 0 -42426506.046093941 -48912560.827991009 0 0 0 0 -3029942.5929880738 2411031.9044724307 0 2411031.9044724307 2926983.3397534229 0 0 0 0 -9598805.6124267578 15655293.795161605 0 15655293.795161605 26684150.207118034 0 0 0 0 17696675.233623505 27718515.257817268 0 27718515.257817268 -12577968.727687836 0 0 0 0 -4422170.6882514954 8901927.1060571671 0 8901927.1060571671 13188340.590177536 0 0 0 0 -6016516.5000474527 4207836.4224717133 0 4207836.4224717133 6463252.714232875 0 0 0 0 -2367244.5872344971 6927466.267783761 0 6927466.267783761 2650480.3498239517 0 0 0 0 -5532237.5309181213 7888289.7396657467 0 7888289.7396657467 12821372.336144686 0 0 0 0 -5201402.1521263123 11388757.248234868 0 11388757.248234868 17178876.659455299 0 0 0 0 -10705740.985247251 1929153.9494033409 0 1929153.9494033409 7613308.5872767735 0 0 0 0 -4064286.1269264221 9667038.7686124444 0 9667038.7686124444 12421198.679156065 0 0 0 0 -4212519.4301166534 9999133.9634926319 0 9999133.9634926319 14275773.367331028 0 0 0 0 -21681891.489513397 -4537701.959104538 0 -4537701.959104538 -821045.57868385315 0 0 0 0 -40358615.544647217 14092321.000635624 0 14092321.000635624 18983389.921581268 0 0 0 0 -7449496.8613730688 -1373939.7653493853 0 -1373939.7653493853 3118515.1312850835 0 0 0 0 -20544292.495998383 -6389712.2827110291 0 -6389712.2827110291 -2568711.6265341938 0 0 0 0 -46803228.991693616 6950854.2451265454 0 6950854.2451265454 19614827.436714172 0 0 0 0 -46680836.485570908 4169564.41564399 0 4169564.41564399 26269755.603809357 0 0 0 0 -41547546.200958252 2522074.167930603 0 2522074.167930603 22905429.124443054 0 0 0 0 -31904088.963752747 -5636344.4570159912 0 -5636344.4570159912 20652238.300304413 0 0 0 0 -35994307.534301758 -8522681.7136106491 0 -8522681.7136106491 21573931.831893921 0 0 0 0 -48904722.263801575 -6856706.0733261108 0 -6856706.0733261108 22098754.285808563 0 0 0 0 -43634887.706111193 6636100.4284498692 0 6636100.4284498692 12242725.951568604 0 0 0 0 -41189075.301170349 2657041.7959823608 0 2657041.7959823608 18514943.48141861 0 0 0 0 -43232004.166168213 3062825.9763717651 0 3062825.9763717651 22735741.602838516 0 0 0 0 -33223495.737892151 -476967.90147399902 0 -476967.90147399902 18778445.87374115 0 0 0 0 -40641074.997138977 5240067.8497600555 0 5240067.8497600555 16168931.471595764 0 0 0 0 -6939090.0712585449 1443223.5188627243 0 1443223.5188627243 3504198.3838787079 0 0 0 0 -31149560.234886169 2992613.8740196228 0 2992613.8740196228 11276083.521778107 0 0 0 0 -8352148.5450483598 815655.69636188261 0 815655.69636188261 5927201.8027168708 0 0 0 0 -27833041.442939758 1778662.1499576569 0 1778662.1499576569 11473821.969408035 0 0 0 0 -17513897.371842027 -2940608.0807715356 0 -2940608.0807715356 13295282.696434021 0 0 0 0 -21814095.150924683 -12853682.804117203 0 -12853682.804117203 19215614.469189644 0 0 0 0 -22782440.060173035 -2624338.2817974091 0 -2624338.2817974091 12501767.060506821 0 0 0 0 -4961617.9132995605 -1151828.4875888824 0 -1151828.4875888824 -230420.37726593018 0 0 0 0 1783750.6731262207 4377266.4907083511 0 4377266.4907083511 14811408.34313941 0 0 0 0 -5251794.4345319085 1798287.9316898398 0 1798287.9316898398 2670529.106742599 0 0 0 0 -42895916.433521271 -479631.30141067505 0 -479631.30141067505 2242218.10912323 0 0 0 0 -7992420.7792440616 -251600.06733384449 0 -251600.06733384449 4225848.6265149601 0 0 0 0 -1700107.6267941538 1176560.1142525235 0 1176560.1142525235 1906851.2146948688 0 0 0 0 -15031032.762924194 -7898071.4734344482 0 -7898071.4734344482 -1809421.8349494934 0 0 0 0 -12521343.799517825 1519167.1604399243 0 1519167.1604399243 8578618.8770968914 0 0 0 0 -5533435.893699646 -401273.84177780151 0 -401273.84177780151 3986049.0889282227 0 0 0 0 -8094002.58640269 2130563.5817135568 0 2130563.5817135568 7509464.4222024558 0 0 0 0 -16456672.847438812 174805810.97631192 0 174805810.97631192 -1288100.2937583923 0 0 0 0 -327490074.23979187 69687269.879731178 0 69687269.879731178 41138942.834022522 0 0 0 0 -107267389.61655045 84111483.883128166 0 84111483.883128166 -12512885.412771225 0 0 0 0 -3251105.0454025269 10859106.956315994 0 10859106.956315994 29320365.537396908 0 0 0 0 -412439.90900238231 762855.31909312122 0 762855.31909312122 373318.30018496793 0 0 0 0 -419525618.04418182 -55075965.10500145 0 -55075965.10500145 26928206.488278389 0 0 0 0 57833576.6674757 64769080.010036707 0 64769080.010036707 6636746.4655399323 0 0 0 0 -210882450.33781433 143494085.40700817 0 143494085.40700817 50192652.35167408 0 0 0 0 -124057032.06181812 8685936.3402446508 0 8685936.3402446508 -23566015.832238197 0 0 0 0 -866075.0980474744 1534449.0977163762 0 1534449.0977163762 862676.51479854994 0 0 0 0 -282447075.06721878 39022683.572356701 0 39022683.572356701 49878325.983502865 0 0 0 0 14394851.71414423 20628888.297030687 0 20628888.297030687 -5893547.8025665283 0 0 0 0 -108484720.69205856 -69553555.22409153 0 -69553555.22409153 -25935891.503354549 0 0 0 0 -171235193.35069084 -127333292.50913811 0 -127333292.50913811 41313212.935066223 0 0 0 0 -463701816.24128342 -268573404.22578192 0 -268573404.22578192 -24556887.14055872 0 0 0 0 -524531387.623909 39686783.612131596 0 39686783.612131596 80183835.233956814 0 0 0 0 -170022669.20673752 -109363447.69046688 0 -109363447.69046688 -19597584.643691182 0 0 0 0 -172192349.46825409 -121283245.76305103 0 -121283245.76305103 21080518.261763573 0 0 0 0 10682993.229265213 -12814681.549190521 0 -12814681.549190521 -37937149.243202209 0 0 0 0 442175.82939235121 -569493.09082619054 0 -569493.09082619054 -999013.21273960406 0 0 0 0 -265132531.96269512 -19976498.124044836 0 -19976498.124044836 133262014.22764206 0 0 0 0 -217832618.58831024 -231434481.68823469 0 -231434481.68823469 -116872813.96723652 0 0 0 0 -304816370.50976562 -215728018.800704 0 -215728018.800704 -13333417.418914557 0 0 0 0 -106356730.75829887 -53049899.834082365 0 -53049899.834082365 -114688459.1259222 0 0 0 0 -280085789.99479675 -167890644.52184343 0 -167890644.52184343 -96734231.14203763 0 0 0 0 -244375415.72132492 -244689897.49391556 0 -244689897.49391556 -73937958.640434265 0 0 0 0 24403427.135091782 -232768973.37662888 0 -232768973.37662888 -171137215.32962322 0 0 0 0 -254949555.4167304 -260845203.15816951 0 -260845203.15816951 -87735800.609318733 0 0 0 0 -131899855.24792099 -90366989.078800678 0 -90366989.078800678 -209536967.94229507 0 0 0 0 -133499074.19416142 -121680179.49922132 0 -121680179.49922132 -98272879.114400864 0 0 0 0 -5363504.5871391296 -63046475.964950562 0 -63046475.964950562 -108198477.30238879 0 0 0 0 -4199876.6559066772 -114303417.51185751 0 -114303417.51185751 139099230.70014763 0 0 0 0 -7238636.7014732361 -1817848.6418232918 0 -1817848.6418232918 28521325.625343323 0 0 0 0 14213266.50614357 -89226081.916247845 0 -89226081.916247845 106938231.27192116 0 0 0 0 631968.31893823482 -1131464.9527244817 0 -1131464.9527244817 -1809666.0552259684 0 0 0 0 47187302.734844208 -80968522.248911381 0 -80968522.248911381 -12061067.424320221 0 0 0 0 19476098.134243011 9620024.467590332 0 9620024.467590332 -2643756.7429685593 0 0 0 0 -10256354.212528229 -20644999.161593437 0 -20644999.161593437 -33194103.619182587 0 0 0 0 -1995611.6187255397 -117876.78275982663 0 -117876.78275982663 -54620.394049625844 0 0 0 0 18855114.411821365 -799622.62018299103 0 -799622.62018299103 -14143365.655237198 0 0 0 0 455847.81589889526 -13765540.285055161 0 -13765540.285055161 -4303928.3051185608 0 0 0 0 5039004.1772956848 -11972499.19537735 0 -11972499.19537735 -8241639.271894455 0 0 0 0 -5873503.05095906 -2031197.5878012348 0 -2031197.5878012348 -973048.53120083734 0 0 0 0 -23771854.394638062 -12098267.28839016 0 -12098267.28839016 -1836417.9760656357 0 0 0 0 -4129568.7561585251 -312288.74923039414 0 -312288.74923039414 3175335.5156359375 0 0 0 0 -44809617.718234062 3978015.5464882851 0 3978015.5464882851 10562585.991458893 0 0 0 0 -45075828.028045654 -23760798.059863806 0 -23760798.059863806 -26839712.355991364 0 0 0 0 -39374334.795768738 -8629543.283665657 0 -8629543.283665657 -2384694.4075031281 0 0 0 0 -39980188.549472809 -5985408.9989919662 0 -5985408.9989919662 -7253777.9325466156 0 0 0 0 -37918679.023452759 -10461756.638187408 0 -10461756.638187408 10845191.282104492 0 0 0 0 -41506483.676609039 -2280887.673201561 0 -2280887.673201561 3751886.1374664307 0 0 0 0 -31910471.125095367 -10513618.559967041 0 -10513618.559967041 21290799.923225403 0 0 0 0 -31745159.375965118 -16234926.577548027 0 -16234926.577548027 -1846707.985660553 0 0 0 0 -56673645.553092957 -6080390.7101926804 0 -6080390.7101926804 -834755.44192636013 0 0 0 0 -21612262.193359375 -13678150.920495033 0 -13678150.920495033 -50827884.309541702 0 0 0 0 -103540135.09865189 -46551385.083235741 0 -46551385.083235741 -41223395.504758835 0 0 0 0 -16020354.176831722 2575473.7411789894 0 2575473.7411789894 -43730668.298360825 0 0 0 0 -47309119.629150391 9783589.9740200043 0 9783589.9740200043 -25846027.062003136 0 0 0 0 -94567354.626619339 -20357124.636597633 0 -20357124.636597633 17722371.716211319 0 0 0 0 -78688609.706448555 -74912988.387634993 0 -74912988.387634993 -105577714.56005478 0 0 0 0 -236963719.07260752 -320870469.96366775 0 -320870469.96366775 -211226565.52845192 0 0 0 0 -270240.74715006165 -202442.50594373792 0 -202442.50594373792 -1074671.0527489968 0 0 0 0 171029499.09408188 6750940.0090503693 0 6750940.0090503693 -163956826.52433491 0 0 0 0 -1569229966.4013257 -141525042.97557557 0 -141525042.97557557 -19468550.014066696 0 0 0 0 20354384.67918396 -158321349.89907742 0 -158321349.89907742 -296518586.48902559 0 0 0 0 14268278.64223671 -58556044.792168617 0 -58556044.792168617 17193001.136936188 0 0 0 0 -49853916.820411682 -19739827.016660213 0 -19739827.016660213 24348309.844495773 0 0 0 0 90850868.020751953 -27415923.874112129 0 -27415923.874112129 -4717167.7197093964 0 0 0 0 -612396.60316682467 -1321000.4743909314 0 -1321000.4743909314 -3360605.4752330668 0 0 0 0 -1428274697.8720951 223267049.55170107 0 223267049.55170107 180134427.69391632 0 0 0 0 -638991979.53001404 181931527.29056931 0 181931527.29056931 -245033267.15252304 0 0 0 0 -589143152.09075165 57717874.334270477 0 57717874.334270477 -198928779.74670506 0 0 0 0 -940993946.40655518 -138015111.08824825 0 -138015111.08824825 -15577873.928505898 0 0 0 0 -371641275.93756104 21938302.143598557 0 21938302.143598557 -44719794.314426422 0 0 0 0 -644595455.7953186 -267895707.97015476 0 -267895707.97015476 227597333.47888184 0 0 0 0 -350172521.60576439 106419214.40810251 0 106419214.40810251 287574925.10342216 0 0 0 0 103103700.07061005 -106530767.0448904 0 -106530767.0448904 -55030208.174038768 0 0 0 0 -507627435.72348022 -203168903.5540309 0 -203168903.5540309 -102773614.68736839 0 0 0 0 -134400808.60434723 28667515.643305779 0 28667515.643305779 -65390515.128141999 0 0 0 0 -81267742.686851501 -47220538.720499992 0 -47220538.720499992 -117938644.71488762 0 0 0 0 99555005.81438446 115279831.99286842 0 115279831.99286842 -180144313.86991596 0 0 0 0 -89844818.169301987 -4144614.1702544689 0 -4144614.1702544689 -333147399.55848503 0 0 0 0 -490495621.39788437 -218089619.48499489 0 -218089619.48499489 -398954358.14739799 0 0 0 0 -316842333.9487915 114524238.94177246 0 114524238.94177246 -155531843.80333805 0 0 0 0 -334633540.66476822 122523784.18446255 0 122523784.18446255 -217938288.0567646 0 0 0 0 -105698778.66426468 158596410.32297993 0 158596410.32297993 -128325533.3681488 0 0 0 0 -122048182.47367859 -26666013.678939819 0 -26666013.678939819 -138634822.87587547 0 0 0 0 -7712836.0911283866 -1596391.926361491 0 -1596391.926361491 1326066.684722119 0 0 0 0 11335021.245864868 -110339848.66668415 0 -110339848.66668415 126960372.78343004 0 0 0 0 -87820308.654579163 69342166.932175636 0 69342166.932175636 -115148630.88305765 0 0 0 0 116624391.14556885 -29878425.700991154 0 -29878425.700991154 -42908919.740276337 0 0 0 0 61345863.634056091 -136747494.90576142 0 -136747494.90576142 -93896942.075625479 0 0 0 0 -46484596.534561157 209353773.18950164 0 209353773.18950164 -201871079.63444865 0 0 0 0 -778540042.52482605 529752588.74515724 0 529752588.74515724 -218513381.17865795 0 0 0 0 -1582275169.9754944 354276427.88294351 0 354276427.88294351 211556437.87777632 0 0 0 0 -1342652524.2954559 -147758656.09757376 0 -147758656.09757376 141520716.94507599 0 0 0 0 -846400703.51034546 231660643.17994165 0 231660643.17994165 196237163.93314338 0 0 0 0 -715852282.23141861 35364557.95953846 0 35364557.95953846 -2620001.4878129959 0 0 0 0 -375075446.49375916 100637382.0474205 0 100637382.0474205 -56032054.536880016 0 0 0 0 -704013207.67444611 7656140.6397504807 0 7656140.6397504807 59357184.589805603 0 0 0 0 -320690859.67015266 38971647.491170168 0 38971647.491170168 -24949174.128007889 0 0 0 0 -703365418.50766063 -77726487.068762958 0 -77726487.068762958 26796474.338066101 0 0 0 0 -1036684740.0804138 3513152.2729454041 0 3513152.2729454041 139600256.60704994 0 0 0 0 -689805288.20719147 -95887111.714918613 0 -95887111.714918613 81431118.974952698 0 0 0 0 -846365042.55992126 -63057560.346349239 0 -63057560.346349239 104461213.75261593 0 0 0 0 -713293774.81607056 -36204531.246123552 0 -36204531.246123552 50168802.186094284 0 0 0 0 -367330090.53853607 -90968367.925160408 0 -90968367.925160408 136654.50128936768 0 0 0 0 -127415437.80865479 -92956824.683579445 0 -92956824.683579445 -57991149.009370089 0 0 0 0 -285731089.26094818 -59531874.662385702 0 -59531874.662385702 -33451170.949924469 0 0 0 0 -17558696.744537354 70450037.922499895 0 70450037.922499895 -50168807.91944313 0 0 0 0 65984047.860122681 -23639253.016843796 0 -23639253.016843796 -28958609.435308456 0 0 0 0 35539406.661907196 -73622756.671240091 0 -73622756.671240091 -77251156.885305405 0 0 0 0 95185950.318954468 -69636993.326003551 0 -69636993.326003551 -664323.8676071167 0 0 0 0 106277327.8730011 43269702.518120766 0 43269702.518120766 10636426.45772171 0 0 0 0 94883685.595123291 5296333.953327179 0 5296333.953327179 -60421085.554878235 0 0 0 0 87883974.913082123 55392233.15448761 0 55392233.15448761 43121035.095832825 0 0 0 0 66744275.665901184 97054700.202191353 0 97054700.202191353 -26888818.656438351 0 0 0 0 74651817.364257812 -13122674.572221756 0 -13122674.572221756 -100425913.09444475 0 0 0 0 54889214.208823442 -88889805.05795601 0 -88889805.05795601 -106192416.71063232 0 0 0 0 53803237.375595093 -104392184.58554554 0 -104392184.58554554 -1746703.8382301331 0 0 0 0 64895973.137619019 -10414754.449018478 0 -10414754.449018478 -73444832.76302433 0 0 0 0 74937465.004089355 -6127770.1311016083 0 -6127770.1311016083 -153308780.84620285 0 0 0 0 547733.82728751749 347856.41269425256 0 347856.41269425256 -447347.73172061774 0 0 0 0 -258494425.62345886 -119695841.87798977 0 -119695841.87798977 -134756531.47751856 0 0 0 0 -555168369.60409546 -68663803.633673668 0 -68663803.633673668 496386912.31794453 0 0 0 0 -756969842.50524139 -31887794.469928741 0 -31887794.469928741 39595744.716310501 0 0 0 0 -327297761.01384354 -169393421.50430393 0 -169393421.50430393 -27547405.785509109 0 0 0 0 -148102.50130410492 325824.56281129969 0 325824.56281129969 -312775.35097538366 0 0 0 0 -658017111.36064148 -157379267.47906637 0 -157379267.47906637 36612624.740825653 0 0 0 0 -346456679.3669548 85146379.61108017 0 85146379.61108017 147605398.71263218 0 0 0 0 -734506402.4750061 -66792162.053325653 0 -66792162.053325653 6253752.242099762 0 0 0 0 -809673553.79090118 20516059.044492722 0 20516059.044492722 -18539882.243686438 0 0 0 0 -702874421.3579216 -91961769.533791065 0 -91961769.533791065 23925384.458093643 0 0 0 0 42321049.701742172 -22795375.990189791 0 -22795375.990189791 -9933945.9829788208 0 0 0 0 -1224302600.9069147 -41573836.064097166 0 -41573836.064097166 177357075.45044136 0 0 0 0 -607938.41527358769 -3056671.1864488758 0 -3056671.1864488758 -6576053.2953032646 0 0 0 0 -888270776.3139267 -299799584.42350864 0 -299799584.42350864 142964553.38797188 0 0 0 0 5114718.0264530182 -17410898.355550766 0 -17410898.355550766 3597425.1361083984 0 0 0 0 12268441.078201294 -29168790.504579544 0 -29168790.504579544 4083105.8791942596 0 0 0 0 -196779.62517929077 -23859131.092877388 0 -23859131.092877388 4324760.4211044312 0 0 0 0 18220068.327236176 -5244322.6498279572 0 -5244322.6498279572 -6046112.8912467957 0 0 0 0 -752867.98513031006 -13230597.857975006 0 -13230597.857975006 -3661354.660859108 0 0 0 0 -1148679.6649589539 -9397460.3648071289 0 -9397460.3648071289 -18903464.282928467 0 0 0 0 3284373.6734695435 -18624645.86151886 0 -18624645.86151886 -15912810.527870178 0 0 0 0 -377054335.71160889 301300345.55098748 0 301300345.55098748 -46927402.186708987 0 0 0 0 -5326138.3567702472 -3183794.2221125308 0 -3183794.2221125308 5127668.7130343299 0 0 0 0 4115249.026889801 -18083005.018938065 0 -18083005.018938065 -21813332.653305054 0 0 0 0 -619555730.38246536 -200967354.09931135 0 -200967354.09931135 -91589667.671848297 0 0 0 0 -265099.37849006569 -5592579.7811640352 0 -5592579.7811640352 -10547760.832479484 0 0 0 0 -806558122.68651581 -165960603.58212757 0 -165960603.58212757 -20756892.352938652 0 0 0 0 -892452862.72827148 -201187680.08417606 0 -201187680.08417606 49781007.909601212 0 0 0 0 -922283305.52578735 -272821483.6277256 0 -272821483.6277256 -71230364.834926605 0 0 0 0 -784870461.48743057 -351416700.46183908 0 -351416700.46183908 -224672762.60488129 0 0 0 0 474862572.22548676 -475521528.81203038 0 -475521528.81203038 -212829533.12280893 0 0 0 0 -542381.739625182 -929227.05373563804 0 -929227.05373563804 168094.9205974082 0 0 0 0 54462478.041168213 156886926.41453981 0 156886926.41453981 422344719.27149677 0 0 0 0 -486747023.21826172 -46298748.482679695 0 -46298748.482679695 663767528.76033926 0 0 0 0 -1312965847.4193726 -376504623.19784164 0 -376504623.19784164 42752867.557725906 0 0 0 0 -689453.96104682237 -1032436.0542516718 0 -1032436.0542516718 -1471145.419334213 0 0 0 0 -1040192667.223465 -534800824.86232424 0 -534800824.86232424 -197655680.69483662 0 0 0 0 -2078683214.4148254 -399593955.81219268 0 -399593955.81219268 586033327.2108829 0 0 0 0 -185506.25574285164 66661.926589360461 0 66661.926589360461 -961836.77263332973 0 0 0 0 -162843868.54869843 125256095.86766756 0 125256095.86766756 -63030878.59201932 0 0 0 0 494395767.47125244 -274726795.5824033 0 -274726795.5824033 -35101149.749568224 0 0 0 0 -179107759.55246449 35905774.564630911 0 35905774.564630911 -15642483.226977587 0 0 0 0 523032868.64474487 -317064691.9201951 0 -317064691.9201951 -2571416.9044019878 0 0 0 0 33406795.643409729 -16009.414988517761 0 -16009.414988517761 -63436860.314764977 0 0 0 0 2351293.3628005981 134308189.83374882 0 134308189.83374882 -249688630.90257215 0 0 0 0 -78163049.500701904 69528629.888752103 0 69528629.888752103 -56247149.278694749 0 0 0 0 -11030535.027740479 42508911.546255827 0 42508911.546255827 -97073504.180430651 0 0 0 0 -1318586.5137290955 6964865.507045269 0 6964865.507045269 -30528106.989022255 0 0 0 0 -13797266.366928101 51382055.580338836 0 51382055.580338836 -66375728.915797591 0 0 0 0 -10702112.085922241 30022735.372195721 0 30022735.372195721 28661.216174587607 0 0 0 0 22829912.918525696 -32253810.226026654 0 -32253810.226026654 -1145387.7666940689 0 0 0 0 5118393.1078033447 -1429626.1974875927 0 -1429626.1974875927 -52188972.739804268 0 0 0 0 21829264.228660583 -40460470.345581532 0 -40460470.345581532 -25956856.537160158 0 0 0 0 19955625.568939209 -33671774.110646963 0 -33671774.110646963 10867530.287614822 0 0 0 0 68774836.57333374 -138614684.66833878 0 -138614684.66833878 23853788.981315374 0 0 0 0 13757121.12821579 -19058476.387309194 0 -19058476.387309194 -81684750.513381958 0 0 0 0 128937728.36281586 -29794421.251059532 0 -29794421.251059532 -195446932.27404714 0 0 0 0 -23134117.189182281 -20236663.079153061 0 -20236663.079153061 -1617272.4277191162 0 0 0 0 -18196185.571559906 -27365021.132571697 0 -27365021.132571697 -4043997.5268821716 0 0 0 0 -8556195.9481364917 -2354656.928446481 0 -2354656.928446481 5960620.6946502328 0 0 0 0 -4211130.0240020752 -28945136.428411484 0 -28945136.428411484 9901575.8843097687 0 0 0 0 -21256831.829994202 -23456944.060007095 0 -23456944.060007095 10541239.761650085 0 0 0 0 -24160173.761802673 -16520551.752233028 0 -16520551.752233028 -2250645.0561637878 0 0 0 0 -3032540.2107849121 -18636659.064340591 0 -18636659.064340591 -3270464.1998319626 0 0 0 0 -22166414.550983429 -11957313.681381226 0 -11957313.681381226 8136902.6763305664 0 0 0 0 -29605703.66437912 696179.60931968689 0 696179.60931968689 9391554.2944946289 0 0 0 0 -18098035.044886589 -9018399.7802774012 0 -9018399.7802774012 875933.27798461914 0 0 0 0 -13104893.152770996 -31150965.080739975 0 -31150965.080739975 76030159.467311859 0 0 0 0 -15997024.257083893 -14056030.703070164 0 -14056030.703070164 -9307362.4110991955 0 0 0 0 -26572989.380134583 -18791061.903199315 0 -18791061.903199315 2598062.9928574562 0 0 0 0 -5422052.361113349 -5050104.8144027218 0 -5050104.8144027218 -2255485.9965491612 0 0 0 0 -10281965.348837916 -1292558.9227810148 0 -1292558.9227810148 5151806.2338905046 0 0 0 0 -7144933.1111717224 -14354305.630571365 0 -14354305.630571365 -7726684.2368083 0 0 0 0 -8282495.5870942194 -10088599.173148574 0 -10088599.173148574 -6109383.2194114383 0 0 0 0 -4780502.7059860229 -19915773.982988358 0 -19915773.982988358 -8749355.3407759666 0 0 0 0 -2606429.8130607605 -10313683.24394989 0 -10313683.24394989 -6610276.0839157104 0 0 0 0 -6829049.7893867493 -15097743.021036148 0 -15097743.021036148 -9090723.0271339417 0 0 0 0 -2124863.0425214767 -12027758.686503917 0 -12027758.686503917 -13480454.674380779 0 0 0 0 -3571602.8077125549 -21717638.246936023 0 -21717638.246936023 -6131647.6824512482 0 0 0 0 -11058121.204755852 -11998742.503721155 0 -11998742.503721155 -5186502.2489116322 0 0 0 0 2758092.3258781433 -7548293.2494899035 0 -7548293.2494899035 973061.71007537842 0 0 0 0 -29798213.590293884 -15756032.164917469 0 -15756032.164917469 -12720124.401456833 0 0 0 0 -27767934.787918091 -3619222.5073056221 0 -3619222.5073056221 -11839398.426780224 0 0 0 0 554804.29805755615 -13727909.541556358 0 -13727909.541556358 -14982196.194046974 0 0 0 0 -2357814.720457579 -1855884.875148192 0 -1855884.875148192 -1069359.7109039072 0 0 0 0 32021610.323989868 -29924303.090032697 0 -29924303.090032697 -14213535.029823065 0 0 0 0 -39472148.212852478 -4925153.9827139378 0 -4925153.9827139378 -5533603.7382669449 0 0 0 0 -64603295.559076309 -52699098.64794451 0 -52699098.64794451 -196575.60695886612 0 0 0 0 -116389763.50193787 -1602737.8278394938 0 -1602737.8278394938 -5310981.6237851381 0 0 0 0 -15304985.787567139 -24361877.656152248 0 -24361877.656152248 -29503509.734521866 0 0 0 0 -1454931.5118467696 -990168.75407841057 0 -990168.75407841057 -356951.7056425598 0 0 0 0 -15618777.347488403 -26994566.986886263 0 -26994566.986886263 -8017845.9829015732 0 0 0 0 -1331803.8653356172 -1368740.0232857736 0 -1368740.0232857736 17244.916494329809 0 0 0 0 -39181503.038619995 7435920.3393018246 0 7435920.3393018246 -33115960.401142597 0 0 0 0 -16440985.341369629 -23775503.114330769 0 -23775503.114330769 -11175520.571407318 0 0 0 0 -3218087.2253831625 -2642970.6781625263 0 -2642970.6781625263 -453710.82899390929 0 0 0 0 -16702377.110916138 -18994623.501623034 0 -18994623.501623034 29295381.286831439 0 0 0 0 -4059182.5912432671 69310725.575143889 0 69310725.575143889 50101244.708046079 0 0 0 0 955008.17813110352 -21313375.105407178 0 -21313375.105407178 -9963901.7860085964 0 0 0 0 -4907141.6213989258 -24892212.130829811 0 -24892212.130829811 -10580312.373582363 0 0 0 0 -17976256.33240509 -32675432.152731746 0 -32675432.152731746 11604021.17103982 0 0 0 0 -43698066.150871277 -74435197.163794219 0 -74435197.163794219 -9553523.8978666067 0 0 0 0 -97208141.289474487 -16893350.397588015 0 -16893350.397588015 6275580.7267649174 0 0 0 0 -232749815.01020813 15065030.610809326 0 15065030.610809326 86232696.219899416 0 0 0 0 -586743.59829711542 -791244.41272709146 0 -791244.41272709146 -395678.46963942691 0 0 0 0 -109419800.90364265 -52835162.622510329 0 -52835162.622510329 46536559.823783636 0 0 0 0 -15183802.079353333 -58760793.315413654 0 -58760793.315413654 11731116.286364019 0 0 0 0 14219301.585607529 85519549.611040637 0 85519549.611040637 -84742839.555896282 0 0 0 0 -74549730.68347168 -9363229.9893293977 0 -9363229.9893293977 -20746686.986622155 0 0 0 0 -111230411.66777325 -115023445.46646781 0 -115023445.46646781 47212940.957733691 0 0 0 0 1033180.6837081909 11826384.951136351 0 11826384.951136351 -48417342.120616421 0 0 0 0 -174854.26711717993 -148184.02748729661 0 -148184.02748729661 -14122.46838213224 0 0 0 0 14819691.32485199 -31208552.479151487 0 -31208552.479151487 -63422290.79095161 0 0 0 0 -213526892.89073944 -66773779.712721907 0 -66773779.712721907 89514099.840735182 0 0 0 0 -230763273.31550598 35620412.881705746 0 35620412.881705746 105123.34084509703 0 0 0 0 -8039427.6277923584 82866333.366934955 0 82866333.366934955 -98331960.921750754 0 0 0 0 -98596381.775489807 -63796093.248024993 0 -63796093.248024993 17464282.86254961 0 0 0 0 -247267899.8582077 31412916.934488267 0 31412916.934488267 38892347.363441557 0 0 0 0 -406716.27482197806 22658.526281238534 0 22658.526281238534 56171.627096265554 0 0 0 0 -108650436.13464355 136932984.56219471 0 136932984.56219471 -150611694.68728 0 0 0 0 -49626394.005203247 45138798.031193495 0 45138798.031193495 -34379290.031093836 0 0 0 0 -48952718.402702332 56434226.418592006 0 56434226.418592006 -42089545.573741436 0 0 0 0 -48045032.403884888 43973439.38422364 0 43973439.38422364 -41517554.139826626 0 0 0 0 -1063627.4125011861 -42127.391046352684 0 -42127.391046352684 115442.87572291863 0 0 0 0 -9600328.7120037079 25096084.825592943 0 25096084.825592943 -80189.542878729408 0 0 0 0 10174148.498943329 9199423.293846922 0 9199423.293846922 7439413.6933947653 0 0 0 0 -1124979.0178216677 2152.3924637362361 0 2152.3924637362361 61449.196356692766 0 0 0 0 8726494.9726896286 -6343796.410708325 0 -6343796.410708325 528670.83491163328 0 0 0 0 -1847610.912893571 236545.95936010499 0 236545.95936010499 62220.908828525222 0 0 0 0 -576508.81455898285 2714951.6777679883 0 2714951.6777679883 3374005.8839572221 0 0 0 0 -64776952.839141846 39716935.738748908 0 39716935.738748908 -14825254.662628412 0 0 0 0 -651752.02751556598 -321004.99724647403 0 -321004.99724647403 -23170.115507287323 0 0 0 0 -38377547.80106163 33247439.800737932 0 33247439.800737932 -29659837.332242012 0 0 0 0 -65959141.739257812 55544514.211586118 0 55544514.211586118 -29208461.26814875 0 0 0 0 -63972673.411804199 68308658.495166898 0 68308658.495166898 -42440113.266385227 0 0 0 0 -62302451.151916504 47076610.308782518 0 47076610.308782518 -15897427.956231833 0 0 0 0 -13643945.243751526 20485865.019869208 0 20485865.019869208 -39917679.092526436 0 0 0 0 15378196.860416412 48602173.693377256 0 48602173.693377256 -49141824.195532799 0 0 0 0 -609038.03711530007 -643655.94467941672 0 -643655.94467941672 -377733.64576896466 0 0 0 0 -129056248.49839783 -31605681.37526758 0 -31605681.37526758 27966003.947565794 0 0 0 0 -37665248.528739929 44928997.340405703 0 44928997.340405703 -54434591.480414391 0 0 0 0 -78309812.98485446 64320748.996616587 0 64320748.996616587 -22595376.580785275 0 0 0 0 12627930.564096451 5161045.6788995713 0 5161045.6788995713 -2271853.6179898977 0 0 0 0 -231303.2647914337 -169543.96685981378 0 -169543.96685981378 10642.751731924247 0 0 0 0 -143480981.65727997 69864071.79306829 0 69864071.79306829 -15976265.134722114 0 0 0 0 -49750530.28421402 73249510.41752857 0 73249510.41752857 -62940158.004006386 0 0 0 0 -65595718.249732971 59189811.411193311 0 59189811.411193311 -37893703.710586786 0 0 0 0 -33858454.004020691 -25099904.364875972 0 -25099904.364875972 8187840.2017259598 0 0 0 0 4636497.5415153503 -1004527.4816448092 0 -1004527.4816448092 -4277216.827986002 0 0 0 0 521299721.93909836 191410829.30906525 0 191410829.30906525 -363489654.46277696 0 0 0 0 -304558806.10860443 -998085633.59367156 0 -998085633.59367156 -329220505.11763525 0 0 0 0 -1416077774.8441544 806176067.29257274 0 806176067.29257274 -281810548.54588014 0 0 0 0 -1236173.1260586642 215932.74355738238 0 215932.74355738238 -749089.07234994275 0 0 0 0 -2328890.3652945645 104048.28954531252 0 104048.28954531252 74664.67676157302 0 0 0 0 -5500290.3388366699 -5895119.1488405541 0 -5895119.1488405541 3601478.2574630827 0 0 0 0 -7164401.4454803467 6064411.0642685816 0 6064411.0642685816 1791781.5347707868 0 0 0 0 -3592070.5660705566 -5068691.9282907993 0 -5068691.9282907993 7219354.9289819123 0 0 0 0 -2145278.0163326263 -1960751.0757226143 0 -1960751.0757226143 7900500.7394094095 0 0 0 0 -17102057.881332397 -4759974.1040440286 0 -4759974.1040440286 8361668.8877485581 0 0 0 0 -2819479.1863632202 -11602493.527856167 0 -11602493.527856167 -12732.526568064815 0 0 0 0 5201766.6704750061 12616577.301641112 0 12616577.301641112 -1533264.448474593 0 0 0 0 -14358392.974143028 6887143.3737716619 0 6887143.3737716619 7163819.3033805788 0 0 0 0 -1074056.9304261096 113560.90931431763 0 113560.90931431763 -53712.815894735373 0 0 0 0 -449934.96575546265 5840712.3294563368 0 5840712.3294563368 7241302.3454509526 0 0 0 0 -5868849.6288299561 406691.05203801021 0 406691.05203801021 7666168.0769408755 0 0 0 0 -293157525.1013298 181755241.29848161 0 181755241.29848161 -97997262.307046384 0 0 0 0 -617780875.89958954 -198478201.86958039 0 -198478201.86958039 76770638.082773417 0 0 0 0 -563951826.75495911 -150876459.25010309 0 -150876459.25010309 112782614.07317555 0 0 0 0 -714569467.59460449 -190318064.53862575 0 -190318064.53862575 102950715.19044508 0 0 0 0 -384423.35179140791 60472.577392367646 0 60472.577392367646 -46180.707603800205 0 0 0 0 -681536511.30924606 -136892490.77385694 0 -136892490.77385694 73041202.290484279 0 0 0 0 -448815124.33612061 -86106962.955953166 0 -86106962.955953166 4676402.8153381422 0 0 0 0 -546767859.20818329 -109084918.43720406 0 -109084918.43720406 74904640.450363532 0 0 0 0 -471279132.12976074 -235204594.95906883 0 -235204594.95906883 -1682653.320714388 0 0 0 0 -279226215.54124451 -77693751.659481943 0 -77693751.659481943 56185232.733513355 0 0 0 0 -434511172.44636917 -473861639.1287359 0 -473861639.1287359 -649975517.83216941 0 0 0 0 -656891606.39411926 244840157.86701873 0 244840157.86701873 -88133851.63424769 0 0 0 0 -1158211.4013186023 -234676.27187687997 0 -234676.27187687997 -96049.516829875152 0 0 0 0 -1052606504.4912567 -97900528.878594175 0 -97900528.878594175 112729844.52725022 0 0 0 0 -797566948.86872101 -650886435.83356965 0 -650886435.83356965 -21286133.198994093 0 0 0 0 -621062138.91924286 -645081777.22396672 0 -645081777.22396672 -46544471.168382943 0 0 0 0 -3021692.0181701332 -349765.25156603334 0 -349765.25156603334 448885.72389512631 0 0 0 0 -568531571.6768589 -816123701.69957852 0 -816123701.69957852 -413555368.6403265 0 0 0 0 -222614206.32266235 139223823.34640682 0 139223823.34640682 -44165083.774678707 0 0 0 0 -159138580.21620941 12593862.762115121 0 12593862.762115121 195739554.04884696 0 0 0 0 -5838370.5698242188 2511540.6679444313 0 2511540.6679444313 3815911.7360476255 0 0 0 0 -16630336.991615295 1147043.0549035072 0 1147043.0549035072 3684028.0416183472 0 0 0 0 -821519.49165344238 1603518.2871255875 0 1603518.2871255875 2834684.1513752937 0 0 0 0 -809326.48551368713 -10253727.615295291 0 -10253727.615295291 4859688.9804286957 0 0 0 0 -8898808.8631763458 4632192.8080248237 0 4632192.8080248237 14755811.369819641 0 0 0 0 -3979299.093170166 -9611290.9619419575 0 -9611290.9619419575 15356202.601048842 0 0 0 0 -5267793.8143615723 -11018370.317042589 0 -11018370.317042589 13820437.804420948 0 0 0 0 -7051690.7715950012 2529069.5728658438 0 2529069.5728658438 7644042.6956992149 0 0 0 0 -4229904.6094741821 -5661523.0331506729 0 -5661523.0331506729 886300.97563409805 0 0 0 0 -1478816.1122242343 772935.01424414478 0 772935.01424414478 1070795.03711762 0 0 0 0 3203679.8243303299 3790806.308491081 0 3790806.308491081 -101335.81302547455 0 0 0 0 -48602857.745819092 -7288421.0174970627 0 -7288421.0174970627 17788077.495552063 0 0 0 0 -51481918.130882263 6774859.4770133495 0 6774859.4770133495 3396373.4052591324 0 0 0 0 1817796.6411247253 3295605.8736092448 0 3295605.8736092448 1794604.7105009556 0 0 0 0 -4465959.5816254988 982657.53122376278 0 982657.53122376278 1977995.5497379925 0 0 0 0 12669515.046367645 11263156.061121225 0 11263156.061121225 8222038.3639364243 0 0 0 0 2789361.4821338654 1902525.5403451025 0 1902525.5403451025 -2087350.4578244686 0 0 0 0 2582995.5695415847 1513928.5884993225 0 1513928.5884993225 -802298.35577393789 0 0 0 0 3780471.9674301147 3852646.5283420086 0 3852646.5283420086 -2329300.1537876129 0 0 0 0 2970044.3622817993 3175484.4504324198 0 3175484.4504324198 1360598.5700004101 0 0 0 0 5048382.5794754028 6672141.7568649054 0 6672141.7568649054 4524038.1785148382 0 0 0 0 5513838.7273836136 316325.52853854001 0 316325.52853854001 2759001.3547334671 0 0 0 0 -717978.68407558091 -49546.064476765692 0 -49546.064476765692 556691.34602429578 0 0 0 0 -5568596.9828109741 2869361.4023602009 0 2869361.4023602009 2592604.8952536583 0 0 0 0 -27986063.211463928 -15329962.722506762 0 -15329962.722506762 -9025247.6930952072 0 0 0 0 -106094885.77365112 -8942778.615322113 0 -8942778.615322113 22666132.801464319 0 0 0 0 -150968.40724958852 -49573.726611547172 0 -49573.726611547172 10659.121926290682 0 0 0 0 -2373756.6758086607 -79756.144757056609 0 -79756.144757056609 1111913.9343248119 0 0 0 0 3576962.4378547668 3825946.3089823127 0 3825946.3089823127 -952109.34272241592 0 0 0 0 11150480.819694519 -74734.635162830353 0 -74734.635162830353 -5438097.9074878693 0 0 0 0 -76468078.694137573 -10146674.702013254 0 -10146674.702013254 13872458.423692703 0 0 0 0 369059.16106355749 270813.35574791767 0 270813.35574791767 -334861.75398482336 0 0 0 0 -9882221.7214813232 -29033649.948326349 0 -29033649.948326349 -16546286.500899315 0 0 0 0 18250186.159431458 3576169.4703412056 0 3576169.4703412056 3413633.167783916 0 0 0 0 -7597038.6738625765 25345203.275449306 0 25345203.275449306 -2787563.2427077293 0 0 0 0 -1570119.3937254567 784913.35348008201 0 784913.35348008201 1251853.5374032641 0 0 0 0 21399805.445011139 -5523565.6116538048 0 -5523565.6116538048 4844124.3152518272 0 0 0 0 -46226967.66362381 11831160.073286057 0 11831160.073286057 34419819.84017849 0 0 0 0 -48595574.949924469 22822581.879852891 0 22822581.879852891 -6142169.853427887 0 0 0 0 -22989190.468829155 -32743167.38650769 0 -32743167.38650769 -32713420.566248894 0 0 0 0 -41841211.761789322 -42368255.728952885 0 -42368255.728952885 -23921524.086997032 0 0 0 0 9387239.2980575562 -40902348.30500865 0 -40902348.30500865 9650641.1016359329 0 0 0 0 -17575636.057266235 -9668880.3917794228 0 -9668880.3917794228 -19835020.94773674 0 0 0 0 -51549421.026382446 -12093692.623990059 0 -12093692.623990059 5040735.2217268944 0 0 0 0 -6605120.2953338623 4025862.2373114824 0 4025862.2373114824 5909416.1498594284 0 0 0 0 -3554328.0432960652 -278214.30864805169 0 -278214.30864805169 1145442.950682878 0 0 0 0 -2350011.6293640137 -911306.04641103745 0 -911306.04641103745 7802634.8638634682 0 0 0 0 6035710.9781799316 1163655.9665708542 0 1163655.9665708542 7674857.9125022888 0 0 0 0 6820773.621307373 3056858.0876469612 0 3056858.0876469612 -4690605.5828533173 0 0 0 0 -965135.82246538997 232176.15984595567 0 232176.15984595567 719357.23632907937 0 0 0 0 -22677867.202003479 17122078.637317181 0 17122078.637317181 -12695098.14418602 0 0 0 0 2010210.3091506958 -1647357.4757041931 0 -1647357.4757041931 6507605.344925642 0 0 0 0 20925416.981220245 -10834732.809246302 0 -10834732.809246302 -13403647.601353645 0 0 0 0 -6030969.5149459839 -19031980.695875645 0 -19031980.695875645 -30446862.578704834 0 0 0 0 -5185755.8211898804 -2786125.4617593288 0 -2786125.4617593288 -4549206.3669099808 0 0 0 0 -630816.08932495117 6172359.8754005432 0 6172359.8754005432 7396253.1368994713 0 0 0 0 -5466706.4551277161 9513491.3007471561 0 9513491.3007471561 -1627652.4433946609 0 0 0 0 -45383257.174697876 -15008915.142371416 0 -15008915.142371416 -6877651.7052563429 0 0 0 0 -23940902.145900726 -12755477.712076426 0 -12755477.712076426 -2895438.4026880264 0 0 0 0 -12970356.712013245 1168991.5639955997 0 1168991.5639955997 -1911031.2756094933 0 0 0 0 -26032951.041847229 15427195.029449224 0 15427195.029449224 2514805.0100822449 0 0 0 0 -3502694.5689163208 7944210.5058326721 0 7944210.5058326721 -16566.392668247223 0 0 0 0 -5714127.6948877797 -1523791.4589079991 0 -1523791.4589079991 2061535.2980333271 0 0 0 0 -24625608.843200684 -27299934.586751461 0 -27299934.586751461 -26537232.519975662 0 0 0 0 462773.60797225311 591068.16924447287 0 591068.16924447287 13548.730620239163 0 0 0 0 3078005.3740272522 2322282.5166606903 0 2322282.5166606903 -1204687.339553833 0 0 0 0 -7288954.4178228378 -7065270.5046867132 0 -7065270.5046867132 -3453856.7678565979 0 0 0 0 -8387558.5000593439 -532076.70907490887 0 -532076.70907490887 6883796.5537320711 0 0 0 0 -33627358.270828247 -20988767.431444168 0 -20988767.431444168 4920236.211771965 0 0 0 0 -11196254.311523438 2898267.69099617 0 2898267.69099617 -1314770.0952935219 0 0 0 0 -2550958.2535416894 -1796776.3054880816 0 -1796776.3054880816 1112115.5904429574 0 0 0 0 -6195441.6506652832 -6020374.8333435059 0 -6020374.8333435059 459525.44078588486 0 0 0 0 -4624357.7448348999 -11906497.859965324 0 -11906497.859965324 4573457.0679388046 0 0 0 0 -18858558.287246704 -21813669.46911478 0 -21813669.46911478 536482.25270318985 0 0 0 0 -21722626.086448669 -7965127.0685715675 0 -7965127.0685715675 -5428715.7025051117 0 0 0 0 -14143425.905990601 -14095695.403995037 0 -14095695.403995037 -23055077.819207668 0 0 0 0 -22114772.543457031 -17532775.747264862 0 -17532775.747264862 -21466577.751447678 0 0 0 0 -647177.36135864258 -3408767.098400116 0 -3408767.098400116 -22975432.654907227 0 0 0 0 -220529.97610533936 -229294.65995266289 0 -229294.65995266289 62754.942319177557 0 0 0 0 -16028183.203899384 -15923109.601299286 0 -15923109.601299286 -6304414.6062736511 0 0 0 0 -16548193.677349091 -25212315.23223114 0 -25212315.23223114 -1785165.934741497 0 0 0 0 -31328961.297691345 -14399253.973556519 0 -14399253.973556519 -8273273.5808525085 0 0 0 0 -6312373.1961364746 -8736194.2012248039 0 -8736194.2012248039 -9199226.1971635818 0 0 0 0 -11480850.462835789 -11966465.480865441 0 -11966465.480865441 5380425.8995943069 0 0 0 0 -839773.68662021682 -494598.96391494386 0 -494598.96391494386 -172475.54367601033 0 0 0 0 -23273428.187709808 -16473051.598918915 0 -16473051.598918915 -5016275.581073761 0 0 0 0 -10549060.64117465 -3404612.9119880423 0 -3404612.9119880423 4839911.1054453226 0 0 0 0 -21371678.828407288 -24513370.023527145 0 -24513370.023527145 -7829322.9224655628 0 0 0 0 -8991553.9483795166 -6277780.3637752533 0 -6277780.3637752533 -4811553.4718551636 0 0 0 0 -4025216.4349517822 -1250300.3855037689 0 -1250300.3855037689 3701989.5549278259 0 0 0 0 -2472239.4600525089 -5760150.8967208005 0 -5760150.8967208005 -2423088.6010982706 0 0 0 0 -7103451.3146039955 -937178.20655297861 0 -937178.20655297861 3283115.4725249358 0 0 0 0 -11503923.943511963 124178.11907577515 0 124178.11907577515 -137341.02033996582 0 0 0 0 -10675521.842356026 -985389.89582347311 0 -985389.89582347311 5332395.3061974347 0 0 0 0 -5251411.6811831258 -3676984.2818835024 0 -3676984.2818835024 2453204.5568271498 0 0 0 0 94981892.782546997 -10750462.381149292 0 -10750462.381149292 5745187.054274559 0 0 0 0 -2052314.4939439297 -2859875.1380301435 0 -2859875.1380301435 1542742.2497496493 0 0 0 0 -22163468.665023804 -70016031.520593643 0 -70016031.520593643 9078928.0644733459 0 0 0 0 -78543113.494918823 35728015.061680794 0 35728015.061680794 24528131.940087318 0 0 0 0 5450295.2148666382 -2837170.0705177784 0 -2837170.0705177784 -16008562.786135614 0 0 0 0 23855013.883049011 -12892781.658857822 0 -12892781.658857822 -14483999.94674015 0 0 0 0 -4605286.947303772 -15582856.77634573 0 -15582856.77634573 4449905.5415174738 0 0 0 0 -23123639.758509129 41972070.81991148 0 41972070.81991148 2148525.0568304062 0 0 0 0 -606096.98536458611 71110.486436375417 0 71110.486436375417 189559.5946595564 0 0 0 0 -10866509.215042114 -3462028.4472493529 0 -3462028.4472493529 8678389.8036334515 0 0 0 0 -6476159.2451575212 -3924415.8255333686 0 -3924415.8255333686 1415247.8323599307 0 0 0 0 -11287224.523971558 -2362263.5608775616 0 -2362263.5608775616 24241652.92982316 0 0 0 0 -7324603.0760345459 -13899406.25377655 0 -13899406.25377655 10110844.893178254 0 0 0 0 -10987295.943321228 -18017556.311778724 0 -18017556.311778724 6113315.103533268 0 0 0 0 -8355065.3941650391 -12839069.089409351 0 -12839069.089409351 5332608.3397855759 0 0 0 0 -13409312.18649292 -10797757.646007299 0 -10797757.646007299 20307425.713289738 0 0 0 0 -17040064.74559021 -4614648.9924168587 0 -4614648.9924168587 2906418.9469127655 0 0 0 0 -12262136.844999313 -18027389.552869439 0 -18027389.552869439 -1366471.021241188 0 0 0 0 -14582963.807754517 -16092067.382777929 0 -16092067.382777929 6028438.7729158401 0 0 0 0 747352.56024169922 -12688885.423050642 0 -12688885.423050642 -1126373.3559676409 0 0 0 0 -1875320.8899459839 -18721124.443971395 0 -18721124.443971395 -3190370.7449178696 0 0 0 0 -3675874.0745773315 -21799713.300137043 0 -21799713.300137043 -1662880.4976582527 0 0 0 0 9990495.4519805908 -28484024.532011986 0 -28484024.532011986 1997638.5554382801 0 0 0 0 -5690703.422164917 -9027026.000749588 0 -9027026.000749588 10705135.40827179 0 0 0 0 -890671.28907729685 -251631.48175332695 0 -251631.48175332695 35969.301750187296 0 0 0 0 -5606256.3221893311 -888119.61565113068 0 -888119.61565113068 5628934.7883703709 0 0 0 0 -4699488.8315658569 3013655.3238983154 0 3013655.3238983154 17784347.374463141 0 0 0 0 -3303456.7412377931 -1135933.4846079648 0 -1135933.4846079648 -321472.60335406777 0 0 0 0 -7198136.6867446899 -1308672.7889592648 0 -1308672.7889592648 2582598.3415210396 0 0 0 0 -2272553.9798652865 277407.95393461548 0 277407.95393461548 891012.3841814003 0 0 0 0 -16395186.030857086 6517048.6933600903 0 6517048.6933600903 2339609.8466582298 0 0 0 0 4397517.1322175264 -7048489.9982882654 0 -7048489.9982882654 542043.61747074127 0 0 0 0 -4399330.207746299 -3225419.5392029695 0 -3225419.5392029695 -84405.367303680512 0 0 0 0 2659447.1203155518 -3100740.9050378203 0 -3100740.9050378203 -2035197.3403335214 0 0 0 0 -2325753.3490600586 -847198.31687164307 0 -847198.31687164307 863604.06140506268 0 0 0 0 -1867265.140827179 -342102.84552562237 0 -342102.84552562237 722027.25471055508 0 0 0 0 -2254539.5474690273 -120732.0877867341 0 -120732.0877867341 410520.87167668785 0 0 0 0 -4342544.2784200013 -612198.0220710244 0 -612198.0220710244 -333449.26514309505 0 0 0 0 -4567529.9960479736 -20475842.081576109 0 -20475842.081576109 6458186.7572543621 0 0 0 0 -2987072.5298919678 -18377658.887849808 0 -18377658.887849808 -4602841.8269705772 0 0 0 0 -5033178.3000394721 -3463908.0201819707 0 -3463908.0201819707 158593.69341081323 0 0 0 0 -1028076.5738220215 -13966330.192313015 0 -13966330.192313015 4428430.0641335249 0 0 0 0 -1034221.111946106 -13813141.190812945 0 -13813141.190812945 2974007.2738778591 0 0 0 0 2739134.07472229 -7351824.0301473141 0 -7351824.0301473141 1188570.2662009895 0 0 0 0 4416581.2800905704 -6347174.3297717087 0 -6347174.3297717087 -5531393.2177019119 0 0 0 0 3314757.3940734863 -2872671.4556758404 0 -2872671.4556758404 -2140390.2273290157 0 0 0 0 1908551.3855056763 -770530.23790663481 0 -770530.23790663481 -10914481.227371134 0 0 0 0 2350148.5650615692 -9472163.3260118365 0 -9472163.3260118365 -9899730.5181777477 0 0 0 0 -3607460.8901977539 5321940.9560219646 0 5321940.9560219646 -16456526.011899441 0 0 0 0 2026779.5776748657 -10786818.117649317 0 -10786818.117649317 -5386930.0384827554 0 0 0 0 2352630.7619400024 -15846855.381469548 0 -15846855.381469548 -28249913.11223793 0 0 0 0 -360661.18342590332 -932911.55798310041 0 -932911.55798310041 -2130010.9325403273 0 0 0 0 -1216740.5616722107 -667080.2922527194 0 -667080.2922527194 -2203812.1075575352 0 0 0 0 321620.34428405762 80707.155593156815 0 80707.155593156815 -1155314.0811337233 0 0 0 0 2818328.923789978 -3575503.2211444974 0 -3575503.2211444974 -2281349.6427214146 0 0 0 0 5530013.9569549561 -3361006.3845661879 0 -3361006.3845661879 -2495378.1597393751 0 0 0 0 2581943.7232513428 -1924925.6821101904 0 -1924925.6821101904 -3612392.4086196423 0 0 0 0 3222305.4038543701 -3871516.4289047122 0 -3871516.4289047122 -64456.76345038414 0 0 0 0 624439.04023742676 -1106428.115971297 0 -1106428.115971297 159481.2821662426 0 0 0 0 2966820.2516784668 -2396490.590672493 0 -2396490.590672493 12088.186732292175 0 0 0 0 109337.96696472168 -43802.023876070976 0 -43802.023876070976 -1424394.8926237226 0 0 0 0 46052.114137649536 -972072.63354943693 0 -972072.63354943693 -550559.46548712254 0 0 0 0 179870.49471282959 -530110.10958731174 0 -530110.10958731174 569595.95714139938 0 0 0 0 -77115195.455200195 143786799.87738824 0 143786799.87738824 -270156887.00982344 0 0 0 0 -40845.983493532985 -144116.71455389331 0 -144116.71455389331 166390.66745634811 0 0 0 0 -3567705.0047939532 -2069498.8179614991 0 -2069498.8179614991 -1163617.2728718277 0 0 0 0 57043399.657395363 -75747811.809041619 0 -75747811.809041619 3232212.2087740046 0 0 0 0 -130128.40269726887 -260181.91522262618 0 -260181.91522262618 -95189.638480665657 0 0 0 0 -2300163.5012359619 -1247271.002069056 0 -1247271.002069056 98443.578634351492 0 0 0 0 -1827876.2339352481 -1198306.7077434326 0 -1198306.7077434326 400450.2607674764 0 0 0 0 -3205549.5498046875 -943578.28788518906 0 -943578.28788518906 531843.5324422121 0 0 0 0 -2310638.6286468506 -1532918.8049514592 0 -1532918.8049514592 883404.43738615513 0 0 0 0 -294912.27208138257 -9926.9275424685329 0 -9926.9275424685329 208073.78614190934 0 0 0 0 -2699870.7773263641 -2705771.7341988049 0 -2705771.7341988049 -231213.20116062474 0 0 0 0 -1954987.4869995117 -873453.08176758885 0 -873453.08176758885 1022491.4653706551 0 0 0 0 4598717.6280441284 -481216.14341208339 0 -481216.14341208339 -1055435.1291162968 0 0 0 0 -99035.848773278296 -440116.31385207502 0 -440116.31385207502 42006.516351525454 0 0 0 0 -2117877.5463562012 -1086784.934863627 0 -1086784.934863627 -231710.02931856364 0 0 0 0 -549175.67148208618 -483998.05331946589 0 -483998.05331946589 -194.45132038526714 0 0 0 0 -1349941.7259323262 -644031.41393509286 0 -644031.41393509286 92795.318054378324 0 0 0 0 -838280.71304321289 -240064.81823813517 0 -240064.81823813517 38831.562398372764 0 0 0 0 -2349692.9907989502 -1277288.1007099748 0 -1277288.1007099748 80628.921766400337 0 0 0 0 -2729517.1264037695 -2014427.2086648121 0 -2014427.2086648121 -608847.77733050042 0 0 0 0 -856287.0682258606 -214074.92837195061 0 -214074.92837195061 1950.9168642373847 0 0 0 0 -1635541.6820158288 -111614.04022714577 0 -111614.04022714577 244260.56996178572 0 0 0 0 -2695329.8014221191 -335598.20687091351 0 -335598.20687091351 513851.39892876148 0 0 0 0 -2103336.9459565878 -635313.83633480687 0 -635313.83633480687 617846.38179409504 0 0 0 0 -1002226.7384033203 442183.82453859312 0 442183.82453859312 201989.67254770402 0 0 0 0 -2638163.705581665 -247559.44346320629 0 -247559.44346320629 1281522.3299052715 0 0 0 0 -2919025.2269915156 -1199797.839033071 0 -1199797.839033071 239986.7037400133 0 0 0 0 -77019663.944213867 193103020.73771352 0 193103020.73771352 294256.4513957873 0 0 0 0 -2700854.1062088013 45835.006632834673 0 45835.006632834673 1050578.3297247887 0 0 0 0 -5075013.7535467148 -18908855.431086276 0 -18908855.431086276 10250872.962794304 0 0 0 0 -4157891.4931488037 -1694750.6620145738 0 -1694750.6620145738 -3149714.5951832533 0 0 0 0 -959908.89680125192 -566762.29334218428 0 -566762.29334218428 114246.98959093115 0 0 0 0 -1554478.4345550537 219922.14357321337 0 219922.14357321337 2492.3090866866751 0 0 0 0 -3263565.5262206793 -597006.63750744611 0 -597006.63750744611 185522.16864875259 0 0 0 0 -2954486.7508945391 500743.58181875013 0 500743.58181875013 648865.12605644157 0 0 0 0 -1820593.8424682617 -199124.23694044352 0 -199124.23694044352 1166005.3382620811 0 0 0 0 -3978376.5996311121 1484769.1396457292 0 1484769.1396457292 1625835.5823533016 0 0 0 0 -1266954.4207687378 994708.36788618565 0 994708.36788618565 2293169.0972828269 0 0 0 0 -98655178.746513367 24096805.123601675 0 24096805.123601675 79336756.985886574 0 0 0 0 -4461442.1412170716 806511.82626779145 0 806511.82626779145 1618889.5056216468 0 0 0 0 -2138955.5480424911 -653924.71012104675 0 -653924.71012104675 137293.59406004625 0 0 0 0 -1669478.4551391602 568671.39353254437 0 568671.39353254437 1365921.6458729506 0 0 0 0 -3061670.0989379883 -59625.847034715116 0 -59625.847034715116 1891262.5054970384 0 0 0 0 -2760240.6047363281 94316.054209828377 0 94316.054209828377 1748248.394712925 0 0 0 0 -1864929.0373237208 -140673.71030822862 0 -140673.71030822862 165690.36271222023 0 0 0 0 -3135695.4543180466 -430940.82054101676 0 -430940.82054101676 1558809.8283686638 0 0 0 0 -2161812.3531341553 -489742.00191652775 0 -489742.00191652775 1622745.3178813159 0 0 0 0 -4817325.9436950684 3988115.2913930416 0 3988115.2913930416 -4747987.8589837551 0 0 0 0 -535014.21235656738 -9570660.3395347595 0 -9570660.3395347595 -1065170.8944511414 0 0 0 0 -4997430.6095402613 -819514.17645595595 0 -819514.17645595595 802533.96983841248 0 0 0 0 328348.47844669968 321612.17003872059 0 321612.17003872059 3426.4219435965642 0 0 0 0 -67746863.837332726 -117107231.49551933 0 -117107231.49551933 78349901.635890961 0 0 0 0 11234758.302017212 -4330036.0997619629 0 -4330036.0997619629 5018581.8854637146 0 0 0 0 16816625.756565094 20325531.527278662 0 20325531.527278662 -85059020.617151737 0 0 0 0 40446343.025939941 12287942.943129539 0 12287942.943129539 -17928318.201651096 0 0 0 0 -77320137.077026367 27172829.922923565 0 27172829.922923565 9244417.9104428291 0 0 0 0 -185306.38220637385 -59249.220481060445 0 -59249.220481060445 152635.76056392677 0 0 0 0 -14984876.632713318 -15998910.494846821 0 -15998910.494846821 38442452.165179729 0 0 0 0 5414968.292547226 -12009142.204211831 0 -12009142.204211831 5063288.5270776749 0 0 0 0 -16013948.387607098 1380729.9658934325 0 1380729.9658934325 3724244.2433786392 0 0 0 0 -3663327.7079696655 -6136530.1941612959 0 -6136530.1941612959 -154366.28586006165 0 0 0 0 -4700558.2242126465 629396.03597784042 0 629396.03597784042 -612074.15476989746 0 0 0 0 4075987.6046981812 3921634.769274611 0 3921634.769274611 2759223.9803134948 0 0 0 0 11621205.000442505 13092713.238317117 0 13092713.238317117 3145369.4390596151 0 0 0 0 10971839.905361176 5859323.5572781079 0 5859323.5572781079 -1615548.1608273983 0 0 0 0 8128995.3481140137 6069303.1682598591 0 6069303.1682598591 8677269.7878375053 0 0 0 0 -31653868.556243896 -8227610.4771357775 0 -8227610.4771357775 -30202307.631612778 0 0 0 0 15972706.386077881 14107134.976540089 0 14107134.976540089 4268133.3787668943 0 0 0 0 2457158.3697937801 817531.17969205882 0 817531.17969205882 -719186.21715257713 0 0 0 0 3579247.2566833496 1565144.8447163105 0 1565144.8447163105 2279554.326063931 0 0 0 0 -1514191.1696556211 674342.37973050401 0 674342.37973050401 957603.56721597794 0 0 0 0 -93161061.338409424 34407878.551609039 0 34407878.551609039 -50432974.167449951 0 0 0 0 -4457288.4533173554 891642.29830173962 0 891642.29830173962 1254618.1219873228 0 0 0 0 4653021.1101989746 3562780.9171666503 0 3562780.9171666503 -2943983.0272513628 0 0 0 0 10190537.479187012 12629503.907978177 0 12629503.907978177 8149623.9536440372 0 0 0 0 411235.94705019519 105978.93095065467 0 105978.93095065467 -141299.54172465688 0 0 0 0 10000571.957158089 9086993.2854158282 0 9086993.2854158282 11690624.438004494 0 0 0 0 -4710358.6831668578 815002.99724101089 0 815002.99724101089 854423.37146439846 0 0 0 0 38487325.516708374 33623393.275602341 0 33623393.275602341 16404007.060268879 0 0 0 0 4804434.4511184692 7998975.2235728949 0 7998975.2235728949 858713.3265389502 0 0 0 0 1097844.0127029419 6658292.854945913 0 6658292.854945913 4225753.4568474293 0 0 0 0 1808148.9837169647 -544149.72013777308 0 -544149.72013777308 -1007373.5130251646 0 0 0 0 423312.33961677551 1661427.0013676137 0 1661427.0013676137 521181.17015700042 0 0 0 0 -187143.46390914917 150457.05828010663 0 150457.05828010663 1337130.7871788144 0 0 0 0 195845.6443271637 -78333.944767341833 0 -78333.944767341833 -344670.18696291 0 0 0 0 -735545.37756347656 1374608.9671977758 0 1374608.9671977758 1370370.3347203685 0 0 0 0 -592396.71684300527 563705.44996395241 0 563705.44996395241 -337038.1623925335 0 0 0 0 -391184.58305358887 1046667.5952472463 0 1046667.5952472463 197647.21755974926 0 0 0 0 -741060.65588378906 1797650.5937579549 0 1797650.5937579549 902070.90640212013 0 0 0 0 985311.21996631473 1483670.5938686966 0 1483670.5938686966 115366.30752900054 0 0 0 0 -1252077.5463562012 1470918.1836480647 0 1470918.1836480647 948729.72856132686 0 0 0 0 -414605.01156616211 1228450.3219031096 0 1228450.3219031096 1013948.2546278834 0 0 0 0 -706236.80079650879 397263.27084451914 0 397263.27084451914 1367243.500918274 0 0 0 0 -1469121.8385543823 625926.860857483 0 625926.860857483 1643155.4152251258 0 0 0 0 -154464.93807722628 45362.096761539578 0 45362.096761539578 82201.397403471419 0 0 0 0 -1416698.5591840744 513758.06752681977 0 513758.06752681977 582534.38913421566 0 0 0 0 -3092106.165473938 398270.9146468665 0 398270.9146468665 538656.13301318116 0 0 0 0 -1156293.594367981 816857.8427691611 0 816857.8427691611 -1178.7655635122535 0 0 0 0 -379195.983253479 1831523.8247061865 0 1831523.8247061865 560179.89779856312 0 0 0 0 -3386203.983253479 -1700881.5142402831 0 -1700881.5142402831 -1482151.2337330817 0 0 0 0 -14703231.23866272 -1367769.8747805506 0 -1367769.8747805506 1574057.1784301896 0 0 0 0 -7880578.2365493774 481471.89485600282 0 481471.89485600282 -2014.9778347911083 0 0 0 0 -5811953.0030822754 -3792366.3826280953 0 -3792366.3826280953 -2125131.0084864711 0 0 0 0 -5733857.2654876709 -1137210.9712075209 0 -1137210.9712075209 -1501432.3727435488 0 0 0 0 -2141824.8550033569 1856819.3603533814 0 1856819.3603533814 1978599.8186952062 0 0 0 0 482159.28790283203 588690.4293062333 0 588690.4293062333 -1761745.6518654693 0 0 0 0 -2661509.1461639404 -3078086.914256148 0 -3078086.914256148 -655804.11264614947 0 0 0 0 -604086.1795210056 260833.4608723307 0 260833.4608723307 -141360.64330486333 0 0 0 0 -5080565.694978714 334499.99912068911 0 334499.99912068911 437236.1838085507 0 0 0 0 -12165142.624717712 7103507.5340107577 0 7103507.5340107577 973430.911002432 0 0 0 0 -15047406.311132431 -1959135.5852836794 0 -1959135.5852836794 2277494.2300742166 0 0 0 0 -18953137.61089325 2170880.7013643165 0 2170880.7013643165 8000.425778553994 0 0 0 0 -29783330.561820984 -1338487.9972200533 0 -1338487.9972200533 2789555.9581428561 0 0 0 0 -24783572.133342743 6169047.2234389074 0 6169047.2234389074 939806.23546103854 0 0 0 0 -6528965.9861831665 15551963.57941201 0 15551963.57941201 -7478013.9992762674 0 0 0 0 -27498292.006973267 943403.9157058727 0 943403.9157058727 -7167682.9952973053 0 0 0 0 -23284450.103134155 4005034.5375653254 0 4005034.5375653254 96790.357637710869 0 0 0 0 -49906459.719055176 10566783.098472781 0 10566783.098472781 -1520119.4480154337 0 0 0 0 -41248150.905210495 -16610826.245938655 0 -16610826.245938655 -6197543.0449239463 0 0 0 0 28882.201910361648 105361.06579009816 0 105361.06579009816 -25273.068394696726 0 0 0 0 -27917853.853370667 -5018766.7304274747 0 -5018766.7304274747 -52053894.341504768 0 0 0 0 -32369818.14251709 25237365.305369988 0 25237365.305369988 -22601003.020164005 0 0 0 0 -55203270.074005127 -8835902.9193597473 0 -8835902.9193597473 -3832348.071111463 0 0 0 0 -32154748.382537842 2971817.720926851 0 2971817.720926851 470612.16873727739 0 0 0 0 -3597000.1665344238 -2702110.063658678 0 -2702110.063658678 -13932803.378353581 0 0 0 0 -13564506.506240845 -14741560.200745322 0 -14741560.200745322 -13872054.980221227 0 0 0 0 -22887.370565056801 -5419.8586737066507 0 -5419.8586737066507 2470.929850652763 0 0 0 0 5249964.0524291992 818119.88305689394 0 818119.88305689394 -9095043.9634883702 0 0 0 0 695258.33674168214 749836.3921585395 0 749836.3921585395 79168.981041013321 0 0 0 0 -1830547.6816253662 -1411094.8157286644 0 -1411094.8157286644 -6213611.3880798072 0 0 0 0 -6938141.4093399048 -2375286.4872396365 0 -2375286.4872396365 988943.14092805237 0 0 0 0 132146.10503873974 342085.77722392976 0 342085.77722392976 -86494.999918393034 0 0 0 0 -8585848.5305023193 -848209.56576657668 0 -848209.56576657668 649398.27675895393 0 0 0 0 -9348591.1899795532 -7535985.391452536 0 -7535985.391452536 -5103716.5424019881 0 0 0 0 1544267.1371078491 -4136610.9989026934 0 -4136610.9989026934 -14446145.187743604 0 0 0 0 127897.28096008301 1861405.3219582848 0 1861405.3219582848 -11706653.80808552 0 0 0 0 -355591.89347076416 -2393341.764332056 0 -2393341.764332056 -43913890.936376527 0 0 0 0 328391.94680786133 5906950.6495065987 0 5906950.6495065987 -11885691.05256059 0 0 0 0 -4503251.1796188354 14553938.752614915 0 14553938.752614915 3821190.5636880025 0 0 0 0 4862623.182723999 14170895.637837745 0 14170895.637837745 6425873.7569766417 0 0 0 0 7618277.7664031982 9488490.2204402238 0 9488490.2204402238 -10657827.19469294 0 0 0 0 114422.91846466064 582971.46609761938 0 582971.46609761938 -8885167.0194747783 0 0 0 0 6702323.9855041504 6178092.7375461012 0 6178092.7375461012 -5986052.9983348567 0 0 0 0 5238826.0367889404 13590880.640505806 0 13590880.640505806 6836388.0736300349 0 0 0 0 -7616468.5775222778 6721699.5923931748 0 6721699.5923931748 14624282.179023966 0 0 0 0 87122.919128417969 13253316.100654759 0 13253316.100654759 16757407.592520162 0 0 0 0 -571552.17391967773 3294743.9777491093 0 3294743.9777491093 2272162.3795099258 0 0 0 0 -6028932.9779968262 -3009824.7867231369 0 -3009824.7867231369 5242328.0952091217 0 0 0 0 -369987.31513214111 -3522061.9783915281 0 -3522061.9783915281 3359782.5063915253 0 0 0 0 -1070867.2336401679 80022.477579848841 0 80022.477579848841 439456.97722021455 0 0 0 0 -1929247.3803203627 2296489.1603155006 0 2296489.1603155006 1059249.4210306206 0 0 0 0 2917308.7987518311 -784982.48224103451 0 -784982.48224103451 2079442.9245783687 0 0 0 0 8133132.0885009766 2135032.9244091511 0 2135032.9244091511 3903125.9854507446 0 0 0 0 -12196759.919067383 -4909508.6805477887 0 -4909508.6805477887 2905543.1063242555 0 0 0 0 -912066.0439609345 -135315.87477016076 0 -135315.87477016076 132239.95398488964 0 0 0 0 16873079.578791618 29761126.85724552 0 29761126.85724552 14666468.541891873 0 0 0 0 -2585925.8003997803 12352978.779678583 0 12352978.779678583 428335.69905656576 0 0 0 0 -2486039.9543090649 2214771.0902472092 0 2214771.0902472092 991047.31934106548 0 0 0 0 -7013615.8258953094 29070579.369630963 0 29070579.369630963 29826934.694081903 0 0 0 0 18518264.842102051 13797999.646935441 0 13797999.646935441 3841539.0629645362 0 0 0 0 -11968147.70954895 10435991.569482103 0 10435991.569482103 30772401.134130366 0 0 0 0 -8118391.468788147 12178245.588313691 0 12178245.588313691 8418215.4090581834 0 0 0 0 -33160995.152090073 -1900355.2672833074 0 -1900355.2672833074 10150944.891636938 0 0 0 0 -16877768.070205688 4250014.4205001295 0 4250014.4205001295 9727855.8664262034 0 0 0 0 -25478526.44442749 17792590.739009783 0 17792590.739009783 6640007.0279563814 0 0 0 0 -24948082.491500854 4272897.0263028666 0 4272897.0263028666 17386957.044027552 0 0 0 0 -25419761.083404541 10841143.470318064 0 10841143.470318064 20591771.808509916 0 0 0 0 -2211547.721244812 13906623.092477847 0 13906623.092477847 14635189.463365674 0 0 0 0 -16980763.863876343 -6898781.8205976933 0 -6898781.8205976933 3888276.1606859518 0 0 0 0 -34628160.660686493 -14584137.06565007 0 -14584137.06565007 4414025.6617040187 0 0 0 0 -21746110.409194946 -7197067.3049590439 0 -7197067.3049590439 8469702.7738048434 0 0 0 0 -13395490.259390831 -8312519.2804296436 0 -8312519.2804296436 -74207.626766219735 0 0 0 0 -14455228.51133728 -4173829.6921254918 0 -4173829.6921254918 6826505.9961226881 0 0 0 0 -12118625.361030579 972846.16393622011 0 972846.16393622011 10136509.906832322 0 0 0 0 -18880868.439422607 -4254941.9549596161 0 -4254941.9549596161 11489078.568655312 0 0 0 0 -12900016.736160278 577589.80731058121 0 577589.80731058121 10147396.844183773 0 0 0 0 -9978331.5523681641 14225055.59856461 0 14225055.59856461 20188412.783607543 0 0 0 0 -9257186.8214797974 4604098.3572213203 0 4604098.3572213203 12103883.484580204 0 0 0 0 -5903369.1175231934 9052122.7113492787 0 9052122.7113492787 11281828.564296931 0 0 0 0 -14405910.769842148 4117689.4492393918 0 4117689.4492393918 16121684.196487188 0 0 0 0 -3468047.1585769653 7921541.7706323937 0 7921541.7706323937 7663163.2765859365 0 0 0 0 -5040327.0225067139 6829059.0819809735 0 6829059.0819809735 17852105.718885005 0 0 0 0 13402557.900759697 6979082.3671730086 0 6979082.3671730086 9421959.1573708355 0 0 0 0 411473.06159472466 207294.46356468089 0 207294.46356468089 -217479.92042586103 0 0 0 0 -3408379.491250528 1964934.981800383 0 1964934.981800383 620625.70169284754 0 0 0 0 -2473683.3532867432 28771877.882475019 0 28771877.882475019 -10449215.934591532 0 0 0 0 -2475460.8617172241 5297400.9584789723 0 5297400.9584789723 1000919.2244682312 0 0 0 0 -5144494.3316955566 5074503.4705284536 0 5074503.4705284536 5390894.6137745678 0 0 0 0 -7151909.888168335 6481114.917189762 0 6481114.917189762 9499087.7381754965 0 0 0 0 -2743100.0280685425 5514223.6125758141 0 5514223.6125758141 4338752.3109179884 0 0 0 0 -8965955.6083431244 2987601.5770527348 0 2987601.5770527348 5933699.3226555288 0 0 0 0 -7482894.6261978149 3114894.9835675508 0 3114894.9835675508 5941109.738080807 0 0 0 0 -8188691.2362060547 1646028.2342674732 0 1646028.2342674732 2905896.3622525632 0 0 0 0 -6312579.7562408447 1894505.2718253583 0 1894505.2718253583 -323388.66958248615 0 0 0 0 -6603019.2461166382 1699406.7297407091 0 1699406.7297407091 2907645.6971853757 0 0 0 0 17450191.577084541 -720403.69575569779 0 -720403.69575569779 603890.07415878773 0 0 0 0 -3815675.6368963644 2149653.6583490148 0 2149653.6583490148 624660.48019143776 0 0 0 0 -6784129.7117233276 1845775.9186138362 0 1845775.9186138362 1971926.5336778313 0 0 0 0 2608711.2012634277 -7113745.864402473 0 -7113745.864402473 8125300.0385951996 0 0 0 0 17164465.319091797 -3236799.1044130921 0 -3236799.1044130921 -5541467.8066573143 0 0 0 0 -5313454.0803451538 2705194.7168756947 0 2705194.7168756947 1424724.4886203408 0 0 0 0 14196925.520004272 -1374436.2960038781 0 -1374436.2960038781 4408566.8402830958 0 0 0 0 12381646.8074646 -3195630.6251135767 0 -3195630.6251135767 -3228396.4044032097 0 0 0 0 11749009.818771362 -3496005.2351742387 0 -3496005.2351742387 3083795.4847960472 0 0 0 0 1749208.2194137573 5875084.6282992959 0 5875084.6282992959 -8418097.3891925812 0 0 0 0 1504799.7092895508 15170046.800153255 0 15170046.800153255 -27584363.634218793 0 0 0 0 16402119.930633545 -4696682.5888354182 0 -4696682.5888354182 -3182603.6914869547 0 0 0 0 -3096775.5297241211 13440774.072375655 0 13440774.072375655 -3022103.418990612 0 0 0 0 -13583892.554519653 18400102.380781174 0 18400102.380781174 -4960231.8522530794 0 0 0 0 -12446178.239151001 4819096.2024902105 0 4819096.2024902105 3353406.2232746482 0 0 0 0 -10132764.803260803 22544198.552255154 0 22544198.552255154 1256.9664089679718 0 0 0 0 -1881925.6089935303 21526351.589805245 0 21526351.589805245 -13785975.846191227 0 0 0 0 -12765665.501312256 28136267.9435184 0 28136267.9435184 -9264011.4616470337 0 0 0 0 -9390395.7048034668 34073550.349467039 0 34073550.349467039 -28466613.367684782 0 0 0 0 -34478589.416175842 30618826.887199551 0 30618826.887199551 -45740682.019322649 0 0 0 0 -65352664.520843506 1222812.477093935 0 1222812.477093935 70864474.166035175 0 0 0 0 -8770866.28125 -31279126.587953925 0 -31279126.587953925 40827240.67873466 0 0 0 0 -60677698.363533974 41563052.448212966 0 41563052.448212966 17852524.212136507 0 0 0 0 -28923680.303314209 46534857.896565199 0 46534857.896565199 -17846592.489625692 0 0 0 0 -21804554.534698486 4397678.0930929184 0 4397678.0930929184 35651188.442168593 0 0 0 0 -14358501.967433929 25108984.935465604 0 25108984.935465604 6143396.7613499165 0 0 0 0 -7255626.6960296631 8825288.8095145226 0 8825288.8095145226 15957977.074476242 0 0 0 0 -24729263.051086426 22566069.778867364 0 22566069.778867364 6187587.5911675692 0 0 0 0 -3240805.49659729 -6685630.0523661375 0 -6685630.0523661375 20381245.532523006 0 0 0 0 -8572058.1583824158 4168953.6274402738 0 4168953.6274402738 10583337.407979965 0 0 0 0 18968722.427238464 -19165116.925027192 0 -19165116.925027192 14458964.992616653 0 0 0 0 -15837335.877822876 -471693.3569880724 0 -471693.3569880724 18905292.613115311 0 0 0 0 5137127.016166687 -4247627.6993145943 0 -4247627.6993145943 7479124.9888622761 0 0 0 0 2632172.8596038818 -2787740.1991283894 0 -2787740.1991283894 7626194.4963386059 0 0 0 0 -851507.77267456055 1949626.7725600004 0 1949626.7725600004 9919597.8796766996 0 0 0 0 -318697.83274557441 23689.463424006477 0 23689.463424006477 132819.04616776889 0 0 0 0 -11788758.567153931 -12539209.360096931 0 -12539209.360096931 7169736.1466038525 0 0 0 0 -2366340.8436737061 12732315.066734791 0 12732315.066734791 5793134.0275065899 0 0 0 0 -12335910.647827148 21023466.362990379 0 21023466.362990379 -213180.49449858069 0 0 0 0 -2493264.6901702881 3122279.6974265575 0 3122279.6974265575 -258511.38937145472 0 0 0 0 -4322186.2924613953 -2844935.7440713644 0 -2844935.7440713644 1378329.8726172447 0 0 0 0 -374716.47924593091 831201.77612521872 0 831201.77612521872 231841.89411988913 0 0 0 0 2429255.2354507446 15682164.794561148 0 15682164.794561148 -7128267.9793463945 0 0 0 0 -5145826.0700454712 2196638.2139273882 0 2196638.2139273882 2630546.9413683414 0 0 0 0 -1214483.4721077606 420017.73796506785 0 420017.73796506785 359978.89054358797 0 0 0 0 -8388347.5903205872 2242173.110183239 0 2242173.110183239 2444348.2266306877 0 0 0 0 -6572515.7182502747 -205783.22003540397 0 -205783.22003540397 3371548.6065621451 0 0 0 0 -2672695.4807870016 380263.51241461514 0 380263.51241461514 1434917.5567990937 0 0 0 0 -2646232.8778725583 587185.16758419387 0 587185.16758419387 1522477.9672204992 0 0 0 0 -6706929.4640579224 1207375.0416719541 0 1207375.0416719541 1436396.2361426055 0 0 0 0 -6919603.2992553711 459595.52216139436 0 459595.52216139436 2461472.7710889131 0 0 0 0 -7741327.5699157715 -683113.53221597522 0 -683113.53221597522 5324301.1460868567 0 0 0 0 -7823202.8047943115 886111.6638295427 0 886111.6638295427 4367238.3381726444 0 0 0 0 -7709758.264541626 -820421.00526130199 0 -820421.00526130199 3082303.2244087644 0 0 0 0 -3821725.8446540833 -1657844.7801858261 0 -1657844.7801858261 2457176.8723300658 0 0 0 0 -8474669.2688369751 -3225007.2229133099 0 -3225007.2229133099 5185405.73509771 0 0 0 0 -11164946.39120388 -2501793.9276530398 0 -2501793.9276530398 5006862.4812762141 0 0 0 0 -3983733.8436355591 -1308182.1491066813 0 -1308182.1491066813 101730.26140664984 0 0 0 0 -7511491.2629451752 -4897111.0964841368 0 -4897111.0964841368 978876.33577357233 0 0 0 0 -7668617.225151062 -5255732.1639304087 0 -5255732.1639304087 -337141.25221282244 0 0 0 0 685633.66884613037 373080.85081881657 0 373080.85081881657 1302916.6020709006 0 0 0 0 -17461112.356151581 5310640.7535990477 0 5310640.7535990477 8856757.205488205 0 0 0 0 -1301520.8342769574 367831.19341309927 0 367831.19341309927 1419411.5949019738 0 0 0 0 -3202606.666601181 -2856482.8970168382 0 -2856482.8970168382 2197362.345328182 0 0 0 0 337846.09371948242 -8796039.4740084708 0 -8796039.4740084708 15214455.841020107 0 0 0 0 -247045.71446064115 153039.81157416105 0 153039.81157416105 14901.393221504521 0 0 0 0 -3364448.6023406982 10082568.321851492 0 10082568.321851492 21904254.874026775 0 0 0 0 -4506850.3709030151 2389371.7181913853 0 2389371.7181913853 -1296329.4503879547 0 0 0 0 1705953.5779266357 11796595.182519436 0 11796595.182519436 -2705521.684684664 0 0 0 0 2853225.6907157898 4609048.9472386539 0 4609048.9472386539 -12262716.779800415 0 0 0 0 -2172811.5863037109 2427564.5328404903 0 2427564.5328404903 -2859001.2139959335 0 0 0 0 -7122222.4759216309 8154302.1837610006 0 8154302.1837610006 -3721230.2782082558 0 0 0 0 8955.1702123656869 -17173.834155368619 0 -17173.834155368619 37317.219808786918 0 0 0 0 2720591.5971336365 -2747288.7442406006 0 -2747288.7442406006 1167970.2371756136 0 0 0 0 3522624.2262115479 -1237046.8574994057 0 -1237046.8574994057 1802881.0941443145 0 0 0 0 -827230.49320680834 271530.97655574046 0 271530.97655574046 1319390.5374459729 0 0 0 0 117261.54179763794 -1829889.7421254702 0 -1829889.7421254702 2652785.0922064707 0 0 0 0 -492974.03318405151 -154920.88177753333 0 -154920.88177753333 588432.57904367149 0 0 0 0 -47948.778625488281 -1476255.0539527461 0 -1476255.0539527461 4503395.562063016 0 0 0 0 5515253.5078125 -473532.66407009587 0 -473532.66407009587 4259136.6316895774 0 0 0 0 -525916.56942749023 226781.10561496019 0 226781.10561496019 6688450.9663953707 0 0 0 0 -198194.20018005371 329271.28079926688 0 329271.28079926688 2848886.0408743396 0 0 0 0 3608613.3333740234 508866.50935798511 0 508866.50935798511 2724633.510735143 0 0 0 0 -3399592.394903183 2493097.0113888239 0 2493097.0113888239 3124492.684508197 0 0 0 0 -1529576.8938598633 492600.22879894823 0 492600.22879894823 1895885.5170156583 0 0 0 0 -1793518.9287872314 794611.8387381956 0 794611.8387381956 4560174.6986130178 0 0 0 0 -2909602.014755249 633638.69862525072 0 633638.69862525072 3837221.9128926564 0 0 0 0 330937.61332702637 797026.2486166507 0 797026.2486166507 785988.84261653945 0 0 0 0 -566190.46734619141 186718.94660036545 0 186718.94660036545 3029771.0699121952 0 0 0 0 -599336.19489669427 530223.55788890738 0 530223.55788890738 614192.37330914068 0 0 0 0 2218632.4706306458 -1291100.8425014212 0 -1291100.8425014212 2432611.164287284 0 0 0 0 1786738.3275146484 604145.61696040537 0 604145.61696040537 1437344.4201087225 0 0 0 0 685664.74931335449 -2074500.8694182448 0 -2074500.8694182448 2129029.3657298163 0 0 0 0 -30237.298879623413 -1034072.8987551368 0 -1034072.8987551368 5582941.4214110095 0 0 0 0 104663.21760177612 -2899915.0268959869 0 -2899915.0268959869 4260928.6951350747 0 0 0 0 6288313.7843780518 -6227666.7553113103 0 -6227666.7553113103 7500680.9237723053 0 0 0 0 6511632.8928833008 -6782287.0242763907 0 -6782287.0242763907 8335222.5225203922 0 0 0 0 13266.363779744133 59792.122804973274 0 59792.122804973274 -45673.83623318639 0 0 0 0 1663913.3348007202 -579469.83836919907 0 -579469.83836919907 8728921.4270175099 0 0 0 0 -2441295.7515335083 2734814.1949570617 0 2734814.1949570617 -3347018.1191469701 0 0 0 0 -4713208.2324371338 -4260430.2500625569 0 -4260430.2500625569 -8319128.3229020834 0 0 0 0 -2830589.1724472046 -1368682.2308423296 0 -1368682.2308423296 2024703.2651576474 0 0 0 0 -2883074.9619598389 -1753899.7369170487 0 -1753899.7369170487 -789547.53107246757 0 0 0 0 -4213633.3650436401 2531409.7746485379 0 2531409.7746485379 -614791.41793749039 0 0 0 0 -3052064.9210510254 1196092.7159168795 0 1196092.7159168795 2343072.5499946177 0 0 0 0 -3243852.4408683777 865569.74634092208 0 865569.74634092208 1899524.812661618 0 0 0 0 -2576928.4485626221 2413240.8169005457 0 2413240.8169005457 184011.40827207267 0 0 0 0 -5337490.3166351318 4074368.9303864287 0 4074368.9303864287 -84089.888236752638 0 0 0 0 -3996654.538433075 2897210.0673798136 0 2897210.0673798136 -13420.090714177117 0 0 0 0 -5714388.4176211357 2412427.212659617 0 2412427.212659617 -2590358.3293908285 0 0 0 0 -31547.090082399547 -7146.2110065259039 0 -7146.2110065259039 2532.4729046641692 0 0 0 0 -5473174.0995788574 1980107.4576547844 0 1980107.4576547844 363438.17482022312 0 0 0 0 -2622316.0629577637 3865208.443759758 0 3865208.443759758 -2825958.4262239304 0 0 0 0 -12107.55160421133 -999.03839068673551 0 -999.03839068673551 2305.2216430707003 0 0 0 0 -4310900.9540348053 974900.1817710771 0 974900.1817710771 992961.29340348276 0 0 0 0 -10465241.8303442 2623365.5497050877 0 2623365.5497050877 -3070.6410226168346 0 0 0 0 -1046725.3540153503 -1233321.8354417561 0 -1233321.8354417561 -112364.17929939297 0 0 0 0 -3024908.1886825562 735961.75635912176 0 735961.75635912176 162841.79451101887 0 0 0 0 491939.86486816406 -1197416.1466060057 0 -1197416.1466060057 -385176.76738778944 0 0 0 0 194958.60733795166 202187.74691447453 0 202187.74691447453 -645508.37902885489 0 0 0 0 -1552884.4121856689 -367538.20064237341 0 -367538.20064237341 1393533.8563863849 0 0 0 0 -561716.23001098633 -399044.80677444534 0 -399044.80677444534 1714398.4420163222 0 0 0 0 -4135754.9347763062 1255432.7402489963 0 1255432.7402489963 658152.93143977295 0 0 0 0 -2869671.3634643555 4230658.2788548302 0 4230658.2788548302 -5008228.7335950304 0 0 0 0 -1173578.37550354 2428020.2200704571 0 2428020.2200704571 662907.01453872025 0 0 0 0 -1904510.9392089844 2258382.0667676479 0 2258382.0667676479 -2835578.9033124479 0 0 0 0 -8988962.9022979736 2127902.3489056886 0 2127902.3489056886 -410378.71576452232 0 0 0 0 -7696409.2417984009 8227308.8926655669 0 8227308.8926655669 -3802695.9981104699 0 0 0 0 -7557694.4260559082 3895663.9074817142 0 3895663.9074817142 -1155.063821642183 0 0 0 0 -3137741.7023620605 -21280.169555136388 0 -21280.169555136388 -1547006.1277785879 0 0 0 0 -2235198.2345695496 1111816.8005998903 0 1111816.8005998903 -1101225.6377895651 0 0 0 0 182028.26369476318 -780757.34497721842 0 -780757.34497721842 -3127.0636092641334 0 0 0 0 64146.030078887939 -532180.20517149253 0 -532180.20517149253 2574168.7131985072 0 0 0 0 622511.66074371338 -1460440.1373984017 0 -1460440.1373984017 1335437.7453874217 0 0 0 0 -664213.6330171451 534079.37605201174 0 534079.37605201174 506401.47127571958 0 0 0 0 621877.1439781189 -292112.37963007891 0 -292112.37963007891 537671.89097752026 0 0 0 0 856785.6595954895 -391290.29597501043 0 -391290.29597501043 2026.9348432384888 0 0 0 0 -425893.0412539281 549857.71405869164 0 549857.71405869164 -511895.74849781935 0 0 0 0 -306169.39384698868 473229.94595067063 0 473229.94595067063 -2972954.3848998621 0 0 0 0 -140157.92523157597 447150.65916816704 0 447150.65916816704 -527131.76804317383 0 0 0 0 -1464562.625793457 2756646.3727110219 0 2756646.3727110219 1233.2422689823627 0 0 0 0 -539009.21590423584 1389740.8430263114 0 1389740.8430263114 -1959028.0226693084 0 0 0 0 -1095297.6672668457 4560941.6297069257 0 4560941.6297069257 -2641265.4384988341 0 0 0 0 -115411.62351590209 136489.4331722185 0 136489.4331722185 66552.947104663195 0 0 0 0 -790706.19491577148 457978.39674614323 0 457978.39674614323 -4280267.0814730264 0 0 0 0 67868782.216299057 -1379646.3188084215 0 -1379646.3188084215 -36455175.639111519 0 0 0 0 -451213.46013257932 1073182.6018891782 0 1073182.6018891782 -888339.14702225535 0 0 0 0 -1742220.0178394318 1046529.712323772 0 1046529.712323772 -214954.56002370827 0 0 0 0 -687999.86357918754 402298.93654196244 0 402298.93654196244 210804.84121711255 0 0 0 0 -1177551.9567642212 1154416.9250466824 0 1154416.9250466824 -812988.08339452744 0 0 0 0 -658658.42084121704 1663468.6602309942 0 1663468.6602309942 -957350.98328137398 0 0 0 0 500234.0020942688 1004207.9295700788 0 1004207.9295700788 -1831469.0535955429 0 0 0 0 -568753.14896206465 863101.93575691618 0 863101.93575691618 -568633.21910541598 0 0 0 0 -262976.66627502441 568326.58628225327 0 568326.58628225327 -804558.00537386537 0 0 0 0 -1062398.7564430237 1493968.236995101 0 1493968.236995101 -1648462.1667642593 0 0 0 0 -3313897.3841934204 3014665.7466034889 0 3014665.7466034889 -3292572.9741570055 0 0 0 0 -1260507.6407241821 1109644.2911356688 0 1109644.2911356688 -1547357.2348330021 0 0 0 0 -61812.395920449868 123568.35198508576 0 123568.35198508576 -169367.06217089808 0 0 0 0 308318.02047729492 1197298.2218314409 0 1197298.2218314409 -8786165.5910143852 0 0 0 0 -3442171.5511748791 5269788.2796764672 0 5269788.2796764672 -7160080.2061910629 0 0 0 0 732058.1485748291 -563501.09372496605 0 -563501.09372496605 -3079032.816847682 0 0 0 0 -1715050.8968811035 2053499.1214300394 0 2053499.1214300394 -2682633.6126365662 0 0 0 0 -1906595.7830505371 2122872.2455633879 0 2122872.2455633879 -1168201.6868715286 0 0 0 0 -1702176.4536037445 1993554.5044512749 0 1993554.5044512749 -1220426.7197377682 0 0 0 0 -391794.93237304688 2088883.7100629807 0 2088883.7100629807 -2890916.8516016006 0 0 0 0 -161395.96813951991 467158.99587409385 0 467158.99587409385 -634003.46001253731 0 0 0 0 -1132461.9217071533 -75091571.179253936 0 -75091571.179253936 9953186.6407945082 0 0 0 0 -35955559.885757446 -7237111.6280725896 0 -7237111.6280725896 -27634616.120810598 0 0 0 0 -231700687.9747715 -26672044.520537283 0 -26672044.520537283 8595211.0065402389 0 0 0 0 -324292.53963793814 -3501.5612472887151 0 -3501.5612472887151 14984.655525202215 0 0 0 0 -191000934.11959076 65256596.139108054 0 65256596.139108054 -3785423.3634844376 0 0 0 0 -179692087.25793457 -67338134.822529033 0 -67338134.822529033 47654679.762124628 0 0 0 0 -363005707.82455444 -5543429.5819259649 0 -5543429.5819259649 186520.68421678341 0 0 0 0 -342663193.35597229 67011120.337518841 0 67011120.337518841 -3681622.5680525303 0 0 0 0 -392941365.26996613 13273847.993757978 0 13273847.993757978 69668717.883936554 0 0 0 0 -224383459.38081455 3942133.6103853118 0 3942133.6103853118 57786680.483243644 0 0 0 0 -372675330.7144165 53295159.639286935 0 53295159.639286935 43365096.412899315 0 0 0 0 -359526369.39646912 -21122901.489252955 0 -21122901.489252955 46529836.559406579 0 0 0 0 -171214641.07372093 43675841.800636232 0 43675841.800636232 30283568.263843343 0 0 0 0 -198791867.88928986 -10759990.154515922 0 -10759990.154515922 28561141.601229336 0 0 0 0 -202763451.3970108 -6274738.1176997349 0 -6274738.1176997349 -51245889.693814352 0 0 0 0 -199780564.96664667 -29334701.524487834 0 -29334701.524487834 66305533.677593626 0 0 0 0 -123043.92367680743 247578.63883388042 0 247578.63883388042 -465149.54285552725 0 0 0 0 -962913.69891357422 1072851.8365616538 0 1072851.8365616538 -3391.7402857969973 0 0 0 0 -1009730.812789917 1374466.7271377083 0 1374466.7271377083 -1939233.339713142 0 0 0 0 -4591510.323387146 -32475729.560155928 0 -32475729.560155928 33965253.559846833 0 0 0 0 -4193377.6884460449 -31478817.58688879 0 -31478817.58688879 -24601495.960582465 0 0 0 0 -102296053.96127319 18098262.932242572 0 18098262.932242572 -19185366.903828692 0 0 0 0 6611952.4798622131 -51038629.26083833 0 -51038629.26083833 -33497702.469649911 0 0 0 0 19664181.420249939 24904501.019283056 0 24904501.019283056 27596954.525080681 0 0 0 0 -21304747.564098358 63169856.040126443 0 63169856.040126443 -8042189.8149228692 0 0 0 0 -273060.98715657741 -140719.48658724409 0 -140719.48658724409 -141452.25376874406 0 0 0 0 -237600847.23312378 -163459593.53203863 0 -163459593.53203863 123028520.66493773 0 0 0 0 1289451.8397979736 -31064732.386487484 0 -31064732.386487484 -103232787.96387208 0 0 0 0 -223830684.44230366 -31772428.832546733 0 -31772428.832546733 -210819606.33164108 0 0 0 0 -222792864.72436523 -11682456.667983651 0 -11682456.667983651 -27157951.193874419 0 0 0 0 -175404923.57482529 -84989764.312787682 0 -84989764.312787682 -65280277.950580835 0 0 0 0 -259947494.04037094 -19445352.390852541 0 -19445352.390852541 28649431.774915338 0 0 0 0 -158271845.36615753 48631790.747469664 0 48631790.747469664 -3952122.6159804165 0 0 0 0 -472795621.10377312 145829944.30459851 0 145829944.30459851 -21926487.55354315 0 0 0 0 -421447875.64851379 -135914739.27300048 0 -135914739.27300048 -55124971.031711936 0 0 0 0 -550244068.35650635 55671866.748072624 0 55671866.748072624 5025671.2960639 0 0 0 0 -285001337.80700684 -178412561.88144112 0 -178412561.88144112 -46199623.560703367 0 0 0 0 -560753.1600379236 274659.49867814034 0 274659.49867814034 -14312.112475701433 0 0 0 0 -569943334.63350391 -22705959.903269202 0 -22705959.903269202 -66461981.641548157 0 0 0 0 -20932687.598365784 -24473722.658348918 0 -24473722.658348918 20506800.183312654 0 0 0 0 -5600804.6965713501 -28710813.898175955 0 -28710813.898175955 -21480027.518322408 0 0 0 0 -20447180.198532104 82690115.887501091 0 82690115.887501091 -63949052.783385158 0 0 0 0 5142798.6913299561 -14342893.418376237 0 -14342893.418376237 -64093048.089605093 0 0 0 0 -21047778.021377563 39332299.382534951 0 39332299.382534951 -72631287.803097904 0 0 0 0 -131012000.36250687 8928261.8321461678 0 8928261.8321461678 -29722130.796506345 0 0 0 0 -180499262.57789278 -13888479.811282799 0 -13888479.811282799 72831661.031697273 0 0 0 0 -179358782.42788696 -25601580.997898102 0 -25601580.997898102 53197909.51398325 0 0 0 0 -76349365.610929966 586969.87866032124 0 586969.87866032124 30178786.946294069 0 0 0 0 -98113645.432804108 -107833218.43231329 0 -107833218.43231329 -62008878.466690063 0 0 0 0 -293284622.77013397 -20704200.207754374 0 -20704200.207754374 62060753.479263067 0 0 0 0 -497903136.15727234 -85945395.625760674 0 -85945395.625760674 74441877.960336447 0 0 0 0 -236553489.59781647 -46588177.173932076 0 -46588177.173932076 70150858.352961481 0 0 0 0 -266741614.67782211 9356579.9825981855 0 9356579.9825981855 45416175.829455376 0 0 0 0 -169364866.24565125 62581924.143859982 0 62581924.143859982 831975.36860466003 0 0 0 0 -402267936.23884869 221675120.51840231 0 221675120.51840231 -96178889.432359457 0 0 0 0 -87660928.321311951 40656363.37258327 0 40656363.37258327 -7150182.5430033207 0 0 0 0 -94960910.915214539 27682220.144483328 0 27682220.144483328 -5995151.2460707426 0 0 0 0 -740331.1377610825 -183725.37046792265 0 -183725.37046792265 -250980.71259824035 0 0 0 0 -387270.06392756291 359993.58983662724 0 359993.58983662724 -169759.08353688498 0 0 0 0 -36253675.287452698 24986034.721225023 0 24986034.721225023 -21064595.223533154 0 0 0 0 -103922864.49710464 -9074916.7273159027 0 -9074916.7273159027 10670183.869488239 0 0 0 0 -141619312.45591736 19611475.619161606 0 19611475.619161606 3624074.9967710972 0 0 0 0 -144681.70840353984 152966.61963637173 0 152966.61963637173 -56691.913136990741 0 0 0 0 -13121382.26776123 -15537916.9462865 0 -15537916.9462865 -17158268.464360714 0 0 0 0 -72560801.614681244 -93311447.876858354 0 -93311447.876858354 -11646499.879066706 0 0 0 0 -35274506.23563385 -13287830.399921179 0 -13287830.399921179 -39735189.951894432 0 0 0 0 -155932774.96011162 -13660824.946262062 0 -13660824.946262062 48773716.524488449 0 0 0 0 -154352793.59306335 -3084452.3762152195 0 -3084452.3762152195 -36217277.744657993 0 0 0 0 -235710695.00197124 -45162997.652292162 0 -45162997.652292162 70909608.953063965 0 0 0 0 -228130690.57394409 -73367914.911109924 0 -73367914.911109924 6412723.4306492805 0 0 0 0 -157213088.4071312 1582367.8850710392 0 1582367.8850710392 -65915141.703558922 0 0 0 0 -312687552.99694061 -41333467.114245176 0 -41333467.114245176 74021975.620800495 0 0 0 0 -199286024.53887177 -18123959.628871679 0 -18123959.628871679 78608609.604767025 0 0 0 0 -172456486.62530518 -31539638.269395471 0 -31539638.269395471 60938069.130498648 0 0 0 0 -4486567.0922908783 3936071.651226759 0 3936071.651226759 -2518382.0604336262 0 0 0 0 -376.51412872970104 -8449.089275451377 0 -8449.089275451377 -122497.31723153521 0 0 0 0 5209541.915473938 8240577.3685922623 0 8240577.3685922623 -5635894.2730281353 0 0 0 0 5255996.5932846069 17617350.452356815 0 17617350.452356815 -6033202.1080055237 0 0 0 0 -6182498.7023391724 4712033.6846064329 0 4712033.6846064329 23772599.312934875 0 0 0 0 6842904.8944792747 -11705802.127349481 0 -11705802.127349481 209150.15361690521 0 0 0 0 11292774.419242859 17011213.5589118 0 17011213.5589118 -282775.68759536743 0 0 0 0 49561.048004150391 987887.48803973198 0 987887.48803973198 -10829261.232926607 0 0 0 0 39313.554573059082 -1739361.9078395367 0 -1739361.9078395367 -3957699.2424216866 0 0 0 0 -964538.87879562378 -38135.367368817329 0 -38135.367368817329 -29600.958246707916 0 0 0 0 -796728.05430603027 -101469.12911081314 0 -101469.12911081314 -1865181.9525962621 0 0 0 0 -120583.4707585983 107718.66073934175 0 107718.66073934175 -307458.04288277077 0 0 0 0 -447360.71771621704 573070.50609958172 0 573070.50609958172 -597814.92505335808 0 0 0 0 2030087.2827148438 -2845090.9943654537 0 -2845090.9943654537 -6553466.1722340584 0 0 0 0 -1506538.7978258133 -1790095.3904685676 0 -1790095.3904685676 -6862824.7410037518 0 0 0 0 16298336.696472168 8638321.4196381569 0 8638321.4196381569 -17944033.790437222 0 0 0 0 521337.75755310059 441410.21607255936 0 441410.21607255936 -13402892.219404697 0 0 0 0 12398245.548519135 28392088.698233485 0 28392088.698233485 9791447.6085169315 0 0 0 0 13019177.419155121 20553842.821876287 0 20553842.821876287 -40598617.799029887 0 0 0 0 2656329.984916687 14993383.542179585 0 14993383.542179585 -971132.4906167984 0 0 0 0 5161037.985244751 8723180.4645227194 0 8723180.4645227194 8319486.3087471724 0 0 0 0 10342413.874965668 18933547.824069083 0 18933547.824069083 -2321003.9767456055 0 0 0 0 343856.45497131348 11407437.712059498 0 11407437.712059498 -7605896.4442811012 0 0 0 0 -5550146.3686599731 14995802.471282005 0 14995802.471282005 2377902.8180446625 0 0 0 0 7597009.7199554443 6219231.3733065128 0 6219231.3733065128 -1952020.5813837051 0 0 0 0 -7853568.2095184326 5747770.5591869354 0 5747770.5591869354 -1767859.5819946527 0 0 0 0 -2410574.366027832 16024129.856763124 0 16024129.856763124 -55022.182929515839 0 0 0 0 -17491593.241214752 3374265.361289978 0 3374265.361289978 32640063.451483727 0 0 0 0 -4730913.2081821263 814823.71127000311 0 814823.71127000311 363972.75508077221 0 0 0 0 -66178927.752555847 64742308.13768816 0 64742308.13768816 21423701.796663761 0 0 0 0 239444.59997481853 144142.50556359626 0 144142.50556359626 -457477.22939471644 0 0 0 0 14184527.591873169 9561586.1793973446 0 9561586.1793973446 -35234933.468874276 0 0 0 0 -82923448.859107971 -2531402.5064170361 0 -2531402.5064170361 7430905.0263032913 0 0 0 0 16398424.752601624 17964606.494552851 0 17964606.494552851 -39072615.852107167 0 0 0 0 6829039.9333133698 13363248.023857951 0 13363248.023857951 -22727858.169173241 0 0 0 0 -2331194.9429912567 15999597.318754494 0 15999597.318754494 55822840.261521339 0 0 0 0 -3539908.2568942457 724396.28217128431 0 724396.28217128431 125244.94830804125 0 0 0 0 -19941431.483184814 7457728.9843249917 0 7457728.9843249917 -10864309.855715752 0 0 0 0 10412643.824329376 20422217.121105313 0 20422217.121105313 -52475778.824431956 0 0 0 0 -291669.3025932312 20540262.796278954 0 20540262.796278954 7767458.0894076824 0 0 0 0 4910206.2134552002 20126806.615903616 0 20126806.615903616 -8379476.7830052972 0 0 0 0 -985348.69635120779 808084.11326277629 0 808084.11326277629 436836.75767148292 0 0 0 0 -4557563.5585722923 4094883.2454879135 0 4094883.2454879135 27374787.345363379 0 0 0 0 -32876023.30141449 -207686.06043195724 0 -207686.06043195724 1350681.7321300507 0 0 0 0 -97576037.713973999 -29826900.446371794 0 -29826900.446371794 8905945.8715076447 0 0 0 0 -50065.986892070621 76405.808939651586 0 76405.808939651586 34563.679617148126 0 0 0 0 -10607250.860275269 18665309.572849989 0 18665309.572849989 18122232.791771412 0 0 0 0 -11854152.042514801 27060230.018285513 0 27060230.018285513 39076720.770521164 0 0 0 0 19343027.159679413 13140961.397982836 0 13140961.397982836 7536431.4736009836 0 0 0 0 323741.33750161901 485178.50959739089 0 485178.50959739089 -860771.3586165905 0 0 0 0 -34315156.885248184 -4480660.7668728828 0 -4480660.7668728828 19931712.86690712 0 0 0 0 -46120502.62726593 655576.17422294617 0 655576.17422294617 43447089.54957819 0 0 0 0 -44622073.954223633 -17337480.786683083 0 -17337480.786683083 12894022.076199532 0 0 0 0 16368571.537658691 -2517357.9507536888 0 -2517357.9507536888 -12449174.510507464 0 0 0 0 -356270672.46524811 -155492069.17771667 0 -155492069.17771667 -174041058.40839195 0 0 0 0 -182026310.69531631 897690.98211562634 0 897690.98211562634 -97582752.65204978 0 0 0 0 -269849687.42363167 110673644.52577293 0 110673644.52577293 -168947906.489995 0 0 0 0 -370223266.15622711 5230989.2823607922 0 5230989.2823607922 37335161.729149342 0 0 0 0 -241143859.15878487 -173107482.75874287 0 -173107482.75874287 -7950899.6922750473 0 0 0 0 -837736.27860228717 142048.43290941231 0 142048.43290941231 -20266.083376843453 0 0 0 0 -417461486.87038422 87714114.914225221 0 87714114.914225221 47829076.034870625 0 0 0 0 -39027189.508796692 78923062.6151793 0 78923062.6151793 -229518341.9049511 0 0 0 0 -25440249.497612 -12248891.270182371 0 -12248891.270182371 -64494868.245537758 0 0 0 0 -2301925.0701864883 474226.30958393274 0 474226.30958393274 16059.52940072809 0 0 0 0 -75230249.425140381 14491623.004926682 0 14491623.004926682 98087744.656425238 0 0 0 0 34441167.979316711 16871199.201216936 0 16871199.201216936 -106015329.38578157 0 0 0 0 -998236.04035437107 684493.53308784496 0 684493.53308784496 487758.76273361314 0 0 0 0 -21583421.054893494 -2282402.3390226364 0 -2282402.3390226364 95070385.757247686 0 0 0 0 -37985870.236061096 96461038.358862162 0 96461038.358862162 -85023969.929155111 0 0 0 0 -39597204.348999023 61316570.801766992 0 61316570.801766992 -17267470.929368973 0 0 0 0 -64093643.925418854 71917322.006227732 0 71917322.006227732 -76645569.409065723 0 0 0 0 57694293.514686584 59807843.555452108 0 59807843.555452108 -42739092.683864713 0 0 0 0 -148502364.76216316 -113020731.69133067 0 -113020731.69133067 180233628.53746891 0 0 0 0 -478929.60778168961 310531.61129184533 0 310531.61129184533 235935.06086731656 0 0 0 0 -120153850.33581161 177888656.2297188 0 177888656.2297188 -239667872.31579494 0 0 0 0 -329374705.75865173 16763462.911719799 0 16763462.911719799 -25388864.427255869 0 0 0 0 -40476108.188209534 -5077775.6571602821 0 -5077775.6571602821 -38324839.503829062 0 0 0 0 -194165780.94181061 -106247346.96708477 0 -106247346.96708477 -67265223.728555679 0 0 0 0 2920394.2071266174 -65664266.344337106 0 -65664266.344337106 -4135952.5848183632 0 0 0 0 -192459674.15885162 -97170044.947756886 0 -97170044.947756886 -3111654.1986320019 0 0 0 0 -63527264.582702637 77179977.543955922 0 77179977.543955922 143832549.54266477 0 0 0 0 -113065459.45357513 -13257897.020258009 0 -13257897.020258009 68166532.08289814 0 0 0 0 -495286.33419954404 533156.40052144346 0 533156.40052144346 -91138.282170076302 0 0 0 0 25405073.556880951 12506488.301487684 0 12506488.301487684 31101115.033054397 0 0 0 0 -24812483.99874115 -21475348.102247 0 -21475348.102247 30621808.49035567 0 0 0 0 40292499.624607086 84718545.218424857 0 84718545.218424857 -79255318.039212942 0 0 0 0 -214016.78725881502 355663.35882096575 0 355663.35882096575 -72276.941266784153 0 0 0 0 -53763170.206371307 139806106.85644501 0 139806106.85644501 -57106136.423196316 0 0 0 0 -194890581.67725372 113641461.2410531 0 113641461.2410531 -17293599.338922005 0 0 0 0 -208029258.42564392 105624768.48500729 0 105624768.48500729 14810565.750243425 0 0 0 0 -102183606.00057983 21504948.466291428 0 21504948.466291428 81150488.14531517 0 0 0 0 -122972483.25565338 7076124.5519577265 0 7076124.5519577265 25970634.646085978 0 0 0 0 -96843357.710235596 32913222.633597612 0 32913222.633597612 38199346.705462098 0 0 0 0 -49609724.164672852 43234979.829943776 0 43234979.829943776 23813493.904840231 0 0 0 0 -13598128.920612335 40691305.023262702 0 40691305.023262702 21016015.369995117 0 0 0 0 -20483749.681751251 15046226.324899122 0 15046226.324899122 46375245.815738216 0 0 0 0 7589382.2749557495 -14562650.292893037 0 -14562650.292893037 26686325.050007224 0 0 0 0 24665607.803150177 15578551.429416358 0 15578551.429416358 19598988.459122419 0 0 0 0 5495789.039768219 1410155.148388207 0 1410155.148388207 28360148.033302665 0 0 0 0 35476847.202075958 10576315.034343749 0 10576315.034343749 21854934.053686142 0 0 0 0 17426709.047374725 17642503.721591741 0 17642503.721591741 88215118.657948405 0 0 0 0 2393239.8335189819 -10932270.471708894 0 -10932270.471708894 55815299.126351506 0 0 0 0 -38450540.405677795 32680241.456421137 0 32680241.456421137 19536474.489849091 0 0 0 0 5184271.219956398 -714354.97855396569 0 -714354.97855396569 16933930.723541975 0 0 0 0 -17587594.876468658 20588483.739148736 0 20588483.739148736 11471996.613784552 0 0 0 0 -41465176.076457977 17003800.896515131 0 17003800.896515131 32090022.432045698 0 0 0 0 -46335848.069473267 -10924584.22109431 0 -10924584.22109431 26734347.956362367 0 0 0 0 -42223008.116214752 -6010744.2750654221 0 -6010744.2750654221 11457216.729337931 0 0 0 0 -52523552.313696861 2917401.6988157332 0 2917401.6988157332 35023478.534352541 0 0 0 0 -21324894.675682068 -3775629.9910430908 0 -3775629.9910430908 22782107.433906257 0 0 0 0 -23172177.708206177 3550616.4182152748 0 3550616.4182152748 34476739.52962631 0 0 0 0 30281686.922363281 25470293.474520445 0 25470293.474520445 62403151.105751276 0 0 0 0 -12556877.122055054 5453156.5159451962 0 5453156.5159451962 32524749.296483517 0 0 0 0 27193732.057670593 34175173.17831707 0 34175173.17831707 42388513.037448883 0 0 0 0 -107285.78317305446 35661.93562601693 0 35661.93562601693 -272194.17654680833 0 0 0 0 33574568.213508606 20962772.333128452 0 20962772.333128452 -5510628.7091023326 0 0 0 0 20369756.581897736 59718925.675564826 0 59718925.675564826 67425797.085188866 0 0 0 0 9946704.5193023682 32853924.74745512 0 32853924.74745512 82526140.250953078 0 0 0 0 17494391.030738831 30465510.663215995 0 30465510.663215995 28645709.522435665 0 0 0 0 6943758.9231719971 -25286978.006198645 0 -25286978.006198645 -5680243.9747653008 0 0 0 0 -203432017.40418243 120305379.50420237 0 120305379.50420237 -53056422.793351531 0 0 0 0 -119121880.9899826 -59189821.820373893 0 -59189821.820373893 30787988.944560766 0 0 0 0 28116.434926029295 40441.354810610414 0 40441.354810610414 -215327.44806108263 0 0 0 0 56499227.345344543 105949697.24843955 0 105949697.24843955 -31586663.314479351 0 0 0 0 -61722094.453414917 156302611.55716646 0 156302611.55716646 -37295436.944108993 0 0 0 0 -13656122.359802246 76825129.689464688 0 76825129.689464688 -893954.09940063953 0 0 0 0 -189634573.47930527 92084488.926023364 0 92084488.926023364 33038047.666871309 0 0 0 0 -14418473.921592712 14196712.837186217 0 14196712.837186217 22647087.936709404 0 0 0 0 55730044.29791069 20787234.008957423 0 20787234.008957423 22177359.496659279 0 0 0 0 4239754.3396377563 68406078.28808701 0 68406078.28808701 -21494829.287589788 0 0 0 0 -49895154.81110096 83572738.327389464 0 83572738.327389464 -168451.7302544117 0 0 0 0 -69555698.856204033 22984905.863633275 0 22984905.863633275 13978701.146934032 0 0 0 0 -66550434.917800903 91254996.463436961 0 91254996.463436961 18746729.134957135 0 0 0 0 -57085269.232025146 74423317.944923401 0 74423317.944923401 31304038.687297069 0 0 0 0 -127004225.02623367 67734832.019700512 0 67734832.019700512 31075777.854297608 0 0 0 0 -149445068.88747787 -22262442.494697295 0 -22262442.494697295 -14695897.189396366 0 0 0 0 -70359967.507350922 24287738.779864252 0 24287738.779864252 12517627.9763484 0 0 0 0 -64279879.067110062 -27856624.425961323 0 -27856624.425961323 -22671248.666464865 0 0 0 0 -38120066.136383057 1486431.4276458025 0 1486431.4276458025 10231143.090816259 0 0 0 0 -54521992.464885712 19381321.701094288 0 19381321.701094288 -26156052.335792247 0 0 0 0 638568.64366912842 14086204.616983771 0 14086204.616983771 -20522407.54073602 0 0 0 0 7422419.3850593567 6089065.3051923066 0 6089065.3051923066 -13274839.322507292 0 0 0 0 -3116842.1065001488 -2854378.6323520839 0 -2854378.6323520839 23211919.543272495 0 0 0 0 -3569208.0994186401 182629.57818651199 0 182629.57818651199 3971772.7532720566 0 0 0 0 -26859983.217926025 -13422768.354248703 0 -13422768.354248703 -960694.13226550817 0 0 0 0 -20578830.753063202 7009223.0095494986 0 7009223.0095494986 13150274.596090317 0 0 0 0 -3479652.3020439148 -10218575.019416451 0 -10218575.019416451 8824658.4574578404 0 0 0 0 -822341.90066719055 -7262488.4613403082 0 -7262488.4613403082 9708940.3495998383 0 0 0 0 -362569.54532315582 430915.06145207491 0 430915.06145207491 330044.65077167621 0 0 0 0 -46330490.045138359 16252887.61050345 0 16252887.61050345 9841320.8183016777 0 0 0 0 -205224.26370241866 226295.69606255554 0 226295.69606255554 175144.87967024063 0 0 0 0 -14245183.590373993 5840943.9280574322 0 5840943.9280574322 15503200.9996171 0 0 0 0 -8739871.1885070801 11888699.493593216 0 11888699.493593216 21181149.207556963 0 0 0 0 -563045.86771392822 -11276216.407077789 0 -11276216.407077789 39501793.116218567 0 0 0 0 4187052.1120567322 5245315.2808338404 0 5245315.2808338404 13649685.138540268 0 0 0 0 5412829.0905532837 -9713221.6397507787 0 -9713221.6397507787 10461285.518295407 0 0 0 0 64217885.768035889 7491434.8902444839 0 7491434.8902444839 18074453.760997295 0 0 0 0 -342362.27179273218 480305.79818789149 0 480305.79818789149 353633.7797976142 0 0 0 0 -15307178.44858551 -3783588.4732662439 0 -3783588.4732662439 25116019.90153259 0 0 0 0 6344594.3643742204 25534525.974522058 0 25534525.974522058 48228904.681484461 0 0 0 0 79880307.878578186 35692801.366753101 0 35692801.366753101 13277105.134944439 0 0 0 0 -944862.89850340504 -446363.50336908177 0 -446363.50336908177 -63161.930514564388 0 0 0 0 9701051.8350601196 13892388.445886441 0 13892388.445886441 10467825.96639885 0 0 0 0 29902179.801597595 14402141.217645407 0 14402141.217645407 1847240.9745610952 0 0 0 0 -3558665.7362520825 -1171991.8642165624 0 -1171991.8642165624 -110081.76246518594 0 0 0 0 58933103.804588318 24653031.933782808 0 24653031.933782808 -3617347.7662066193 0 0 0 0 30129133.185034275 17897177.598415654 0 17897177.598415654 18783116.233722687 0 0 0 0 -30581194.062534332 -7396921.3321062289 0 -7396921.3321062289 5670629.363867268 0 0 0 0 -32879925.178577423 782255.63577256352 0 782255.63577256352 -23430335.413566358 0 0 0 0 -13007542.871347427 10377685.816939585 0 10377685.816939585 21140239.216598988 0 0 0 0 -7740594.8424224854 21348897.405569792 0 21348897.405569792 26465482.190216601 0 0 0 0 -50090310.732715607 -16568043.843825102 0 -16568043.843825102 61551872.548697293 0 0 0 0 -65945565.282840729 -26077097.247929692 0 -26077097.247929692 33191328.08243978 0 0 0 0 -20061403.642951965 12003183.061239064 0 12003183.061239064 618563.06114387512 0 0 0 0 -5167397.504696846 5769648.6360640526 0 5769648.6360640526 -5972374.7518930435 0 0 0 0 -15844503.918352127 -16618214.218304157 0 -16618214.218304157 -13105076.508280247 0 0 0 0 -10814129.881150246 -2444038.9548337758 0 -2444038.9548337758 6837577.6671880484 0 0 0 0 -10838071.310818564 3467564.4185294714 0 3467564.4185294714 4132408.2548469785 0 0 0 0 -13789384.821820736 9130594.1003581285 0 9130594.1003581285 10886663.030404091 0 0 0 0 9318435.6736679077 12248868.911437273 0 12248868.911437273 424222.55410963297 0 0 0 0 -16693050.929144219 -1680148.5612539724 0 -1680148.5612539724 -7925062.6081781387 0 0 0 0 -12962053.693496704 -1478732.0544620752 0 -1478732.0544620752 6648195.4302704334 0 0 0 0 -524733.57247924805 1757922.9612791538 0 1757922.9612791538 5072237.9805894494 0 0 0 0 -10282664.635084599 2896951.3887843965 0 2896951.3887843965 4758320.8820253536 0 0 0 0 -6956629.1225891113 14216091.113500714 0 14216091.113500714 16158977.248587132 0 0 0 0 -12192785.315475464 8834192.8289605379 0 8834192.8289605379 10690044.221477985 0 0 0 0 -23150860.767856598 36237269.354499519 0 36237269.354499519 14744313.728269577 0 0 0 0 9516981.3207607269 27247144.44280684 0 27247144.44280684 26471970.272227764 0 0 0 0 -220150.62152862549 12335432.023102522 0 12335432.023102522 36421938.591485858 0 0 0 0 18606307.405359268 12170724.452245474 0 12170724.452245474 15179395.007861614 0 0 0 0 -2713063.0824279785 3899780.7935507298 0 3899780.7935507298 30201123.77078253 0 0 0 0 -6557260.1212215424 11653956.132492781 0 11653956.132492781 16760495.814345837 0 0 0 0 -44481395.312362671 -4682592.3395707607 0 -4682592.3395707607 42893907.698678493 0 0 0 0 -29095803.655151367 18518608.192374229 0 18518608.192374229 -24742430.906862199 0 0 0 0 -8477747.6470489502 -4084801.102312088 0 -4084801.102312088 -6828578.6580147743 0 0 0 0 -10913260.678817749 -11199096.714995861 0 -11199096.714995861 8806457.6329188347 0 0 0 0 4841353.022277832 36477779.04175663 0 36477779.04175663 -29194107.757687569 0 0 0 0 -190950.99570104852 284695.70219592005 0 284695.70219592005 202941.79746424884 0 0 0 0 4227026.8498268127 60504273.516414285 0 60504273.516414285 -2752722.7929627895 0 0 0 0 41998087.878173828 53351350.454571247 0 53351350.454571247 -1675600.8081068993 0 0 0 0 -69406213.7159729 306822.4025374651 0 306822.4025374651 8226090.0829143524 0 0 0 0 -240297.83951906115 -43340.018463628367 0 -43340.018463628367 10953.659314804128 0 0 0 0 22241048.110366821 24987539.611974955 0 24987539.611974955 17020514.487954497 0 0 0 0 -19033898.004356384 2760732.3946955204 0 2760732.3946955204 1197654.9503905252 0 0 0 0 -17342166.97807312 12611313.785755157 0 12611313.785755157 5218109.17212677 0 0 0 0 -43087289.532150269 -3589695.928539753 0 -3589695.928539753 1379335.9630240351 0 0 0 0 -26193641.642913818 15862382.720273972 0 15862382.720273972 -3915981.3617038727 0 0 0 0 -19911542.212219238 4280948.5683946609 0 4280948.5683946609 13462853.609565496 0 0 0 0 -14278220.275009155 9448591.5773017406 0 9448591.5773017406 -311231.59248733521 0 0 0 0 -16799045.498596191 10737840.406298637 0 10737840.406298637 5748834.891497612 0 0 0 0 -25897160.87027359 6363769.1398301125 0 6363769.1398301125 6233050.5267596245 0 0 0 0 -17483957.236261368 13651999.563822508 0 13651999.563822508 820650.00720405579 0 0 0 0 -13343259.580047607 1967042.2857306004 0 1967042.2857306004 963773.13787257671 0 0 0 0 -19523416.47769165 2277879.8355659246 0 2277879.8355659246 1060881.7107868195 0 0 0 0 -1114329.2423433941 132167.99866215326 0 132167.99866215326 382770.80391472718 0 0 0 0 -3227533.9762295149 46934.570834193379 0 46934.570834193379 818243.0788450921 0 0 0 0 -4552392.4414520264 1389408.7422832549 0 1389408.7422832549 1385835.0593055636 0 0 0 0 -3855041.0109329224 1530915.3494656086 0 1530915.3494656086 1251384.0829479098 0 0 0 0 -2998667.5716114044 -332044.78033287823 0 -332044.78033287823 1953828.3308990002 0 0 0 0 -3045990.3717956543 -505569.78449386358 0 -505569.78449386358 1523048.8120855093 0 0 0 0 -3349970.4117158614 656303.40250095725 0 656303.40250095725 1297087.4455438643 0 0 0 0 -9486557.6115264893 5845879.5330076218 0 5845879.5330076218 -3935797.9249115884 0 0 0 0 -11892322.288803101 9024063.3169503212 0 9024063.3169503212 -6421111.4891777039 0 0 0 0 -8224054.711227417 8979137.7137174606 0 8979137.7137174606 -10409765.885598183 0 0 0 0 -15311599.011871338 14403418.186221123 0 14403418.186221123 -6980058.4945898056 0 0 0 0 -12917796.568054199 10814090.183184147 0 10814090.183184147 -1627365.6756751537 0 0 0 0 -13107176.234222412 10226655.018183231 0 10226655.018183231 -3424088.2559804916 0 0 0 0 3332569.1105575562 22406748.176849842 0 22406748.176849842 27194573.658350319 0 0 0 0 -3346132.696231842 11857651.119354129 0 11857651.119354129 10541974.814766407 0 0 0 0 23607636.920772552 11374991.874340057 0 11374991.874340057 -2578017.2265198231 0 0 0 0 -535129.66206119582 183007.30770014785 0 183007.30770014785 190041.32518195966 0 0 0 0 -1081048.636378495 2110946.9211517125 0 2110946.9211517125 -766174.0498067583 0 0 0 0 1440802.9530677795 5579092.2179601192 0 5579092.2179601192 3536352.1827328205 0 0 0 0 5910364.0402259827 8501952.7691639662 0 8501952.7691639662 -20754.88508939743 0 0 0 0 -591959.47292327881 11453652.997351646 0 11453652.997351646 10598216.581714451 0 0 0 0 -3885506.277633667 3476816.0632209778 0 3476816.0632209778 2894.734940729104 0 0 0 0 -855028.0079536438 8347158.5151896477 0 8347158.5151896477 1530402.6491115093 0 0 0 0 -1481999.114346819 3068742.7008910496 0 3068742.7008910496 -816567.8562787004 0 0 0 0 -4192409.6602611542 2078950.6107330695 0 2078950.6107330695 2064879.885310173 0 0 0 0 -1789072.7118625641 5771230.5282948064 0 5771230.5282948064 647027.85647514462 0 0 0 0 -12163161.981498718 2104736.0185256102 0 2104736.0185256102 3388287.5902009392 0 0 0 0 21695508.855041504 -12434249.99027276 0 -12434249.99027276 -8356649.5897023678 0 0 0 0 8381780.9235992432 -17561988.699439824 0 -17561988.699439824 -13343559.592801958 0 0 0 0 -182728.23330560327 61399.636534919962 0 61399.636534919962 247413.03149867294 0 0 0 0 -12404549.967536926 9245951.4527481347 0 9245951.4527481347 3955260.1451343894 0 0 0 0 -7618302.309753418 6003944.275243789 0 6003944.275243789 3042181.6085402966 0 0 0 0 -8381472.3920917511 10171546.948335551 0 10171546.948335551 3115914.9759542346 0 0 0 0 -16901880.273254395 6166861.0395061374 0 6166861.0395061374 4059549.1957230568 0 0 0 0 2814538.682434082 5258717.4339888766 0 5258717.4339888766 615692.32571772486 0 0 0 0 -537352.34886746854 431495.67950711213 0 431495.67950711213 414866.54247888818 0 0 0 0 -4504264.3561477661 -22302098.754392453 0 -22302098.754392453 11649696.693666726 0 0 0 0 -2360948.491299469 921611.8933235947 0 921611.8933235947 2100426.8752265484 0 0 0 0 34755589.789206505 21096874.005857468 0 21096874.005857468 -16312687.557034969 0 0 0 0 -16911140.888457298 31260141.860744298 0 31260141.860744298 11284690.057986736 0 0 0 0 -2953714.0749206543 -1955107.7326069102 0 -1955107.7326069102 10249.771398618817 0 0 0 0 -1598046.6031036377 88402.698221802711 0 88402.698221802711 634927.07884788513 0 0 0 0 -1325549.517370481 152991.63225344475 0 152991.63225344475 1145811.6059510014 0 0 0 0 -1196705.6117248535 202964.55222201347 0 202964.55222201347 1060572.5425128937 0 0 0 0 -2413329.7986024823 209086.55842967704 0 209086.55842967704 1359322.6133398875 0 0 0 0 -1887984.7736587524 -1540456.7093291283 0 -1540456.7093291283 2228335.8339977264 0 0 0 0 -3116066.5503750928 437534.40393568762 0 437534.40393568762 864046.63884225371 0 0 0 0 -697636.43833757192 306072.36399573088 0 306072.36399573088 443009.93519768352 0 0 0 0 -15917455.163230896 4292416.7018303871 0 4292416.7018303871 -71482.115846633911 0 0 0 0 1562331.3146324158 1229791.4330904782 0 1229791.4330904782 1787499.7736870646 0 0 0 0 -5198151.1044311523 126293.08145825565 0 126293.08145825565 1858489.2324779183 0 0 0 0 -7100717.7737579346 -2381566.041564405 0 -2381566.041564405 138045.60436472297 0 0 0 0 -8672869.2579650879 2874781.7618235359 0 2874781.7618235359 3540064.1835738705 0 0 0 0 -7179161.259147644 -1291209.2652997433 0 -1291209.2652997433 1272140.9052499419 0 0 0 0 1638210.446395874 1771391.2523862123 0 1771391.2523862123 6739201.7626028061 0 0 0 0 92454.25326000154 718446.9413506937 0 718446.9413506937 112360.58942205575 0 0 0 0 -381044.20111878589 394932.41047695652 0 394932.41047695652 664727.5402253283 0 0 0 0 -4342378.9519805908 3980090.7130645514 0 3980090.7130645514 12468362.668591559 0 0 0 0 8359311.9537620544 -3944159.7217013538 0 -3944159.7217013538 7503482.6796891689 0 0 0 0 -17220900.518938065 1564930.6570447537 0 1564930.6570447537 4618590.3151814304 0 0 0 0 -12267656.958557129 -1371023.5603417864 0 -1371023.5603417864 2461901.2091010525 0 0 0 0 -34337688.348228455 20942843.409036338 0 20942843.409036338 4778814.8452488184 0 0 0 0 4293403.7789611816 -78119.830748081207 0 -78119.830748081207 2867166.743947506 0 0 0 0 -113548.89565572143 284851.4035266377 0 284851.4035266377 153379.3441617983 0 0 0 0 -3447230.2386654615 993454.47625291231 0 993454.47625291231 1487685.6581833239 0 0 0 0 -1167141.0279314332 1058896.5099108918 0 1058896.5099108918 1118068.8976215397 0 0 0 0 -344120.94090270996 813237.93231168389 0 813237.93231168389 2142573.8761978149 0 0 0 0 -3446852.1306606401 657170.82151960395 0 657170.82151960395 1605211.2304759882 0 0 0 0 -3387227.603542069 -52631.716508653015 0 -52631.716508653015 1435967.4494242822 0 0 0 0 -2041108.883518219 333395.02337014675 0 333395.02337014675 1936223.9721114635 0 0 0 0 -408582.93200683594 3345635.967792213 0 3345635.967792213 5585320.6765934229 0 0 0 0 -1711398.7879638672 -50159.311950683594 0 -50159.311950683594 2226145.7685186863 0 0 0 0 -1848363.1212197095 841923.78719408438 0 841923.78719408438 230545.96694328869 0 0 0 0 -1852842.7109298706 279945.25260150433 0 279945.25260150433 1997076.3294736147 0 0 0 0 -510756.07806396484 -590935.82055473328 0 -590935.82055473328 4345193.4886513352 0 0 0 0 -1775294.4327087402 775770.86330497265 0 775770.86330497265 157343.43403339386 0 0 0 0 -716944.44229125977 -76440.838874816895 0 -76440.838874816895 4385685.5842565 0 0 0 0 -1598171.4437477589 68358.837150603533 0 68358.837150603533 1777062.8589196205 0 0 0 0 -3373992.7431263812 376165.34423686611 0 376165.34423686611 1486060.6515743246 0 0 0 0 -910208.4854400605 -513453.21715120046 0 -513453.21715120046 1182802.1887388113 0 0 0 0 -9658.8947550393641 9693.9761319793761 0 9693.9761319793761 -8931.2126829468762 0 0 0 0 -16463835.372337341 -1401812.3937604427 0 -1401812.3937604427 -6336485.0914256573 0 0 0 0 -3335481.0991024897 -311493.98201449029 0 -311493.98201449029 1231842.5953094922 0 0 0 0 -1767703.0537490845 813676.30605638027 0 813676.30605638027 345783.99424886703 0 0 0 0 -30935962.102157593 16881952.777943134 0 16881952.777943134 -7275451.5696744919 0 0 0 0 -30135777.041168213 29972266.450419426 0 29972266.450419426 13682333.329173088 0 0 0 0 -249356.08352106065 -178157.79818680789 0 -178157.79818680789 227934.5213073364 0 0 0 0 -9684136.1778869629 6843925.8668661118 0 6843925.8668661118 -355661.06610012054 0 0 0 0 -2456992.0957371332 1916554.0697049992 0 1916554.0697049992 777352.53495284508 0 0 0 0 -1635538.09779175 465272.35086615011 0 465272.35086615011 156679.43509334978 0 0 0 0 4140483.4987716675 -508187.66919159889 0 -508187.66919159889 -7745466.2383699417 0 0 0 0 -5908621.6256790161 -1116053.7313108444 0 -1116053.7313108444 -7261283.9397568703 0 0 0 0 7151087.3843536377 2021960.4121389389 0 2021960.4121389389 -13911832.458423615 0 0 0 0 -24848751.318283081 3583233.8392763138 0 3583233.8392763138 -7963205.9384541512 0 0 0 0 -1835987.147857666 -75612.843535900116 0 -75612.843535900116 2444958.6272563934 0 0 0 0 -14823591.79873085 8609061.396612227 0 8609061.396612227 -2001423.4211006165 0 0 0 0 485012.30950927734 2182843.830937624 0 2182843.830937624 -1109043.1466135979 0 0 0 0 -667087.04875874892 1553620.9406893766 0 1553620.9406893766 802529.58299123473 0 0 0 0 -5518070.8616748583 800477.96547983587 0 800477.96547983587 1236156.8722785211 0 0 0 0 -2319702.3596038818 -743281.2714151144 0 -743281.2714151144 4447546.9567832947 0 0 0 0 -928659.74533462524 88001.527949988842 0 88001.527949988842 2015405.9831886292 0 0 0 0 -3821121.0596074015 810607.16594122339 0 810607.16594122339 1315118.8571960963 0 0 0 0 -5679620.4349568971 721776.31101228029 0 721776.31101228029 882033.08261135477 0 0 0 0 -3214769.8798000887 2263455.5006282274 0 2263455.5006282274 1394230.4542308445 0 0 0 0 4403680.8767089844 5907611.2983317375 0 5907611.2983317375 2603356.6176021099 0 0 0 0 -17911656.92427063 -25151941.10666585 0 -25151941.10666585 49066106.666828632 0 0 0 0 -7082346.1224555969 2580132.4929294586 0 2580132.4929294586 8742610.1779267788 0 0 0 0 5157201.9766845703 -68086259.537905693 0 -68086259.537905693 -1403695.7882928848 0 0 0 0 29928801.325641632 -59620060.184875488 0 -59620060.184875488 -74014694.788051605 0 0 0 0 26847770.626358032 3928754.3384160995 0 3928754.3384160995 -118750354.51277828 0 0 0 0 6821518.5668334961 -4688909.5382857323 0 -4688909.5382857323 -23657799.202769279 0 0 0 0 -8818548.8364334106 20257412.421542883 0 20257412.421542883 -20537938.710484743 0 0 0 0 -65184963.01159668 58683640.633677959 0 58683640.633677959 -56637711.750362873 0 0 0 0 7770773.639503479 -4049097.0883631706 0 -4049097.0883631706 -9785825.5916662216 0 0 0 0 12514234.823013306 -1389616.0462937355 0 -1389616.0462937355 -43437287.768326283 0 0 0 0 7369700.474105835 4225791.9767546654 0 4225791.9767546654 -20602461.13914299 0 0 0 0 3981287.4145507812 9262885.3635897636 0 9262885.3635897636 -19401213.562054753 0 0 0 0 667857.11552429199 10001818.665659428 0 10001818.665659428 -9592001.407957077 0 0 0 0 190674.30317687988 12713784.575809956 0 12713784.575809956 -9485760.6464874148 0 0 0 0 -13079228.348564148 11511979.056240559 0 11511979.056240559 -14149932.515093803 0 0 0 0 -8419534.0017471313 -1746068.6886050701 0 -1746068.6886050701 13461192.345545769 0 0 0 0 -49728600.470574379 21446653.84094134 0 21446653.84094134 742592.60774469376 0 0 0 0 -18537382.023933411 -25667123.981662512 0 -25667123.981662512 60867920.824480057 0 0 0 0 11550216.405162811 -8479820.6871311665 0 -8479820.6871311665 19882862.87731123 0 0 0 0 -14164875.524822235 8775837.8785208464 0 8775837.8785208464 12060325.932528496 0 0 0 0 6093249.7190570831 9317183.434569329 0 9317183.434569329 9981849.7742671967 0 0 0 0 -5191774.7543869019 6974561.5733855963 0 6974561.5733855963 28429826.20606041 0 0 0 0 -2937173.1915664673 8445620.2290365696 0 8445620.2290365696 9983585.2115488052 0 0 0 0 -1936170.639251709 2355459.0411548615 0 2355459.0411548615 3652013.5923079252 0 0 0 0 -7043964.6836071014 13012360.046536624 0 13012360.046536624 6100089.4492321014 0 0 0 0 -10470449.247535706 6076972.9571306705 0 6076972.9571306705 16265270.431144238 0 0 0 0 -10649301.953063965 12790081.835178852 0 12790081.835178852 5007778.059132576 0 0 0 0 -18785340.235061646 15129088.848706722 0 15129088.848706722 6583914.5328587294 0 0 0 0 -17506372.599535942 13820830.950892627 0 13820830.950892627 -450877.04550266266 0 0 0 0 -11018598.945739746 7761384.5139124393 0 7761384.5139124393 -640458.74452018738 0 0 0 0 -19631129.135914564 7464356.5229148939 0 7464356.5229148939 -14032022.979001999 0 0 0 0 -17685219.115371704 14411403.542961597 0 14411403.542961597 -2119266.6822577715 0 0 0 0 -19910816.568771362 18948627.365045071 0 18948627.365045071 -8246625.1900653839 0 0 0 0 -17651754.313152313 13660400.695794106 0 13660400.695794106 -476948.53446769714 0 0 0 0 -12476412.633640289 11952173.00948 0 11952173.00948 -18265317.317452431 0 0 0 0 -5309056.7162094116 5381526.2526459694 0 5381526.2526459694 -14391679.425227165 0 0 0 0 -2113161.8397369385 -1294734.2099928856 0 -1294734.2099928856 -2085740.136149168 0 0 0 0 -25340918.379264832 25787854.977690697 0 25787854.977690697 -20227894.318597794 0 0 0 0 -31719549.903717041 22916809.926154137 0 22916809.926154137 -18654975.944337368 0 0 0 0 -388718.87815054879 99250.902934964746 0 99250.902934964746 -31941.709337998647 0 0 0 0 -19725453.200176239 12902135.992492676 0 12902135.992492676 -5890394.578956604 0 0 0 0 -19687885.620124817 11666930.237665176 0 11666930.237665176 -9578305.822385788 0 0 0 0 -4160807.9829864502 5518466.6005730629 0 5518466.6005730629 -10287824.045899391 0 0 0 0 -4485290.4243927002 3633359.3223247528 0 3633359.3223247528 -14011057.731107712 0 0 0 0 2856946.9966964722 8938859.0062246323 0 8938859.0062246323 -10472998.259860039 0 0 0 0 -545860.62255859375 4272657.6563432217 0 4272657.6563432217 -9021988.9118747711 0 0 0 0 -5766486.5510406494 10472143.826456547 0 10472143.826456547 -975799.07450461388 0 0 0 0 -8828764.6700553894 5014310.4138153791 0 5014310.4138153791 -10654160.332766533 0 0 0 0 -1575691050.548233 -209104659.31474766 0 -209104659.31474766 87058962.578287065 0 0 0 0 -1323275027.9725647 -57955852.674239159 0 -57955852.674239159 33189643.387615889 0 0 0 0 -774644.670802454 356506.36580978334 0 356506.36580978334 61907.096960738141 0 0 0 0 -1484395068.8265266 -138371191.53053695 0 -138371191.53053695 17192818.34671706 0 0 0 0 73580915.099330902 39752805.111203693 0 39752805.111203693 -41305895.261372328 0 0 0 0 -32474425.053215027 -10486572.892575517 0 -10486572.892575517 27720956.960255563 0 0 0 0 -1439100297.2961578 -132852915.73361741 0 -132852915.73361741 8085312.7407182977 0 0 0 0 -1340867112.7655134 -49475039.819294073 0 -49475039.819294073 72030791.757589713 0 0 0 0 -26395674.992797852 -7677877.1108511686 0 -7677877.1108511686 8441326.0378051475 0 0 0 0 -2129591.1123755751 907149.01385985501 0 907149.01385985501 173080.19241290924 0 0 0 0 18273757.19897604 13394847.59634053 0 13394847.59634053 2138910.2576224804 0 0 0 0 -730305637.7529068 161248007.96040565 0 161248007.96040565 -147911191.33547696 0 0 0 0 -3740810.2308281134 883435.10892044194 0 883435.10892044194 493580.37680873548 0 0 0 0 22034180.141357422 14471478.232748151 0 14471478.232748151 -9147199.6930308342 0 0 0 0 8746995.1548194885 19507901.105612814 0 19507901.105612814 386353.13365280628 0 0 0 0 -1429679292.8834724 -126344144.8194816 0 -126344144.8194816 129582837.25551027 0 0 0 0 -1536106355.1189079 -195208945.98215181 0 -195208945.98215181 44338308.469997287 0 0 0 0 -1497184126.3123589 -64185482.402507044 0 -64185482.402507044 134459821.51374471 0 0 0 0 -1446385168.48419 -122862771.07654314 0 -122862771.07654314 68289066.889016405 0 0 0 0 -1526641468.4558182 -100881797.18764891 0 -100881797.18764891 -91949509.329868466 0 0 0 0 -1573981739.2564712 -71645665.138427243 0 -71645665.138427243 34492895.537033349 0 0 0 0 -1522928941.0314212 -59640546.120573319 0 -59640546.120573319 -364654984.14798915 0 0 0 0 -1419901952.2340374 -18144984.005498935 0 -18144984.005498935 57454.605533201968 0 0 0 0 -1223858195.9868317 -33697694.873670846 0 -33697694.873670846 59190025.379973218 0 0 0 0 -1066487379.6432915 -153783143.51855987 0 -153783143.51855987 31684039.154751163 0 0 0 0 -13279067.130661964 -2024876.8391171545 0 -2024876.8391171545 1805353.3754834495 0 0 0 0 -2290733.7303076265 -523875.89369910955 0 -523875.89369910955 -70934.06156414318 0 0 0 0 -522333911.25639725 -249924459.63267273 0 -249924459.63267273 -322198829.75431055 0 0 0 0 -3112196.3641955238 -517885.76164769568 0 -517885.76164769568 246311.53352378958 0 0 0 0 -9595472.1324195862 -644594.27831865824 0 -644594.27831865824 1634977.5495028719 0 0 0 0 -6779280.1932220459 -1680763.9865945447 0 -1680763.9865945447 -115040.37212176982 0 0 0 0 -1737663707.9449081 -148952087.26159832 0 -148952087.26159832 147963947.9632265 0 0 0 0 -1021685912.8761024 -716658226.49510968 0 -716658226.49510968 -294336065.27278042 0 0 0 0 -1018845.9260470755 16057.020373960389 0 16057.020373960389 -17031.854077491837 0 0 0 0 -1582094888.0589619 512540746.7788074 0 512540746.7788074 -20723390.596085846 0 0 0 0 -1671548634.9385834 -272362432.47568202 0 -272362432.47568202 24207980.307021588 0 0 0 0 -13213065.275161743 -6222691.5524129868 0 -6222691.5524129868 10925527.980528355 0 0 0 0 -7448364.5154149011 -1165694.1653847226 0 -1165694.1653847226 835080.0389548227 0 0 0 0 26339530.784973145 29974878.926657677 0 29974878.926657677 34300138.997128963 0 0 0 0 -212255602.24938965 -7402662.300003767 0 -7402662.300003767 62975408.473657608 0 0 0 0 -7080795.0022157691 223613.23074529594 0 223613.23074529594 531745.0608495234 0 0 0 0 19611278.870613098 -89389307.188102722 0 -89389307.188102722 -18256605.126551151 0 0 0 0 45742207.345643997 -6222869.0789609849 0 -6222869.0789609849 -27108673.560301304 0 0 0 0 121884724.44146729 66470238.232750654 0 66470238.232750654 41351262.312888145 0 0 0 0 -669521.02942219004 -98968.458737023175 0 -98968.458737023175 265395.671014525 0 0 0 0 10284656.503204346 46801893.916747093 0 46801893.916747093 6269286.4630359933 0 0 0 0 -4591340.3282699585 -279957.14202993782 0 -279957.14202993782 825634.58363252506 0 0 0 0 -2769504.5507524833 -716919.9391532056 0 -716919.9391532056 510225.97270930809 0 0 0 0 -9371528.6809310913 -4440457.9623953775 0 -4440457.9623953775 5152637.515555867 0 0 0 0 -6657864.0523452759 1027066.9211399201 0 1027066.9211399201 517371.36335026845 0 0 0 0 -6924935.1097869873 107965.6499489292 0 107965.6499489292 -1505975.5364960106 0 0 0 0 -6109386.9911575317 -1512370.8493926388 0 -1512370.8493926388 1582235.7700940277 0 0 0 0 -16572851.802303314 -8751315.9402389824 0 -8751315.9402389824 -486673.69961694814 0 0 0 0 -1220467.0927780308 -530325.97379453853 0 -530325.97379453853 -119659.34635632596 0 0 0 0 -3340593.7229766846 1983728.5365751903 0 1983728.5365751903 174016.22431070544 0 0 0 0 -445199.97031784058 1382117.7671177336 0 1382117.7671177336 637.16114292426505 0 0 0 0 -3783231.3664169312 -1493567.6741267839 0 -1493567.6741267839 578785.51311631699 0 0 0 0 -7100021.3897361755 1691791.417602055 0 1691791.417602055 -3272.8113138519393 0 0 0 0 -15002995.020179749 -28878.385189958994 0 -28878.385189958994 6159997.9674871685 0 0 0 0 -11466842.794311523 -3901194.777955987 0 -3901194.777955987 -70956.780739124428 0 0 0 0 -24788569.133895874 -13886489.231804021 0 -13886489.231804021 -3555533.858376265 0 0 0 0 -730071.81875360012 -420002.85222901218 0 -420002.85222901218 -220336.56761263154 0 0 0 0 -9849652.9230651855 -32482.110512027517 0 -32482.110512027517 1500516.1407741588 0 0 0 0 -15819690.391990662 -2779574.4774558349 0 -2779574.4774558349 13056930.691565737 0 0 0 0 -10527153.011576653 -734128.7226701891 0 -734128.7226701891 3466293.1589656007 0 0 0 0 -8631958.4833831787 4694304.5311827669 0 4694304.5311827669 4694475.8316155858 0 0 0 0 -10549387.603961945 -1216964.4522353727 0 -1216964.4522353727 11032374.100587573 0 0 0 0 -4939832.0231399536 2253244.8020217828 0 2253244.8020217828 4424206.7836737819 0 0 0 0 -3081655.4924545288 -20582152.140262961 0 -20582152.140262961 22194064.78103964 0 0 0 0 -6481164.5306462198 -534184.46837148292 0 -534184.46837148292 269844.21031815931 0 0 0 0 -20876923.263299942 -3784436.9903793931 0 -3784436.9903793931 7154470.4541618824 0 0 0 0 -18498163.348856926 2246172.1895867735 0 2246172.1895867735 -6519985.1544549465 0 0 0 0 -5785915.7554328144 -679492.61427007173 0 -679492.61427007173 98204.267462396267 0 0 0 0 101610141.15942383 -19054118.680822372 0 -19054118.680822372 -8927693.9779093266 0 0 0 0 -16727104.729042053 -4718645.7730912864 0 -4718645.7730912864 701657.31242339313 0 0 0 0 -7491771.9779396057 2832639.6597514264 0 2832639.6597514264 6704431.0406223536 0 0 0 0 18345036.91504753 19779857.377056815 0 19779857.377056815 -230847.72549915314 0 0 0 0 -448478.85308857262 -82245.270427014679 0 -82245.270427014679 283574.69136223343 0 0 0 0 5599118.3793258667 -4999223.0679624379 0 -4999223.0679624379 -265449.98573446274 0 0 0 0 -749274.20305901021 121403.25650840439 0 121403.25650840439 80371.351557241447 0 0 0 0 9001074.3417358398 -6826667.8446668088 0 -6826667.8446668088 -989263.67425608635 0 0 0 0 -21856749.763179779 -7722282.6910568774 0 -7722282.6910568774 -4652798.2556996346 0 0 0 0 6172608.8603363037 -1455500.2868289948 0 -1455500.2868289948 -1266209.6687816381 0 0 0 0 7338591.6432495117 -3131829.9089260101 0 -3131829.9089260101 -4370296.3449661732 0 0 0 0 13275882.678127527 3050762.243145043 0 3050762.243145043 -1959603.6255630851 0 0 0 0 -874391.59168229438 -549259.60024003498 0 -549259.60024003498 189220.00452469222 0 0 0 0 13871305.703796387 -3214706.2056749165 0 -3214706.2056749165 -2586200.2414496243 0 0 0 0 8691194.0798492432 -7122763.2996884212 0 -7122763.2996884212 -7961594.0965088308 0 0 0 0 -15158431.450468063 -12620549.363608308 0 -12620549.363608308 11031166.019055009 0 0 0 0 25979360.275947571 -17418274.457184892 0 -17418274.457184892 -3686168.3302702531 0 0 0 0 836.42484509944916 1543.9856785591692 0 1543.9856785591692 -273992.94084799406 0 0 0 0 -163126637.47462463 -9584445.2427670062 0 -9584445.2427670062 37689938.096515536 0 0 0 0 -53128860.694755554 19173729.426079333 0 19173729.426079333 -8686099.0063761473 0 0 0 0 -33080127.603530884 -23667292.804632902 0 -23667292.804632902 -15445472.674883604 0 0 0 0 -26058121.307544708 -5065885.649469763 0 -5065885.649469763 -11841882.042023268 0 0 0 0 -1764808.1306114197 -3839101.1201685667 0 -3839101.1201685667 -8295296.0478344038 0 0 0 0 -52022253.874223709 2209501.960511528 0 2209501.960511528 6930601.5567912459 0 0 0 0 -331269.22424903139 -416090.17026664503 0 -416090.17026664503 -509450.68007890414 0 0 0 0 -1660641.2309427802 -833723.7388407141 0 -833723.7388407141 1661221.1097382396 0 0 0 0 -50498180.712696075 -20235488.424436577 0 -20235488.424436577 3018600.6711411234 0 0 0 0 -38211839.515750885 1386872.957816951 0 1386872.957816951 3290693.6604889631 0 0 0 0 -2065394.6168651581 -8331940.5867707729 0 -8331940.5867707729 -5045937.5685386658 0 0 0 0 1036101.8729858398 932145.60481864214 0 932145.60481864214 -1857151.3083686829 0 0 0 0 6896431.0734138489 -3363390.9591647089 0 -3363390.9591647089 -4480499.8226647377 0 0 0 0 -129717.25566492788 -1627278.5760572255 0 -1627278.5760572255 -3183947.0118909329 0 0 0 0 -7689251.9360284805 -6893496.5035223737 0 -6893496.5035223737 -1362597.9222021103 0 0 0 0 -6985250.5850372314 -3837568.741795063 0 -3837568.741795063 -1328179.5577721596 0 0 0 0 -780966.13679230772 -847930.8597537782 0 -847930.8597537782 -2658585.4447674388 0 0 0 0 -75932725.808197021 72293525.021194458 0 72293525.021194458 -122141485.72737312 0 0 0 0 -3705420.247844696 -8552799.666531682 0 -8552799.666531682 -4950746.9486989975 0 0 0 0 4913899.8623657227 -3959305.4687139392 0 -3959305.4687139392 -3940252.6258438826 0 0 0 0 -6259523.9094772339 -5323850.5370048881 0 -5323850.5370048881 -4444075.490752697 0 0 0 0 6485382.181640625 -4999572.5770939589 0 -4999572.5770939589 -6527338.8950741291 0 0 0 0 4510754.0954284668 -3814184.5569727421 0 -3814184.5569727421 -2978249.5940588713 0 0 0 0 4217451.1846618652 -2502207.411885798 0 -2502207.411885798 -1425594.9299447536 0 0 0 0 7739154.6528396606 1550963.2678264976 0 1550963.2678264976 -214538.31259179115 0 0 0 0 -37198617.3203125 -34618383.627449036 0 -34618383.627449036 -31362368.142627716 0 0 0 0 -117254.205078125 -5508837.2371044159 0 -5508837.2371044159 34471680.948754072 0 0 0 0 -2559950.9994500875 884205.98195703141 0 884205.98195703141 1188140.0715931021 0 0 0 0 -137888271.70483017 -97230714.365594387 0 -97230714.365594387 -117950770.47039795 0 0 0 0 -100622037.5508728 -18879562.80094862 0 -18879562.80094862 -3874149.1858873367 0 0 0 0 -11080680.54246521 -12401612.794797897 0 -12401612.794797897 36187723.849353075 0 0 0 0 -68312647.210769653 -46350439.470324516 0 -46350439.470324516 3695875.1621761322 0 0 0 0 -25193259.0782547 16657786.100441456 0 16657786.100441456 17935399.200233459 0 0 0 0 -141500454.88493347 -62829478.035104752 0 -62829478.035104752 7617912.1441249847 0 0 0 0 -173294853.7603302 -42297152.571749687 0 -42297152.571749687 29450349.41018486 0 0 0 0 -253271351.71878052 -75558687.092456818 0 -75558687.092456818 53190773.717184097 0 0 0 0 -263621002.38139343 -95230696.478872299 0 -95230696.478872299 26042499.680057526 0 0 0 0 -210207835.76461029 -86289081.73530674 0 -86289081.73530674 6107486.775510788 0 0 0 0 -272906530.35754395 -88183647.253867149 0 -88183647.253867149 83324285.914518356 0 0 0 0 -257211352.64768982 -140027938.53193188 0 -140027938.53193188 27368143.52959919 0 0 0 0 -243153745.21238708 -147794959.90825653 0 -147794959.90825653 -73162006.141540527 0 0 0 0 -246565516.94822693 -111327677.47041988 0 -111327677.47041988 2282798.5469698906 0 0 0 0 -246431042.94763184 -101514278.28514004 0 -101514278.28514004 27281337.511924744 0 0 0 0 -283609112.67752075 -251962194.46884012 0 -251962194.46884012 -142525147.70881939 0 0 0 0 -300565609.71040344 92087278.572285652 0 92087278.572285652 13910809.765378475 0 0 0 0 -21765635.917060852 72349193.825410843 0 72349193.825410843 9105817.4571018219 0 0 0 0 -850285.06150984764 286059.10819219984 0 286059.10819219984 338532.16526316246 0 0 0 0 -391093529.41291809 -184306065.06329155 0 -184306065.06329155 -3509029.1985521317 0 0 0 0 -459039885.95977783 263369990.13947487 0 263369990.13947487 -61991950.091011047 0 0 0 0 -1423378.8796463013 -25895864.287202358 0 -25895864.287202358 275228.57740211487 0 0 0 0 -20819014.716826856 -25592476.744972188 0 -25592476.744972188 19312624.531351089 0 0 0 0 -8668796.2473678589 3371221.589861393 0 3371221.589861393 25982897.525409371 0 0 0 0 2922661.9793243408 -18403189.864763737 0 -18403189.864763737 8775175.3375339508 0 0 0 0 -41367.836344007403 84744.253394162282 0 84744.253394162282 43164.873853541445 0 0 0 0 2504361.4111480713 -29249008.399494767 0 -29249008.399494767 924417.04958629608 0 0 0 0 530226.48482513428 -12098857.606606245 0 -12098857.606606245 -13405963.608527899 0 0 0 0 -31735475.190689087 43900263.852097869 0 43900263.852097869 -51078557.752095222 0 0 0 0 854000.28925323486 -1579640.1564240456 0 -1579640.1564240456 -471864.64210653305 0 0 0 0 -40478401.174087524 1342742.8038637638 0 1342742.8038637638 9866553.1764740944 0 0 0 0 -5750685.654586792 4070858.4209718704 0 4070858.4209718704 479197.47953081131 0 0 0 0 -22602402.465270996 148343.59980797768 0 148343.59980797768 3063903.1487791538 0 0 0 0 -1224165.676662242 -123421.41877483577 0 -123421.41877483577 2448112.2003363958 0 0 0 0 -351685.55254086107 79614.98242527619 0 79614.98242527619 349902.40528204199 0 0 0 0 -1513476.0965576172 -268190.74138641357 0 -268190.74138641357 -408406.61829948425 0 0 0 0 1890536.7868232727 5178502.0963391066 0 5178502.0963391066 8237301.304464817 0 0 0 0 6907963.6571578979 -10426849.669983387 0 -10426849.669983387 19117447.828699112 0 0 0 0 -2715356.5539550781 6012363.4303531647 0 6012363.4303531647 -8087681.7783508301 0 0 0 0 20279.939206201583 38974.921552677639 0 38974.921552677639 174708.83851524186 0 0 0 0 -28576658.186889648 17698317.087701797 0 17698317.087701797 32229623.20798111 0 0 0 0 -23889179.596466064 6481482.1352729797 0 6481482.1352729797 26981403.689353943 0 0 0 0 25827663.551513672 18378778.718053818 0 18378778.718053818 19376505.076694489 0 0 0 0 -40582853.515731812 17158733.871007442 0 17158733.871007442 28991934.372621536 0 0 0 0 -21771804.940795898 30829643.734844208 0 30829643.734844208 49550903.547280312 0 0 0 0 -26276093.055299759 -3374394.738545835 0 -3374394.738545835 2318102.3345890045 0 0 0 0 36072716.887786865 47739792.890115738 0 47739792.890115738 33278866.102191925 0 0 0 0 -1913775.7336054649 978203.00795412995 0 978203.00795412995 1250952.2532722428 0 0 0 0 71613637.453186035 32951164.548316002 0 32951164.548316002 12656094.657447815 0 0 0 0 -2220472.7359466553 509923.88535094261 0 509923.88535094261 518710.3010635376 0 0 0 0 -2508325.1776202396 334807.11969460919 0 334807.11969460919 3088327.6752984459 0 0 0 0 27809213.17257309 29771334.222072124 0 29771334.222072124 18955522.561767578 0 0 0 0 -3739373.6436887793 1293764.1259982269 0 1293764.1259982269 2373359.6865556724 0 0 0 0 -955472.24949772283 -260097.15497065708 0 -260097.15497065708 1946673.6242234414 0 0 0 0 -1962261.6448611543 1069294.3122912645 0 1069294.3122912645 655803.44809892157 0 0 0 0 -6899627.0468711853 3063341.52898404 0 3063341.52898404 5309378.1288895607 0 0 0 0 -2858219.0707778931 -1529935.2561583817 0 -1529935.2561583817 -3208214.3624033928 0 0 0 0 -45184540.745117188 -1428488.459022522 0 -1428488.459022522 31109022.083053589 0 0 0 0 -60388031.950431824 -30342772.181479931 0 -30342772.181479931 11689953.336341858 0 0 0 0 -980687.13623046875 1605454.2045602798 0 1605454.2045602798 4463343.3673706055 0 0 0 0 -3412463.2788696289 4485118.0642845631 0 4485118.0642845631 2034793.4696147442 0 0 0 0 -1008787.8952384628 165171.88094825577 0 165171.88094825577 1420440.1552920763 0 0 0 0 834467.67822265625 2552312.7039656639 0 2552312.7039656639 3548458.9861183167 0 0 0 0 -15027020.797943115 -2697060.2667002678 0 -2697060.2667002678 724865.79013872147 0 0 0 0 -4849164.6960868835 -1573263.039442718 0 -1573263.039442718 -266446.01694345474 0 0 0 0 -6019653.8069763184 1563945.0267186165 0 1563945.0267186165 2827735.6022713184 0 0 0 0 2485217.684928894 -6235294.3290590644 0 -6235294.3290590644 -2273073.0421910286 0 0 0 0 -58265.845097064972 -5638.4492533430457 0 -5638.4492533430457 26675.022559380624 0 0 0 0 2834979.0729217529 4464117.4575595856 0 4464117.4575595856 6626609.6613321304 0 0 0 0 109530.11070680618 6613308.1929907948 0 6613308.1929907948 7420679.3729103804 0 0 0 0 282891.39414215088 5097649.7501080036 0 5097649.7501080036 2097588.1304316521 0 0 0 0 1083443.7672271729 1956786.3153347969 0 1956786.3153347969 3769840.7102277279 0 0 0 0 -745994.90169595182 901815.33645527437 0 901815.33645527437 -164686.87606152688 0 0 0 0 -5607161.1209259033 1085170.9026204348 0 1085170.9026204348 5109353.205052644 0 0 0 0 -5017324.5192184448 7913071.1281300485 0 7913071.1281300485 3989076.3853919506 0 0 0 0 5139659.6310424805 6767081.5875205398 0 6767081.5875205398 6144894.4528925121 0 0 0 0 -1313429.5756119452 509544.68040222861 0 509544.68040222861 2871535.6754336124 0 0 0 0 -10924304.38104248 6393461.1582410038 0 6393461.1582410038 6456730.9656331539 0 0 0 0 -29146450.157546997 -23309269.728605509 0 -23309269.728605509 -36077872.617987156 0 0 0 0 -12822564.789093018 2331659.5975247025 0 2331659.5975247025 7667411.7451531291 0 0 0 0 -557519.92330404557 -395513.02743316069 0 -395513.02743316069 -354639.71944994363 0 0 0 0 -7890619.4831514359 -3357143.6380468905 0 -3357143.6380468905 24865448.476569176 0 0 0 0 -83276390.477172852 65526245.899224281 0 65526245.899224281 -40316685.439604759 0 0 0 0 -409302148.73876953 21505591.043467045 0 21505591.043467045 9434734.1699613333 0 0 0 0 -382978950.42510986 -30692400.862614632 0 -30692400.862614632 22725848.4272995 0 0 0 0 -230207049.89886475 48840340.736556053 0 48840340.736556053 13516394.542770386 0 0 0 0 -212213214.04221344 -11097828.609762669 0 -11097828.609762669 -26825547.477960587 0 0 0 0 -208090927.60855103 -16197067.965451241 0 -16197067.965451241 -28093140.08498764 0 0 0 0 -291628947.65737915 -34506165.352001667 0 -34506165.352001667 -8628172.6998052597 0 0 0 0 -19817143.022083282 1223936.1963914633 0 1223936.1963914633 -71091697.4057827 0 0 0 0 -112235963.06654358 7100034.7843494415 0 7100034.7843494415 -35478198.925818205 0 0 0 0 -108952798.48284912 -17647494.238841057 0 -17647494.238841057 -23594202.068136215 0 0 0 0 -75927068.348022461 -4146956.43846035 0 -4146956.43846035 -23935860.994070709 0 0 0 0 -125282426.18733215 -33160874.104104042 0 -33160874.104104042 11886871.39598465 0 0 0 0 -203377799.4981842 -19013373.806790829 0 -19013373.806790829 -3413693.8422040939 0 0 0 0 -198306758.06234741 -22269869.597082615 0 -22269869.597082615 -45161346.95643425 0 0 0 0 -129282185.54043579 -21106143.775360107 0 -21106143.775360107 -9391490.4183812141 0 0 0 0 -198961234.50922775 -16609515.737051725 0 -16609515.737051725 18890018.169546127 0 0 0 0 -122056748.474823 -38050686.563984871 0 -38050686.563984871 17047473.190444946 0 0 0 0 -215981396.7752037 -52392337.656048298 0 -52392337.656048298 33016140.282318115 0 0 0 0 -226289836.93843079 -36053975.874116421 0 -36053975.874116421 33899777.072032928 0 0 0 0 -181244417.35603333 -59367150.834653854 0 -59367150.834653854 27872253.096677899 0 0 0 0 -169656306.00674057 -27850084.44316268 0 -27850084.44316268 32511327.356424332 0 0 0 0 -68377999.156921387 -24516688.228723526 0 -24516688.228723526 6908066.9972331524 0 0 0 0 -104712936.49209595 -4262835.9422559738 0 -4262835.9422559738 16106691.118431091 0 0 0 0 -21472331.092942238 -5023102.3741454557 0 -5023102.3741454557 -1648304.7960940003 0 0 0 0 -722182.86028311402 -610756.21018845029 0 -610756.21018845029 -1916537.9636766799 0 0 0 0 -282343879.97611237 -54425246.126508236 0 -54425246.126508236 44913539.396803856 0 0 0 0 -267826964.60928345 -70863562.14198637 0 -70863562.14198637 63252002.827586174 0 0 0 0 -277300194.70878601 -45806840.164901733 0 -45806840.164901733 51743622.152568817 0 0 0 0 -243158342.24188232 -69497486.587965012 0 -69497486.587965012 52986650.97666505 0 0 0 0 -267590413.65901184 -34712221.304816246 0 -34712221.304816246 27873115.323461533 0 0 0 0 -264979763.87844467 -20694768.988672376 0 -20694768.988672376 -39031527.153457642 0 0 0 0 -229063167.88423157 -40835415.918413162 0 -40835415.918413162 24545580.707672119 0 0 0 0 -2442634.7598778578 22250.781004646793 0 22250.781004646793 74238.685231103795 0 0 0 0 -10332045.086322784 -2176163.4740533233 0 -2176163.4740533233 -1549544.8312257659 0 0 0 0 -1113895.2374703567 -541192.66393263824 0 -541192.66393263824 -1212311.8579874584 0 0 0 0 -417185493.09118652 -132191637.93813419 0 -132191637.93813419 7053816.7856302261 0 0 0 0 -349575891.04938507 -145290479.01061791 0 -145290479.01061791 -48988057.499248505 0 0 0 0 -247264053.76791382 -83327688.42615509 0 -83327688.42615509 -100432210.39349031 0 0 0 0 -10286006.128408432 -1949678.508286953 0 -1949678.508286953 -440284.90649080276 0 0 0 0 18506802.530695438 -78319652.128420785 0 -78319652.128420785 12604461.189580441 0 0 0 0 -415732131.24078369 -123896969.73927498 0 -123896969.73927498 -26688277.278282166 0 0 0 0 -5282085.101045642 -1084849.1642728834 0 -1084849.1642728834 -13517.160923801284 0 0 0 0 -8693876.3731842041 -1697371.9642347842 0 -1697371.9642347842 -244453.640125023 0 0 0 0 28107289.56967926 -65114631.97250998 0 -65114631.97250998 -24143356.682137012 0 0 0 0 -2175.485709618777 51172.839679222554 0 51172.839679222554 -387945.86445974675 0 0 0 0 -631590649.30726624 -82460049.092413187 0 -82460049.092413187 29698682.214090347 0 0 0 0 -517344242.09999084 -16034764.524597883 0 -16034764.524597883 3488098.6494967937 0 0 0 0 -465152536.33625793 -277828016.17502248 0 -277828016.17502248 -124066741.2676754 0 0 0 0 -12228.27640876919 -78610.685949073348 0 -78610.685949073348 -58003.942642267401 0 0 0 0 -596033222.23510742 -146658688.13188839 0 -146658688.13188839 122744711.18055521 0 0 0 0 -513528572.21492767 -126372589.09113878 0 -126372589.09113878 -90746052.48903811 0 0 0 0 -2069119.8263357971 181364.28522806428 0 181364.28522806428 -852653.42171734711 0 0 0 0 -6150253.8562278748 -309235.17208678834 0 -309235.17208678834 -564560.91020553187 0 0 0 0 -492491591.87385559 -194885778.36877263 0 -194885778.36877263 39409632.388695508 0 0 0 0 -183639818.75571442 -155133026.71710134 0 -155133026.71710134 -61085679.862654924 0 0 0 0 -8322063.6644210815 561132.31649242528 0 561132.31649242528 223603.84656466544 0 0 0 0 -2982772.388961792 4030197.9698034078 0 4030197.9698034078 4498150.1692547575 0 0 0 0 -2167740.3975019902 -169394.11799265258 0 -169394.11799265258 79964.963661509071 0 0 0 0 -9555275.1723632812 -1591464.4921922833 0 -1591464.4921922833 745924.26358288527 0 0 0 0 1407332.5761032104 10112920.685158744 0 10112920.685158744 7403156.736604617 0 0 0 0 -13813866.26241684 -5889629.9762621522 0 -5889629.9762621522 5821871.7171814516 0 0 0 0 -659793.63603277598 -70554.264530934393 0 -70554.264530934393 19540.575795577734 0 0 0 0 -699572.57278130017 116545.27161675133 0 116545.27161675133 -145922.92432563499 0 0 0 0 8187050.1466197968 28794035.803975705 0 28794035.803975705 18542161.794200055 0 0 0 0 1593378.0194702148 7270543.7054491211 0 7270543.7054491211 17059255.911785945 0 0 0 0 -24074206.540344238 1958212.9307297803 0 1958212.9307297803 21536883.949252848 0 0 0 0 -46758423.023948669 -8254444.747176744 0 -8254444.747176744 136897.78590416606 0 0 0 0 -15178566.798818588 32476290.430796172 0 32476290.430796172 33941155.796409816 0 0 0 0 -304790826.83389282 43344789.118314341 0 43344789.118314341 47177091.899231017 0 0 0 0 -11835776.734222412 -6568238.4498841483 0 -6568238.4498841483 8607979.384532677 0 0 0 0 -5747321.3372573853 3450542.5890590558 0 3450542.5890590558 753483.47622130904 0 0 0 0 -49022961.734106064 30221198.537985686 0 30221198.537985686 18271105.247928813 0 0 0 0 -54486179.613393784 51497306.486703478 0 51497306.486703478 -42799412.456611775 0 0 0 0 -22181436.356056213 25637538.635834754 0 25637538.635834754 -185004.54036394088 0 0 0 0 -216452042.51197243 -157595873.11724481 0 -157595873.11724481 -138305303.20721203 0 0 0 0 -182335.68570850324 124925.28548288718 0 124925.28548288718 440189.95979860018 0 0 0 0 -545891036.59317207 -117638455.38339579 0 -117638455.38339579 154257411.9500303 0 0 0 0 -98750647.254730225 -62963200.736182034 0 -62963200.736182034 -107035762.60400039 0 0 0 0 46447280.56219101 -29440583.47734255 0 -29440583.47734255 -10228287.303525597 0 0 0 0 -30748753.432250977 -49398409.175276279 0 -49398409.175276279 30307258.770966753 0 0 0 0 -31739069.061507225 -31688258.714528415 0 -31688258.714528415 -40800721.537262492 0 0 0 0 -24121367.563991547 -14306097.468672886 0 -14306097.468672886 13277540.096054465 0 0 0 0 -12283646.799942017 -8161128.571577847 0 -8161128.571577847 12032005.356956519 0 0 0 0 -332473750.17673492 -26540723.804590762 0 -26540723.804590762 26317249.779136181 0 0 0 0 -55421397.864959717 75968191.582476139 0 75968191.582476139 -6216190.53051126 0 0 0 0 -604058.31435710518 294555.91132915393 0 294555.91132915393 1542078.6988085506 0 0 0 0 34037260.357990265 27910557.707139477 0 27910557.707139477 -31182615.66658783 0 0 0 0 -10502050.929554462 -7353799.7864294909 0 -7353799.7864294909 6551571.8797200322 0 0 0 0 -5203300.3627624512 10906362.022942543 0 10906362.022942543 16897350.244649649 0 0 0 0 -9002398.2591552734 -3305870.1589822769 0 -3305870.1589822769 16362730.363603085 0 0 0 0 -8881878.6654510498 -2710638.8647682667 0 -2710638.8647682667 12608941.91055584 0 0 0 0 41170.638754751533 31940.602529199794 0 31940.602529199794 59034.729275606398 0 0 0 0 -812224.92458558828 733274.98358303495 0 733274.98358303495 -70796.189053011709 0 0 0 0 7809944.135848999 16941368.690047085 0 16941368.690047085 19837650.764979959 0 0 0 0 9475493.8062057495 11997191.455122113 0 11997191.455122113 9557799.2994692326 0 0 0 0 8176710.2386207581 -2248286.1345316768 0 -2248286.1345316768 3587168.4627670646 0 0 0 0 -5461083.6224899292 5092590.2498740107 0 5092590.2498740107 21965630.857178092 0 0 0 0 -8127001.2946014404 13298797.928741992 0 13298797.928741992 32483226.991621614 0 0 0 0 3436158.0560760498 7567981.8334427476 0 7567981.8334427476 28200237.770622015 0 0 0 0 22028100.605255127 6246434.1552454233 0 6246434.1552454233 25548580.284498215 0 0 0 0 2443296.2493438721 19472694.812293172 0 19472694.812293172 24955301.35203588 0 0 0 0 -5305285.666557312 4402478.2548407912 0 4402478.2548407912 20738218.449130774 0 0 0 0 -230447.32549186051 32831.768735710531 0 32831.768735710531 161911.41575392784 0 0 0 0 90998.622497558594 2118770.353397131 0 2118770.353397131 -2598705.3701761067 0 0 0 0 -39806888.97808075 -66605446.527204812 0 -66605446.527204812 -41529030.183205366 0 0 0 0 -12027238.878509521 2257664.4802734852 0 2257664.4802734852 -10339627.131734848 0 0 0 0 8997368.5615081787 -7112429.4581273198 0 -7112429.4581273198 -7495556.9982459545 0 0 0 0 -21316329.568862915 17878320.462676406 0 17878320.462676406 -7282007.4536350965 0 0 0 0 -42428821.810684204 21444858.270298123 0 21444858.270298123 -5207959.3439520597 0 0 0 0 -50076218.611175537 5045834.3787721694 0 5045834.3787721694 -71708.244067132473 0 0 0 0 29582080.911750793 50839140.524442784 0 50839140.524442784 16344846.464145213 0 0 0 0 -375085.57672258466 411278.04975030012 0 411278.04975030012 -212640.27526695246 0 0 0 0 35523318.232597351 11363211.330392033 0 11363211.330392033 16560263.253168583 0 0 0 0 2636673.0018835068 46842870.995709687 0 46842870.995709687 26126155.406610548 0 0 0 0 -15779387.320363998 -30200.892867654562 0 -30200.892867654562 25647496.492441535 0 0 0 0 23199500.064666748 18686775.347439706 0 18686775.347439706 20603573.51075542 0 0 0 0 -22460353.272369385 25119150.003792569 0 25119150.003792569 23281130.708574116 0 0 0 0 5346518.2769918442 30389344.453937873 0 30389344.453937873 15204638.391446859 0 0 0 0 -14315332.011375427 -5226315.6011148468 0 -5226315.6011148468 16941501.539864063 0 0 0 0 -16774984.863975525 -5280613.4227785319 0 -5280613.4227785319 17338656.186400384 0 0 0 0 -51534661.063018799 71520761.478093028 0 71520761.478093028 -39948263.402541608 0 0 0 0 -46976920.715484619 -10311167.822026558 0 -10311167.822026558 17864659.09485472 0 0 0 0 -132374453.73892212 8926106.3340609744 0 8926106.3340609744 13587049.104275819 0 0 0 0 -56263854.553543091 44351380.108311839 0 44351380.108311839 12061773.026449312 0 0 0 0 17058455.0519104 23287385.088247962 0 23287385.088247962 10884385.336739276 0 0 0 0 33764961.134166718 50612716.301805064 0 50612716.301805064 -87502414.402144864 0 0 0 0 10027542.104217529 43063326.142360494 0 43063326.142360494 -33721909.112776428 0 0 0 0 49384329.53528595 22481874.839475591 0 22481874.839475591 -48459825.740143105 0 0 0 0 74766417.806381226 9532595.8744935989 0 9532595.8744935989 -46354992.297353253 0 0 0 0 -26140924.397605896 -4933766.5849094149 0 -4933766.5849094149 23136733.597302482 0 0 0 0 -228751.73913539574 88471.839672405622 0 88471.839672405622 -6217.2777788904414 0 0 0 0 -88383254.863647461 34180842.26766479 0 34180842.26766479 83837.762716936166 0 0 0 0 34199457.664215088 -10695540.026968531 0 -10695540.026968531 -106514.18307110867 0 0 0 0 -142161117.02322388 37490635.768239588 0 37490635.768239588 82888844.751681954 0 0 0 0 23870808.484466553 -7616055.5988466088 0 -7616055.5988466088 19162059.219113089 0 0 0 0 -551733.79498570785 95242.136196944048 0 95242.136196944048 13082.162843116776 0 0 0 0 8766976.6890220642 11108131.512275128 0 11108131.512275128 23177.680972018428 0 0 0 0 -106603.40026591718 130289.54931755178 0 130289.54931755178 -104829.86063165849 0 0 0 0 54184285.262049675 -1898631.2510072514 0 -1898631.2510072514 -37575600.056824923 0 0 0 0 -106585.74811519217 85556.05436967127 0 85556.05436967127 1593.9724037469714 0 0 0 0 -220517552.79278564 5377234.3409987688 0 5377234.3409987688 71250037.053124368 0 0 0 0 -167034298.88919067 126555969.06736439 0 126555969.06736439 -78591458.216763765 0 0 0 0 -87216636.945220947 -50558655.103996754 0 -50558655.103996754 -7413599.6774286032 0 0 0 0 -43600904.393985748 47117688.942633152 0 47117688.942633152 -27188444.883600831 0 0 0 0 -42852441.468406677 -10815936.779713541 0 -10815936.779713541 -35952162.361188531 0 0 0 0 75822276.94863677 -17166232.091226391 0 -17166232.091226391 -29479727.398378015 0 0 0 0 90587098.450042725 112010242.49396279 0 112010242.49396279 -32243832.903966814 0 0 0 0 -7343656.2447280884 80151578.501916587 0 80151578.501916587 -38765853.001583397 0 0 0 0 125007851.93789673 -15207981.536771387 0 -15207981.536771387 -56558757.972129405 0 0 0 0 -26442967.010620117 -9114872.8774280548 0 -9114872.8774280548 -56614680.150957614 0 0 0 0 33263086.471138 42505032.368498027 0 42505032.368498027 -64605707.559074044 0 0 0 0 -6300941.9250030518 17365099.671479225 0 17365099.671479225 -65833112.889682867 0 0 0 0 -12856710.209331512 20989269.916322276 0 20989269.916322276 -6442828.4172978401 0 0 0 0 -1213107.6985015869 -21183985.049025893 0 -21183985.049025893 -11453784.813148499 0 0 0 0 -47361500.203956604 -5099594.3562601656 0 -5099594.3562601656 37821827.194757819 0 0 0 0 -71592720.554916382 27034727.644866526 0 27034727.644866526 20106436.356555521 0 0 0 0 -62683597.051094055 -58548311.431815982 0 -58548311.431815982 -8404188.8753349781 0 0 0 0 -336842.09967940766 215373.09207942896 0 215373.09207942896 151267.66571458188 0 0 0 0 11584295.471057892 -8289899.7510919869 0 -8289899.7510919869 787843.48489505053 0 0 0 0 -19677889.828422546 11410065.53491509 0 11410065.53491509 -83310218.902809381 0 0 0 0 -72846518.534034729 -57556215.702884614 0 -57556215.702884614 32708796.065373659 0 0 0 0 -9403504.029258728 -2192574.7550110817 0 -2192574.7550110817 -13423940.407953143 0 0 0 0 -4037443.4366378784 7339457.4642587006 0 7339457.4642587006 34442926.820483416 0 0 0 0 -1166863.5198454559 713450.13633388281 0 713450.13633388281 -155346.23081199476 0 0 0 0 -3399351.5853419304 -3412762.1123404978 0 -3412762.1123404978 1366208.1741224527 0 0 0 0 -16190612.263175964 61052470.600111842 0 61052470.600111842 53739174.98447752 0 0 0 0 -36777627.372795105 -34356776.081132412 0 -34356776.081132412 8144589.5307301283 0 0 0 0 -749261.62090789247 496282.52736405283 0 496282.52736405283 588663.02669981518 0 0 0 0 -1363948.6051178835 987706.57956342958 0 987706.57956342958 -242349.55681040761 0 0 0 0 -2871270.0930328369 234157.43767362833 0 234157.43767362833 5925744.2421354055 0 0 0 0 -6456598.0768680573 2478451.6783426106 0 2478451.6783426106 -3231341.00421381 0 0 0 0 -32584892.470916748 5273311.1417992115 0 5273311.1417992115 16814636.620029569 0 0 0 0 -25544046.607543945 -9882975.8820334673 0 -9882975.8820334673 -27254854.228875935 0 0 0 0 -35038278.057510376 -17305545.702159047 0 -17305545.702159047 -5483373.3483316898 0 0 0 0 -464834.95902069658 232856.21981247049 0 232856.21981247049 296417.69942264148 0 0 0 0 -22379908.323394775 -11405447.086853504 0 -11405447.086853504 -6334773.0025827885 0 0 0 0 570896.94633865356 505797.85494142771 0 505797.85494142771 2483387.2282202244 0 0 0 0 609147.49075317383 1825197.223690033 0 1825197.223690033 1827195.6053144932 0 0 0 0 -26711862.098316193 -7455948.7207802534 0 -7455948.7207802534 -5482155.6168549061 0 0 0 0 -1036267.2464889027 188729.07554219104 0 188729.07554219104 1063243.09491975 0 0 0 0 -24040466.520210266 -11996132.484725833 0 -11996132.484725833 1625427.4636068344 0 0 0 0 -11134576.480712891 -9547343.0797486305 0 -9547343.0797486305 -6662267.2879911661 0 0 0 0 -24383770.957939625 -9290713.2052230537 0 -9290713.2052230537 -729193.93154668808 0 0 0 0 -13686368.204557419 -7757328.2828092873 0 -7757328.2828092873 -203362.04030513763 0 0 0 0 -21419512.642494202 -8860331.4787130356 0 -8860331.4787130356 -1138497.293002367 0 0 0 0 -26894470.434310913 -5285583.9136891365 0 -5285583.9136891365 73695.257268488407 0 0 0 0 -28585587.367988586 -12163438.90683794 0 -12163438.90683794 -2520374.9728147984 0 0 0 0 -2230374.3124084473 10677510.254870415 0 10677510.254870415 81646803.591989517 0 0 0 0 -1324708.4161646813 682911.15638498962 0 682911.15638498962 135769.17664793646 0 0 0 0 -24401720.552261353 -9585459.8584109545 0 -9585459.8584109545 -508378.33813476562 0 0 0 0 -24584192.552711487 -8995901.3006265163 0 -8995901.3006265163 -1066708.6056482196 0 0 0 0 -23209244.449810028 -20825170.027821422 0 -20825170.027821422 -15459439.692750692 0 0 0 0 -22187489.11920166 -9190565.5323280096 0 -9190565.5323280096 -7136628.574182272 0 0 0 0 -22821443.597347617 -12104780.408875206 0 -12104780.408875206 -333966.4203543663 0 0 0 0 39609452.485340118 73742105.125399709 0 73742105.125399709 39311715.538573265 0 0 0 0 -69215884.472694397 -31346219.059107542 0 -31346219.059107542 -6913581.1819819212 0 0 0 0 -728475.53809947893 366682.79645654745 0 366682.79645654745 67190.229650174733 0 0 0 0 52882649.157745361 59036620.153842926 0 59036620.153842926 5445921.3285217285 0 0 0 0 41775396.982337952 83934691.046830416 0 83934691.046830416 66727300.222222328 0 0 0 0 66150249.520629883 53708932.902535439 0 53708932.902535439 -24755539.76819551 0 0 0 0 -54386327.85526371 -5265486.6629313231 0 -5265486.6629313231 77423506.873779774 0 0 0 0 -51749672.903106689 -7596542.2895879745 0 -7596542.2895879745 7103076.0835762024 0 0 0 0 -163742077.2964859 32887726.669605136 0 32887726.669605136 3797898.6412725449 0 0 0 0 -23867366.926460266 12026767.007039309 0 12026767.007039309 35374388.336840272 0 0 0 0 -96103397.198074341 66813521.966699958 0 66813521.966699958 71593522.277792454 0 0 0 0 99105822.000892639 110902836.69712806 0 110902836.69712806 79712471.755533695 0 0 0 0 -328629.47918464243 314474.00343333371 0 314474.00343333371 227647.1411582937 0 0 0 0 -139027371.7184639 -75697287.467419028 0 -75697287.467419028 -69204332.722913504 0 0 0 0 -16965707.531812668 20184670.942428946 0 20184670.942428946 -142747481.29561996 0 0 0 0 -8375348.7794265747 -11049430.734455347 0 -11049430.734455347 -42087777.269521534 0 0 0 0 23894582.205841064 34774346.415699005 0 34774346.415699005 6877705.6262138933 0 0 0 0 23828712.167173386 47159853.39330405 0 47159853.39330405 -17778750.415652275 0 0 0 0 31226857.902709961 39903481.408755064 0 39903481.408755064 58684369.36700201 0 0 0 0 46747020.789665222 11094421.139941692 0 11094421.139941692 21377649.605613232 0 0 0 0 40415234.593399048 47742781.167069912 0 47742781.167069912 6018346.1652984619 0 0 0 0 46041842.171173096 16343390.751279831 0 16343390.751279831 -560372.78993332386 0 0 0 0 37604137.064590454 24888208.91483593 0 24888208.91483593 -8400032.8952083588 0 0 0 0 45910413.607842624 28431378.343890563 0 28431378.343890563 56178.552581787109 0 0 0 0 49121516.550704956 10012965.424134254 0 10012965.424134254 -30947592.93358922 0 0 0 0 47527620.166440964 13110026.957731903 0 13110026.957731903 -9754930.7022137642 0 0 0 0 44602821.407821655 13744327.112072468 0 13744327.112072468 -9827711.5299277306 0 0 0 0 39219133.772575378 15708594.469835758 0 15708594.469835758 -67075608.867590427 0 0 0 0 7250170.694442749 -34713049.59788084 0 -34713049.59788084 -48868220.981295943 0 0 0 0 19970018.549415588 -5242076.3993119001 0 -5242076.3993119001 3084999.5825490952 0 0 0 0 -5524910.3863372803 -45920551.2651577 0 -45920551.2651577 -29713017.642302036 0 0 0 0 -91838.302937113913 -90095.371418025345 0 -90095.371418025345 54117.541209852789 0 0 0 0 -4305662.5234043598 2204422.813742917 0 2204422.813742917 9831315.0624184608 0 0 0 0 39285391.669147491 -26105686.082607031 0 -26105686.082607031 -14965571.368453383 0 0 0 0 6166647.6173591614 -22324913.681813121 0 -22324913.681813121 15246248.591361761 0 0 0 0 2267065.7660217285 -6298400.4728422165 0 -6298400.4728422165 10476066.325298667 0 0 0 0 -76814237.405906677 -32833804.739665747 0 -32833804.739665747 72091036.995530486 0 0 0 0 -17330048.576477051 21762803.522447348 0 21762803.522447348 81091510.819476843 0 0 0 0 -31818102.907691956 -19543974.822160244 0 -19543974.822160244 -18946634.145780563 0 0 0 0 -32506013.229053497 -26517950.228248864 0 -26517950.228248864 -79438381.375983238 0 0 0 0 -117107321.60681534 -94183347.748806477 0 -94183347.748806477 -12449421.529454708 0 0 0 0 -146820230.48579407 -51600189.800378561 0 -51600189.800378561 -16834577.456169426 0 0 0 0 -182874184.47589874 -106293264.13131285 0 -106293264.13131285 680223.83061593771 0 0 0 0 -167071034.96897125 -83947358.054817379 0 -83947358.054817379 31965201.544095039 0 0 0 0 -121097882.96327782 -126379581.59140569 0 -126379581.59140569 -87955198.760700226 0 0 0 0 -6642.5819374769926 -24379.388362013735 0 -24379.388362013735 -14821.743085242342 0 0 0 0 -67086317.394828796 -55683929.20360148 0 -55683929.20360148 -53474339.936075211 0 0 0 0 -93244209.445976257 -55927894.267025709 0 -55927894.267025709 -25308582.121803761 0 0 0 0 -91541276.615692139 -26243185.913491488 0 -26243185.913491488 -19290570.807548821 0 0 0 0 -263504885.26477051 -73893757.587877274 0 -73893757.587877274 -165254313.48972321 0 0 0 0 -409058703.28657532 -67396063.419432402 0 -67396063.419432402 68095818.352261066 0 0 0 0 -84561234.361541748 -49509162.585796714 0 -49509162.585796714 -24202755.970957756 0 0 0 0 9991.2385845817626 -59058.58115391992 0 -59058.58115391992 -137630.54121524445 0 0 0 0 -237848748.2252121 -150270121.340087 0 -150270121.340087 33674133.939428568 0 0 0 0 -125586981.49801636 72981565.148490906 0 72981565.148490906 -6854982.4187361002 0 0 0 0 -259421.6034084186 250313.01662211725 0 250313.01662211725 -47060.826012599864 0 0 0 0 -42396958.907871246 47081255.867962837 0 47081255.867962837 -6667625.5867900848 0 0 0 0 -159808190.31189346 -10022564.653086066 0 -10022564.653086066 60892371.796655774 0 0 0 0 59120.939930265769 -119256.84166673757 0 -119256.84166673757 -219631.71210814256 0 0 0 0 -121857198.33881378 -40910284.848941393 0 -40910284.848941393 45021703.062820911 0 0 0 0 -122201587.13118744 -40529850.608497262 0 -40529850.608497262 64277557.681509197 0 0 0 0 -83451354.792831421 -54785263.395688295 0 -54785263.395688295 -26749231.120528936 0 0 0 0 -109155412.23122787 -29340067.941110283 0 -29340067.941110283 30617360.25487709 0 0 0 0 -80003098.903366089 -682425.86089605093 0 -682425.86089605093 51484657.025108546 0 0 0 0 -87642505.326908112 4541742.1263953447 0 4541742.1263953447 63932532.321774244 0 0 0 0 -74371271.755210876 -31633589.367561519 0 -31633589.367561519 -44099559.504992962 0 0 0 0 -66197683.818969727 -16552957.197987616 0 -16552957.197987616 -24785268.329954624 0 0 0 0 -27574526.383163452 -33645303.827059507 0 -33645303.827059507 -51499908.935493946 0 0 0 0 -35220806.78401947 -7267186.1137602329 0 -7267186.1137602329 -22250276.831473053 0 0 0 0 -81158969.696548462 -31098672.57990253 0 -31098672.57990253 -30891228.265449315 0 0 0 0 -81965061.256019592 -42354830.201429427 0 -42354830.201429427 -17775685.328256607 0 0 0 0 -100092555.00982666 -57726422.734044254 0 -57726422.734044254 -20506098.895059109 0 0 0 0 -79444795.735229492 -49673392.137038946 0 -49673392.137038946 -21497801.176997185 0 0 0 0 -99217807.745735168 -38254406.453686833 0 -38254406.453686833 -25871173.218450785 0 0 0 0 -87488410.151329041 -52268096.617350459 0 -52268096.617350459 -19064015.871688843 0 0 0 0 -78230916.38583374 -42298037.265263081 0 -42298037.265263081 -19652035.85815078 0 0 0 0 -77487981.770637512 -45102434.492493272 0 -45102434.492493272 -11304177.811187744 0 0 0 0 -43607281.216156006 -30928500.773756981 0 -30928500.773756981 -14961588.400827885 0 0 0 0 -49067055.917999268 -3003965.6980118752 0 -3003965.6980118752 4238162.7563743591 0 0 0 0 -62577669.274963379 -27954661.895224571 0 -27954661.895224571 -10851399.494845867 0 0 0 0 -76224166.24659729 -32997660.573184967 0 -32997660.573184967 1005344.756670475 0 0 0 0 -69292519.572921753 -42582008.654543161 0 -42582008.654543161 -19846355.548139095 0 0 0 0 -74240315.81312561 -45456252.842401147 0 -45456252.842401147 -45461733.973662615 0 0 0 0 22683258.840673447 7947519.1651141774 0 7947519.1651141774 -29019348.74134922 0 0 0 0 -118519291.05363464 -25891614.437975883 0 -25891614.437975883 -3961035.5442466736 0 0 0 0 60214.072256245767 -175434.67148915119 0 -175434.67148915119 -29912.096849776222 0 0 0 0 -106239698.35501099 -53989877.802512646 0 -53989877.802512646 -12539226.930115223 0 0 0 0 499843.14477179572 -455700.85962175392 0 -455700.85962175392 -68711.149022851605 0 0 0 0 -98296759.329681396 -28587528.211017132 0 -28587528.211017132 44202579.790031433 0 0 0 0 2608.7599480301142 -16319.57737124525 0 -16319.57737124525 23097.795488053933 0 0 0 0 -410688.29680571455 -268950.14487044513 0 -268950.14487044513 549562.70670572808 0 0 0 0 -464301.35746395588 -212323.98995996639 0 -212323.98995996639 283339.33680725098 0 0 0 0 -56270793.497451782 -30350298.566271663 0 -30350298.566271663 -18569883.518812805 0 0 0 0 -14202225.158340454 -19844832.950249553 0 -19844832.950249553 -23477392.862630844 0 0 0 0 -1033697.353232462 -194462.45252464619 0 -194462.45252464619 508911.49341108522 0 0 0 0 -39161783.778579712 -38448001.09321475 0 -38448001.09321475 -20141119.877820015 0 0 0 0 -61710134.413375854 -29122660.35214901 0 -29122660.35214901 -10670155.483338118 0 0 0 0 -71367662.192611694 -43611377.678031683 0 -43611377.678031683 -21117894.199555397 0 0 0 0 -60031829.851163864 -35396197.927960217 0 -35396197.927960217 -18964050.067037582 0 0 0 0 -72331777.202110291 -42522543.281917572 0 -42522543.281917572 -20606063.057915688 0 0 0 0 -56015280.889945984 -28452392.417301178 0 -28452392.417301178 -24976881.545044243 0 0 0 0 -55022687.877624512 -40239084.05913806 0 -40239084.05913806 -37323593.011279106 0 0 0 0 -82607953.462867737 -53480118.673768222 0 -53480118.673768222 -26774165.923884392 0 0 0 0 -3499607.1635535955 -1060538.0584181231 0 -1060538.0584181231 81867.937595844269 0 0 0 0 -344419.59378332179 -205478.74389228784 0 -205478.74389228784 154224.1694851967 0 0 0 0 -238765.85282655805 -150560.53431833349 0 -150560.53431833349 207147.71494239476 0 0 0 0 2118223.5253653228 -6130820.1712837946 0 -6130820.1712837946 10723468.34704566 0 0 0 0 -432528.28644074872 -1311039.7005692944 0 -1311039.7005692944 113221.95233246591 0 0 0 0 -1201187.4315567017 -455701.89842271805 0 -455701.89842271805 -455153.5020102784 0 0 0 0 -2452071.644859314 -1015245.8546140194 0 -1015245.8546140194 -433883.24588079005 0 0 0 0 -6055308.1014785767 -7681312.1162654161 0 -7681312.1162654161 -1162903.1737688482 0 0 0 0 366076.03958892822 1675992.8947970867 0 1675992.8947970867 -6579123.075425148 0 0 0 0 2519175.904258728 -650467.72692322731 0 -650467.72692322731 -8607962.8461418152 0 0 0 0 -37881950.788452148 -17910707.324394464 0 -17910707.324394464 12612598.615822554 0 0 0 0 -779826.34062957764 19332009.497494459 0 19332009.497494459 14504199.469265938 0 0 0 0 35863258.653808594 8105080.42116642 0 8105080.42116642 -6323644.1447486877 0 0 0 0 13932949.179714203 -42785219.574702501 0 -42785219.574702501 13454384.329637527 0 0 0 0 3671865.5957832336 3701630.440158844 0 3701630.440158844 -562689.13853406906 0 0 0 0 -1619610.5148925781 -465586.53282594681 0 -465586.53282594681 -86892.636552810669 0 0 0 0 -1688214.8136749268 -840646.89153385162 0 -840646.89153385162 -78584.719947814941 0 0 0 0 -2232423.0933990479 -62284.527331590652 0 -62284.527331590652 226945.49276065826 0 0 0 0 -1620014.6334228516 -507632.35755586624 0 -507632.35755586624 -190971.89557147026 0 0 0 0 -109624.82284541987 7526.4486552625895 0 7526.4486552625895 40776.766127515351 0 0 0 0 -17712941.146621704 -4020064.7743167877 0 -4020064.7743167877 981832.65510427952 0 0 0 0 -281528.75622807257 -524686.20725394413 0 -524686.20725394413 392637.15396670555 0 0 0 0 -161424.89063259959 -964495.50429524295 0 -964495.50429524295 710946.81390449486 0 0 0 0 -645001.53524017334 -250928.44035470486 0 -250928.44035470486 320424.37556838989 0 0 0 0 433981.39605720341 -885534.05415305495 0 -885534.05415305495 156447.76931119896 0 0 0 0 3735487.6899261475 -12850128.241456032 0 -12850128.241456032 3011578.4522857666 0 0 0 0 -720920.71025085449 5684027.715993613 0 5684027.715993613 15723360.78008461 0 0 0 0 -5056469.8728179932 -16741997.065824986 0 -16741997.065824986 1745089.7728663683 0 0 0 0 -12223018.110651016 -19956100.699422285 0 -19956100.699422285 -39868804.361639857 0 0 0 0 -4147838.1705627441 -26743931.584508419 0 -26743931.584508419 -57285120.754834652 0 0 0 0 -2295589.2062397003 -5115350.9093386829 0 -5115350.9093386829 -29246573.627193928 0 0 0 0 4714584.6759643555 -3025459.9530543387 0 -3025459.9530543387 -51521594.706005573 0 0 0 0 -251897.24716186523 -7867558.4345471859 0 -7867558.4345471859 -28319600.202090681 0 0 0 0 -12050112.605278015 -15098283.919540167 0 -15098283.919540167 5737003.8564658165 0 0 0 0 -18331.526706419885 -1213748.1861057747 0 -1213748.1861057747 1450685.766301831 0 0 0 0 -451306.13427207619 -384628.5301125152 0 -384628.5301125152 623170.69545873394 0 0 0 0 80233469.357009888 6497897.9686617851 0 6497897.9686617851 3935527.8729916811 0 0 0 0 94210289.654640198 -53248304.174764633 0 -53248304.174764633 30112761.259775639 0 0 0 0 143797867.04537201 -72984391.836708069 0 -72984391.836708069 8652945.6645536423 0 0 0 0 66316191.247550964 127996188.94343138 0 127996188.94343138 -38344758.195825577 0 0 0 0 -26942261.993408203 94075765.305111885 0 94075765.305111885 -3656028.8790640831 0 0 0 0 189203364.97035217 2597982.7628662586 0 2597982.7628662586 -104115702.56091881 0 0 0 0 -73550517.290420532 77817192.806138754 0 77817192.806138754 11099615.531837583 0 0 0 0 -37319631.664840698 -3338872.824100852 0 -3338872.824100852 -26805445.622274518 0 0 0 0 -1642914.3888092041 3273625.4212443829 0 3273625.4212443829 -37076489.048626542 0 0 0 0 -21100266.943712234 -10276367.193455458 0 -10276367.193455458 -46422646.15017271 0 0 0 0 -230099.17630004883 -11613391.342395306 0 -11613391.342395306 -63323498.198051929 0 0 0 0 4533472.5393676758 5744396.4443671703 0 5744396.4443671703 -75218499.36413455 0 0 0 0 -233075351.42017365 -165623933.65849352 0 -165623933.65849352 -33951339.38391161 0 0 0 0 -64202644.988731384 -74855014.386353135 0 -74855014.386353135 -15177529.546609879 0 0 0 0 -156036057.63417053 -93977052.716835499 0 -93977052.716835499 4671404.5540575981 0 0 0 0 -144336213.44371033 28764036.534479141 0 28764036.534479141 45834225.415653944 0 0 0 0 -88973550.464336395 184897602.96276224 0 184897602.96276224 -96873806.583804607 0 0 0 0 -366710748.57398224 23256109.395210266 0 23256109.395210266 48034299.067098379 0 0 0 0 -843388270.18971634 132287513.43868184 0 132287513.43868184 189027373.23843431 0 0 0 0 -162840282.12880707 -178456245.71899843 0 -178456245.71899843 -310689585.15594125 0 0 0 0 -75497710.60749054 9959891.6876983643 0 9959891.6876983643 94105528.748598576 0 0 0 0 157042364.41117096 -93895330.413163185 0 -93895330.413163185 -168584850.50555849 0 0 0 0 -39488.074663467705 -156243.04697290249 0 -156243.04697290249 -796437.81854027277 0 0 0 0 171589418.57582092 -60054921.090216994 0 -60054921.090216994 -38171027.086594582 0 0 0 0 -26713142.791130066 -131791555.78165865 0 -131791555.78165865 -50777306.736660838 0 0 0 0 5394185.3231277466 -9789129.1947591305 0 -9789129.1947591305 83571217.617255867 0 0 0 0 -259255243.65857697 -102150424.56894851 0 -102150424.56894851 -63900292.204646647 0 0 0 0 -21160499.354682922 -86141284.726398826 0 -86141284.726398826 104655472.59534836 0 0 0 0 -276603.9115597955 -127491.56959957629 0 -127491.56959957629 411568.65189758642 0 0 0 0 151768455.31787491 -60326704.24903965 0 -60326704.24903965 -126152415.33175898 0 0 0 0 -337709743.58596802 -78864937.433553696 0 -78864937.433553696 314437618.58708572 0 0 0 0 -264217908.25824738 180393970.48436618 0 180393970.48436618 -115579922.11590767 0 0 0 0 -96824236.330368042 -73071128.47879076 0 -73071128.47879076 20137263.0629673 0 0 0 0 -114047044.75962448 64581909.667077303 0 64581909.667077303 39963768.348644733 0 0 0 0 -905092.3449216038 -662346.68286197633 0 -662346.68286197633 1355020.5432403127 0 0 0 0 61302043.905071259 -14367127.348068237 0 -14367127.348068237 -43795077.951557159 0 0 0 0 -241299326.38036346 22349084.570906878 0 22349084.570906878 29819257.384811401 0 0 0 0 -452528498.20231819 105334761.34802663 0 105334761.34802663 44886523.015442848 0 0 0 0 -343237.37449214794 -961345.45854845084 0 -961345.45854845084 -2189820.169436519 0 0 0 0 80343025.481796265 -103677334.59526411 0 -103677334.59526411 -70627800.939360321 0 0 0 0 -206264274.48542786 58337028.777257442 0 58337028.777257442 -60461860.646827698 0 0 0 0 -217894557.09007263 -4818306.3199071884 0 -4818306.3199071884 -16984312.551622868 0 0 0 0 -204744336.01383209 19464797.47511816 0 19464797.47511816 25120926.837851524 0 0 0 0 -214275491.67608643 836702.68935918808 0 836702.68935918808 27930815.973636031 0 0 0 0 -220353339.47996902 24961428.07797575 0 24961428.07797575 36720545.49563694 0 0 0 0 -121043656.84197235 29731678.880629539 0 29731678.880629539 -5759076.2503066063 0 0 0 0 -236710631.73212433 26414237.382526755 0 26414237.382526755 36729253.383207321 0 0 0 0 -202760848.85781097 69654276.662416816 0 69654276.662416816 -19303287.012086868 0 0 0 0 -775134.96481585316 -1345894.2972023822 0 -1345894.2972023822 198717.78871109616 0 0 0 0 2034005.6333580017 4706789.4645497799 0 4706789.4645497799 19978555.725669384 0 0 0 0 -107590373.94052792 -22730864.114183336 0 -22730864.114183336 13050841.16159296 0 0 0 0 -94057106.105674744 20078579.72096014 0 20078579.72096014 18659761.013914108 0 0 0 0 -152018394.70895386 -33395609.832633018 0 -33395609.832633018 11796684.826824069 0 0 0 0 -923586.76065138727 -1903098.6005247552 0 -1903098.6005247552 196162.98752905475 0 0 0 0 -2137794.9226837158 173438.05240488052 0 173438.05240488052 1076949.3775491714 0 0 0 0 -938838.84219360352 1910189.0347442627 0 1910189.0347442627 1655960.8580341935 0 0 0 0 -2107371.7031021118 -1384034.0583771467 0 -1384034.0583771467 -915246.35942411423 0 0 0 0 -311974.56005859375 274524.96101856232 0 274524.96101856232 -708966.75354060531 0 0 0 0 10030528.159671783 -22849081.219607711 0 -22849081.219607711 25912553.045642376 0 0 0 0 -8323098.0916366577 -870447.60654258728 0 -870447.60654258728 8109940.9307656288 0 0 0 0 -952813.73884325218 -1168432.9709414132 0 -1168432.9709414132 2047773.8402661625 0 0 0 0 -84279786.112426758 84935363.918946028 0 84935363.918946028 -89311685.224302769 0 0 0 0 -68257054.179168701 -19166970.938998461 0 -19166970.938998461 66834905.358537197 0 0 0 0 3716459.1600074768 15005435.002075553 0 15005435.002075553 27460509.968122005 0 0 0 0 11634418.414634705 312278.65911054611 0 312278.65911054611 6347442.5801632404 0 0 0 0 29044115.556884766 34629403.723974228 0 34629403.723974228 4074307.2411617041 0 0 0 0 -50461838.613970757 48670683.422495186 0 48670683.422495186 8479308.0134034157 0 0 0 0 43574407.999389648 32532052.890958786 0 32532052.890958786 3808663.9234948158 0 0 0 0 -222402.22364960238 102604.15845562518 0 102604.15845562518 25508.245125370566 0 0 0 0 12120393.995010376 -100421996.27395678 0 -100421996.27395678 -63230567.498185158 0 0 0 0 -33962969.765464783 -58779955.726006508 0 -58779955.726006508 -16770330.267424822 0 0 0 0 -6020775.7169208527 -6226073.255867511 0 -6226073.255867511 -42940653.472765923 0 0 0 0 -66581976.577362061 -66590667.562179089 0 -66590667.562179089 1636434.457285881 0 0 0 0 -750070.01240006974 -750673.44244130887 0 -750673.44244130887 2082680.2863320794 0 0 0 0 -53058969.882141113 -22891419.881146431 0 -22891419.881146431 23054192.052873224 0 0 0 0 23001298.367982864 8283604.6323820055 0 8283604.6323820055 -41035317.246758461 0 0 0 0 -24612940.639854431 9482537.3708696365 0 9482537.3708696365 -1693716.9771240056 0 0 0 0 -28187958.620077133 -3944691.0533046722 0 -3944691.0533046722 -7651588.7328701019 0 0 0 0 -298283371.68053436 -54624099.725487709 0 -54624099.725487709 712678.19427967072 0 0 0 0 -458841473.83560181 5973462.4456982613 0 5973462.4456982613 116519131.86439323 0 0 0 0 -332477099.97811127 -55331857.624954224 0 -55331857.624954224 139026259.04473114 0 0 0 0 -29400569.422317505 -67222303.463422775 0 -67222303.463422775 -26984819.477974415 0 0 0 0 -347550594.87197113 141429356.72064734 0 141429356.72064734 16906872.365639687 0 0 0 0 6944185.9497528076 -46238037.180222034 0 -46238037.180222034 -17118854.544711113 0 0 0 0 -343967.73834017292 -438330.22722165845 0 -438330.22722165845 73621.691367568448 0 0 0 0 -4699820.482635498 8240423.0554828644 0 8240423.0554828644 18193769.470843315 0 0 0 0 -50461506.444351196 -13568343.670254707 0 -13568343.670254707 10696493.529238701 0 0 0 0 6114612.7288589478 -438816.54293930531 0 -438816.54293930531 -2719379.4818909168 0 0 0 0 -318749315.59702539 -88924478.36414355 0 -88924478.36414355 39241221.939105988 0 0 0 0 -966809.89870730229 -2234342.6365144607 0 -2234342.6365144607 -3264083.0990530443 0 0 0 0 148285856.75558853 -13642832.949740171 0 -13642832.949740171 -106986893.3684597 0 0 0 0 -92632360.773612976 104883486.48945141 0 104883486.48945141 -93627981.281008244 0 0 0 0 -275830770.01926422 -233698845.0793457 0 -233698845.0793457 164949843.56315422 0 0 0 0 625409.93177741114 -831767.95905988291 0 -831767.95905988291 -3614895.1956509715 0 0 0 0 1727892.2855453491 -4694541.8665623665 0 -4694541.8665623665 -2401573.0707983077 0 0 0 0 6679223.3052120209 -5535189.8030991554 0 -5535189.8030991554 -6893475.7674527168 0 0 0 0 1539059.0137672424 -1303619.1623215675 0 -1303619.1623215675 -4482733.6210318208 0 0 0 0 -11466346.419788361 -8777138.4364328384 0 -8777138.4364328384 -5495186.0907888412 0 0 0 0 -12071423.753539801 -16867576.245992899 0 -16867576.245992899 -8757701.3334288597 0 0 0 0 -1898514.7160598207 -120140.76918916963 0 -120140.76918916963 1722871.5512309512 0 0 0 0 -10512392.565731049 -2718707.0632983446 0 -2718707.0632983446 -3759257.8895075321 0 0 0 0 -4704674.4518003464 -12700512.138835907 0 -12700512.138835907 -12045703.489895344 0 0 0 0 5444831.2185325623 -5081703.3707180023 0 -5081703.3707180023 -5382974.1540117264 0 0 0 0 523736.22386169434 -2504580.9520699978 0 -2504580.9520699978 -5334898.0845856369 0 0 0 0 7622550.6164741516 -3604053.2030151486 0 -3604053.2030151486 264431.84649538994 0 0 0 0 6253583.6731300354 -1401469.8631392717 0 -1401469.8631392717 -3231250.2340521812 0 0 0 0 663002.76482582092 -13662264.808722958 0 -13662264.808722958 6957271.6896669865 0 0 0 0 -14618968.572711945 -9790388.2697769701 0 -9790388.2697769701 9150441.95715639 0 0 0 0 23971237.31549263 1331522.1250540912 0 1331522.1250540912 1531577.403672576 0 0 0 0 8645536.2309513092 -26286102.343859263 0 -26286102.343859263 15193135.305089891 0 0 0 0 -17577620.064834595 10606089.290216833 0 10606089.290216833 46600435.72422266 0 0 0 0 -3634943.74584198 14132815.287711859 0 14132815.287711859 19957421.463046551 0 0 0 0 -8411654.8329963684 -17167069.370125651 0 -17167069.370125651 -4994975.2398791313 0 0 0 0 11188340.625389099 -716118.14735102654 0 -716118.14735102654 -4157643.3807483912 0 0 0 0 -1232450.305675365 -1288788.5635873899 0 -1288788.5635873899 352780.33594566444 0 0 0 0 -236731.47891554609 -2642019.0155271124 0 -2642019.0155271124 -5501075.6194581622 0 0 0 0 -36367077.967552185 -65884898.599750519 0 -65884898.599750519 -18386034.329795837 0 0 0 0 -239114548.8862896 13062258.024346471 0 13062258.024346471 29482682.449881554 0 0 0 0 -518817.60655354336 -1912192.0091759134 0 -1912192.0091759134 -3748631.5493361484 0 0 0 0 21694827.128105164 -11849763.184692502 0 -11849763.184692502 -12937631.121439815 0 0 0 0 23234917.843101501 -19843381.153651476 0 -19843381.153651476 28234908.515797138 0 0 0 0 3218094.5636749268 -6215683.84718436 0 -6215683.84718436 58462671.363697708 0 0 0 0 61746713.838104248 2061512.979015246 0 2061512.979015246 46090883.836578727 0 0 0 0 -8205457.8340415955 -27511154.405471444 0 -27511154.405471444 36445904.502983093 0 0 0 0 2874448.2474327087 -3876958.2941185832 0 -3876958.2941185832 45853617.760178566 0 0 0 0 -12575562.166368484 32031733.697890177 0 32031733.697890177 68983212.435837924 0 0 0 0 -627790.55924866349 60883.768517384306 0 60883.768517384306 489019.99345638865 0 0 0 0 -58952855.343856812 -25436685.256147742 0 -25436685.256147742 71312041.40797551 0 0 0 0 -14555945.078895569 -3010232.1743799448 0 -3010232.1743799448 73108487.900396228 0 0 0 0 -103211774.27555466 18315971.137088925 0 18315971.137088925 145060428.54453111 0 0 0 0 -20668202.466491699 -14367571.811469555 0 -14367571.811469555 -45563909.42884171 0 0 0 0 -24168731.455307007 -36398844.085498095 0 -36398844.085498095 13875263.442833424 0 0 0 0 -18596190.540998459 -4636120.2522476315 0 -4636120.2522476315 -9552383.0857634544 0 0 0 0 -577882.36335065961 -712244.67601962108 0 -712244.67601962108 270931.16960986331 0 0 0 0 3335530.8362731934 -59848362.091533422 0 -59848362.091533422 -70207008.357380271 0 0 0 0 -20992062.676811218 -92209624.825844407 0 -92209624.825844407 44573735.302836895 0 0 0 0 -10110223.488380432 -70198205.476000667 0 -70198205.476000667 -49066538.884729147 0 0 0 0 5125652.0655059814 -19521819.921481371 0 -19521819.921481371 -7259439.8291914463 0 0 0 0 -21326212.163215637 -9361039.3157687187 0 -9361039.3157687187 18615973.506494045 0 0 0 0 -21371506.880464673 -10802558.509157598 0 -10802558.509157598 -6748207.9901266098 0 0 0 0 41080414.845752716 -17600633.260446787 0 -17600633.260446787 -32668765.165622711 0 0 0 0 -28142952.830122232 -11231036.58530201 0 -11231036.58530201 -9512751.3521623611 0 0 0 0 -28611769.334785461 -18072694.64770484 0 -18072694.64770484 -13829617.647867203 0 0 0 0 -29466951.239559174 -13979646.761302948 0 -13979646.761302948 -20802394.167331696 0 0 0 0 -26190672.257846832 -18199158.304392338 0 -18199158.304392338 -15555038.380031824 0 0 0 0 -30613777.299602509 -35843501.251388788 0 -35843501.251388788 -21328873.880252838 0 0 0 0 -40539389.044555664 -18183794.906962872 0 -18183794.906962872 -12088324.932875156 0 0 0 0 -64594948.832134247 -70598290.962307334 0 -70598290.962307334 -51562600.749740124 0 0 0 0 -12449383.035224915 -13311701.919489384 0 -13311701.919489384 -11885910.952065468 0 0 0 0 -12786514.663120389 -4909922.8979363739 0 -4909922.8979363739 -6268037.1794538498 0 0 0 0 -24154289.104587555 -10389263.472320557 0 -10389263.472320557 -11781654.969924927 0 0 0 0 -13514459.576141357 -14837745.155878782 0 -14837745.155878782 -11805849.224090099 0 0 0 0 -10245406.410591125 -12923991.538560629 0 -12923991.538560629 -4818166.2980563641 0 0 0 0 -19522586.285175323 -7815065.7016854882 0 -7815065.7016854882 -7109445.4690179825 0 0 0 0 -22504063.490615845 -13665600.389949322 0 -13665600.389949322 -10269949.225002766 0 0 0 0 3834332.0487346649 -4361451.1513878107 0 -4361451.1513878107 -10462987.190804005 0 0 0 0 -18714131.79196167 -1577889.8948804438 0 -1577889.8948804438 7003821.4204063416 0 0 0 0 -1506391.1721521839 -1251496.7178120892 0 -1251496.7178120892 255904.99010325177 0 0 0 0 -19355564.8645401 -7337506.440377593 0 -7337506.440377593 -1276603.2103238106 0 0 0 0 -24016594.193405151 -702441.74690535665 0 -702441.74690535665 56433464.358555883 0 0 0 0 122911616.133255 35943901.807847857 0 35943901.807847857 -40750015.099158615 0 0 0 0 54972585.657909393 -8054934.6248612404 0 -8054934.6248612404 -1425902.0007628798 0 0 0 0 28491045.292877197 -43530717.118236706 0 -43530717.118236706 44628026.858724415 0 0 0 0 -12656596.982933044 -2886666.0115867257 0 -2886666.0115867257 8054032.6176186204 0 0 0 0 -44176903.511722565 -26151603.742578268 0 -26151603.742578268 40721867.577294946 0 0 0 0 -12468153.976226807 26660371.690569222 0 26660371.690569222 60031447.046964347 0 0 0 0 -473704.72580266371 -379908.49167983886 0 -379908.49167983886 220509.99702698138 0 0 0 0 -21054903.303825378 -25991871.883702755 0 -25991871.883702755 -36880926.179858088 0 0 0 0 -110648385.94220352 16053077.398963766 0 16053077.398963766 37813129.608921438 0 0 0 0 -6535160.807674408 1487090.1784695983 0 1487090.1784695983 23926816.3817247 0 0 0 0 -8530104.3633728027 555617.86826896667 0 555617.86826896667 4139455.2365549207 0 0 0 0 -1128921.5415508263 -977581.92449537897 0 -977581.92449537897 297391.48010534502 0 0 0 0 386343.74370574951 -22291187.52773048 0 -22291187.52773048 -13405910.087730765 0 0 0 0 -1495818.8349380493 1796289.3863937855 0 1796289.3863937855 1944622.3974304199 0 0 0 0 -21648288.793697357 3138610.7240248919 0 3138610.7240248919 11563076.114824891 0 0 0 0 -13674476.762159348 -3140744.2064857781 0 -3140744.2064857781 10293968.556078911 0 0 0 0 4927078.8101196289 -9120096.2017552853 0 -9120096.2017552853 12214036.573505163 0 0 0 0 -2850344.7949245013 -2092402.1030860513 0 -2092402.1030860513 74169.569061178598 0 0 0 0 -3942561.7778434753 1631500.1756789684 0 1631500.1756789684 2047639.7144058943 0 0 0 0 -463221.64911029348 -67153.575107436627 0 -67153.575107436627 2730.8398542207433 0 0 0 0 -6595092.827583313 217756.45002937317 0 217756.45002937317 2067507.7341477871 0 0 0 0 -2206490.8787733642 -1357591.5300286422 0 -1357591.5300286422 -1740969.7008122737 0 0 0 0 -7588959.8463821411 6009080.108142674 0 6009080.108142674 -9261563.5829012394 0 0 0 0 -9161562.3882408142 -7337181.7654550076 0 -7337181.7654550076 -39467835.009691909 0 0 0 0 -7546635.6315231323 -4533904.3133664131 0 -4533904.3133664131 -1172355.7591438293 0 0 0 0 2672395.3572688103 -1574066.1538427472 0 -1574066.1538427472 -6335494.9943122864 0 0 0 0 -1236766558.4113998 510294909.76033318 0 510294909.76033318 -28387440.270874262 0 0 0 0 -881239594.95666885 565876583.95778584 0 565876583.95778584 -180600032.05918777 0 0 0 0 -1122631361.9019394 424495084.37646133 0 424495084.37646133 34804975.964629948 0 0 0 0 -1158247.0069189928 61525.368829132058 0 61525.368829132058 591735.08382049645 0 0 0 0 -14179128.682125092 -7055415.1031620204 0 -7055415.1031620204 -325337.73693060875 0 0 0 0 -830958604.40068817 437112237.86330211 0 437112237.86330211 -67003527.220374942 0 0 0 0 -17400119.534477234 3256014.1984661818 0 3256014.1984661818 3237257.1731263399 0 0 0 0 -5873849.094570931 -24115.331153651699 0 -24115.331153651699 -26734.263232013094 0 0 0 0 -7758701.4706115723 -361313.36035990715 0 -361313.36035990715 1969366.9524778724 0 0 0 0 4702452.0021972656 99591.223636627197 0 99591.223636627197 611270.72517162561 0 0 0 0 -9704327.7115936279 -472033.53955626488 0 -472033.53955626488 3272711.4892983437 0 0 0 0 -10620466.810897827 -3731758.1020765305 0 -3731758.1020765305 -446791.89282166958 0 0 0 0 -3248818.0456771851 -832723.43756318092 0 -832723.43756318092 314992.97354620695 0 0 0 0 -2302553.0532905627 -1100487.5653153034 0 -1100487.5653153034 -1410600.9762051397 0 0 0 0 -482707332.49197388 366857875.49203348 0 366857875.49203348 -571196268.22078419 0 0 0 0 -824812.46412086487 -4193228.0482422709 0 -4193228.0482422709 -3772905.0312974453 0 0 0 0 -1573212702.6251945 950788108.62754309 0 950788108.62754309 -207341907.70252681 0 0 0 0 -758929459.46107483 778063891.59060526 0 778063891.59060526 -352041590.0234462 0 0 0 0 -1138276846.6110229 740027697.48321164 0 740027697.48321164 -296114902.6958496 0 0 0 0 -2561109.9964531884 110870.45892476849 0 110870.45892476849 1339033.8072023983 0 0 0 0 -401019940.35760307 875049689.75342607 0 875049689.75342607 -1243902686.2782867 0 0 0 0 -2339520.2822747417 -1772189.5562601229 0 -1772189.5562601229 -294698.49169779464 0 0 0 0 -1570252168.0494461 -267260.88737882458 0 -267260.88737882458 931338.57812279731 0 0 0 0 -2645988.156003952 -19878113.180409074 0 -19878113.180409074 -631978100.00993609 0 0 0 0 -983209.17052949965 -123179.35268521868 0 -123179.35268521868 -507318.38054628705 0 0 0 0 -468371604.09681702 -753058499.96503854 0 -753058499.96503854 -591715726.96365881 0 0 0 0 -1501435.8206297867 -1945267.5217518108 0 -1945267.5217518108 287505.04654006532 0 0 0 0 -5153994.5218658447 -6614538.9254351854 0 -6614538.9254351854 -4090118.0469577163 0 0 0 0 -12765304.348686218 -2621797.2564344406 0 -2621797.2564344406 2771538.7358365357 0 0 0 0 -11865766.939376831 -4982876.9312378168 0 -4982876.9312378168 630986.6357216835 0 0 0 0 -1572920778.1542282 -735588460.01773036 0 -735588460.01773036 20303815.279365227 0 0 0 0 -1344404258.5259562 -460880366.36818606 0 -460880366.36818606 -29031023.501489367 0 0 0 0 -964780.56410458311 92272.446911435574 0 92272.446911435574 638025.89571398089 0 0 0 0 -23534000.642391205 -1670966.0235419273 0 -1670966.0235419273 28504171.030569017 0 0 0 0 -16088715.83387661 -9582426.5416751802 0 -9582426.5416751802 38430155.674075127 0 0 0 0 -1855101.6646232605 2885707.974532783 0 2885707.974532783 -4617202.4889804125 0 0 0 0 -1849475.809384767 142759.11039647274 0 142759.11039647274 1343727.593452093 0 0 0 0 -20584273.70085907 -19977328.531484127 0 -19977328.531484127 -2634136.7752710283 0 0 0 0 -941703949.75531673 -195102262.32682806 0 -195102262.32682806 2106914.4392604083 0 0 0 0 -159080896.7157858 121804376.40957786 0 121804376.40957786 -12921101.460529536 0 0 0 0 -162577676.8335228 -58762587.555064112 0 -58762587.555064112 -16897877.079538397 0 0 0 0 -726806504.52861786 -202402021.73036161 0 -202402021.73036161 2245528.8097597938 0 0 0 0 -884593210.26337814 -37213985.40339613 0 -37213985.40339613 25933280.375448287 0 0 0 0 -965848812.81260443 -246056484.60670266 0 -246056484.60670266 67731659.419970647 0 0 0 0 -1386310814.658627 -312928297.03905141 0 -312928297.03905141 88796085.405127734 0 0 0 0 -1207466370.2928829 -282040843.82514536 0 -282040843.82514536 67396327.103225306 0 0 0 0 -22146803.402626991 302422390.02905512 0 302422390.02905512 -446781119.81086397 0 0 0 0 -1049014.8056969387 -705618.50841161562 0 -705618.50841161562 225375.54713213578 0 0 0 0 -1058534832.6682205 532978380.39697969 0 532978380.39697969 -93272829.77425456 0 0 0 0 -976544386.10950851 873286856.8159399 0 873286856.8159399 -517146101.70523798 0 0 0 0 -128710391.18652344 164238529.24314213 0 164238529.24314213 -359358068.82041502 0 0 0 0 -674880118.55521774 195458305.08866608 0 195458305.08866608 56017807.878490686 0 0 0 0 -213947514.25980568 317487965.29785311 0 317487965.29785311 -87380316.768148899 0 0 0 0 -155059763.36366653 273619006.17562985 0 273619006.17562985 -524620394.4601621 0 0 0 0 -441045417.02342033 585742186.26280284 0 585742186.26280284 -597718063.44033909 0 0 0 0 -408488030.97585869 564496636.48042476 0 564496636.48042476 -676876165.15732718 0 0 0 0 -353709285.12963104 630632005.94245839 0 630632005.94245839 -727624309.94569683 0 0 0 0 -1038834530.3254967 1170527740.4868095 0 1170527740.4868095 -1059388329.9668396 0 0 0 0 -1354490910.148407 966949155.04022741 0 966949155.04022741 -481673828.34012723 0 0 0 0 -1604706239.8924065 1318557294.6468945 0 1318557294.6468945 -583709531.33709598 0 0 0 0 -1575853228.0358639 852079689.00329661 0 852079689.00329661 -514581763.4071694 0 0 0 0 -2106927281.718853 384032157.57812458 0 384032157.57812458 -920583471.98987556 0 0 0 0 -1500761438.4019299 826895600.40631223 0 826895600.40631223 -671758801.14323425 0 0 0 0 -1417199777.7189808 1026618793.4475331 0 1026618793.4475331 -337506488.59755695 0 0 0 0 -1292277793.4400692 884239823.71268356 0 884239823.71268356 -813189243.88235855 0 0 0 0 -1748743726.3094568 867572262.11808276 0 867572262.11808276 -442830259.68398118 0 0 0 0 -1141646198.5795841 1005429517.7381291 0 1005429517.7381291 -813380134.20295513 0 0 0 0 -1459997670.9351997 829852200.52710366 0 829852200.52710366 -9085172.8450486064 0 0 0 0 -832433574.29401779 228090371.68863958 0 228090371.68863958 -13411992.783035755 0 0 0 0 -242537001.82379818 -408651526.19858086 0 -408651526.19858086 -824393844.71536922 0 0 0 0 -880697.97039526724 -183217.13357638614 0 -183217.13357638614 -2662833.2292257547 0 0 0 0 -257830529.12750816 -468054454.02533817 0 -468054454.02533817 -335556202.86563492 0 0 0 0 -102494500.79008675 -198466005.03834724 0 -198466005.03834724 -214049474.20795536 0 0 0 0 -237677772.29953003 -101141212.46754265 0 -101141212.46754265 141280646.437994 0 0 0 0 -293908325.19684601 -310792315.64657676 0 -310792315.64657676 -98008951.538902283 0 0 0 0 70507831.403278828 -438154542.14226508 0 -438154542.14226508 -941631942.42483997 0 0 0 0 -33668532.559534073 -300387150.4465332 0 -300387150.4465332 -390186177.06150246 0 0 0 0 -135159868.4983654 -239617989.61745358 0 -239617989.61745358 -195321274.35220718 0 0 0 0 144981535.32439423 -178795041.00922871 0 -178795041.00922871 -546770503.38296652 0 0 0 0 145565562.33300734 -186083619.25345325 0 -186083619.25345325 -527402490.23796844 0 0 0 0 57046115.111189842 -77391574.386907578 0 -77391574.386907578 -201327904.67908096 0 0 0 0 4530100.5254554749 -74808408.347530365 0 -74808408.347530365 -125001788.54397774 0 0 0 0 8623553.9947967529 -156086824.29781914 0 -156086824.29781914 -326444324.9260397 0 0 0 0 -40778051.051561832 -65287010.534632683 0 -65287010.534632683 -115694960.29389954 0 0 0 0 -5211495.5207910538 7504264.3445720673 0 7504264.3445720673 -41732478.182956696 0 0 0 0 8336240.5818657875 21517706.15059185 0 21517706.15059185 -68322033.114995956 0 0 0 0 6394389.8161401749 -42869024.260328293 0 -42869024.260328293 -208862353.20230341 0 0 0 0 14175754.5453825 15552205.557159632 0 15552205.557159632 -37922338.853096724 0 0 0 0 -71302197.673694611 -149544267.50831762 0 -149544267.50831762 -43210501.563936494 0 0 0 0 -2872517.8566605453 -10442.629593262449 0 -10442.629593262449 -6653306.3399443505 0 0 0 0 200175923.11064148 55821114.079873085 0 55821114.079873085 -76735618.57185173 0 0 0 0 6660476.5912399292 116767608.93884659 0 116767608.93884659 35009082.40425539 0 0 0 0 48732337.213199615 61371024.89002037 0 61371024.89002037 19029381.642361641 0 0 0 0 -6131824.627162315 818670.631737452 0 818670.631737452 -9085728.2424707655 0 0 0 0 -37739879.419445038 -32324485.834249914 0 -32324485.834249914 14926932.459892273 0 0 0 0 43683104.251003265 -4772905.542470932 0 -4772905.542470932 19897370.628032684 0 0 0 0 19025540.542555809 57655169.103553772 0 57655169.103553772 33934784.93969059 0 0 0 0 10234967.94715941 23826732.132791519 0 23826732.132791519 -68920266.031427383 0 0 0 0 43540922.245453358 6315759.0833935738 0 6315759.0833935738 -59023477.483150482 0 0 0 0 21615398.986932755 66579966.998601913 0 66579966.998601913 -10498565.194853783 0 0 0 0 -17302831.674357116 2386148.1639818931 0 2386148.1639818931 -3834837.1955372086 0 0 0 0 -28637091.20388031 -19020915.732878685 0 -19020915.732878685 14171356.957292557 0 0 0 0 -11296149.375473857 45627850.02878809 0 45627850.02878809 79816190.862466812 0 0 0 0 -9031573.1326904297 -5445750.4967829287 0 -5445750.4967829287 -11091476.184886932 0 0 0 0 -4279285.6594946794 -2097337.8869429352 0 -2097337.8869429352 -3021537.700829885 0 0 0 0 -4721170.163503048 -1978091.4902680246 0 -1978091.4902680246 -4093560.4312402359 0 0 0 0 -4350898.0667190552 29333185.448509216 0 29333185.448509216 13496014.289733887 0 0 0 0 -9853124.3326487076 1478857.9935114384 0 1478857.9935114384 -5745193.6568691898 0 0 0 0 -1252200.5371856689 -239266.50709247589 0 -239266.50709247589 1022321.7415618896 0 0 0 0 -8596363.0299035385 -31267.753036734648 0 -31267.753036734648 -476050.80780599546 0 0 0 0 -7227931.0508290492 -2149413.6626408007 0 -2149413.6626408007 -4378512.2685043067 0 0 0 0 308646.88705444336 333338.73808860779 0 333338.73808860779 -2082200.728521347 0 0 0 0 -6480728.1537674926 -385965.51640609792 0 -385965.51640609792 -6958156.5836042985 0 0 0 0 251123.67353343964 998979.70029115677 0 998979.70029115677 -1806652.1313800812 0 0 0 0 -224679407.63928223 -120892562.54817709 0 -120892562.54817709 5690805.7800147589 0 0 0 0 -3235658.2768728789 -1290026.735784411 0 -1290026.735784411 -5907272.8485001847 0 0 0 0 -46483986.953899384 -12704892.914642468 0 -12704892.914642468 17381509.956108637 0 0 0 0 26916005.927549362 -19207767.060279276 0 -19207767.060279276 -14566174.052491844 0 0 0 0 -3374658.7978226179 -2350361.1330773016 0 -2350361.1330773016 985922.48228007485 0 0 0 0 -3840725.8367112335 225709.55252124975 0 225709.55252124975 -2364643.2019873387 0 0 0 0 58456992.270256042 -118172994.21868384 0 -118172994.21868384 174983301.02091813 0 0 0 0 -26953662.952827454 36891003.159991898 0 36891003.159991898 -10923009.511882344 0 0 0 0 -3962759.3371210098 5658328.33596949 0 5658328.33596949 -165380714.65811506 0 0 0 0 90064477.259157181 -79582098.682322979 0 -79582098.682322979 -463160234.4599762 0 0 0 0 -106275670.32591152 -263788273.24649298 0 -263788273.24649298 54144286.39465189 0 0 0 0 -1573312665.5742722 446922730.83513695 0 446922730.83513695 106380668.3627775 0 0 0 0 -1679374565.519474 826603466.5965606 0 826603466.5965606 -1040183710.9339119 0 0 0 0 -1686636949.63554 -17272838.021602813 0 -17272838.021602813 80877099.809182882 0 0 0 0 -1281985.5844528945 290637.42287256615 0 290637.42287256615 -1068118.5389369177 0 0 0 0 -212533471.35272598 504140860.05527878 0 504140860.05527878 -1010905710.852401 0 0 0 0 -1372530.6071898583 -891255.4914010365 0 -891255.4914010365 -4999959.2017407231 0 0 0 0 -1175928694.521122 728046858.43277776 0 728046858.43277776 -282247568.38034081 0 0 0 0 -121460801.36013222 -102486509.94266282 0 -102486509.94266282 -80561089.087065071 0 0 0 0 -504443743.7542305 -849427868.02566195 0 -849427868.02566195 -913812316.43644524 0 0 0 0 -1572348349.2385349 -681776076.9331851 0 -681776076.9331851 69754380.451483637 0 0 0 0 -26778408.7274189 -42342875.73674579 0 -42342875.73674579 -140221898.67197004 0 0 0 0 -211751402.90867329 -90079250.809654355 0 -90079250.809654355 -122327401.13057506 0 0 0 0 -368565597.13408661 -318508630.66621411 0 -318508630.66621411 -249998422.4009586 0 0 0 0 -317564272.98523903 10248940.062630206 0 10248940.062630206 56880299.772475064 0 0 0 0 -939607155.93821335 -292867444.46991289 0 -292867444.46991289 108683748.30558032 0 0 0 0 -470355875.25465012 -210173470.47294119 0 -210173470.47294119 50275219.846007705 0 0 0 0 -549185060.9020462 -107800812.3388117 0 -107800812.3388117 103845211.3663969 0 0 0 0 -1575118400.0665512 -268339523.59575444 0 -268339523.59575444 339779116.20634723 0 0 0 0 -936344398.45816803 -371130784.96083039 0 -371130784.96083039 204078537.48785022 0 0 0 0 -987326281.80885506 40229145.493780471 0 40229145.493780471 316884921.88005567 0 0 0 0 -610162042.34451294 93990179.881083265 0 93990179.881083265 101260700.01671273 0 0 0 0 -923092842.40855408 -172418124.66296613 0 -172418124.66296613 143422250.98417234 0 0 0 0 -895931249.48948669 440759786.12755275 0 440759786.12755275 -64855097.991745174 0 0 0 0 -423534391.51232719 -22153397.003591344 0 -22153397.003591344 -3401505.90012604 0 0 0 0 -1574573777.6755059 171497113.22895768 0 171497113.22895768 307838210.95047909 0 0 0 0 -931979922.56314468 361866737.09683084 0 361866737.09683084 41526172.629840806 0 0 0 0 -6918279.9627132416 -3739386.1294577122 0 -3739386.1294577122 -8037587.8293781281 0 0 0 0 -16357383.208084106 -13744701.614419699 0 -13744701.614419699 -8483133.3909349442 0 0 0 0 -1765350.6096592401 -1476511.1542020366 0 -1476511.1542020366 -3797770.1298023653 0 0 0 0 -897232.09410095215 -4279897.5264024734 0 -4279897.5264024734 -8830617.9637832642 0 0 0 0 -251476491.15032387 126950989.79514715 0 126950989.79514715 -44891264.508599468 0 0 0 0 -9534959.0920944214 -4285973.4122838974 0 -4285973.4122838974 -2491916.3381214142 0 0 0 0 -19244985.553474426 -13638981.139381409 0 -13638981.139381409 -7024708.499145031 0 0 0 0 -19999107.695158958 -14258834.880256355 0 -14258834.880256355 -5420284.4604244232 0 0 0 0 -32527687.429626465 -23145849.91354084 0 -23145849.91354084 -11389470.362524033 0 0 0 0 -3073756.8155384064 -184381.10449934006 0 -184381.10449934006 -9743946.7934322357 0 0 0 0 -204852242.11712646 -53796261.297414988 0 -53796261.297414988 -77852177.726211399 0 0 0 0 -2279050.3806124218 -1372886.4076080695 0 -1372886.4076080695 -5434780.2955747787 0 0 0 0 -42891929.138489723 7523119.5956084728 0 7523119.5956084728 -385569.52773284912 0 0 0 0 -21526894.881900787 -9635936.8841414452 0 -9635936.8841414452 -4669910.7721625268 0 0 0 0 -2543889.7192749833 -921599.8580779992 0 -921599.8580779992 -270627.13111524656 0 0 0 0 -12655836.95432663 -19087906.018836498 0 -19087906.018836498 -16021697.793029785 0 0 0 0 -31814012.237518311 -6381460.0124707222 0 -6381460.0124707222 656089.62125870585 0 0 0 0 -3915796.365919678 -1440226.7080498273 0 -1440226.7080498273 -6491912.9885001481 0 0 0 0 -6395319.9608225506 -3659929.4672196852 0 -3659929.4672196852 906054.20608749986 0 0 0 0 -21902435.160910606 -6874979.2134469151 0 -6874979.2134469151 -7321924.4566268921 0 0 0 0 -17105380.863265991 -15861409.729404449 0 -15861409.729404449 -19232534.795102119 0 0 0 0 -1942363.9059890285 -1102526.2304158979 0 -1102526.2304158979 306775.49505161308 0 0 0 0 1822749.6497268677 -4920570.4934139252 0 -4920570.4934139252 -10470778.662688494 0 0 0 0 -43455820.056106567 -50642080.274359703 0 -50642080.274359703 -17218544.344945431 0 0 0 0 -28851454.475345612 -6203480.3160693645 0 -6203480.3160693645 522885.91925430298 0 0 0 0 -13920123.12109375 -25376904.553507805 0 -25376904.553507805 16057995.668987274 0 0 0 0 -21544545.256702423 -34892015.805676937 0 -34892015.805676937 -19100323.416612625 0 0 0 0 -14927383.908050537 -9595559.9155161381 0 -9595559.9155161381 -8350904.9747495651 0 0 0 0 -19820430.699282169 -15494750.927156478 0 -15494750.927156478 -8719795.0278310776 0 0 0 0 -29865582.884273529 -20361043.213118076 0 -20361043.213118076 -9498060.6634988785 0 0 0 0 -17195482.744823456 -12206035.783476353 0 -12206035.783476353 -11302892.566505432 0 0 0 0 -31011124.564962626 -30315848.295394689 0 -30315848.295394689 -19695758.951346397 0 0 0 0 -23360509.485290527 -20151724.525656223 0 -20151724.525656223 -17659410.795441866 0 0 0 0 -19307613.077673912 -19072539.280776381 0 -19072539.280776381 -22663841.082653046 0 0 0 0 -26240096.334926605 -20425148.700865746 0 -20425148.700865746 -13809414.408904552 0 0 0 0 -16530776.658220291 -10841102.866406798 0 -10841102.866406798 -10546994.122443199 0 0 0 0 -24815268.203952789 -20180794.653240681 0 -20180794.653240681 -13549961.636424065 0 0 0 0 -63983989.631744385 -25578190.837306976 0 -25578190.837306976 -20286834.509668589 0 0 0 0 -47059020.986286163 -20834001.843006134 0 -20834001.843006134 -21742744.809556961 0 0 0 0 -98046021.769416809 -47524172.991723537 0 -47524172.991723537 -20302800.465222239 0 0 0 0 -46151608.89415741 -22738626.895906925 0 -22738626.895906925 -18027174.425782442 0 0 0 0 -26239283.530894294 -20185183.681717515 0 -20185183.681717515 -28942342.520230293 0 0 0 0 -34497203.20010376 -28273310.308884621 0 -28273310.308884621 -24163767.107961416 0 0 0 0 -43121511.242294312 -11771750.736374855 0 -11771750.736374855 -26700977.066451073 0 0 0 0 -105126916.85811996 -18012154.733575821 0 -18012154.733575821 -20421079.252181053 0 0 0 0 -82297371.127361298 -6367865.5150916576 0 -6367865.5150916576 -28577533.263850212 0 0 0 0 -45293936.420700073 2548834.3841848373 0 2548834.3841848373 -29458779.73468399 0 0 0 0 -84418072.38571167 -3623309.7992458344 0 -3623309.7992458344 -7047172.5931510925 0 0 0 0 -40882665.63684082 -24131060.891722679 0 -24131060.891722679 -11355070.369777679 0 0 0 0 -20493689.119293213 -17142170.57174015 0 -17142170.57174015 -15316268.158845901 0 0 0 0 -15812808.24394989 1776637.2413768768 0 1776637.2413768768 41523024.843429565 0 0 0 0 -27939518.76247406 -36617603.90371418 0 -36617603.90371418 3964636.9676008224 0 0 0 0 -40034057.269967079 -1191817.5610972643 0 -1191817.5610972643 31640110.488594055 0 0 0 0 -6139023.556098938 -18490503.318894863 0 -18490503.318894863 33987641.295711517 0 0 0 0 29913814.541357517 -63436270.789318085 0 -63436270.789318085 73162187.007558823 0 0 0 0 -141150205.8523016 -136302707.5339489 0 -136302707.5339489 -37639189.631299973 0 0 0 0 -84828219.134685516 -45775486.562058449 0 -45775486.562058449 71674748.454650879 0 0 0 0 -220705815.2051754 34218496.122825623 0 34218496.122825623 98720500.56167531 0 0 0 0 26135940.506321669 -35094932.467617035 0 -35094932.467617035 93148114.410722733 0 0 0 0 -107450396.68602687 66736878.648921251 0 66736878.648921251 -43088118.728485107 0 0 0 0 -149220302.62405729 -5562094.868001461 0 -5562094.868001461 352313058.35526657 0 0 0 0 -26571402.605200224 1330579.9220283898 0 1330579.9220283898 444441.12157629145 0 0 0 0 -42026899.216789246 -18860239.357943058 0 -18860239.357943058 90812986.26482296 0 0 0 0 -22190444.423411667 1770903.3046000591 0 1770903.3046000591 -1246373.7117521185 0 0 0 0 -37260998.607009888 150803258.2276125 0 150803258.2276125 86329373.747253418 0 0 0 0 -43085622.992694855 -9139400.0504341125 0 -9139400.0504341125 59471972.191277504 0 0 0 0 -87459089.610489488 31311439.398767471 0 31311439.398767471 272403406.27097327 0 0 0 0 20591152.067536592 68897279.632388115 0 68897279.632388115 22068630.809709549 0 0 0 0 -29830041.374781132 67909670.657543182 0 67909670.657543182 22086949.3533867 0 0 0 0 25254703.956961989 117471441.086483 0 117471441.086483 -146776922.75908661 0 0 0 0 -66517241.902267814 73636247.90160656 0 73636247.90160656 57640773.045985699 0 0 0 0 -27421301.805547237 132495032.43768978 0 132495032.43768978 -128100764.21957588 0 0 0 0 -124924246.69018221 160070648.55045223 0 160070648.55045223 -126780833.74069595 0 0 0 0 53350250.651594654 156903767.521501 0 156903767.521501 -408957022.68245888 0 0 0 0 50057157.660988867 130136726.64230621 0 130136726.64230621 -344436329.38022232 0 0 0 0 -64368647.540169716 235458284.29358768 0 235458284.29358768 -392010071.67463255 0 0 0 0 40469234.806259155 44388104.540089607 0 44388104.540089607 -174674405.80346489 0 0 0 0 43870202.694737315 26994358.873939037 0 26994358.873939037 -269795241.33238602 0 0 0 0 176420874.17375934 65265308.083199501 0 65265308.083199501 -412452684.9884131 0 0 0 0 69452459.960582733 -92357167.185739279 0 -92357167.185739279 -360013793.28707695 0 0 0 0 283500061.43362546 -157507899.8295331 0 -157507899.8295331 -703460155.15127182 0 0 0 0 190537434.00985718 -47483690.430111885 0 -47483690.430111885 -433489824.62075996 0 0 0 0 183130714.90380523 -10512422.115289927 0 -10512422.115289927 -616052186.53947449 0 0 0 0 377987105.60005248 -44763855.547518253 0 -44763855.547518253 -612357258.05921769 0 0 0 0 245159685.68409061 87962665.991722107 0 87962665.991722107 -647745915.2071228 0 0 0 0 123618562.91633117 194981725.70605946 0 194981725.70605946 -696201801.556427 0 0 0 0 302288155.47538149 77513114.545951843 0 77513114.545951843 -726086204.85502243 0 0 0 0 235409993.51637101 201551974.12420619 0 201551974.12420619 -984338695.68904114 0 0 0 0 -920268561.28767395 71065609.37409687 0 71065609.37409687 -110342789.05070877 0 0 0 0 34304074.877270699 409347661.68920422 0 409347661.68920422 -1198876156.9667606 0 0 0 0 -477256496.28220177 696519610.69928837 0 696519610.69928837 -861174218.77713108 0 0 0 0 -295037601.86609745 442426974.62000942 0 442426974.62000942 -516640690.641716 0 0 0 0 -145346921.46507931 -205156109.86585236 0 -205156109.86585236 -219780559.03443336 0 0 0 0 -431558473.7539711 739901470.52375221 0 739901470.52375221 171474618.17850876 0 0 0 0 -186402665.2627635 -66752118.729674339 0 -66752118.729674339 -161330356.77348518 0 0 0 0 -195538905.72172165 -36069667.611460209 0 -36069667.611460209 -58578488.38624382 0 0 0 0 -452895747.66948509 16603362.400434494 0 16603362.400434494 -40969275.849755287 0 0 0 0 -220994162.1356411 292195177.51106834 0 292195177.51106834 -304737908.25274467 0 0 0 0 -61866991.452357531 226072994.64344978 0 226072994.64344978 -387577617.21879768 0 0 0 0 46397285.448415756 -23262280.203341484 0 -23262280.203341484 -35492657.140041351 0 0 0 0 19895519.383329391 -24295292.950619698 0 -24295292.950619698 -8755024.429315567 0 0 0 0 -35982548.809159279 -156462368.96821928 0 -156462368.96821928 -178340638.53295994 0 0 0 0 86215379.20785141 -45458100.357323647 0 -45458100.357323647 -77535599.756577373 0 0 0 0 68934824.487259865 84964768.422880173 0 84964768.422880173 58168884.929675102 0 0 0 0 -1381161.7033772636 1663768.9579613102 0 1663768.9579613102 -548183.58100224601 0 0 0 0 186205073.29536343 33259519.651998043 0 33259519.651998043 -189297700.86270136 0 0 0 0 23101977.992948532 4936175.0714111328 0 4936175.0714111328 -43444506.975942612 0 0 0 0 -2178055.1313795941 -403507.71915302891 0 -403507.71915302891 248395.71244677436 0 0 0 0 20788140.227714062 2840146.7906711102 0 2840146.7906711102 -1473252.368730545 0 0 0 0 -239593989.77387428 -51243204.991306305 0 -51243204.991306305 275792228.84928131 0 0 0 0 -61229767.107078552 -29369581.754475594 0 -29369581.754475594 -18287704.543977737 0 0 0 0 -200699626.9961586 33009439.231194973 0 33009439.231194973 182100505.52901268 0 0 0 0 45470248.998790741 68397379.387498856 0 68397379.387498856 70529250.56595993 0 0 0 0 -1032983.2510940949 178726.00966843963 0 178726.00966843963 344925.9407623997 0 0 0 0 -256483987.4753418 225272377.52794647 0 225272377.52794647 206248022.89168453 0 0 0 0 675910.29325067438 1854927.0054479339 0 1854927.0054479339 -624576.52391936909 0 0 0 0 -120518257.18881297 335569631.19928956 0 335569631.19928956 -195296244.56635761 0 0 0 0 101603860.8034153 -8366.3359332084656 0 -8366.3359332084656 -222527166.68845749 0 0 0 0 -11953085.962867197 1964784.1922806534 0 1964784.1922806534 413090.68698233739 0 0 0 0 -443021244.73996353 -667949743.67016029 0 -667949743.67016029 -742690024.85370636 0 0 0 0 -293437864.00029755 -310011218.23540306 0 -310011218.23540306 -51072845.291292191 0 0 0 0 2314106.8664703369 -9080087.2447681427 0 -9080087.2447681427 -9071233.0139942169 0 0 0 0 -3106337.9242115021 -11674787.527132034 0 -11674787.527132034 -3863846.7737045288 0 0 0 0 1912821.0345630646 -15926363.628673553 0 -15926363.628673553 -2609704.9819774628 0 0 0 0 11917172.953186035 -11843499.197488785 0 -11843499.197488785 -8334016.0122652054 0 0 0 0 -21401324.957005538 4112514.293449922 0 4112514.293449922 3531537.4496606709 0 0 0 0 5926391.3940601349 -20301812.357628822 0 -20301812.357628822 -1082525.4030041695 0 0 0 0 -28171252.265647888 -15353809.654598236 0 -15353809.654598236 25137963.723352432 0 0 0 0 152957481.03825569 137395301.45845032 0 137395301.45845032 71095961.952885628 0 0 0 0 -288165152.40575409 -128164041.21904969 0 -128164041.21904969 125444480.31528091 0 0 0 0 -673270188.58943939 -302473455.39751625 0 -302473455.39751625 256222656.39548492 0 0 0 0 -260225518.98417664 -24474909.655847549 0 -24474909.655847549 341634386.75956631 0 0 0 0 -122878172.53369904 367670988.99943066 0 367670988.99943066 384445683.06127548 0 0 0 0 -880368776.11179733 167794539.72647285 0 167794539.72647285 705836035.61763191 0 0 0 0 -122028809.97106171 -45489821.434224129 0 -45489821.434224129 147463883.42246628 0 0 0 0 -189250702.75621605 -4385380.3158783913 0 -4385380.3158783913 157014247.75980759 0 0 0 0 -197691680.18930626 12467977.200588703 0 12467977.200588703 197799530.84698486 0 0 0 0 -6714749.9074075818 1578510.2101616203 0 1578510.2101616203 3511183.3396604797 0 0 0 0 -54026908.255559921 29746345.043367624 0 29746345.043367624 134843023.59879494 0 0 0 0 -16990269.9283638 -726963.9081261158 0 -726963.9081261158 -4435116.3810424805 0 0 0 0 -21045297.567828901 3237832.8845062833 0 3237832.8845062833 2283239.0301140212 0 0 0 0 -24677985.395919792 -375169.86749578989 0 -375169.86749578989 4897812.1901104273 0 0 0 0 -11850162.621292114 712803.56878423691 0 712803.56878423691 4800378.6316220015 0 0 0 0 -33645887.173391357 216359.10540110245 0 216359.10540110245 4813331.508373729 0 0 0 0 -37586363.397521973 14889031.654073715 0 14889031.654073715 54577235.612570792 0 0 0 0 -16402979.22390461 -33646515.468141079 0 -33646515.468141079 51378654.502498627 0 0 0 0 -30657449.036010355 7667412.7651528334 0 7667412.7651528334 5541142.6092390716 0 0 0 0 7280431.9229326248 -39780394.16818428 0 -39780394.16818428 15403344.668874741 0 0 0 0 4253702.0767440796 -26698752.030003548 0 -26698752.030003548 -8786115.1826997548 0 0 0 0 -4088641.4505290985 -132821270.13484097 0 -132821270.13484097 -61939726.945589781 0 0 0 0 6069264.4076017141 -49955922.75912255 0 -49955922.75912255 55605737.187517166 0 0 0 0 -30315597.917926818 927059.89280069247 0 927059.89280069247 2132339.7411866384 0 0 0 0 -61594607.528305054 11381522.468666077 0 11381522.468666077 107730255.86000314 0 0 0 0 -67908176.609857559 -85555352.225672722 0 -85555352.225672722 199794428.70570695 0 0 0 0 -42382044.445907593 -15252384.15436554 0 -15252384.15436554 51959510.248765945 0 0 0 0 -71751418.010368347 32642563.821340561 0 32642563.821340561 26304726.971490383 0 0 0 0 -32516620.104133606 44331895.073607922 0 44331895.073607922 19207915.081155777 0 0 0 0 -25914170.269004822 40516039.364320755 0 40516039.364320755 9165603.9978275299 0 0 0 0 -31129748.473953247 30557992.35132122 0 30557992.35132122 506784.52896690369 0 0 0 0 -5980150.3585968018 24657309.337547302 0 24657309.337547302 -59295259.167669296 0 0 0 0 -64184018.242218018 66379985.213608742 0 66379985.213608742 -25933443.040545464 0 0 0 0 -174461.5644999817 311841.70071996003 0 311841.70071996003 324952.67605741322 0 0 0 0 -34978735.911231995 -2420599.4332916737 0 -2420599.4332916737 6627952.4267294407 0 0 0 0 -5793286.2163081467 2917013.836185785 0 2917013.836185785 2660593.6392657598 0 0 0 0 -89682049.058937073 794688.95948886871 0 794688.95948886871 -9297439.9499607086 0 0 0 0 -150233970.24788666 57696227.552731514 0 57696227.552731514 -20878093.596057892 0 0 0 0 -119234229.69525909 64893475.456718445 0 64893475.456718445 -55219555.887530327 0 0 0 0 -82802610.456130981 -3565562.8271770477 0 -3565562.8271770477 -10743194.19606781 0 0 0 0 -168584001.23216248 33528110.27671051 0 33528110.27671051 -24288017.425317764 0 0 0 0 -2592525.0567932129 -27829571.531241417 0 -27829571.531241417 22915564.578456879 0 0 0 0 -161593968.01195335 63725026.23950541 0 63725026.23950541 -19873637.193473816 0 0 0 0 -425396.10413493961 -107175.90703160875 0 -107175.90703160875 438179.63754827622 0 0 0 0 -55868398.146614075 -4772952.8070310354 0 -4772952.8070310354 8522879.7161777616 0 0 0 0 -2234962.4297761451 -1678501.920579318 0 -1678501.920579318 5295569.040088377 0 0 0 0 8653925.3124485016 37305790.666654468 0 37305790.666654468 35977212.46108532 0 0 0 0 -67635745.835151672 18136271.433001518 0 18136271.433001518 75001498.03725338 0 0 0 0 -16528954.71257019 -30230437.864531398 0 -30230437.864531398 45096842.736585617 0 0 0 0 -102915368.01076317 -51900569.155318737 0 -51900569.155318737 37756948.34336853 0 0 0 0 -153516099.22164154 -12569383.988774776 0 -12569383.988774776 24261998.828896523 0 0 0 0 -111811591.57732391 -56926815.240884304 0 -56926815.240884304 44308576.029329777 0 0 0 0 -63919683.379638672 -10069414.352540649 0 -10069414.352540649 38429545.550010979 0 0 0 0 -351133.4485244751 -54183765.708263099 0 -54183765.708263099 41202589.008556604 0 0 0 0 -45836868.345932007 19323330.528262973 0 19323330.528262973 7574678.7349917889 0 0 0 0 -2543331.9906568453 441578.17778990418 0 441578.17778990418 233511.60139998363 0 0 0 0 -28160180.147872925 -32553986.479158908 0 -32553986.479158908 111319804.01112962 0 0 0 0 -613388.94179094583 -1549352.6334779114 0 -1549352.6334779114 3108106.5880235806 0 0 0 0 -3920838.9470229149 -85328046.293355703 0 -85328046.293355703 88521871.377781868 0 0 0 0 7408380.9519805908 -122085927.19564104 0 -122085927.19564104 161848320.79095364 0 0 0 0 72613907.672576904 -70879194.195746467 0 -70879194.195746467 17715316.571858592 0 0 0 0 -32362451.82126236 3270102.334101975 0 3270102.334101975 -64605325.211429954 0 0 0 0 -55105495.320113897 8559596.7594219781 0 8559596.7594219781 9394379.8227694035 0 0 0 0 -7892951.4055480957 -30048815.267482501 0 -30048815.267482501 31119307.204400182 0 0 0 0 12578019.94726181 -15294565.650922678 0 -15294565.650922678 13525282.008701278 0 0 0 0 -10665371.280065536 -14553683.70780839 0 -14553683.70780839 19513084.403537989 0 0 0 0 -13235818.620910645 -9723578.388120234 0 -9723578.388120234 14984498.041122414 0 0 0 0 -17723007.314041138 -10768003.589762837 0 -10768003.589762837 20422005.841756701 0 0 0 0 -9161198.6043127887 2600001.4512926694 0 2600001.4512926694 455678.93570845405 0 0 0 0 -33461923.126296997 17260765.642679811 0 17260765.642679811 110692.89228224754 0 0 0 0 -32661669.918039322 13500182.256576434 0 13500182.256576434 9648461.788295269 0 0 0 0 -32161090.714172363 33065432.330272675 0 33065432.330272675 -4566070.4233703613 0 0 0 0 -11042828.293333348 4815116.7937266454 0 4815116.7937266454 5857213.2950258851 0 0 0 0 -36636736.003349304 35001635.710401535 0 35001635.710401535 15533620.340677261 0 0 0 0 -14323792.716089249 25057569.629507542 0 25057569.629507542 -2256311.5714874268 0 0 0 0 711073.32468357682 1253524.0225976589 0 1253524.0225976589 -201488.43265010952 0 0 0 0 -11770271.7368927 -28127885.043058813 0 -28127885.043058813 2320871.6731704473 0 0 0 0 -14968957.444549561 -12671022.782242984 0 -12671022.782242984 20939494.381875455 0 0 0 0 -8191965.4605657123 -4888010.7181322975 0 -4888010.7181322975 4701882.2276681382 0 0 0 0 -31465859.883037567 -1320775.3557647616 0 -1320775.3557647616 55220403.503115982 0 0 0 0 -21013549.077663422 -21947345.693702199 0 -21947345.693702199 26224867.635805249 0 0 0 0 -6722043.5161628723 -52704870.994913578 0 -52704870.994913578 -44344350.091655314 0 0 0 0 -49251576.324687958 1562951.4026129842 0 1562951.4026129842 53219044.660817862 0 0 0 0 -3610393.6520241424 -861793.67765919818 0 -861793.67765919818 1323363.8131616663 0 0 0 0 2996780.3837814331 11419209.135212827 0 11419209.135212827 21740976.353286423 0 0 0 0 -53345940.813751221 55267646.836629391 0 55267646.836629391 54262090.777407944 0 0 0 0 -30719214.401760101 61140410.746882141 0 61140410.746882141 47298054.118031621 0 0 0 0 77520.896545272321 -88511.025516342372 0 -88511.025516342372 -124011.25167642283 0 0 0 0 -112598134.0220871 -69737167.054158688 0 -69737167.054158688 -23052602.0160405 0 0 0 0 -105747482.49581146 -39543386.388636872 0 -39543386.388636872 22164849.560904905 0 0 0 0 -88601197.265422821 -677427.36477093399 0 -677427.36477093399 84102768.993376017 0 0 0 0 -168414489.92021942 8668283.3329941481 0 8668283.3329941481 83593589.99248293 0 0 0 0 -41829996.196205139 8682692.618051827 0 8682692.618051827 59475375.202391163 0 0 0 0 -36862161.437690735 38588681.723022059 0 38588681.723022059 49597768.085070789 0 0 0 0 -88165288.557373047 9652091.1550559402 0 9652091.1550559402 42678726.551099196 0 0 0 0 -96522983.11246109 38427403.280607566 0 38427403.280607566 66081096.240444779 0 0 0 0 -85114132.819023132 29123575.21576583 0 29123575.21576583 51039126.867815211 0 0 0 0 828380.54386901855 -58964637.951384529 0 -58964637.951384529 38027489.595180452 0 0 0 0 -275755672.02098846 73824393.15451856 0 73824393.15451856 59512719.742939487 0 0 0 0 -245632360.59417915 -119302955.390715 0 -119302955.390715 26860142.553332776 0 0 0 0 -267647287.3457756 231483986.65642691 0 231483986.65642691 187500394.61451736 0 0 0 0 -332458663.50697327 -58022106.103054136 0 -58022106.103054136 16169075.022848964 0 0 0 0 -1115453.5246210471 -155611.48484068271 0 -155611.48484068271 306788.75728937041 0 0 0 0 -64568202.001169205 86048480.495098323 0 86048480.495098323 -8175459.9588920176 0 0 0 0 -107767275.10692596 -199801425.20575231 0 -199801425.20575231 -232204328.73791474 0 0 0 0 -10760055.161529541 -49327339.955662966 0 -49327339.955662966 -143911842.46823889 0 0 0 0 -89885063.538909912 -94482338.994355321 0 -94482338.994355321 59616031.994104385 0 0 0 0 13730020.126670837 1187570.3939836025 0 1187570.3939836025 100738992.08101475 0 0 0 0 35479911.64739418 276896265.45745128 0 276896265.45745128 71837947.388368249 0 0 0 0 -7389637.3569064327 -2568384.2250274057 0 -2568384.2250274057 2203893.6082680174 0 0 0 0 124348054.24047089 32030696.169155121 0 32030696.169155121 35706945.073492527 0 0 0 0 -6877381.2006511129 -1942856.0698504969 0 -1942856.0698504969 2408424.5442232601 0 0 0 0 -24106092.771362305 98183242.821440697 0 98183242.821440697 79319929.467817008 0 0 0 0 -27344894.80257256 4788826.7147422908 0 4788826.7147422908 59574.234025765334 0 0 0 0 -19615377.661655754 29033744.907211781 0 29033744.907211781 -81451643.6887784 0 0 0 0 -24377019.076316833 3574999.3883391023 0 3574999.3883391023 48654576.903922319 0 0 0 0 16816720.27243042 -40938746.721309185 0 -40938746.721309185 316135514.96744919 0 0 0 0 -22262207.750266861 -12110555.991468117 0 -12110555.991468117 11797774.455019601 0 0 0 0 -40070776.548372269 -12784161.969871521 0 -12784161.969871521 -163244997.52991104 0 0 0 0 -44273132.083573341 -25933515.954529762 0 -25933515.954529762 43907228.811698914 0 0 0 0 -6075726.5992261767 1655226.0794554949 0 1655226.0794554949 -60925720.622039318 0 0 0 0 13152982.188463211 -48280725.254647255 0 -48280725.254647255 36313828.716771245 0 0 0 0 -46349076.712522507 20052805.483350754 0 20052805.483350754 -35879615.403118134 0 0 0 0 -31788919.590330601 -45079712.779004097 0 -45079712.779004097 -11704661.825252533 0 0 0 0 -42303225.180902481 -28271749.855995178 0 -28271749.855995178 34363127.288097382 0 0 0 0 16319222.839313507 -17305976.976799011 0 -17305976.976799011 -32674615.237139702 0 0 0 0 -31341586.140706621 -4095358.0167601304 0 -4095358.0167601304 1127997.9863820516 0 0 0 0 -53586589.264222145 8530535.5192942619 0 8530535.5192942619 -67078692.368360043 0 0 0 0 -35662752.48535347 -53585216.795083523 0 -53585216.795083523 -47291717.866874695 0 0 0 0 -73844131.274492264 -57822529.725353777 0 -57822529.725353777 150746084.52425241 0 0 0 0 -96982066.121147156 39459012.792010307 0 39459012.792010307 -37913807.332691193 0 0 0 0 -101693181.13306236 -18001827.577189445 0 -18001827.577189445 -20008297.531965733 0 0 0 0 -3554827.0128245167 -1907116.6220452134 0 -1907116.6220452134 2606925.8471922455 0 0 0 0 3675710.2012233734 -25843444.996630669 0 -25843444.996630669 -77863512.581783295 0 0 0 0 -47028104.655350685 -31646304.889611483 0 -31646304.889611483 -11430598.807847977 0 0 0 0 -33004216.782027788 535023.62385698617 0 535023.62385698617 981769.68163015868 0 0 0 0 -68327807.982440948 1438040.2113246918 0 1438040.2113246918 18909593.702151924 0 0 0 0 -43790287.938091278 -48583426.310123444 0 -48583426.310123444 54345226.996244431 0 0 0 0 -30585110.382194519 -27394952.139362276 0 -27394952.139362276 59501607.919187307 0 0 0 0 -29730060.532754898 -108726894.77377129 0 -108726894.77377129 13960509.653837204 0 0 0 0 -126967879.13783264 -71662825.836652756 0 -71662825.836652756 56394053.544975281 0 0 0 0 -104140228.40530014 -102109464.99254131 0 -102109464.99254131 62108199.158467293 0 0 0 0 -112402000.56902695 -156057562.027215 0 -156057562.027215 74796034.336565018 0 0 0 0 -3848560.6592903137 -69156509.434851646 0 -69156509.434851646 12685898.971240997 0 0 0 0 55411365.694965363 -46735778.912208557 0 -46735778.912208557 19212774.265399456 0 0 0 0 -4388005.6841386948 -2141462.5953533077 0 -2141462.5953533077 -221851.4285865589 0 0 0 0 -26164370.086967468 -33550269.36303854 0 -33550269.36303854 120873687.16615105 0 0 0 0 -53335597.299323559 -58809466.9443326 0 -58809466.9443326 227757882.9688921 0 0 0 0 141051966.71709442 -4560979.9034633636 0 -4560979.9034633636 28761595.747828484 0 0 0 0 -1374649.5647613481 -943587.03410379635 0 -943587.03410379635 -267157.97345388355 0 0 0 0 -73253757.384057999 112312280.54020834 0 112312280.54020834 -126992508.32998753 0 0 0 0 -115218151.44494629 -176496709.74917221 0 -176496709.74917221 -83748656.251164436 0 0 0 0 -169141758.62009048 82820258.50919342 0 82820258.50919342 48402180.595547676 0 0 0 0 -88795170.973958969 41878295.138253212 0 41878295.138253212 -19544414.901338577 0 0 0 0 -89270273.659026861 42434206.670669556 0 42434206.670669556 7655614.1879310608 0 0 0 0 -35558279.854776382 20792872.37698555 0 20792872.37698555 13848459.270133972 0 0 0 0 -7323076.6140253395 -2897923.6602546619 0 -2897923.6602546619 347519.6604045378 0 0 0 0 -15930904.191308975 -7324989.5315537453 0 -7324989.5315537453 27383801.725108147 0 0 0 0 -29851045.926225185 -42167423.469857216 0 -42167423.469857216 169271550.12520218 0 0 0 0 -51419894.480124474 7104996.2237901688 0 7104996.2237901688 87164385.686224937 0 0 0 0 24954466.578500748 -1471573.2521324158 0 -1471573.2521324158 87543194.680360794 0 0 0 0 19216669.056225777 -89116221.319119453 0 -89116221.319119453 116569868.59948921 0 0 0 0 -58092578.354049683 -19402978.434773445 0 -19402978.434773445 12856748.656656265 0 0 0 0 -19737038.767017365 -16726926.528279305 0 -16726926.528279305 888611.20021724701 0 0 0 0 -6357436.0370616913 -10249330.196437836 0 -10249330.196437836 93297.228064537048 0 0 0 0 -19829930.630264282 -6861308.4387731552 0 -6861308.4387731552 7641023.3956899643 0 0 0 0 -6118683.5719645023 -8013348.8521724343 0 -8013348.8521724343 9420377.4844799042 0 0 0 0 -19934650.360370636 -16657864.497963428 0 -16657864.497963428 9377120.4053792953 0 0 0 0 -29989677.38060379 -3779744.4413585663 0 -3779744.4413585663 11638408.720443726 0 0 0 0 -114799504.0591526 6882526.6826920509 0 6882526.6826920509 45503605.113931656 0 0 0 0 -110034429.5946064 14955239.971879005 0 14955239.971879005 24611153.826931 0 0 0 0 -131872324.16901779 12894589.124109268 0 12894589.124109268 93425071.933122635 0 0 0 0 -131412117.22555161 -8757920.2924938202 0 -8757920.2924938202 43984313.558872223 0 0 0 0 -124106981.79943085 12901198.69261837 0 12901198.69261837 13158920.008037567 0 0 0 0 -125496324.55115283 -3945322.3385499716 0 -3945322.3385499716 39332038.287363052 0 0 0 0 -153648779.14188004 -7557763.8607120514 0 -7557763.8607120514 26987088.524313927 0 0 0 0 -104027687.76421738 18283809.196778297 0 18283809.196778297 13225402.659378052 0 0 0 0 -60968196.393046379 -339958.49793827534 0 -339958.49793827534 21055949.141748428 0 0 0 0 -118313696.59239197 1614398.5223226547 0 1614398.5223226547 24493276.306837082 0 0 0 0 -116944940.24778366 -22342891.452770233 0 -22342891.452770233 20486211.091124535 0 0 0 0 -69781855.572029114 -15857166.576682091 0 -15857166.576682091 3515192.3126039505 0 0 0 0 -147112785.13496208 -45813437.043938637 0 -45813437.043938637 6316461.274348259 0 0 0 0 -182494487.4035511 18161758.625792027 0 18161758.625792027 6982803.644443512 0 0 0 0 -82494691.364170074 1845322.3662872314 0 1845322.3662872314 -33239266.337192535 0 0 0 0 -143092105.91659164 219383688.60479832 0 219383688.60479832 -24560326.333898544 0 0 0 0 -267806113.61600876 92172843.378405571 0 92172843.378405571 11057000.213891983 0 0 0 0 -150656057.86451721 52541770.39981842 0 52541770.39981842 -8335054.5330429077 0 0 0 0 -211683957.3391037 20234184.285797119 0 20234184.285797119 61813236.279670715 0 0 0 0 -1132545.1395483809 -1020760.2847515931 0 -1020760.2847515931 -1024609.9166603549 0 0 0 0 -365636954.28732109 235673044.232059 0 235673044.232059 948719.32680511475 0 0 0 0 -128079792.67664146 -157018040.30986226 0 -157018040.30986226 -344506479.72080803 0 0 0 0 -558470451.12468338 43180317.510525703 0 43180317.510525703 66410244.223086357 0 0 0 0 -149831008.47789383 71771610.287007809 0 71771610.287007809 -28258556.738250136 0 0 0 0 -257897890.90438271 -288613617.05518055 0 -288613617.05518055 -112899999.15062332 0 0 0 0 -347133.44339299761 376000.28018252924 0 376000.28018252924 224443.50922239316 0 0 0 0 -99104264.011486053 351557437.07990742 0 351557437.07990742 -487375297.66214371 0 0 0 0 -74404836.018230438 -20128005.363866806 0 -20128005.363866806 14207663.630811691 0 0 0 0 -290201.77014365792 2457496.3085895316 0 2457496.3085895316 943586.72159705998 0 0 0 0 -1639669.7277109791 -1072754.3725559618 0 -1072754.3725559618 901259.77363197692 0 0 0 0 -704372.2438583374 1137062.7737183571 0 1137062.7737183571 6949681.8056348562 0 0 0 0 644659.47481155396 -20872069.066057205 0 -20872069.066057205 -13110045.847630501 0 0 0 0 -66868032.502058029 -26779876.926222563 0 -26779876.926222563 6813309.0305461884 0 0 0 0 1754475.9597434998 11218552.229715347 0 11218552.229715347 26514939.41956234 0 0 0 0 -1833946.458403917 -622052.89533301163 0 -622052.89533301163 1566715.3302197845 0 0 0 0 3114861.5934047699 6155566.9081193209 0 6155566.9081193209 12799623.094142914 0 0 0 0 19458.267608642578 -6661129.7274694443 0 -6661129.7274694443 -1045001.188337326 0 0 0 0 5213208.6327786446 15217901.813942015 0 15217901.813942015 18684218.639493942 0 0 0 0 -1734644.765203476 1297357.9333531857 0 1297357.9333531857 6323012.0641679764 0 0 0 0 -596104.42508602142 1228770.0158070922 0 1228770.0158070922 5623863.3355417252 0 0 0 0 -1254676.8760066628 2336191.5139301005 0 2336191.5139301005 1572865.7300422285 0 0 0 0 -34764343.937139988 -11867896.360660195 0 -11867896.360660195 -14622935.992554665 0 0 0 0 18347927.952562332 15136711.030810356 0 15136711.030810356 -121058491.75049305 0 0 0 0 -8251942.4736943245 49072105.282800317 0 49072105.282800317 -129580771.80531979 0 0 0 0 -222706461.69861603 -31815479.325565338 0 -31815479.325565338 -159749117.35581732 0 0 0 0 -71861294.197830677 122876803.57800657 0 122876803.57800657 -335717467.95077038 0 0 0 0 -46224465.608213425 42232588.746735096 0 42232588.746735096 -123610811.26640987 0 0 0 0 5086244.1479206085 72657533.43941474 0 72657533.43941474 -122257619.10695744 0 0 0 0 -5516502.0437278748 84218452.462680817 0 84218452.462680817 -167143749.21810722 0 0 0 0 -192462920.83491707 138605506.4682039 0 138605506.4682039 -49093600.200611711 0 0 0 0 -190997664.26161575 113394386.20469463 0 113394386.20469463 -17369296.387840748 0 0 0 0 -67040358.577045083 65224534.68822743 0 65224534.68822743 -2210127.9348926544 0 0 0 0 -262500134.86948776 14822772.529335499 0 14822772.529335499 -1816152.7341809273 0 0 0 0 -278297716.86518145 151242798.8399747 0 151242798.8399747 21320994.881625175 0 0 0 0 -353510923.56996727 242788668.53363228 0 242788668.53363228 -103751116.57393551 0 0 0 0 -180022933.08870506 127710339.41160107 0 127710339.41160107 -86181641.263100624 0 0 0 0 -354461702.45958102 -54972158.492984049 0 -54972158.492984049 -276357764.81637573 0 0 0 0 -627891.14920816571 -458544.80354845244 0 -458544.80354845244 -283999.31610973924 0 0 0 0 -353365442.96053219 357304868.12452817 0 357304868.12452817 -248329353.72548342 0 0 0 0 -336780276.82686329 71052212.154136896 0 71052212.154136896 35026356.679177284 0 0 0 0 -273944817.86332703 213578549.24332714 0 213578549.24332714 64628357.206209183 0 0 0 0 -52471106.804424286 175377572.81988716 0 175377572.81988716 -133533880.68462753 0 0 0 0 -408619012.37797546 327365282.52546406 0 327365282.52546406 -12478200.783456802 0 0 0 0 -594449918.46158981 355875800.64474559 0 355875800.64474559 -87457704.518290997 0 0 0 0 -244364471.88617516 219372372.54230285 0 219372372.54230285 -197227997.1821574 0 0 0 0 172213995.49802399 -15489796.205001593 0 -15489796.205001593 -264114959.24446392 0 0 0 0 -121424.19332078565 -299205.75465860125 0 -299205.75465860125 -1195498.2773966568 0 0 0 0 -297039.25286293484 -204331.98724655807 0 -204331.98724655807 -2741932.9303686731 0 0 0 0 23092303.015655518 54797795.194041491 0 54797795.194041491 -204387533.71916151 0 0 0 0 -316127098.29433155 146906274.10465133 0 146906274.10465133 16632173.239732742 0 0 0 0 -196448688.01598632 11124249.457964122 0 11124249.457964122 55057282.256183624 0 0 0 0 -657229878.62266159 324024716.011971 0 324024716.011971 118041376.48288199 0 0 0 0 181471676.94144523 -1733809.5381645076 0 -1733809.5381645076 -281377564.6681487 0 0 0 0 -241360392.48345947 408880111.46501291 0 408880111.46501291 -384983065.09967721 0 0 0 0 -689992.65602159686 276567.44871392194 0 276567.44871392194 -2362201.9709791192 0 0 0 0 -119000380.33597755 -17148124.139726132 0 -17148124.139726132 -5702280.3954632282 0 0 0 0 61530084.11898613 -2671813.9520537853 0 -2671813.9520537853 -47659415.579894543 0 0 0 0 19358517.543323517 -35318362.304818153 0 -35318362.304818153 -40916961.661046028 0 0 0 0 -95215845.149993896 -40712007.559837818 0 -40712007.559837818 -3853552.9274365902 0 0 0 0 -1487377.7520762589 1372353.1732446707 0 1372353.1732446707 -32387.32473801326 0 0 0 0 -1178850617.5825691 709927645.32339191 0 709927645.32339191 -423554728.22254312 0 0 0 0 -568366624.84867477 -83492147.035399765 0 -83492147.035399765 255604466.28561804 0 0 0 0 -881365991.72581482 854066941.55443549 0 854066941.55443549 -475239090.27013069 0 0 0 0 -692937062.3984375 169577747.94494727 0 169577747.94494727 -493349866.12415856 0 0 0 0 -873072652.99527359 28520728.016855299 0 28520728.016855299 -265023587.7622872 0 0 0 0 -1117443713.8176298 738603138.84694016 0 738603138.84694016 -498596454.56304526 0 0 0 0 -456521198.09968376 231246349.3089391 0 231246349.3089391 -199259853.08130741 0 0 0 0 -522454931.61291504 72767768.748623431 0 72767768.748623431 98061061.768939137 0 0 0 0 -155327197.80185127 -126247288.4043386 0 -126247288.4043386 -11757546.807835221 0 0 0 0 -692065647.51098633 193901025.58868003 0 193901025.58868003 -13682824.811191559 0 0 0 0 -350987786.79302311 189786116.09443718 0 189786116.09443718 -40147193.677666664 0 0 0 0 -295654547.76988983 238314320.80612004 0 238314320.80612004 -68097178.131408691 0 0 0 0 -394989712.57918167 227525182.72306108 0 227525182.72306108 -69189217.024138272 0 0 0 0 -302171338.37801933 223247686.72128177 0 223247686.72128177 -102902636.70202541 0 0 0 0 -183071365.73537827 236334004.9212904 0 236334004.9212904 -101785800.69203717 0 0 0 0 -166304545.53469563 182100993.30547667 0 182100993.30547667 -146868237.97555161 0 0 0 0 -173856732.71616745 209205332.40315723 0 209205332.40315723 -152860624.57067382 0 0 0 0 -205062277.03945732 148246762.28737545 0 148246762.28737545 -97649110.104023933 0 0 0 0 -403961654.62672997 115073643.5212146 0 115073643.5212146 -102808929.92852497 0 0 0 0 -162217799.91831398 224363529.44549561 0 224363529.44549561 -389067773.67352438 0 0 0 0 -225301495.59671211 498613702.3663094 0 498613702.3663094 -337328682.69026947 0 0 0 0 -87164106.406833649 206391590.41466379 0 206391590.41466379 -213362133.96213675 0 0 0 0 -152251567.4641571 -212303566.48954391 0 -212303566.48954391 -177591928.46316922 0 0 0 0 -79419907.013773918 140140321.10313988 0 140140321.10313988 -90513707.378193855 0 0 0 0 -1158142.5540958093 -1027151.3564326009 0 -1027151.3564326009 -845211.08401257079 0 0 0 0 -285529426.87045479 259148409.66754079 0 259148409.66754079 -77592626.664009094 0 0 0 0 -255142458.75266838 154311932.55122805 0 154311932.55122805 64250515.668681145 0 0 0 0 -650194.60117407423 -470919.52201835811 0 -470919.52201835811 -98594.797448020428 0 0 0 0 -240947322.47952032 269915854.49394107 0 269915854.49394107 -78851789.896842957 0 0 0 0 -83329901.835111618 9557335.3565378189 0 9557335.3565378189 -18680941.896442413 0 0 0 0 -94895886.427048683 67793892.159048796 0 67793892.159048796 -124208758.5477562 0 0 0 0 -108960495.94057465 23835623.198292732 0 23835623.198292732 -59409604.969967842 0 0 0 0 -12395715.594234467 -3316055.2197499275 0 -3316055.2197499275 -83356402.844984055 0 0 0 0 -123805394.27802277 -39115911.446424484 0 -39115911.446424484 140656178.77093887 0 0 0 0 113830975.86114502 -139071143.15736008 0 -139071143.15736008 48310319.638671875 0 0 0 0 -113463109.8842268 -33792569.144150972 0 -33792569.144150972 381109697.3008728 0 0 0 0 -108218158.31497955 -8290914.6153306961 0 -8290914.6153306961 83335926.789081573 0 0 0 0 108453330.07349768 198326584.98662642 0 198326584.98662642 -170354450.9925518 0 0 0 0 76011920.498984575 -172837737.76725781 0 -172837737.76725781 107080354.16137886 0 0 0 0 -48596129.085372925 206654829.06595707 0 206654829.06595707 71653750.554055691 0 0 0 0 -108916945.78668594 72651155.220499516 0 72651155.220499516 -173663952.07027054 0 0 0 0 83259123.956827164 134332354.0465312 0 134332354.0465312 -173957319.04223442 0 0 0 0 -15962205.366859436 59630319.587252617 0 59630319.587252617 -128019788.61392879 0 0 0 0 27291409.77776742 166474859.24463952 0 166474859.24463952 -437447389.01768303 0 0 0 0 -135290393.29389572 286615005.01868057 0 286615005.01868057 -118852424.95782661 0 0 0 0 -100652327.1676445 259016315.87196732 0 259016315.87196732 -247469721.35139847 0 0 0 0 -275567272.46950245 306351736.89661741 0 306351736.89661741 -120832836.48683262 0 0 0 0 -191996348.67024899 217816967.9753499 0 217816967.9753499 -124191152.79244423 0 0 0 0 -37423361.974316597 149777646.81670165 0 149777646.81670165 -136397087.92199802 0 0 0 0 189488153.8254528 -62667105.801936626 0 -62667105.801936626 123050657.71604586 0 0 0 0 -431101655.63460159 362259501.10835648 0 362259501.10835648 64009657.05282259 0 0 0 0 -298838203.87449646 235964539.14878416 0 235964539.14878416 320887.36778819561 0 0 0 0 -333414866.14408016 509372384.63789749 0 509372384.63789749 -366518998.78803062 0 0 0 0 -60070475.709618568 447549776.72532272 0 447549776.72532272 -1013574169.4722338 0 0 0 0 -651942146.0373621 741834267.87530327 0 741834267.87530327 -314639634.86001873 0 0 0 0 -499917.82974312827 1048039.1093420414 0 1048039.1093420414 -389154.039219614 0 0 0 0 -546194657.03484821 249635641.42480081 0 249635641.42480081 438445234.4380703 0 0 0 0 432881.65847721044 1111656.0864213291 0 1111656.0864213291 -2362364.6243442888 0 0 0 0 -400244357.05252534 831291137.03550637 0 831291137.03550637 -206098797.4080801 0 0 0 0 332207257.80494118 -230029791.05410749 0 -230029791.05410749 -635633093.21325016 0 0 0 0 287221070.34788251 -49757415.04756999 0 -49757415.04756999 -1009952642.707045 0 0 0 0 207908975.21553135 -45734298.601827145 0 -45734298.601827145 13320806.076365925 0 0 0 0 334027545.75860596 47911109.578561306 0 47911109.578561306 -687327232.42075825 0 0 0 0 380469.434686678 2327099.9424822433 0 2327099.9424822433 -4310428.471048574 0 0 0 0 495628773.84438419 629624420.15748119 0 629624420.15748119 27045779.867172368 0 0 0 0 405999961.22795177 370999643.63335258 0 370999643.63335258 31640089.162910938 0 0 0 0 50955094.614294529 207063942.66458249 0 207063942.66458249 61920970.076806664 0 0 0 0 230299470.05666721 34147673.034760267 0 34147673.034760267 -337174744.36394405 0 0 0 0 166424611.40407085 434605170.2945779 0 434605170.2945779 -715550217.81598759 0 0 0 0 -141099699.89731407 283854679.12425327 0 283854679.12425327 -288678979.95740438 0 0 0 0 112239596.77952528 66783407.486250162 0 66783407.486250162 -137436316.38384342 0 0 0 0 -319912333.12613678 172751679.88390374 0 172751679.88390374 63392804.740010262 0 0 0 0 -318872493.38874626 266159118.2234292 0 266159118.2234292 -41168606.364354134 0 0 0 0 -299889597.99833488 231443140.04671574 0 231443140.04671574 -38594847.585440814 0 0 0 0 -141463396.41431379 274532194.44514203 0 274532194.44514203 -138755422.18487835 0 0 0 0 -303845941.69524193 357676412.88701677 0 357676412.88701677 -179879938.68482542 0 0 0 0 -466567253.5466404 512963214.39079487 0 512963214.39079487 -155678919.5962981 0 0 0 0 -260782907.40352631 396689798.43919587 0 396689798.43919587 -158669168.42065513 0 0 0 0 -146753660.20395279 515446327.2146647 0 515446327.2146647 -390155344.0849607 0 0 0 0 73389958.396169662 481765280.25990164 0 481765280.25990164 -420599125.03218269 0 0 0 0 -965335602.15415037 585021129.28059077 0 585021129.28059077 -133269538.65007412 0 0 0 0 -307970234.71320391 829758177.55808818 0 829758177.55808818 -541291009.61403251 0 0 0 0 211236930.49843121 168804845.39748669 0 168804845.39748669 -574887770.5916028 0 0 0 0 -63658757.189388514 245578585.61822557 0 245578585.61822557 324802841.21296453 0 0 0 0 -2390720.0512679815 4772326.3768699169 0 4772326.3768699169 -682384.07002918655 0 0 0 0 -683510.32696277089 970763.78341688216 0 970763.78341688216 -781121.75137716217 0 0 0 0 -124895582.21319044 316262571.14968073 0 316262571.14968073 751308991.4747355 0 0 0 0 -3368012.3268726668 3792166.3262888957 0 3792166.3262888957 -36468.621098681186 0 0 0 0 133730306.32770473 187737700.72550488 0 187737700.72550488 -88089091.433253765 0 0 0 0 58281967.775342166 586795360.59463942 0 586795360.59463942 -431428722.28760785 0 0 0 0 -1966114.9850063324 501313076.93943167 0 501313076.93943167 -54919806.322356656 0 0 0 0 158537988.08603716 348748626.33631551 0 348748626.33631551 -322358268.11735618 0 0 0 0 42408148.780259654 525016044.23313254 0 525016044.23313254 -431887351.40020168 0 0 0 0 -125107894.15972853 876740677.58899808 0 876740677.58899808 -960877411.37900543 0 0 0 0 -853722332.72656465 119013531.94497091 0 119013531.94497091 -188432128.91765773 0 0 0 0 -788615551.33067667 752838232.89000607 0 752838232.89000607 -313229063.28949493 0 0 0 0 -958818507.40754747 311664359.71945357 0 311664359.71945357 60661575.611706778 0 0 0 0 -137142903.13725466 321632100.65470994 0 321632100.65470994 -29410921.988173246 0 0 0 0 109714568.28999382 48397345.423753291 0 48397345.423753291 479641707.78018689 0 0 0 0 -340395444.02730942 512238758.37981057 0 512238758.37981057 247348755.32946432 0 0 0 0 -213338172.18386459 -88418440.789712816 0 -88418440.789712816 274728642.90171468 0 0 0 0 -668695315.26670361 57133891.131472826 0 57133891.131472826 554749615.85910082 0 0 0 0 341927014.8098743 -101357563.58622587 0 -101357563.58622587 556693960.35542178 0 0 0 0 -272788427.88892174 335744593.18129885 0 335744593.18129885 1349494769.908222 0 0 0 0 -3445275.4376040762 2613769.1158791785 0 2613769.1158791785 272652.88333363394 0 0 0 0 -1518748939.4684706 137622249.60196748 0 137622249.60196748 402122301.62202716 0 0 0 0 -1522196670.6593809 -40602559.31385088 0 -40602559.31385088 967844336.27974343 0 0 0 0 -865943111.58581138 -479278056.09304368 0 -479278056.09304368 1253920818.0731359 0 0 0 0 -1611419.2535727071 917437.3537397777 0 917437.3537397777 174215.99303291607 0 0 0 0 -184720492.68749189 268356762.34459984 0 268356762.34459984 -313870458.02633655 0 0 0 0 -727583162.98059714 -420502401.08283508 0 -420502401.08283508 713199611.64681435 0 0 0 0 -1369881825.0651309 -33966612.268307164 0 -33966612.268307164 501452323.43892908 0 0 0 0 -1575208415.8567457 -113847429.80309574 0 -113847429.80309574 737679787.38101256 0 0 0 0 -1054863596.5775957 -160156785.50091696 0 -160156785.50091696 381545084.19626409 0 0 0 0 -1574352752.4913096 239899448.38189688 0 239899448.38189688 97183752.056364968 0 0 0 0 -1132702041.2017832 155947319.12772155 0 155947319.12772155 -147778688.41931957 0 0 0 0 -1575104412.7854295 433040676.84297824 0 433040676.84297824 -272513395.65205276 0 0 0 0 -1225710601.4009261 552063674.11064935 0 552063674.11064935 -436719318.78521115 0 0 0 0 -991763289.07411313 409188338.74344957 0 409188338.74344957 -583546304.34744096 0 0 0 0 -915037716.6485126 809730665.79153264 0 809730665.79153264 -522072580.33933842 0 0 0 0 -926773681.8637526 594341002.19424641 0 594341002.19424641 570917635.13386154 0 0 0 0 312283577.01282406 237765046.79443392 0 237765046.79443392 -1248224511.0370467 0 0 0 0 207894.60567802982 1183488.9664394197 0 1183488.9664394197 -2265578.0533149694 0 0 0 0 -1248570240.913527 604053693.92345786 0 604053693.92345786 -545047830.40716708 0 0 0 0 -1586072605.4232779 592728222.25653768 0 592728222.25653768 -63298321.027774096 0 0 0 0 508748144.04295194 187078978.84946516 0 187078978.84946516 -637417279.75292778 0 0 0 0 -297212161.52929521 263591046.69745255 0 263591046.69745255 -832763817.63430548 0 0 0 0 16753526.919818401 -130711149.27923536 0 -130711149.27923536 -404527591.75330997 0 0 0 0 -100975111.16705179 532728004.92371303 0 532728004.92371303 -2003172313.0775905 0 0 0 0 -1145234330.8014383 935313543.51704907 0 935313543.51704907 -1521809777.3847556 0 0 0 0 -1468310995.2965527 279466250.79197085 0 279466250.79197085 -1162839626.1768899 0 0 0 0 -1574281800.2160664 656310651.94379508 0 656310651.94379508 -923961797.99527729 0 0 0 0 -1295027692.8384647 877461579.78608489 0 877461579.78608489 -762495781.32484186 0 0 0 0 -1506860812.1479344 429721884.35501748 0 429721884.35501748 -456699434.41077006 0 0 0 0 -23719072.702209473 12864021.589487076 0 12864021.589487076 -28128546.101835281 0 0 0 0 -23573635.441848755 17257449.503486633 0 17257449.503486633 -21437646.097811699 0 0 0 0 -15450553.505058289 19585763.155817986 0 19585763.155817986 -21495876.061748549 0 0 0 0 -42387429.094169617 17985125.45263195 0 17985125.45263195 -11030739.964562416 0 0 0 0 -46081692.392673492 10272832.834654331 0 10272832.834654331 -12293429.310916901 0 0 0 0 -46980188.754032135 13552470.117573738 0 13552470.117573738 -11014663.186115265 0 0 0 0 -39360642.684026718 10648861.329973221 0 10648861.329973221 -12686555.767635345 0 0 0 0 -33901213.294929504 13191964.274967194 0 13191964.274967194 -19843020.485967636 0 0 0 0 -23786925.030475706 18731494.102684021 0 18731494.102684021 -17226076.605192184 0 0 0 0 -43495954.71471405 9956527.7203922272 0 9956527.7203922272 -11049267.027294159 0 0 0 0 -10508943.260448456 659111.0210943222 0 659111.0210943222 4512671.0431809425 0 0 0 0 -19918848.691946007 165800.11991659785 0 165800.11991659785 2164779.3692949237 0 0 0 0 -35224817.756591797 8365087.7424964905 0 8365087.7424964905 -11964470.141965866 0 0 0 0 -24863187.251823425 13206836.921962738 0 13206836.921962738 9045458.7551555634 0 0 0 0 -14888111.020717621 -1254185.252038002 0 -1254185.252038002 12248150.502929688 0 0 0 0 8715509.3675384521 -19953138.705345154 0 -19953138.705345154 15964946.127271652 0 0 0 0 4505816.9313926697 14911949.588023186 0 14911949.588023186 12158291.826314688 0 0 0 0 5991411.1675167084 8099117.1636009216 0 8099117.1636009216 40733072.589651108 0 0 0 0 13762178.703552246 17547178.196610451 0 17547178.196610451 46235808.44475174 0 0 0 0 -17393391.351733923 22060197.288275957 0 22060197.288275957 15875509.147132874 0 0 0 0 -3025403.2678527832 33316868.463108063 0 33316868.463108063 94960820.610485077 0 0 0 0 -5711431.9381027222 -30116959.634355545 0 -30116959.634355545 35300128.836845398 0 0 0 0 -29790636.715381622 -18210437.856899261 0 -18210437.856899261 77939465.053917885 0 0 0 0 -27157973.251327515 3792571.3639116287 0 3792571.3639116287 -28358580.898600817 0 0 0 0 -25602062.637252808 8048511.6457080841 0 8048511.6457080841 -17012526.900604248 0 0 0 0 -19837934.717065655 6860016.4394783778 0 6860016.4394783778 3951198.5542494403 0 0 0 0 -11334896.567073822 8956536.2331078053 0 8956536.2331078053 -54759723.132162571 0 0 0 0 -21644655.134571642 2355279.3479991723 0 2355279.3479991723 5169093.8710028324 0 0 0 0 -16789450.698659897 7474732.6137619019 0 7474732.6137619019 20964300.010002375 0 0 0 0 -34473022.327789307 32174813.820408523 0 32174813.820408523 66267184.413908839 0 0 0 0 -15611301.250889976 9886740.1339913234 0 9886740.1339913234 2780936.7356624985 0 0 0 0 -25826177.05958575 1619728.1216111532 0 1619728.1216111532 9639351.3799048029 0 0 0 0 -19589369.685552716 -46480030.641346455 0 -46480030.641346455 -79041216.163541794 0 0 0 0 -13687413.615659714 26381593.115129471 0 26381593.115129471 -30391377.727976799 0 0 0 0 -11861197.856575012 18543875.328465462 0 18543875.328465462 -47605026.922575951 0 0 0 0 -23532451.871545792 17457574.991089344 0 17457574.991089344 -12524136.237282276 0 0 0 0 13571061.63104248 29727553.312173843 0 29727553.312173843 -10037025.511774063 0 0 0 0 99814753.129295826 -53250941.940561056 0 -53250941.940561056 -11047823.379497528 0 0 0 0 -46802184.881576538 -5849998.889670372 0 -5849998.889670372 -20908365.796920776 0 0 0 0 -45035427.673204422 -39447760.195153713 0 -39447760.195153713 157878509.12703323 0 0 0 0 -21778921.389030457 -2095370.0614953041 0 -2095370.0614953041 112415958.9053731 0 0 0 0 48751743.981422424 84847277.61496377 0 84847277.61496377 72488467.829963684 0 0 0 0 -19958903.288925171 -2479637.6830005646 0 -2479637.6830005646 24128247.609801292 0 0 0 0 -43411269.011842728 26040176.408658981 0 26040176.408658981 58609822.379938126 0 0 0 0 -26880127.990718842 31223310.05511713 0 31223310.05511713 -824498.90145492554 0 0 0 0 -55265001.185928345 20786958.526556969 0 20786958.526556969 14532629.669259548 0 0 0 0 -44889986.053551674 16388148.650845885 0 16388148.650845885 9891537.4977636337 0 0 0 0 -64189279.723283768 20983420.099022388 0 20983420.099022388 20782123.393168449 0 0 0 0 -76731835.224899292 -4850947.8744688034 0 -4850947.8744688034 1642896.0630598068 0 0 0 0 -62067273.441875458 -31556762.206549644 0 -31556762.206549644 -10949798.572708845 0 0 0 0 -21706969.915721893 -765203.22711610794 0 -765203.22711610794 -4473038.5212535858 0 0 0 0 -56750668.357069016 5911976.8675153255 0 5911976.8675153255 670100.37949562073 0 0 0 0 -6885457.4981433889 -108074.57610539533 0 -108074.57610539533 1181419.8118606377 0 0 0 0 -54929449.592773438 8996438.579018116 0 8996438.579018116 5861859.1559398174 0 0 0 0 -59102292.335930824 12537960.143373489 0 12537960.143373489 3849195.462896347 0 0 0 0 -9691963.0712298043 -9167774.8959201425 0 -9167774.8959201425 -2852884.154588508 0 0 0 0 -3160956.4484405518 -68515925.543065548 0 -68515925.543065548 -41095941.504322529 0 0 0 0 -58734165.50712204 18347262.325941086 0 18347262.325941086 28582676.272141457 0 0 0 0 -74036557.099944115 31234318.929264545 0 31234318.929264545 29648873.733934402 0 0 0 0 -3957095.1347507592 114968.98970006406 0 114968.98970006406 961341.30937075522 0 0 0 0 3598032.5183238983 -26714099.244292974 0 -26714099.244292974 3915620.0679311752 0 0 0 0 -38938.879610061646 -16538392.667454243 0 -16538392.667454243 9872714.1277105808 0 0 0 0 -1123750.629825592 -20983955.509507656 0 -20983955.509507656 -8318416.277463913 0 0 0 0 17503649.482793808 -13666817.845743656 0 -13666817.845743656 -14174113.813544273 0 0 0 0 5184949.8189792633 -7569754.0646104813 0 -7569754.0646104813 -28999523.902715683 0 0 0 0 4884799.5482578278 -11294430.211737156 0 -11294430.211737156 -6446303.2040462494 0 0 0 0 -10946041.530411296 -8506204.6180875301 0 -8506204.6180875301 -1929208.854068609 0 0 0 0 -25436243.910009384 -8575259.6290442944 0 -8575259.6290442944 -7335057.7761449814 0 0 0 0 17948803.158556938 -18508887.96999535 0 -18508887.96999535 -9185683.1444015503 0 0 0 0 -4717235.6420440674 -16235890.648275852 0 -16235890.648275852 9283828.6967725754 0 0 0 0 -28775.63162698783 -6877770.3925014781 0 -6877770.3925014781 -1056944.0683850814 0 0 0 0 11222833.102193832 -16016445.179440498 0 -16016445.179440498 -3184957.7459278107 0 0 0 0 -8502097.708861351 -8519776.9281554222 0 -8519776.9281554222 939410.71861457825 0 0 0 0 -6910986.9358043671 -11213964.727638245 0 -11213964.727638245 3688636.3157663345 0 0 0 0 4121545.2899150848 -15376801.227294922 0 -15376801.227294922 -384282.07803535461 0 0 0 0 919422.20444107056 4575581.8467903137 0 4575581.8467903137 10691943.542976379 0 0 0 0 -37376514.207765579 687034.38163423538 0 687034.38163423538 1848652.8737277985 0 0 0 0 -22920024.325527191 7790792.17374897 0 7790792.17374897 -7970223.1168069839 0 0 0 0 -49441087.728253365 9515363.8715019226 0 9515363.8715019226 -10369983.749465942 0 0 0 0 -4324390.0877919886 -193420.9659624924 0 -193420.9659624924 1817057.0453977939 0 0 0 0 -48588269.846632004 21833622.303277254 0 21833622.303277254 -11151304.262578964 0 0 0 0 -63908460.476890564 15345678.760695457 0 15345678.760695457 4561604.4359397888 0 0 0 0 -11344937.307309063 1791157.4755788208 0 1791157.4755788208 92178.807253018022 0 0 0 0 -23953970.314025879 -3631455.268658638 0 -3631455.268658638 -5591971.6623907089 0 0 0 0 -34242897.013412476 -2047734.0722227097 0 -2047734.0722227097 1169896.6314048767 0 0 0 0 -12424814.768649781 -1999131.4330377188 0 -1999131.4330377188 1138136.383306745 0 0 0 0 -5666455.882070303 -255135.94803869724 0 -255135.94803869724 1362411.9764842987 0 0 0 0 -8516312.8663554285 -2597941.5379446233 0 -2597941.5379446233 -133107.23424016312 0 0 0 0 -5058099.257455349 646501.97821044922 0 646501.97821044922 2419393.5677294731 0 0 0 0 -5410594.6143871546 -753872.55882120132 0 -753872.55882120132 3576030.075416863 0 0 0 0 -6370819.9141827822 -2362636.7982597351 0 -2362636.7982597351 4381220.5128908157 0 0 0 0 -6722739.2543544769 -1308354.2155694962 0 -1308354.2155694962 6076670.4146709442 0 0 0 0 -4370820.0516285282 797777.31102169305 0 797777.31102169305 234106.54514941422 0 0 0 0 -11996209.99560573 -12298286.96072351 0 -12298286.96072351 2060238.2947971665 0 0 0 0 -6225763.1847753525 -2963939.8001623154 0 -2963939.8001623154 3035592.4985163212 0 0 0 0 -19931129.968341827 8192767.491795063 0 8192767.491795063 -13419690.163105011 0 0 0 0 -12466403.105882201 1946016.5746768366 0 1946016.5746768366 2602201.181925647 0 0 0 0 -12329442.76592738 1527711.1929407066 0 1527711.1929407066 3482715.5988680595 0 0 0 0 -26862707.166482925 564783.59418821335 0 564783.59418821335 5248124.9160461426 0 0 0 0 -3921997.0681362152 325261.93584537506 0 325261.93584537506 3647744.5088882446 0 0 0 0 -12712995.584134191 261661.49052422435 0 261661.49052422435 184449.9934738595 0 0 0 0 -31920159.600269318 9200010.930431366 0 9200010.930431366 13546848.773675919 0 0 0 0 -44333808.099421501 13919291.111682177 0 13919291.111682177 17339926.416702271 0 0 0 0 -22651711.200878143 -835684.27554512024 0 -835684.27554512024 2340773.2804641724 0 0 0 0 -42048351.046323776 23490244.910763741 0 23490244.910763741 9388807.7832927704 0 0 0 0 -7581645.0192443496 812210.84981903038 0 812210.84981903038 1680169.9903001529 0 0 0 0 -18145255.835529327 2020812.5574102402 0 2020812.5574102402 2478296.1862555146 0 0 0 0 -22610137.683030695 1372032.0982728004 0 1372032.0982728004 921251.18383216858 0 0 0 0 -11121958.346154323 740129.03077090485 0 740129.03077090485 802163.82591028977 0 0 0 0 -7633411.2208834589 -1554805.6174374511 0 -1554805.6174374511 1237979.4100466478 0 0 0 0 -37150432.674158096 7657916.083814621 0 7657916.083814621 3842157.8892660141 0 0 0 0 -1956327.4285049425 -198818.22748776944 0 -198818.22748776944 716997.27415490523 0 0 0 0 -27247523.122415543 2656503.4841995239 0 2656503.4841995239 8994294.5369501114 0 0 0 0 -15942436.25457859 -341968.75044202805 0 -341968.75044202805 9657432.9613866806 0 0 0 0 -6457026.6688461304 2042715.2875494957 0 2042715.2875494957 -4248361.7313814163 0 0 0 0 -40606397.805973053 13167157.507874966 0 13167157.507874966 7390129.7296886444 0 0 0 0 -40630072.215559006 1144795.0457000732 0 1144795.0457000732 22180068.223757744 0 0 0 0 -26345772.796657562 91060.566794395447 0 91060.566794395447 20660934.353940964 0 0 0 0 -20543467.829648972 -7513426.6398601532 0 -7513426.6398601532 29083875.912198067 0 0 0 0 -8679468.4408216476 -7351766.9714544863 0 -7351766.9714544863 8488592.8929481506 0 0 0 0 -27566569.092845917 -4004306.9681172371 0 -4004306.9681172371 12440645.92881012 0 0 0 0 -25714887.23859787 2817975.4506893158 0 2817975.4506893158 11428998.437326431 0 0 0 0 -2250522.8606529236 -12035881.988400459 0 -12035881.988400459 -14206370.939536095 0 0 0 0 -4978198.8226776123 -10700876.299324036 0 -10700876.299324036 -423578.63721561432 0 0 0 0 -5307019.0189819336 -11370496.649786949 0 -11370496.649786949 -1681904.0997266769 0 0 0 0 -1393224.3137588501 -7331257.9846668243 0 -7331257.9846668243 -4889035.2099695206 0 0 0 0 -1962131.3816356659 -6302663.1212434769 0 -6302663.1212434769 -2184809.8760032654 0 0 0 0 -3226959.4849033356 -9191956.4353933334 0 -9191956.4353933334 -216923.52578115463 0 0 0 0 -2778980.2560443878 -9993891.6776409149 0 -9993891.6776409149 -6676271.3974065781 0 0 0 0 -1597993.5680398941 -15016844.927292824 0 -15016844.927292824 -2508190.5486965179 0 0 0 0 2216486.7890434265 -613079.38272953033 0 -613079.38272953033 -4633957.143890202 0 0 0 0 -2561072.0627260208 -7371317.4283204079 0 -7371317.4283204079 -3899029.5491476059 0 0 0 0 -4897705.0467722528 -1439633.130505329 0 -1439633.130505329 392242.47436733916 0 0 0 0 -2495016.0381355286 1365263.8713064194 0 1365263.8713064194 -7647342.1519975662 0 0 0 0 -2554154.6868362427 -4060373.4077858925 0 -4060373.4077858925 -3351683.4807043076 0 0 0 0 -2134766.1038222313 -11336229.973811865 0 -11336229.973811865 -15859481.045049667 0 0 0 0 56036442.890014648 -18029183.966843605 0 -18029183.966843605 13906904.401844025 0 0 0 0 -87435.803555914201 -1314385.7416275365 0 -1314385.7416275365 -643902.79863486043 0 0 0 0 12398504.978335381 -45752322.566796303 0 -45752322.566796303 34751922.999974251 0 0 0 0 -3852180.7099781036 8240366.8558368683 0 8240366.8558368683 49529138.489173889 0 0 0 0 -4654409.5479898453 5702264.9598026276 0 5702264.9598026276 518428.15929317474 0 0 0 0 -9216459.6686267853 -2382938.9162447453 0 -2382938.9162447453 31893137.930969238 0 0 0 0 -454464.96821828466 -103773.90949501563 0 -103773.90949501563 173448.39304274134 0 0 0 0 -672559.6209492851 635009.33765554824 0 635009.33765554824 541864.52928514406 0 0 0 0 8070925.424489975 -254469.70559024811 0 -254469.70559024811 -12186809.692596972 0 0 0 0 20601230.122976303 -22568892.38586092 0 -22568892.38586092 17269128.445988655 0 0 0 0 -16333918.247964859 12435497.037880898 0 12435497.037880898 542477.97989988327 0 0 0 0 23832531.138802469 31993999.105058014 0 31993999.105058014 1004530.6842918396 0 0 0 0 227708.94655799866 -11631198.924869537 0 -11631198.924869537 49842447.844008446 0 0 0 0 225703.82593011856 16836535.844040453 0 16836535.844040453 21593153.819664001 0 0 0 0 -101000224.49922371 9840716.7539055347 0 9840716.7539055347 24105941.997690201 0 0 0 0 -69956423.026626587 -58132439.773967743 0 -58132439.773967743 15194323.274101973 0 0 0 0 -4133202.3482422829 -23334331.2555089 0 -23334331.2555089 -9418486.8458862305 0 0 0 0 -40486789.513378143 14490691.655308723 0 14490691.655308723 10092757.019062042 0 0 0 0 -14705440.997457504 15452601.43734169 0 15452601.43734169 -7263980.1100788116 0 0 0 0 -48543577.172243118 45375290.051588058 0 45375290.051588058 -30610731.212594986 0 0 0 0 -157624.38743094727 90309.833378569223 0 90309.833378569223 102139.60067082476 0 0 0 0 -17784638.63879776 5433626.8733277321 0 5433626.8733277321 25682276.136919022 0 0 0 0 -23463101.225411415 -26374823.970010757 0 -26374823.970010757 27077788.192595482 0 0 0 0 -63817439.052490234 9400555.8903255463 0 9400555.8903255463 7756491.1924629211 0 0 0 0 -11455325.496215409 4100750.632509659 0 4100750.632509659 3530784.9625463779 0 0 0 0 -16673548.848827362 14087312.311281055 0 14087312.311281055 -1167861.4832048118 0 0 0 0 -23415017.348536491 -18798818.666789491 0 -18798818.666789491 -9308396.4431271553 0 0 0 0 -56943190.419445038 -13192952.176003739 0 -13192952.176003739 8106361.294234097 0 0 0 0 36503276.385723114 11946281.187662564 0 11946281.187662564 12391183.044929534 0 0 0 0 31119450.632204056 26049598.757689122 0 26049598.757689122 -9555628.3464265466 0 0 0 0 25883986.862693787 21644470.661834672 0 21644470.661834672 5306566.0838630795 0 0 0 0 12533543.685153961 24497544.217217959 0 24497544.217217959 9654633.4384250641 0 0 0 0 -11962693.066151541 4709536.2005112357 0 4709536.2005112357 2965105.9935041866 0 0 0 0 31062322.347709656 26052514.605541468 0 26052514.605541468 1323763.350471139 0 0 0 0 -36276021.785274506 -1688744.2769418955 0 -1688744.2769418955 4739265.8191583157 0 0 0 0 4035691.3787765503 17054703.08416748 0 17054703.08416748 15369483.843444824 0 0 0 0 -8315112.5727677457 -2264425.1043986194 0 -2264425.1043986194 -245426.26236925437 0 0 0 0 -8843032.9306886494 -13618290.028304085 0 -13618290.028304085 17709883.448633194 0 0 0 0 -20355647.454017639 47601209.356129646 0 47601209.356129646 890045.10270786285 0 0 0 0 -1916496.1227659564 439203.83531067055 0 439203.83531067055 167706.87183090858 0 0 0 0 -6308775.3365748432 -1151804.2540515834 0 -1151804.2540515834 6791.6846155375242 0 0 0 0 13401315.506541252 32190891.65486002 0 32190891.65486002 -8526537.4150695801 0 0 0 0 -20392111.946027756 13366560.624567986 0 13366560.624567986 24721204.202346802 0 0 0 0 6298771.9206085205 34239175.754500791 0 34239175.754500791 18388710.427711517 0 0 0 0 -15966022.734210651 3211047.7869883869 0 3211047.7869883869 2290264.8294002572 0 0 0 0 -30088948.18928051 71990.276982069016 0 71990.276982069016 2181635.3775129318 0 0 0 0 -48642822.566766262 -16251855.117418885 0 -16251855.117418885 8466402.3594799042 0 0 0 0 60763676.990989685 47662228.244263649 0 47662228.244263649 24405218.134976387 0 0 0 0 -1981495.6360678831 -337268.6024572975 0 -337268.6024572975 12705.649376901332 0 0 0 0 53655985.210636139 23198625.896383762 0 23198625.896383762 -4684143.0562553406 0 0 0 0 -34761629.203052521 4481618.1495008469 0 4481618.1495008469 15412225.657308578 0 0 0 0 6068414.2777843475 26401876.098198414 0 26401876.098198414 -27649720.564747334 0 0 0 0 9034951.971036911 12302153.974432945 0 12302153.974432945 18861225.734079361 0 0 0 0 -16356122.321699142 29910533.184447318 0 29910533.184447318 40736686.442460299 0 0 0 0 -23125352.014968872 44609926.621297121 0 44609926.621297121 37322441.603926718 0 0 0 0 5727422.3561820984 31823530.965384886 0 31823530.965384886 11334893.568432242 0 0 0 0 -10869221.736184597 37659837.120543085 0 37659837.120543085 -19963906.123931587 0 0 0 0 -11066429.924575806 38070700.121031582 0 38070700.121031582 9587283.3408741653 0 0 0 0 12311577.62358284 27161058.956717744 0 27161058.956717744 -18137652.787231021 0 0 0 0 -8926224.371295929 12775744.605180983 0 12775744.605180983 -1158359.3065552972 0 0 0 0 -13996102.034332275 21194241.088209983 0 21194241.088209983 -9977000.1616659015 0 0 0 0 -24699077.068286896 1262586.1017585639 0 1262586.1017585639 -42774173.235914938 0 0 0 0 -58871674.15203476 47226282.849131793 0 47226282.849131793 -2305284.9978950024 0 0 0 0 -28920285.408760071 53283705.61109823 0 53283705.61109823 -33486249.093734741 0 0 0 0 -49449800.494491577 10496770.08712998 0 10496770.08712998 -41165848.797424912 0 0 0 0 -193218419.135746 39162751.728772894 0 39162751.728772894 -33576604.898546681 0 0 0 0 -61222023.046768188 -5080494.9033981021 0 -5080494.9033981021 -114528366.7088697 0 0 0 0 -168718.46356405318 131329.96230522916 0 131329.96230522916 -264774.8691218294 0 0 0 0 -181424266.7366333 -126267010.52398622 0 -126267010.52398622 -111923076.99123737 0 0 0 0 -13164904.970905304 97904952.444226831 0 97904952.444226831 9111144.7048906386 0 0 0 0 -55542982.285578728 -75352722.315398127 0 -75352722.315398127 -67941316.552573621 0 0 0 0 -34266135.632289886 -32578979.177488744 0 -32578979.177488744 -65621339.91371505 0 0 0 0 -124843272.90379715 15761302.720972061 0 15761302.720972061 20205782.128476679 0 0 0 0 -15084755.212955475 33116208.425081193 0 33116208.425081193 57233569.696508169 0 0 0 0 -57772974.576694489 45609874.342878103 0 45609874.342878103 62005635.689801648 0 0 0 0 -41146177.582897186 32325047.127197921 0 32325047.127197921 10202859.808909237 0 0 0 0 -19795491.371492386 43789133.979586735 0 43789133.979586735 12247658.186642766 0 0 0 0 -31901784.220035553 -4638858.8520563543 0 -4638858.8520563543 24650692.58511734 0 0 0 0 233599330.26230621 135543419.560635 0 135543419.560635 -12671053.448615603 0 0 0 0 12349438.056729794 18145479.760211796 0 18145479.760211796 73430146.511878029 0 0 0 0 -43442163.098724365 17922575.98866491 0 17922575.98866491 70451231.706632465 0 0 0 0 102409366.17601013 91476036.103637189 0 91476036.103637189 82244730.272806764 0 0 0 0 52757740.274539948 -4361673.5558785833 0 -4361673.5558785833 49427035.505704552 0 0 0 0 -17808804.475502014 25948159.330047041 0 25948159.330047041 62570009.164220512 0 0 0 0 -33879542.943244934 -59382353.203204185 0 -59382353.203204185 -30205512.709952176 0 0 0 0 -32481196.060894012 41262217.005202472 0 41262217.005202472 61393416.796613634 0 0 0 0 -218243.038384635 -298365.88633938879 0 -298365.88633938879 -219237.68379064387 0 0 0 0 -727768.28114059195 239271.74427698087 0 239271.74427698087 -527432.39413032332 0 0 0 0 -43520545.766033173 -6831104.9681889117 0 -6831104.9681889117 1785574.361184001 0 0 0 0 -1965706.6585693359 -30598935.031217664 0 -30598935.031217664 11641505.155750871 0 0 0 0 -55492701.904289246 -6592323.5632752776 0 -6592323.5632752776 9635139.7116802931 0 0 0 0 6279128.7403488159 -31978673.504395634 0 -31978673.504395634 18667339.339752734 0 0 0 0 -27245195.042266369 -79083731.916372627 0 -79083731.916372627 -76033484.26005125 0 0 0 0 -1573792.830487892 99075.338923678733 0 99075.338923678733 -572985.50509817072 0 0 0 0 -1723461.7756152824 -941033.02371351793 0 -941033.02371351793 -79623.801777371671 0 0 0 0 -40953220.384021521 -63767274.077056184 0 -63767274.077056184 10951941.446918726 0 0 0 0 -3279452.343712382 -582532.89657676127 0 -582532.89657676127 -115666.67767871794 0 0 0 0 -26807226.569273949 -73737440.777171969 0 -73737440.777171969 -30827514.714407802 0 0 0 0 5187286.0565948486 16492356.367854804 0 16492356.367854804 -9947319.0676162168 0 0 0 0 -39137430.312286377 41370025.427040577 0 41370025.427040577 10166977.676769972 0 0 0 0 -22868734.5522995 -34565322.825430632 0 -34565322.825430632 8778445.2767056227 0 0 0 0 130694428.78832245 -111580447.57268727 0 -111580447.57268727 -187938827.21315187 0 0 0 0 -43526838.097893268 5442357.0697681904 0 5442357.0697681904 41567458.647992134 0 0 0 0 -36554543.212928772 -38216217.124823838 0 -38216217.124823838 36881219.796520889 0 0 0 0 -11532224.666518688 903591.850253582 0 903591.850253582 -63578123.654168606 0 0 0 0 -59944031.521202087 -20068788.495658875 0 -20068788.495658875 105729147.79050699 0 0 0 0 -25085338.370824486 1460554.5524675602 0 1460554.5524675602 138311.60463031163 0 0 0 0 -16714175.883047342 31937342.219686031 0 31937342.219686031 -13218226.065493584 0 0 0 0 -19953397.252535105 26111171.754505277 0 26111171.754505277 -25922644.69396162 0 0 0 0 -53802696.77437973 -4504289.8169974238 0 -4504289.8169974238 133759632.13834673 0 0 0 0 -22831297.711723272 1034475.7628653522 0 1034475.7628653522 334780.73577977106 0 0 0 0 -23794194.883960724 2364904.4122514725 0 2364904.4122514725 3671090.5469846725 0 0 0 0 -29385828.845456123 5802174.2235956192 0 5802174.2235956192 31275605.041657448 0 0 0 0 -15511336.269160748 23015072.276784897 0 23015072.276784897 9490747.3546953201 0 0 0 0 -23579650.369708776 4230748.8053975105 0 4230748.8053975105 33789417.787889481 0 0 0 0 -19810235.599376678 4538967.6833267212 0 4538967.6833267212 28806663.883271694 0 0 0 0 -25522790.698433399 -7684268.8828964233 0 -7684268.8828964233 70834839.098210335 0 0 0 0 -18053520.830261469 -4281226.9325246811 0 -4281226.9325246811 71142717.34751606 0 0 0 0 -44793923.836788476 14109286.675569057 0 14109286.675569057 38356577.453656197 0 0 0 0 -11739598.60127306 3098924.9683465958 0 3098924.9683465958 34837577.543159008 0 0 0 0 -25548582.833436966 6204947.9781217575 0 6204947.9781217575 82715689.097702026 0 0 0 0 -28093334.863934755 -8205116.8019391298 0 -8205116.8019391298 96033312.332473755 0 0 0 0 5516776.974148035 -17292395.628428459 0 -17292395.628428459 62474296.721355438 0 0 0 0 -2156614.5291983187 -34062638.354415894 0 -34062638.354415894 93437072.941108704 0 0 0 0 -30941236.600880623 -32380726.738123894 0 -32380726.738123894 134272691.72496033 0 0 0 0 -10318201.530409884 -3161645.5470243869 0 -3161645.5470243869 1858426.5051136117 0 0 0 0 -1759069.7641108036 -14117365.677797318 0 -14117365.677797318 38003910.288396597 0 0 0 0 -29200.071074962616 17036853.252547264 0 17036853.252547264 88713466.54539299 0 0 0 0 -6977114.8823776245 18624353.724061012 0 18624353.724061012 22243762.659017205 0 0 0 0 -11863017.394203186 7214052.1550307274 0 7214052.1550307274 20132545.43847847 0 0 0 0 -1579435.4729995728 16631230.696928263 0 16631230.696928263 21103183.795160294 0 0 0 0 -7962650.714805603 20907781.278270483 0 20907781.278270483 59299418.24575302 0 0 0 0 -11481718.348059654 12257312.328121424 0 12257312.328121424 7322067.3365268707 0 0 0 0 -18004227.26792679 2889596.4517094325 0 2889596.4517094325 1322251.8343061204 0 0 0 0 -55627333.87587738 16602996.404715717 0 16602996.404715717 131342493.58916724 0 0 0 0 -62486076.024328232 -7068142.4901420772 0 -7068142.4901420772 132984332.21349061 0 0 0 0 -20467597.960492659 1373511.9697554091 0 1373511.9697554091 668245.99706782482 0 0 0 0 -22707785.447141647 17020394.732904434 0 17020394.732904434 -4089273.6926337034 0 0 0 0 -21393112.628348351 5523593.7702903748 0 5523593.7702903748 14038392.475076675 0 0 0 0 -22525300.703534126 11297458.850727558 0 11297458.850727558 19084628.20279789 0 0 0 0 -24235147.585441589 13740220.942298889 0 13740220.942298889 18088168.620127201 0 0 0 0 -22475330.758749008 6132860.2513303757 0 6132860.2513303757 21151945.40564537 0 0 0 0 -19192131.457297325 8733451.0649852753 0 8733451.0649852753 22849669.731162071 0 0 0 0 -18274435.667905025 1055836.2734836885 0 1055836.2734836885 8533770.8300847821 0 0 0 0 -123844639.95602798 -12529245.108870983 0 -12529245.108870983 22620038.974751472 0 0 0 0 -12784751.970575333 8186007.911034584 0 8186007.911034584 18854164.149255753 0 0 0 0 -17397182.984187126 12962632.124841094 0 12962632.124841094 22893264.017448425 0 0 0 0 -75038668.780820847 -129206104.55603933 0 -129206104.55603933 -35451069.41681385 0 0 0 0 -20090001.664604258 1753709.4146712152 0 1753709.4146712152 8187260.3524034061 0 0 0 0 -118868960.05496979 -40107168.971717358 0 -40107168.971717358 106271211.84917831 0 0 0 0 -35937908.965797424 -15573270.530343533 0 -15573270.530343533 -13606764.875752807 0 0 0 0 46253277.881015778 -97297890.640887022 0 -97297890.640887022 -31665875.658213615 0 0 0 0 -37940397.221857071 -4244210.1031939983 0 -4244210.1031939983 57680665.680206299 0 0 0 0 -40944669.257781982 -31284170.023363113 0 -31284170.023363113 61667748.284645081 0 0 0 0 91148224.27986908 183159543.31576037 0 183159543.31576037 -19216364.321337223 0 0 0 0 -730420.71086173505 -431135.05703471415 0 -431135.05703471415 1591820.8554257024 0 0 0 0 -45660622.234237671 36249924.463441372 0 36249924.463441372 148243905.10911083 0 0 0 0 -45525031.928039551 56710138.714146733 0 56710138.714146733 -252426461.76778412 0 0 0 0 -210929147.24383163 -79132716.388848305 0 -79132716.388848305 35987151.092724174 0 0 0 0 -183017274.81622314 133186620.40744638 0 133186620.40744638 20174892.262844086 0 0 0 0 -7203722.8917884827 30377353.301090717 0 30377353.301090717 32647662.335855007 0 0 0 0 -218828757.37155557 153579660.66819379 0 153579660.66819379 3444111.320766449 0 0 0 0 -233803491.07998276 -111882664.49828148 0 -111882664.49828148 13514131.581587791 0 0 0 0 -22652836.580698013 -1781498.0843486786 0 -1781498.0843486786 24233419.539180756 0 0 0 0 -1876972.406154396 3157151.6109308442 0 3157151.6109308442 2845923.5793308015 0 0 0 0 -18106382.829354554 -488530.63676672429 0 -488530.63676672429 8681400.7966069952 0 0 0 0 -7963487.5444831848 20156632.960869789 0 20156632.960869789 12616276.261260033 0 0 0 0 -24404931.649501562 -2763130.3129320145 0 -2763130.3129320145 37548147.227506638 0 0 0 0 2571058.4173936844 12479850.791720629 0 12479850.791720629 22444278.468974113 0 0 0 0 -1274288.1125617139 1947838.8592051913 0 1947838.8592051913 3658963.3518670816 0 0 0 0 -10583460.236710554 -4115639.8574986486 0 -4115639.8574986486 4886843.2472834075 0 0 0 0 -19415869.093292236 6079068.8809099197 0 6079068.8809099197 17842359.197484016 0 0 0 0 -27846767.517912149 15152137.726129591 0 15152137.726129591 8792381.4920635223 0 0 0 0 -94402019.043346405 -115794593.11056924 0 -115794593.11056924 -82467717.002285004 0 0 0 0 68880510.310546875 9142941.779548645 0 9142941.779548645 15225717.087314248 0 0 0 0 -41192213.601257324 -3911253.7359571457 0 -3911253.7359571457 60875567.383365154 0 0 0 0 -598901.865739692 300129.68690669513 0 300129.68690669513 1160116.7976051182 0 0 0 0 -33112167.8033638 -37545375.475346565 0 -37545375.475346565 -11645573.232520103 0 0 0 0 -106244494.66506195 -60293810.899508476 0 -60293810.899508476 14157899.522036552 0 0 0 0 -103594671.77930832 -36337584.788097143 0 -36337584.788097143 41338526.110044479 0 0 0 0 -71192415.99443531 25771418.397083998 0 25771418.397083998 -1481818.8553571701 0 0 0 0 -108999630.17233276 -19217630.33727026 0 -19217630.33727026 19328774.751916885 0 0 0 0 -15799660.110088348 -10255166.120518446 0 -10255166.120518446 42399064.27141428 0 0 0 0 -4009939.621084474 -46487.469455426559 0 -46487.469455426559 4005510.2143633673 0 0 0 0 -12170414.754482269 -4694312.3748710155 0 -4694312.3748710155 14531636.877239227 0 0 0 0 -10489784.735332489 -769751.29444026947 0 -769751.29444026947 -1525346.424397707 0 0 0 0 -47965440.215255737 -281490446.7164731 0 -281490446.7164731 177758234.20937443 0 0 0 0 78218052.987522125 27169377.258900881 0 27169377.258900881 -38600482.150764942 0 0 0 0 -163633.07517094538 18087.882508337963 0 18087.882508337963 809138.39299244923 0 0 0 0 -43116871.619781494 -47015359.430918694 0 -47015359.430918694 -31543892.259246826 0 0 0 0 -109230814.18714347 -50839929.213914968 0 -50839929.213914968 28125496.603488922 0 0 0 0 -201986013.48403168 -41448020.682021141 0 -41448020.682021141 41133920.288437366 0 0 0 0 -152118634.95420456 -165853775.68543291 0 -165853775.68543291 -7827317.7488603592 0 0 0 0 -164996820.84619522 51766526.727555752 0 51766526.727555752 4892006.7524995804 0 0 0 0 -572140.77531631291 -79974.497195266187 0 -79974.497195266187 513356.08947485569 0 0 0 0 -46924843.114593506 -37383778.272889614 0 -37383778.272889614 18800616.013175964 0 0 0 0 -60390425.677314758 -25951240.899545193 0 -25951240.899545193 59711482.084777832 0 0 0 0 -88153759.327209473 55345543.715729713 0 55345543.715729713 -67564730.041125119 0 0 0 0 -98694985.117866516 -102418807.23093939 0 -102418807.23093939 -77860203.300046921 0 0 0 0 -1652876.2644331343 -1099082.0077027688 0 -1099082.0077027688 2985084.8378050844 0 0 0 0 46583558.282566071 -8392936.0324876308 0 -8392936.0324876308 -54201507.927061081 0 0 0 0 46114199.282176971 59979850.662056208 0 59979850.662056208 15954833.957674503 0 0 0 0 -16187151.554759979 -3146704.8672423363 0 -3146704.8672423363 5785143.1569709778 0 0 0 0 -60655881.576433182 7503295.0647703409 0 7503295.0647703409 32813693.177602768 0 0 0 0 -1351037.7002563477 10532232.853972435 0 10532232.853972435 -10097109.689135551 0 0 0 0 -10746753.349460602 11125223.376746655 0 11125223.376746655 127857.4428730011 0 0 0 0 -6301446.8303222656 5636050.8935203552 0 5636050.8935203552 5883292.218662262 0 0 0 0 -4206075.5708389282 -12255568.775160313 0 -12255568.775160313 -14355713.030207634 0 0 0 0 89848727.177555084 17587308.309548616 0 17587308.309548616 -9654863.273191452 0 0 0 0 -23832830.312240601 -67421004.951125622 0 -67421004.951125622 82692295.100694656 0 0 0 0 -110135841.97329521 -63353212.105010986 0 -63353212.105010986 60174495.795601845 0 0 0 0 -46309710.147102356 -30936384.955580711 0 -30936384.955580711 34502390.29392159 0 0 0 0 -55707622.893924713 -8639053.866186142 0 -8639053.866186142 52053524.683569908 0 0 0 0 -59846756.54750824 -3381408.8694939613 0 -3381408.8694939613 129487303.66441345 0 0 0 0 -5503231.7033615112 -5720338.4192876816 0 -5720338.4192876816 12622668.286258698 0 0 0 0 -467695.1067237854 -2621441.5204343796 0 -2621441.5204343796 4525659.9926567078 0 0 0 0 -2068868.4427261353 781653.6131978035 0 781653.6131978035 18719722.655750275 0 0 0 0 -3373256.3828353882 -6167439.5666370392 0 -6167439.5666370392 10456445.976004601 0 0 0 0 -4526360.1224918365 -14969761.586651802 0 -14969761.586651802 8634992.8647975922 0 0 0 0 -3275794.3935317993 -13547723.965585709 0 -13547723.965585709 10190445.62906456 0 0 0 0 8676566.8580780029 -15946185.690044403 0 -15946185.690044403 15938872.463509202 0 0 0 0 -2436181.2420186996 13580042.388419628 0 13580042.388419628 7842435.8169784546 0 0 0 0 -12073517.404182434 -11758622.099235535 0 -11758622.099235535 16015229.348754883 0 0 0 0 -5466427.7376708984 -3981872.4514245987 0 -3981872.4514245987 34130050.104020119 0 0 0 0 1793225.3167457581 7892953.6406164169 0 7892953.6406164169 16329725.917132378 0 0 0 0 -1193777.7073677611 -1447627.2216871623 0 -1447627.2216871623 1120134.6884113988 0 0 0 0 -2080445.6420211792 -7872958.2282352448 0 -7872958.2282352448 12272604.82136488 0 0 0 0 10317575.93536377 -22214868.300077438 0 -22214868.300077438 18553405.156721115 0 0 0 0 -16542727.978420258 230919.37774753571 0 230919.37774753571 18116273.050926208 0 0 0 0 -9952261.6566925049 -17404263.696544647 0 -17404263.696544647 30270536.696760178 0 0 0 0 -7504675.3664904004 -6274628.1486902107 0 -6274628.1486902107 244181.98914960166 0 0 0 0 -6150346.4125156403 -5272980.495279789 0 -5272980.495279789 15587973.408280373 0 0 0 0 -8099374.7523508705 650226.64127183636 0 650226.64127183636 4873620.0924892426 0 0 0 0 18093042.225455284 11840151.232503295 0 11840151.232503295 5595063.5240936279 0 0 0 0 -14376657.617972668 -2847525.0376574919 0 -2847525.0376574919 5014362.2090260331 0 0 0 0 -2796864.2927455902 -1727644.995660305 0 -1727644.995660305 6083050.4226379395 0 0 0 0 -7916648.4571304321 -4812619.0012664795 0 -4812619.0012664795 12679406.916352272 0 0 0 0 -7721029.7587359995 783712.02859791927 0 783712.02859791927 6944058.7480056044 0 0 0 0 -8460788.2467041016 1042343.3546469212 0 1042343.3546469212 7970028.5072687864 0 0 0 0 -9448378.2168579102 -2583959.18460989 0 -2583959.18460989 11521017.739444852 0 0 0 0 -5506132.7039539963 -1578156.9701487417 0 -1578156.9701487417 4131451.9028592417 0 0 0 0 -11884796.706645489 10461154.657977551 0 10461154.657977551 11014685.029317379 0 0 0 0 -2469133.1211395264 -1066904.6944956779 0 -1066904.6944956779 2929205.7932186127 0 0 0 0 -553486.74499062449 1688718.1644471288 0 1688718.1644471288 3292421.098049419 0 0 0 0 -65811154.545211792 47618140.321743488 0 47618140.321743488 388597953.49773884 0 0 0 0 68202126.791343689 -384106326.49614716 0 -384106326.49614716 -171414376.84769678 0 0 0 0 -524283413.32185364 387295274.950562 0 387295274.950562 205652522.246315 0 0 0 0 313417596.99281311 202794477.10418081 0 202794477.10418081 -421367894.22220564 0 0 0 0 381649530.56105804 13863921.213730812 0 13863921.213730812 -93767391.272019863 0 0 0 0 -2305096.269744873 697328.07212388515 0 697328.07212388515 2478521.022342205 0 0 0 0 -3794401.3283597417 1619411.4581591198 0 1619411.4581591198 4068518.9912164193 0 0 0 0 85131195.205627441 33685301.161806107 0 33685301.161806107 122268505.29585648 0 0 0 0 -543221.12651348114 619582.91124337912 0 619582.91124337912 4182824.1809697151 0 0 0 0 -4543266.7561383713 -52666.262352413498 0 -52666.262352413498 3137754.650348275 0 0 0 0 -1545816.4507751465 296773.03888563812 0 296773.03888563812 1745385.3578041941 0 0 0 0 -1471645.4251573794 574420.02926688036 0 574420.02926688036 4645039.1798866894 0 0 0 0 -2045505.5237224698 181203.62367680017 0 181203.62367680017 3415885.7168694423 0 0 0 0 -3862291.3902175231 -1062004.8034432931 0 -1062004.8034432931 2531000.3480750872 0 0 0 0 -2730475.0964012146 -1245153.8954200745 0 -1245153.8954200745 2953432.8671269417 0 0 0 0 -2566581.8640136719 -1101212.0126364231 0 -1101212.0126364231 3012329.4418444633 0 0 0 0 -2072852.997410154 -2338455.0062415954 0 -2338455.0062415954 5207353.0345960315 0 0 0 0 -2024764.8039207458 -1162963.3039445877 0 -1162963.3039445877 1663998.8163243532 0 0 0 0 -1388575.4293726031 1185195.6924463068 0 1185195.6924463068 3111473.8766898895 0 0 0 0 -1231061.0925140306 -730968.4114958318 0 -730968.4114958318 1604161.4166315931 0 0 0 0 -1156016.0393252373 278999.48433101177 0 278999.48433101177 3476636.7118787766 0 0 0 0 676498.27482223511 1416410.4683737755 0 1416410.4683737755 9994170.8836221695 0 0 0 0 -2012780.1980457306 932268.51240706444 0 932268.51240706444 5601223.9769040346 0 0 0 0 -1579391.1380413249 289045.46671051905 0 289045.46671051905 2288846.8227467258 0 0 0 0 -1389849.2401733398 1124844.2306072116 0 1124844.2306072116 4665133.1721115112 0 0 0 0 -288803.17162690498 645693.5768448147 0 645693.5768448147 885240.34006346297 0 0 0 0 -2766315.1459159851 3158553.8434171677 0 3158553.8434171677 17177708.941849232 0 0 0 0 -3283797.0982398987 3930577.2079677582 0 3930577.2079677582 23634718.905586243 0 0 0 0 27632854.314399719 58734730.535955906 0 58734730.535955906 -140884962.58008933 0 0 0 0 13952983.011745453 74174854.502022266 0 74174854.502022266 -71433579.080739021 0 0 0 0 4495948.3614053726 6971445.2109384537 0 6971445.2109384537 -2978408.3437576294 0 0 0 0 -6577419.0474395752 7627809.7870426178 0 7627809.7870426178 328083.1777973175 0 0 0 0 -2067396.5346113686 2288946.7135076537 0 2288946.7135076537 2563710.3729189029 0 0 0 0 15000530.757045746 49673148.236924171 0 49673148.236924171 -75014410.121884346 0 0 0 0 -9987260.1372528076 13658231.645997047 0 13658231.645997047 17248194.605410099 0 0 0 0 28770553.224155426 35268381.573951721 0 35268381.573951721 26096941.238605499 0 0 0 0 -585145.23287129402 108870.34964079596 0 108870.34964079596 818459.49975514878 0 0 0 0 -4657560.6255187988 20703974.747021675 0 20703974.747021675 -5897781.91340065 0 0 0 0 -96687078.353935242 56667516.317174435 0 56667516.317174435 -12735708.510251999 0 0 0 0 -2881122.2304267883 92804339.162699223 0 92804339.162699223 -81174182.435671806 0 0 0 0 -97745587.026878357 148338683.29549885 0 148338683.29549885 -96988359.289342642 0 0 0 0 -22765768.561187744 -21458135.883410335 0 -21458135.883410335 -40026583.489151955 0 0 0 0 14563846.663730621 4860676.1860938072 0 4860676.1860938072 -21587949.124866962 0 0 0 0 -26912834.743715286 -5014170.6443636417 0 -5014170.6443636417 42035589.256238937 0 0 0 0 -1949058.1134147756 2737913.1476797173 0 2737913.1476797173 3860710.5776853161 0 0 0 0 -52664320.100646973 3386555.3809776306 0 3386555.3809776306 39401963.26401329 0 0 0 0 -859893948.42975616 -410455972.66335726 0 -410455972.66335726 423292993.42665672 0 0 0 0 -19070985.19367218 3787898.6210169792 0 3787898.6210169792 11285437.000395894 0 0 0 0 -3726578.0284191594 1758470.8684872733 0 1758470.8684872733 2997332.4774561212 0 0 0 0 -8470618.1976509094 -6345173.2543013096 0 -6345173.2543013096 -21400377.150013924 0 0 0 0 -1679297.0844844626 2788104.2577863913 0 2788104.2577863913 7003249.0183857437 0 0 0 0 -549330.84866412822 2154935.2299463777 0 2154935.2299463777 5384361.8408988714 0 0 0 0 -86395836.014972687 26124505.453379929 0 26124505.453379929 38653895.623217583 0 0 0 0 -45897775.604049683 91264373.429071188 0 91264373.429071188 -55172460.556194305 0 0 0 0 -120404392.27730179 108831822.18259454 0 108831822.18259454 -42914285.746292472 0 0 0 0 -113806884.39474106 69747086.624862432 0 69747086.624862432 44338086.08269453 0 0 0 0 -135322910.38721466 -13063353.50962925 0 -13063353.50962925 -32365346.038076639 0 0 0 0 -72642268.725101471 135674684.43557417 0 135674684.43557417 -124908804.80645943 0 0 0 0 43800165.677444458 138976319.15327525 0 138976319.15327525 -174156948.93275356 0 0 0 0 356347.67732883617 -84363.400799370371 0 -84363.400799370371 -760583.65051072324 0 0 0 0 172290191.54110336 89230925.040578365 0 89230925.040578365 -156777977.71160233 0 0 0 0 -174121235.55176544 132214375.95483351 0 132214375.95483351 3803647.4704995155 0 0 0 0 -67457180.579971313 70431462.441254854 0 70431462.441254854 74990693.361070633 0 0 0 0 104524893.24038696 -17104191.724966884 0 -17104191.724966884 -47115056.95602417 0 0 0 0 87261534.286506653 66315612.605627537 0 66315612.605627537 -146380343.21512222 0 0 0 0 -1518940.5372600555 58946116.61300391 0 58946116.61300391 -101297114.57018852 0 0 0 0 20515172.623695374 -40603034.215066433 0 -40603034.215066433 43058530.638270378 0 0 0 0 28663670.69594574 -9616161.5974607468 0 -9616161.5974607468 3886952.6625590324 0 0 0 0 -620904.67661187239 -709489.11469447147 0 -709489.11469447147 821047.24425017019 0 0 0 0 -2587508.8096606135 -23988.668603589758 0 -23988.668603589758 246694.92840791005 0 0 0 0 -2505964.6558456421 -365155.7227602005 0 -365155.7227602005 3250537.4228920937 0 0 0 0 -2369118.5334777832 -490147.23779678345 0 -490147.23779678345 2638290.8972988129 0 0 0 0 -2632340.3677568436 312839.96265876293 0 312839.96265876293 3375566.3111839294 0 0 0 0 -2626081.2716598511 417539.66065883636 0 417539.66065883636 1528605.4945526123 0 0 0 0 -3150856.2450394798 1205051.6675012903 0 1205051.6675012903 709289.38648607559 0 0 0 0 -2711273.5303573608 710223.00553798676 0 710223.00553798676 2289216.5092871189 0 0 0 0 -1930344.6279602051 473673.36109352112 0 473673.36109352112 2734501.2543516159 0 0 0 0 -3394670.3712152503 701726.62591908802 0 701726.62591908802 1025605.4377068668 0 0 0 0 -1850741.3158493042 -202884.67908287048 0 -202884.67908287048 3061365.3033981323 0 0 0 0 -1349900.6201591492 -1191672.0040698051 0 -1191672.0040698051 4700805.0051860809 0 0 0 0 -2863220.7767181396 1514863.2099895477 0 1514863.2099895477 5629974.8989357948 0 0 0 0 -128105.7635841528 22720.273027099669 0 22720.273027099669 55944.461381452624 0 0 0 0 -69822811.626716614 21587199.824482441 0 21587199.824482441 89081915.236223698 0 0 0 0 -1887900.0326442719 -2158421.756177187 0 -2158421.756177187 5456083.5369911194 0 0 0 0 -1802872.2980194092 -1356228.4565694332 0 -1356228.4565694332 5456129.2868757248 0 0 0 0 -3404605.6825549901 458990.26793781947 0 458990.26793781947 471584.19849898503 0 0 0 0 -2306014.3885505088 -2796136.756864816 0 -2796136.756864816 1807491.277921549 0 0 0 0 -38242194.740005493 -36116565.227132797 0 -36116565.227132797 44742146.543475151 0 0 0 0 -29444291.294021606 5219148.5687041283 0 5219148.5687041283 18904417.224250793 0 0 0 0 141602439.11021805 -11972737.907452941 0 -11972737.907452941 -69437873.031614304 0 0 0 0 365835493.948349 -420531599.73117924 0 -420531599.73117924 296270943.36801529 0 0 0 0 52218.776638116688 -272182.44626627653 0 -272182.44626627653 103000.18822016183 0 0 0 0 -215761869.09959412 -140534388.86798477 0 -140534388.86798477 -58106220.422501802 0 0 0 0 190394277.45740891 350085123.75469995 0 350085123.75469995 -14591176.657255173 0 0 0 0 -566765005.83422852 153704245.89561844 0 153704245.89561844 -21088555.741142273 0 0 0 0 102946344.20121002 -93963363.792907238 0 -93963363.792907238 -251532823.09288782 0 0 0 0 -39054795.345031738 78961920.563434601 0 78961920.563434601 -183224304.31242752 0 0 0 0 -1408809.0074496269 484876.22703655856 0 484876.22703655856 918171.2196333243 0 0 0 0 -2012274.2355150133 -1020462.3355478328 0 -1020462.3355478328 235521.08633716532 0 0 0 0 -38796202.467308044 -13696735.123067856 0 -13696735.123067856 -14835805.606310844 0 0 0 0 539262028.99948883 1167557932.5230579 0 1167557932.5230579 -643254691.69881821 0 0 0 0 -723275906.80976486 99673469.458743572 0 99673469.458743572 52122022.648656845 0 0 0 0 -64454406.038612366 -88176923.887423515 0 -88176923.887423515 -59623626.381798744 0 0 0 0 -111003407.57940674 -7758970.2713339329 0 -7758970.2713339329 19740177.081844091 0 0 0 0 -242536330.90268707 -28991032.095616817 0 -28991032.095616817 50538963.296724319 0 0 0 0 -108823294.84509277 69662103.757671356 0 69662103.757671356 51839208.043189526 0 0 0 0 -114702959.82539368 21442741.826559305 0 21442741.826559305 65817157.573681831 0 0 0 0 -108156407.61245728 4055981.6154732704 0 4055981.6154732704 53569953.851216972 0 0 0 0 5732163.402885437 -46459489.836624622 0 -46459489.836624622 53800665.131498814 0 0 0 0 -44606231.928108215 20316872.50139451 0 20316872.50139451 41870635.484192371 0 0 0 0 -79411507.210187912 16362699.31957376 0 16362699.31957376 44878744.506473541 0 0 0 0 -76328052.267242432 33785864.398973465 0 33785864.398973465 43662604.459462225 0 0 0 0 -83325502.506999969 10061235.642197609 0 10061235.642197609 63352950.849836826 0 0 0 0 -75485322.555545807 64932699.466436625 0 64932699.466436625 71828053.716961563 0 0 0 0 -84331128.687381744 35577384.219597697 0 35577384.219597697 7692761.8027672768 0 0 0 0 -39011870.133571625 25100680.203465819 0 25100680.203465819 -13545166.219527662 0 0 0 0 -54505755.323419094 -2003707.7706009448 0 -2003707.7706009448 6750309.4552254677 0 0 0 0 -43034904.908328533 -18594978.653337508 0 -18594978.653337508 144845592.82948494 0 0 0 0 39690790.802875519 73392507.620393753 0 73392507.620393753 67032379.295386314 0 0 0 0 -19036016.998603821 -44672132.561095476 0 -44672132.561095476 133472200.76338387 0 0 0 0 4012889.0429840088 -48203812.252183497 0 -48203812.252183497 91704881.379593849 0 0 0 0 -49024433.835731506 33386737.607652664 0 33386737.607652664 207052607.69763136 0 0 0 0 -77505713.792079926 -109751064.74660301 0 -109751064.74660301 -94797811.629061908 0 0 0 0 -102193984.17461395 -58690089.819034934 0 -58690089.819034934 -32801333.488020062 0 0 0 0 -31584669.238380909 -41468083.091547027 0 -41468083.091547027 -101345632.29024553 0 0 0 0 -39451953.303024292 25167901.171901941 0 25167901.171901941 19261158.857076168 0 0 0 0 -10788957.661399841 6019016.3994345665 0 6019016.3994345665 15095029.058262944 0 0 0 0 -6750047.4200820923 -3486359.8243265152 0 -3486359.8243265152 11735741.144153833 0 0 0 0 1862548.6145782471 10834825.767941475 0 10834825.767941475 11021231.387101173 0 0 0 0 -94924049.565757751 84778827.21165657 0 84778827.21165657 -1441750.9805765152 0 0 0 0 -2190765.2008065283 401994.09680153895 0 401994.09680153895 925963.78384220111 0 0 0 0 -110697526.12904358 -85512545.497085571 0 -85512545.497085571 -66687834.953557968 0 0 0 0 7125328.5975189209 -3664833.021238327 0 -3664833.021238327 46697820.416435242 0 0 0 0 -121996862.91207886 -51660761.74840641 0 -51660761.74840641 56922647.107076645 0 0 0 0 -44831.572305429727 68051.057052403223 0 68051.057052403223 -12878.490143790608 0 0 0 0 -210499964.76396561 203356895.57212389 0 203356895.57212389 -118880584.19073677 0 0 0 0 23787345.338623047 -110815794.78790474 0 -110815794.78790474 134842481.141047 0 0 0 0 28357970.139587402 -254278922.19722271 0 -254278922.19722271 137850555.40867233 0 0 0 0 -90059523.115646362 38967373.067225933 0 38967373.067225933 60844548.43243885 0 0 0 0 -134275948.14717102 -33652867.739114523 0 -33652867.739114523 207406413.6265831 0 0 0 0 -112341248.14613342 -43260431.169430733 0 -43260431.169430733 59847328.95361042 0 0 0 0 -107886156.31242752 -118963895.70425367 0 -118963895.70425367 -14546049.465441704 0 0 0 0 -98886475.47492981 -74995572.833212852 0 -74995572.833212852 -39814350.925514221 0 0 0 0 -125318518.27674103 -94775594.373056412 0 -94775594.373056412 43584385.639246941 0 0 0 0 -19228850.506549835 -9877218.2508513927 0 -9877218.2508513927 3293134.3870226145 0 0 0 0 -2640386.2457818985 -5337735.1578084826 0 -5337735.1578084826 -1629285.8322958946 0 0 0 0 -2735859.526763916 2543137.5156559944 0 2543137.5156559944 583402.58398962021 0 0 0 0 -6805156.809173584 2441789.2206873894 0 2441789.2206873894 11999179.434811115 0 0 0 0 34667916.335044861 -42834871.063867569 0 -42834871.063867569 45606612.854477882 0 0 0 0 -6011586.9411201477 4372537.8194954395 0 4372537.8194954395 6886982.9166941643 0 0 0 0 -2545828.5869029853 139746.39888518164 0 139746.39888518164 519729.82679361571 0 0 0 0 -2525857.9994754791 -1509715.6633756161 0 -1509715.6633756161 7280545.9813051224 0 0 0 0 -611943.55269870721 -206321.59206506237 0 -206321.59206506237 764155.02442793688 0 0 0 0 -1249449.3447056934 -889775.37101769075 0 -889775.37101769075 2355238.370381909 0 0 0 0 -7554636.0481734276 -4161984.0732035637 0 -4161984.0732035637 5032093.5052857399 0 0 0 0 -29067537.834732056 -1442508.4184594154 0 -1442508.4184594154 2569216.1909255981 0 0 0 0 -3063629.6073312927 142842.21166003938 0 142842.21166003938 682292.89587286685 0 0 0 0 -33435863.162261963 30302476.596894264 0 30302476.596894264 197587442.26495552 0 0 0 0 -41545504.150836945 214555.17561864853 0 214555.17561864853 196219396.48147774 0 0 0 0 -64981594.263824463 7589981.1026115417 0 7589981.1026115417 194830548.28842354 0 0 0 0 -52310030.303466797 -10525733.258935928 0 -10525733.258935928 284570217.83742523 0 0 0 0 -65596805.575195312 29017624.113792419 0 29017624.113792419 212969281.06787682 0 0 0 0 -45580418.310577393 -10419478.410134792 0 -10419478.410134792 102772491.53787994 0 0 0 0 -45923051.397392273 37464793.264422417 0 37464793.264422417 209291696.48121262 0 0 0 0 26999484.490821838 55634996.053144455 0 55634996.053144455 101645729.05456543 0 0 0 0 -39320076.92269516 4031946.2967410088 0 4031946.2967410088 218462833.49518585 0 0 0 0 -10041858.745445251 84348510.124490738 0 84348510.124490738 174019027.87623405 0 0 0 0 -62343850.906867981 -53719233.294072151 0 -53719233.294072151 216530859.06647682 0 0 0 0 36913837.087936401 -100345007.6308651 0 -100345007.6308651 76099772.715706825 0 0 0 0 -127394702.55216599 -45557071.881601334 0 -45557071.881601334 57970465.942110062 0 0 0 0 -30904312.294708252 43491390.053849697 0 43491390.053849697 -107761979.66649818 0 0 0 0 -23424007.49030304 -33550179.588467598 0 -33550179.588467598 23757294.572283745 0 0 0 0 -105888235.41907883 -136583689.57563877 0 -136583689.57563877 -55496043.461700439 0 0 0 0 26433792.410655975 -132591690.26767015 0 -132591690.26767015 -231702976.22710848 0 0 0 0 -28577972.682754517 10885014.083665848 0 10885014.083665848 85391098.721867561 0 0 0 0 3931177.5497589111 -43004588.966227531 0 -43004588.966227531 -72775068.964096069 0 0 0 0 4098944.4381713867 -120563533.48650265 0 -120563533.48650265 -88622899.406682968 0 0 0 0 -50466428.796607971 -140236307.32315636 0 -140236307.32315636 6845833.1995579004 0 0 0 0 -8994187.3259181976 -24643384.157937288 0 -24643384.157937288 21040376.991210938 0 0 0 0 -11427067.369255066 -77944485.264502525 0 -77944485.264502525 101924759.07589436 0 0 0 0 -477568.83060192224 564940.5235892199 0 564940.5235892199 255594.11600947985 0 0 0 0 45062581.175804138 -90496667.944249153 0 -90496667.944249153 25151705.587997437 0 0 0 0 -2428192.7740545273 -48065.957961857319 0 -48065.957961857319 1195254.6388673782 0 0 0 0 -3390793.0691383202 -503045.03792393953 0 -503045.03792393953 1658908.5764873852 0 0 0 0 -212993.88431476057 229646.82856657915 0 229646.82856657915 22449.099448249675 0 0 0 0 57846644.603164673 1720784.6327228546 0 1720784.6327228546 1257697.8978233337 0 0 0 0 -29240639.139389038 -63279615.412738323 0 -63279615.412738323 99561357.55104351 0 0 0 0 -39463357.734495163 29616073.393030524 0 29616073.393030524 3405610.8325090408 0 0 0 0 -63467776.239181519 -7285782.8503265381 0 -7285782.8503265381 -26559182.031158298 0 0 0 0 -52462514.072822571 -62129562.933363914 0 -62129562.933363914 47440097.627954483 0 0 0 0 -113768086.60681725 15688329.117805243 0 15688329.117805243 125721753.69737434 0 0 0 0 -55132277.027908325 -114562623.17491293 0 -114562623.17491293 -24436011.532317162 0 0 0 0 -1598311.3161141854 169588.15698535321 0 169588.15698535321 908267.74847205449 0 0 0 0 387750.58361816406 689005.925157547 0 689005.925157547 -1952582.6845417023 0 0 0 0 -1379420.7531318665 2268589.9498558044 0 2268589.9498558044 4835698.843296051 0 0 0 0 -240794.90869140625 3712986.292093277 0 3712986.292093277 -2316089.8688971996 0 0 0 0 -3284833.0551092867 1169268.8657070519 0 1169268.8657070519 831745.06482354179 0 0 0 0 -2845805.2350921631 453271.04482746124 0 453271.04482746124 2005504.3321208954 0 0 0 0 -1202212.3348999023 -71994.046358585358 0 -71994.046358585358 2112885.9588670731 0 0 0 0 5135281.9579963684 3928593.8246107101 0 3928593.8246107101 -3661354.2310733795 0 0 0 0 -5267039.0647087097 -1436388.1085088253 0 -1436388.1085088253 10931051.740724564 0 0 0 0 -1410168.3095375402 528743.05385329202 0 528743.05385329202 82645.412516066805 0 0 0 0 -450313.11019274965 126800.18265042547 0 126800.18265042547 44623.295669903047 0 0 0 0 12915607.345600128 -24293680.077232838 0 -24293680.077232838 28029726.499790192 0 0 0 0 6920544.7655410767 -13037416.099957466 0 -13037416.099957466 8162660.6323986053 0 0 0 0 5602396.5459671021 -8367299.7892103195 0 -8367299.7892103195 5181767.8347940445 0 0 0 0 -5788149.5353279114 -14639130.36413002 0 -14639130.36413002 19522218.528827667 0 0 0 0 4335212.3125228882 -16942089.105828047 0 -16942089.105828047 17473260.640785217 0 0 0 0 1010961.5510597229 -11012125.868988037 0 -11012125.868988037 13140930.034942627 0 0 0 0 735266.08676147461 -11874265.990545273 0 -11874265.990545273 19913585.880122185 0 0 0 0 -2876117.2864386365 -7637.9324603372952 0 -7637.9324603372952 763979.36341450852 0 0 0 0 420994.60136413574 -6856328.6360063553 0 -6856328.6360063553 14232718.331771851 0 0 0 0 14005.420055389404 -6050611.7316417694 0 -6050611.7316417694 14948232.94085598 0 0 0 0 -2572215.5982131958 5052212.4776926041 0 5052212.4776926041 5600612.0283539295 0 0 0 0 -624496.14113616943 7151342.1280202866 0 7151342.1280202866 304111.65295791626 0 0 0 0 -1823980.9733094722 40139.961825323058 0 40139.961825323058 322951.05943215801 0 0 0 0 -9456511.0367937088 -6470497.1871578693 0 -6470497.1871578693 13157693.378950119 0 0 0 0 485537.92978668213 10174229.747068405 0 10174229.747068405 16502024.767130375 0 0 0 0 11273512.29265213 -4061866.9040803909 0 -4061866.9040803909 -10561266.48008728 0 0 0 0 -27104733.711669922 1243376.6519088745 0 1243376.6519088745 51083114.506901741 0 0 0 0 -677382.22650911845 -186117.29696606169 0 -186117.29696606169 493054.01271676272 0 0 0 0 41987516.870903015 27757791.472316742 0 27757791.472316742 -21164847.541027069 0 0 0 0 -18331395.640563965 -2786110.4039764404 0 -2786110.4039764404 24476756.281570196 0 0 0 0 -48615097.111379623 17537772.943268776 0 17537772.943268776 31536106.363641739 0 0 0 0 17122456.984485626 3903832.0013570786 0 3903832.0013570786 34311742.862325668 0 0 0 0 -16554656.122972488 -8657140.5767769814 0 -8657140.5767769814 27793714.02911377 0 0 0 0 -11251308.572612762 4415294.3146486282 0 4415294.3146486282 41330521.052410126 0 0 0 0 2193484.0426330566 -1662826.6655883789 0 -1662826.6655883789 23793731.525930405 0 0 0 0 -10470416.823493958 -7113356.6526956558 0 -7113356.6526956558 28265990.049971581 0 0 0 0 -5627812.2482395172 -19233867.237461567 0 -19233867.237461567 4326736.6875619888 0 0 0 0 -20662128.574111938 -14461253.164441109 0 -14461253.164441109 22977627.129177094 0 0 0 0 -3606488.5549068451 -15338630.571253777 0 -15338630.571253777 4599602.3834047318 0 0 0 0 -57829308.595773697 -24444993.264771461 0 -24444993.264771461 16710192.416308403 0 0 0 0 -37680042.981040001 3434917.2146952152 0 3434917.2146952152 3168723.1340198517 0 0 0 0 -67263462.893590927 -10703901.5578866 0 -10703901.5578866 19180930.143717766 0 0 0 0 -26982009.330535889 -21396635.801934719 0 -21396635.801934719 37221537.298520088 0 0 0 0 8862378.8025035858 -40442300.651621819 0 -40442300.651621819 53246832.74272728 0 0 0 0 151177993.47774315 97889080.523469448 0 97889080.523469448 78733144.371912956 0 0 0 0 28628503.243713379 -23800119.802800655 0 -23800119.802800655 -29150784.243589401 0 0 0 0 29389606.117132664 -29788739.626003861 0 -29788739.626003861 -2005544.7973079681 0 0 0 0 -190928.61854659114 -103273.43447510339 0 -103273.43447510339 471279.60323448433 0 0 0 0 -7979473.9819602966 42931319.855135918 0 42931319.855135918 -24301093.895545661 0 0 0 0 2423116.0170288086 4750093.7344212532 0 4750093.7344212532 49498729.991043091 0 0 0 0 2306002.2548322678 -217622.00034749508 0 -217622.00034749508 6998741.4338588715 0 0 0 0 1274827.9434318542 -8495130.0730199814 0 -8495130.0730199814 25851349.713444233 0 0 0 0 1295441.7047538757 -10920263.859800339 0 -10920263.859800339 14308389.821390629 0 0 0 0 -90509529.279506683 -20608643.020066261 0 -20608643.020066261 44627104.819063663 0 0 0 0 -71781228.289030552 -65736400.183639288 0 -65736400.183639288 -3293489.729850769 0 0 0 0 -83931615.076807022 -20451944.735084057 0 -20451944.735084057 43810613.99563694 0 0 0 0 -10669507.297283173 -26151467.899324894 0 -26151467.899324894 18929137.828036785 0 0 0 0 -12246828.645317078 -37232183.380884647 0 -37232183.380884647 29243759.39615202 0 0 0 0 -57540823.987552643 -31657411.822220802 0 -31657411.822220802 31200832.298809528 0 0 0 0 38139919.075242996 -50442082.146306992 0 -50442082.146306992 13128353.543787003 0 0 0 0 18650395.265984535 129052.27570509911 0 129052.27570509911 16431546.02338028 0 0 0 0 -88067875.628139496 -21720733.599569559 0 -21720733.599569559 43313120.59969902 0 0 0 0 -67181666.38812542 -9775985.5030674934 0 -9775985.5030674934 42715498.88668251 0 0 0 0 -94239171.704872131 1140685.580988884 0 1140685.580988884 33904196.630887032 0 0 0 0 -3012825.0120083271 -339025.21606223751 0 -339025.21606223751 556156.55267192423 0 0 0 0 -30680663.45765686 4499174.6699113846 0 4499174.6699113846 26202803.205205917 0 0 0 0 -114523199.29472923 -3701299.838927269 0 -3701299.838927269 16946620.156368256 0 0 0 0 -73792965.889507294 4062226.3515520096 0 4062226.3515520096 -9522245.9154038429 0 0 0 0 -852971.30000774376 -137277.94105693977 0 -137277.94105693977 177807.13911225647 0 0 0 0 -76127740.473068714 31937910.498477459 0 31937910.498477459 43058000.807668686 0 0 0 0 -153248312.24967575 -34837052.276842117 0 -34837052.276842117 19595693.496374846 0 0 0 0 47591921.028171539 82870778.919118881 0 82870778.919118881 32683510.307089806 0 0 0 0 -161364773.97110081 -111597468.01401973 0 -111597468.01401973 -65032867.068664551 0 0 0 0 -237012292.61984968 81870357.032103539 0 81870357.032103539 109718724.8399725 0 0 0 0 15704134.379405975 57317998.836568832 0 57317998.836568832 -13331985.399648666 0 0 0 0 6287083.6627578735 30274831.954744339 0 30274831.954744339 -19658312.1127882 0 0 0 0 -10940756.376945496 40234246.914754868 0 40234246.914754868 43542484.003536463 0 0 0 0 -72511279.595657349 -115944575.4954319 0 -115944575.4954319 -215467584.90598869 0 0 0 0 -670334.39153622277 -35255.89662770764 0 -35255.89662770764 93273.937702994328 0 0 0 0 -96237672.011604309 -143108057.62515831 0 -143108057.62515831 -230466866.30385017 0 0 0 0 -71367678.807487488 -48041550.24745822 0 -48041550.24745822 -95788134.203889847 0 0 0 0 -48397064.915275574 -69166934.40929985 0 -69166934.40929985 -246579090.53748322 0 0 0 0 -104250791.17876434 -12278542.835419655 0 -12278542.835419655 -115019971.57529068 0 0 0 0 -244227007.57298851 -11942710.592713594 0 -11942710.592713594 -36260518.808262825 0 0 0 0 -141723663.81058502 96554976.074171066 0 96554976.074171066 -69437185.278133392 0 0 0 0 -122709606.13002014 -125117745.90703583 0 -125117745.90703583 -182111079.15600395 0 0 0 0 -121187170.59287834 41429229.803617001 0 41429229.803617001 52160024.391214371 0 0 0 0 -101719583.30700302 32758161.64060688 0 32758161.64060688 -33717488.340250969 0 0 0 0 -70490370.139945984 14973941.11975193 0 14973941.11975193 -170245538.22606945 0 0 0 0 -65666816.548293591 -15621825.956820965 0 -15621825.956820965 -11913915.948348999 0 0 0 0 -26241569.427341461 -15910550.31029129 0 -15910550.31029129 -38548465.033398151 0 0 0 0 -7376213.4672203064 -48274745.298457623 0 -48274745.298457623 -14456889.758914948 0 0 0 0 7491031.794090271 -29632385.278586388 0 -29632385.278586388 -5755674.2640075684 0 0 0 0 2135772.8337745667 -16812645.107337952 0 -16812645.107337952 -27658824.718310833 0 0 0 0 -10715991.716310501 -28714493.13444829 0 -28714493.13444829 6105426.6972427368 0 0 0 0 -62346715.75425148 -25162543.040274143 0 -25162543.040274143 14006094.8145895 0 0 0 0 -185159759.33581161 -47970137.193183422 0 -47970137.193183422 11512561.814099312 0 0 0 0 -9962806.3535308838 -109771260.03784227 0 -109771260.03784227 -78885468.244848251 0 0 0 0 -176752442.62182808 73024339.925421715 0 73024339.925421715 179090149.77648449 0 0 0 0 -198000590.93863678 16568025.218136787 0 16568025.218136787 46885131.962492347 0 0 0 0 -740957.9904000368 -458893.59824894345 0 -458893.59824894345 416200.89899405511 0 0 0 0 -109331716.39899445 -229189824.30957937 0 -229189824.30957937 -345556239.335783 0 0 0 0 -316771963.54762125 -184417847.727817 0 -184417847.727817 -47138295.311790466 0 0 0 0 -275820614.22591782 39512596.788780212 0 39512596.788780212 10643356.116228104 0 0 0 0 -38432472.022254944 -19374027.668787956 0 -19374027.668787956 25400601.69239521 0 0 0 0 26845439.520698547 39309895.46254921 0 39309895.46254921 -46907666.091209412 0 0 0 0 -73308486.58959198 60393718.402131557 0 60393718.402131557 -117603933.26207638 0 0 0 0 -33737788.304885864 -6644594.6306285858 0 -6644594.6306285858 136573233.88251877 0 0 0 0 22969596.622749329 -59397551.956818581 0 -59397551.956818581 28684403.91906929 0 0 0 0 -77708644.128787994 -82112481.602266312 0 -82112481.602266312 -24627029.378172874 0 0 0 0 -65825655.286746979 -28053718.41989392 0 -28053718.41989392 17620378.48982048 0 0 0 0 -26772471.449546814 -21363466.612500191 0 -21363466.612500191 -98920980.339553595 0 0 0 0 -51053382.728607178 -29220621.280423164 0 -29220621.280423164 138844954.99854851 0 0 0 0 -16333270.252334595 63123899.861029625 0 63123899.861029625 98283641.20039463 0 0 0 0 -106082824.53710747 -16836634.060266972 0 -16836634.060266972 57303636.42600441 0 0 0 0 -33206469.092960358 49922393.892294884 0 49922393.892294884 -22398510.067402601 0 0 0 0 -30687973.447711945 163441007.27887201 0 163441007.27887201 231390535.04324055 0 0 0 0 -42537475.460347176 -31203364.51029402 0 -31203364.51029402 204540699.39656067 0 0 0 0 -1967585.5639327411 -1185985.6748218574 0 -1185985.6748218574 1223803.1345073734 0 0 0 0 -4446010.7381744385 -5374418.2039985657 0 -5374418.2039985657 338451027.60515016 0 0 0 0 -51473876.544807434 58770450.108532906 0 58770450.108532906 340491346.29974937 0 0 0 0 -54125012.657829285 -81733816.925170898 0 -81733816.925170898 -77987865.364452362 0 0 0 0 104117720.41001892 -15398028.773846626 0 -15398028.773846626 204114557.6973877 0 0 0 0 24173658.947372437 67576812.557184219 0 67576812.557184219 217249995.65733051 0 0 0 0 -347883.46175707504 4578.3255249951035 0 4578.3255249951035 319111.5158168585 0 0 0 0 80991099.883880615 181222760.3013649 0 181222760.3013649 419204137.75399017 0 0 0 0 21121120.369407654 10164619.59241581 0 10164619.59241581 197479348.08953857 0 0 0 0 9744799.0782928467 -52807222.200378418 0 -52807222.200378418 385424196.93468618 0 0 0 0 -5580604.885597229 43432311.992273331 0 43432311.992273331 173261873.47257996 0 0 0 0 50810991.470901489 -78446460.075157166 0 -78446460.075157166 195825249.28310394 0 0 0 0 -39977919.052137852 -65933602.971512079 0 -65933602.971512079 -64507639.720125198 0 0 0 0 -60357387.525314331 -64617082.491540432 0 -64617082.491540432 -37486314.423669815 0 0 0 0 -101677497.27763367 -88294872.049783707 0 -88294872.049783707 -19812013.664398193 0 0 0 0 -93655389.553421021 -98573606.663165092 0 -98573606.663165092 -10908534.691845894 0 0 0 0 -75138470.038505554 -83175619.5792799 0 -83175619.5792799 -59831311.895956039 0 0 0 0 -64898761.343723297 -91939238.915230274 0 -91939238.915230274 -84734517.160039902 0 0 0 0 -117396106.0606308 -133961832.73905563 0 -133961832.73905563 -57684412.632153511 0 0 0 0 -97816358.189201355 -81930182.111302853 0 -81930182.111302853 -63407921.988562584 0 0 0 0 -110383261.44535828 -92994340.098784447 0 -92994340.098784447 -12345084.668998718 0 0 0 0 -96779400.412883759 -91386427.360269785 0 -91386427.360269785 -56971493.7429142 0 0 0 0 -116387267.10886383 -92912729.183927536 0 -92912729.183927536 -5526210.7792773247 0 0 0 0 -71533800.434921265 -72834044.555523872 0 -72834044.555523872 -19934358.570755005 0 0 0 0 -40999321.591564178 44482119.482013226 0 44482119.482013226 20030490.995720506 0 0 0 0 -31558130.568832397 -16939203.144552231 0 -16939203.144552231 84527262.929837704 0 0 0 0 -38980907.121658325 41031092.91547966 0 41031092.91547966 19248732.082873344 0 0 0 0 -9849360.9527702332 68643319.511129379 0 68643319.511129379 -7527442.1205635071 0 0 0 0 -41016135.621246338 79151541.138887405 0 79151541.138887405 -9603427.6734552383 0 0 0 0 -70663328.324352264 55391225.843348026 0 55391225.843348026 15745495.895454407 0 0 0 0 -58086144.786024094 33793568.434518337 0 33793568.434518337 -33653310.835748672 0 0 0 0 -31795898.477203369 -92192899.889153957 0 -92192899.889153957 -58394501.921584785 0 0 0 0 -150324607.86732674 -121898353.68185043 0 -121898353.68185043 44073101.426188469 0 0 0 0 -110226498.89062881 50544954.124120235 0 50544954.124120235 34808907.992107391 0 0 0 0 563803.29662786424 -702003.13297892828 0 -702003.13297892828 -507416.70952471672 0 0 0 0 -44521735.372802138 -49977465.318275213 0 -49977465.318275213 -2391054.1706790924 0 0 0 0 -73903106.133586884 -36611937.744513273 0 -36611937.744513273 20855311.399747729 0 0 0 0 -336535.52491214871 -6112714.4884296954 0 -6112714.4884296954 7279710.1093603522 0 0 0 0 29501930.931512833 -29153910.947213411 0 -29153910.947213411 9288929.461722374 0 0 0 0 3175052.6453666687 -79700851.782445908 0 -79700851.782445908 -63454003.591234684 0 0 0 0 -43648601.526670456 -90525529.995454311 0 -90525529.995454311 -64671452.709293365 0 0 0 0 798393.50416720286 -6720656.1256067408 0 -6720656.1256067408 6263576.8461852595 0 0 0 0 -15701006.662879944 -53928699.30021286 0 -53928699.30021286 -96754646.200145721 0 0 0 0 -45244003.468856931 -43922885.434988856 0 -43922885.434988856 17003592.359695435 0 0 0 0 -31426452.221729279 37817708.207640171 0 37817708.207640171 19653691.863512993 0 0 0 0 -18612665.780181885 -99503629.553761482 0 -99503629.553761482 53256110.814439774 0 0 0 0 -66185719.8216995 -37426067.629701138 0 -37426067.629701138 92991363.779506683 0 0 0 0 -21655315.885032654 1388064.0579538345 0 1388064.0579538345 11883470.229803085 0 0 0 0 -37397555.417224884 -23132353.036502838 0 -23132353.036502838 14661233.113382339 0 0 0 0 -70396799.765159607 -13269811.659357071 0 -13269811.659357071 22442424.051534653 0 0 0 0 -45892763.362112999 -13809351.848528147 0 -13809351.848528147 16527212.993522644 0 0 0 0 -48729544.337445259 -2866965.1620290279 0 -2866965.1620290279 22019625.121520996 0 0 0 0 -71149258.495083332 18221552.328217506 0 18221552.328217506 58640788.387708664 0 0 0 0 -43857072.375181198 17715739.463363647 0 17715739.463363647 -32904537.854001999 0 0 0 0 -89529144.620920181 -66567692.50826335 0 -66567692.50826335 -137698159.17265034 0 0 0 0 -126479761.88239288 -85986693.850122213 0 -85986693.850122213 -57878986.266292691 0 0 0 0 -39856322.005817413 31046882.821963072 0 31046882.821963072 -28314254.691749096 0 0 0 0 573886.3051368352 -4042741.411487876 0 -4042741.411487876 7241136.0263115028 0 0 0 0 -103248434.98068619 -107937641.5255096 0 -107937641.5255096 -72895992.784721136 0 0 0 0 -3911057.580739595 -628617.50289005577 0 -628617.50289005577 3124416.2220736626 0 0 0 0 -18812259.829078674 -26902645.497037888 0 -26902645.497037888 -9379167.5268287659 0 0 0 0 88340191.345981598 6909638.90625453 0 6909638.90625453 -110851976.3929286 0 0 0 0 292376469.44203186 -52249402.269382 0 -52249402.269382 -96728087.571855545 0 0 0 0 -196533958.12131882 27003126.317777395 0 27003126.317777395 -31729528.463651657 0 0 0 0 119395680.38108349 -74063648.616500556 0 -74063648.616500556 -10592341.810034752 0 0 0 0 307741223.21896553 162754803.2901631 0 162754803.2901631 -225496040.90661621 0 0 0 0 -181153214.3341713 19480713.610391259 0 19480713.610391259 71242686.640346527 0 0 0 0 -252588302.32694244 -14738863.104898453 0 -14738863.104898453 164995548.75813773 0 0 0 0 86853544.340667725 -236138275.24269557 0 -236138275.24269557 139466057.43678093 0 0 0 0 333654.71647599433 -2533865.9184349617 0 -2533865.9184349617 5913893.9519971851 0 0 0 0 23843656.628559113 -215993603.02601719 0 -215993603.02601719 451922626.49140263 0 0 0 0 2520091.0502967834 3443778.0308618546 0 3443778.0308618546 -24592669.306873322 0 0 0 0 -34299675.545040131 -12789089.891745567 0 -12789089.891745567 -1208239.7524814606 0 0 0 0 -42397877.47681427 -59469371.348691463 0 -59469371.348691463 -43978334.238239288 0 0 0 0 -27730338.917284966 -71918996.498828411 0 -71918996.498828411 -109007135.83316994 0 0 0 0 -41169095.014453888 -67127046.852502823 0 -67127046.852502823 -78001144.612195969 0 0 0 0 -47097727.270244598 -72586733.805044174 0 -72586733.805044174 -44595013.527732849 0 0 0 0 -53026546.191635132 -71832908.530603409 0 -71832908.530603409 -32444726.657051086 0 0 0 0 362163915.94242859 74314907.829240561 0 74314907.829240561 -98880249.200883865 0 0 0 0 148170.13924073242 -418001.86909407657 0 -418001.86909407657 821373.72171084071 0 0 0 0 203074.98157900944 -1357314.3536916133 0 -1357314.3536916133 3670341.2885540277 0 0 0 0 -44975154.531041145 -53337373.839151263 0 -53337373.839151263 -66008772.664148331 0 0 0 0 -35483754.667297363 -85880271.552237272 0 -85880271.552237272 -184504282.2094059 0 0 0 0 -56712191.468612671 -25308616.393151283 0 -25308616.393151283 -77818560.666417122 0 0 0 0 -46232744.916454315 -38253417.779824257 0 -38253417.779824257 -66476151.818463802 0 0 0 0 -31106223.325902939 -7510971.1228313446 0 -7510971.1228313446 -36954674.286148071 0 0 0 0 -30837783.520232916 -45711399.879482448 0 -45711399.879482448 -74579294.298595428 0 0 0 0 -55001229.624267578 -103851259.51156282 0 -103851259.51156282 -122235942.81304765 0 0 0 0 -35357024.050208569 -64880511.332880616 0 -64880511.332880616 -149401468.75035286 0 0 0 0 -40204513.965343475 -53212748.55496788 0 -53212748.55496788 -67473953.693908691 0 0 0 0 -53319301.506900787 -85659588.080728292 0 -85659588.080728292 -220921574.49680233 0 0 0 0 -93003253.953479767 -182230788.27750492 0 -182230788.27750492 -175489787.7437067 0 0 0 0 -103434019.91060781 -160728329.37058818 0 -160728329.37058818 -90496368.296607018 0 0 0 0 -65096992.436935425 -146132639.45257461 0 -146132639.45257461 -129520835.40139484 0 0 0 0 -63786040.066446304 -150032931.26606119 0 -150032931.26606119 -121750828.05208319 0 0 0 0 -63941824.707959175 -141828674.68555272 0 -141828674.68555272 -90344240.729002476 0 0 0 0 -42298813.559488297 -95287740.230670214 0 -95287740.230670214 -141747491.96456337 0 0 0 0 -51808368.048149109 -98464873.833666325 0 -98464873.833666325 -96892038.922913313 0 0 0 0 -45174227.6177845 -89337430.858207226 0 -89337430.858207226 -92569384.288156509 0 0 0 0 -64500132.940742493 -82043366.343651772 0 -82043366.343651772 -81209025.562051058 0 0 0 0 -73751225.20513916 -110176489.50819492 0 -110176489.50819492 -105199153.8883543 0 0 0 0 -58943208.27689743 -70350807.847957611 0 -70350807.847957611 -73841942.639461517 0 0 0 0 -80234463.703483582 -46374637.438625336 0 -46374637.438625336 -60269534.588970184 0 0 0 0 -110122813.40840149 -51181472.688278198 0 -51181472.688278198 -61003222.176622152 0 0 0 0 -99088026.686325073 -81207674.738922119 0 -81207674.738922119 -76646442.028341293 0 0 0 0 -73584657.491622925 -97313938.479456902 0 -97313938.479456902 -66788195.286855698 0 0 0 0 -173414551.09807587 -78689819.720513821 0 -78689819.720513821 -31433368.154871941 0 0 0 0 -171060411.49416518 -142650816.47610819 0 -142650816.47610819 20655010.484376907 0 0 0 0 -128999279.5517807 -154902122.86226606 0 -154902122.86226606 -25270110.736458778 0 0 0 0 -119281378.89404011 -112192153.57067108 0 -112192153.57067108 -61271536.169778824 0 0 0 0 -91870190.299655914 -146522653.64360809 0 -146522653.64360809 -37169721.764784813 0 0 0 0 -116690207.10250854 -125438476.70714474 0 -125438476.70714474 6301542.9920444489 0 0 0 0 -114590774.20483017 -162038835.89118052 0 -162038835.89118052 -36452754.862205505 0 0 0 0 -57864728.25843811 -216517750.50195408 0 -216517750.50195408 -29104797.864879787 0 0 0 0 -129993411.07526821 -204414531.10945442 0 -204414531.10945442 95156489.556716919 0 0 0 0 -68589317.43253231 -152775521.33959746 0 -152775521.33959746 -99677909.072268486 0 0 0 0 -71249428.065769196 -134131982.79925632 0 -134131982.79925632 -85531594.329429626 0 0 0 0 -91745630.021268845 -139596153.25922108 0 -139596153.25922108 -73637404.161987305 0 0 0 0 -65440328.497276306 -163657955.14132547 0 -163657955.14132547 -63937629.083629966 0 0 0 0 -44420815.280092239 -170759536.18287775 0 -170759536.18287775 -127648031.24328357 0 0 0 0 -53626640.057138443 -162358438.47535169 0 -162358438.47535169 -96507382.164149284 0 0 0 0 -24559857.639831543 -194586079.91889513 0 -194586079.91889513 -99516467.058756724 0 0 0 0 -17551702.804655075 -147890889.2459144 0 -147890889.2459144 -192905709.72967625 0 0 0 0 -60485947.558803558 -232101387.63005531 0 -232101387.63005531 -106278234.75046349 0 0 0 0 -72004731.052566528 -181315954.69475985 0 -181315954.69475985 -100381057.7301445 0 0 0 0 -39695490.834838867 -114809960.76615345 0 -114809960.76615345 -72575467.921695352 0 0 0 0 -25400445.487361908 -129550481.74273068 0 -129550481.74273068 -155194840.59429353 0 0 0 0 -74372701.89515686 -134863503.98018241 0 -134863503.98018241 -49153624.798745811 0 0 0 0 -64888241.594356537 -101616505.04029942 0 -101616505.04029942 -64784537.683501065 0 0 0 0 -80423248.679015636 -153357000.19665229 0 -153357000.19665229 -88521576.344755173 0 0 0 0 -72963594.203186035 -147457858.52022612 0 -147457858.52022612 -104582272.66872835 0 0 0 0 -228896012.29016685 -123499978.34376927 0 -123499978.34376927 -22236016.526521623 0 0 0 0 -263370941.16353321 -128738240.17669131 0 -128738240.17669131 2916334.006508708 0 0 0 0 -237103022.26618958 -110817289.92386881 0 -110817289.92386881 5490547.734486565 0 0 0 0 -223134247.7371254 -78630860.235921025 0 -78630860.235921025 -7443020.3773768246 0 0 0 0 -223442549.30590439 -45093238.354716957 0 -45093238.354716957 39627039.936015546 0 0 0 0 -260825949.66595459 -73728286.480314612 0 -73728286.480314612 26936398.292645797 0 0 0 0 -258792323.59646547 -23145054.844138198 0 -23145054.844138198 76825743.986731529 0 0 0 0 -274484757.99990845 -82280154.986445636 0 -82280154.986445636 44910771.818796039 0 0 0 0 -326988004.87962341 -117714474.60537577 0 -117714474.60537577 23178963.076803625 0 0 0 0 -291232705.07111359 -125568795.18267584 0 -125568795.18267584 -3033249.0856326818 0 0 0 0 -299132273.67574883 -57283455.813858733 0 -57283455.813858733 38702804.213218927 0 0 0 0 -353270506.34230423 -132721628.96873498 0 -132721628.96873498 -91632975.220778227 0 0 0 0 -380006446.16394806 -85263850.70371449 0 -85263850.70371449 -12064903.965476513 0 0 0 0 -336443073.79192352 -108810600.87573928 0 -108810600.87573928 626218.11323267221 0 0 0 0 -387010805.54646301 -138384460.22380292 0 -138384460.22380292 -4721435.3557787836 0 0 0 0 -214269309.16843009 -122345476.94590384 0 -122345476.94590384 -22152598.845306754 0 0 0 0 -347485797.08272552 -177724337.43088317 0 -177724337.43088317 -31708659.823383987 0 0 0 0 -16706684.550945282 -105812534.16816092 0 -105812534.16816092 -134202615.42151141 0 0 0 0 -216875710.41240692 -178646888.56612793 0 -178646888.56612793 -41504583.394790635 0 0 0 0 -299874956.56030464 -138542609.52884927 0 -138542609.52884927 6125415.8718347549 0 0 0 0 -381533393.3913002 -157799261.28450906 0 -157799261.28450906 -153880075.2866413 0 0 0 0 -436040.60467413906 -48410.932919434272 0 -48410.932919434272 1152544.0340556754 0 0 0 0 -164054030.60759354 -71511310.650042892 0 -71511310.650042892 -152121666.74822426 0 0 0 0 -71937241.66381073 -103629170.61948216 0 -103629170.61948216 -224672178.27803212 0 0 0 0 -104293603.37510681 -170927696.22233033 0 -170927696.22233033 -186637610.75234008 0 0 0 0 -383967788.39913177 -180632617.08669209 0 -180632617.08669209 -54196498.285187006 0 0 0 0 -265498390.33786583 86435496.411281824 0 86435496.411281824 121024940.7327919 0 0 0 0 113549706.62820435 -237886441.053967 0 -237886441.053967 -139309792.52433348 0 0 0 0 -335590.00204851851 -678903.38330911752 0 -678903.38330911752 2593405.0684384974 0 0 0 0 -222757420.12811923 -135192079.3854056 0 -135192079.3854056 -52406341.750612557 0 0 0 0 -221021942.54382706 -118945991.35551904 0 -118945991.35551904 -21406763.692124307 0 0 0 0 -187208974.45159531 -100238920.26444095 0 -100238920.26444095 -55914857.055849254 0 0 0 0 -200002525.37783623 -97945114.566742763 0 -97945114.566742763 -85861520.198300242 0 0 0 0 -199279351.38700485 -106422583.15816513 0 -106422583.15816513 -38475169.313099384 0 0 0 0 847817817.50431824 -257220567.4486177 0 -257220567.4486177 -474070298.77223969 0 0 0 0 712669903.59631348 644996760.53085232 0 644996760.53085232 235088374.12090874 0 0 0 0 -9948080.8694992065 -339871166.0755477 0 -339871166.0755477 28985074.990615845 0 0 0 0 -18114128.080631256 -49722895.315042496 0 -49722895.315042496 203534374.13959503 0 0 0 0 -44030.62893850822 -300243.69830085244 0 -300243.69830085244 1286496.2303353408 0 0 0 0 -263880445.72282124 -136492716.2803697 0 -136492716.2803697 -16137166.594235659 0 0 0 0 178534.32088006753 -1022847.3958543809 0 -1022847.3958543809 2300689.6856007725 0 0 0 0 -242153740.8784523 -80482886.347267747 0 -80482886.347267747 -34781398.203232765 0 0 0 0 -174771589.96450043 -94687414.456069946 0 -94687414.456069946 -23703160.002750397 0 0 0 0 -184343801.55279541 -79299540.839500308 0 -79299540.839500308 -47736408.264882803 0 0 0 0 -214977436.83476639 -109120812.39478004 0 -109120812.39478004 -15470962.309934378 0 0 0 0 -181491962.96752167 -92183461.648481131 0 -92183461.648481131 -18730988.42631498 0 0 0 0 -184188748.9663887 -94176096.990044117 0 -94176096.990044117 6088923.0780696869 0 0 0 0 -141532290.29782867 -75756180.95160985 0 -75756180.95160985 -19266564.807170093 0 0 0 0 -120067135.91104889 -72564959.372992277 0 -72564959.372992277 -20392892.442823648 0 0 0 0 -144791262.6157074 -68233077.806629896 0 -68233077.806629896 7482749.9275622368 0 0 0 0 -107987123.27819824 -53464814.711301804 0 -53464814.711301804 -23213057.230322778 0 0 0 0 -120082538.36051178 -41920904.993498325 0 -41920904.993498325 9333309.8294072151 0 0 0 0 -173260331.96926117 -40799126.461777568 0 -40799126.461777568 -25515335.189649343 0 0 0 0 -165297779.45141029 -61434699.593863875 0 -61434699.593863875 -21400905.436142921 0 0 0 0 -206974591.55630302 -75735835.219485939 0 -75735835.219485939 -22044506.849184394 0 0 0 0 -146339552.30144882 -58802003.2503483 0 -58802003.2503483 -36095298.85328728 0 0 0 0 -237163663.7481575 -551932.64028406143 0 -551932.64028406143 16637381.579916179 0 0 0 0 -230756626.2204895 -34799547.86604321 0 -34799547.86604321 25801574.708502591 0 0 0 0 -168935887.52463531 11185364.919633389 0 11185364.919633389 -35500853.114375353 0 0 0 0 -116028359.62081909 191020.67778944969 0 191020.67778944969 -33470518.008660913 0 0 0 0 -124025398.00366974 -12379808.867170334 0 -12379808.867170334 141542.07563567162 0 0 0 0 -163739912.23804474 143348355.75926554 0 143348355.75926554 -59239262.129528999 0 0 0 0 -62215895.645362854 -63112903.93393147 0 -63112903.93393147 164998286.38645029 0 0 0 0 92035184.11138916 -9206471.6911382675 0 -9206471.6911382675 -27527899.337388992 0 0 0 0 -76371715.590858459 56933599.160779476 0 56933599.160779476 216751019.9647764 0 0 0 0 -51755605.173057556 18589987.789049387 0 18589987.789049387 13411274.955452919 0 0 0 0 -75881683.346321106 -28743560.122315645 0 -28743560.122315645 4080077.1529276371 0 0 0 0 -92288930.385023117 -42180307.230463564 0 -42180307.230463564 76980540.023024559 0 0 0 0 -137400275.31272125 -67076363.599703074 0 -67076363.599703074 47494750.445146084 0 0 0 0 -88052054.715019226 -70581630.448134422 0 -70581630.448134422 7110189.0409716964 0 0 0 0 -52146878.654003143 -30660843.307096243 0 -30660843.307096243 33299503.846708298 0 0 0 0 -83068308.593135834 -18331043.887077928 0 -18331043.887077928 94547939.642818928 0 0 0 0 -3766406.1630554199 13826717.780529976 0 13826717.780529976 60200521.216632724 0 0 0 0 39961265.246788025 11764108.31388402 0 11764108.31388402 60386044.130890846 0 0 0 0 -46364947.181114197 11695478.076771259 0 11695478.076771259 99661632.284811258 0 0 0 0 -1168440.945823919 -518158.09936810489 0 -518158.09936810489 515898.15978616267 0 0 0 0 59113523.20362854 134199054.18677974 0 134199054.18677974 133729922.98941755 0 0 0 0 5200259.0762710571 -14838146.830260158 0 -14838146.830260158 -29949001.189331532 0 0 0 0 -5389728.2744865417 -2530846.1289140582 0 -2530846.1289140582 2709061.7520120144 0 0 0 0 -1031165.0892678238 -315257.35652835434 0 -315257.35652835434 405433.6769265575 0 0 0 0 -380612.59567200392 -223273.14276795182 0 -223273.14276795182 667755.8387342057 0 0 0 0 -188033099.02982712 -42835179.138510227 0 -42835179.138510227 17572070.985745907 0 0 0 0 -242317451.09165764 -41550242.172852278 0 -41550242.172852278 83253712.826615334 0 0 0 0 -203184842.19745636 -74306886.730037451 0 -74306886.730037451 -35207685.416529417 0 0 0 0 -200744840.45561981 -122701394.32637429 0 -122701394.32637429 -52285752.134588957 0 0 0 0 -257587395.05160522 -83047441.351496696 0 -83047441.351496696 47717766.831366301 0 0 0 0 -211277190.08817291 -89771387.321217895 0 -89771387.321217895 41851700.257342339 0 0 0 0 -115791829.91426849 -81301070.31850338 0 -81301070.31850338 20626416.442911267 0 0 0 0 -185295995.52004623 -103050087.90911746 0 -103050087.90911746 30506476.289502621 0 0 0 0 -218194073.41267014 -109111383.05810785 0 -109111383.05810785 9832653.9297890663 0 0 0 0 -194572589.70671082 -85801121.38716054 0 -85801121.38716054 -655794.96376132965 0 0 0 0 -125255978.68898773 -75783375.741886854 0 -75783375.741886854 671084.37113082409 0 0 0 0 -125593472.52653503 -75563658.638872147 0 -75563658.638872147 34974190.872618675 0 0 0 0 -3076053.337387085 10755255.909346819 0 10755255.909346819 17780138.93801254 0 0 0 0 -67075003.678993225 -106002754.32821536 0 -106002754.32821536 -54928953.626183033 0 0 0 0 -231164663.9128685 -154917063.06299877 0 -154917063.06299877 10229420.561956882 0 0 0 0 -250102139.72480392 -248187286.09414637 0 -248187286.09414637 -149646082.12324381 0 0 0 0 -281905214.0226593 -93382750.669996738 0 -93382750.669996738 69597791.436328411 0 0 0 0 -281211007.45832062 -90076129.352438927 0 -90076129.352438927 81860891.806649208 0 0 0 0 -467138215.36130524 -34424153.737246037 0 -34424153.737246037 181620597.81995821 0 0 0 0 -456766946.98523712 -179108500.92608976 0 -179108500.92608976 79549660.596903548 0 0 0 0 -252800715.35253143 -4227000.2597930431 0 -4227000.2597930431 86654398.047449589 0 0 0 0 -315924844.48514175 -58191142.502653837 0 -58191142.502653837 87420456.718775749 0 0 0 0 -559863.30852862448 -278878.006919985 0 -278878.006919985 203360.10210089968 0 0 0 0 -1124410.9954045638 -135307.66644497542 0 -135307.66644497542 775856.21096833469 0 0 0 0 -234234552.09827423 -61406827.32732296 0 -61406827.32732296 256205722.5960598 0 0 0 0 -563178674.14009094 -29148565.117835999 0 -29148565.117835999 260117400.8707031 0 0 0 0 -286372913.44849396 -335756661.74619055 0 -335756661.74619055 -217089825.33912802 0 0 0 0 -564871210.22062683 -167192089.5607872 0 -167192089.5607872 14665061.687952042 0 0 0 0 123133093.18046379 -10860054.767152071 0 -10860054.767152071 -76619762.761762619 0 0 0 0 -221030029.46647072 223217223.53772533 0 223217223.53772533 50891801.065099239 0 0 0 0 -220093516.2558136 20362720.875191927 0 20362720.875191927 34058163.759765387 0 0 0 0 -9098576.6360816956 85995941.361043692 0 85995941.361043692 -9740389.1114554405 0 0 0 0 -839542.18526213244 -487021.44909789041 0 -487021.44909789041 1555583.2849082362 0 0 0 0 -186470072.74832153 -231501150.33325911 0 -231501150.33325911 -247830509.04920495 0 0 0 0 -127365810.55828857 -7038010.485886097 0 -7038010.485886097 -44566302.244457483 0 0 0 0 -88425742.395324707 -123041451.43061447 0 -123041451.43061447 -87627751.996418476 0 0 0 0 -7192701.0118141174 -6557032.3123884201 0 -6557032.3123884201 -12547877.799740314 0 0 0 0 -8949422.5969486237 -22082190.276145935 0 -22082190.276145935 28106952.747933626 0 0 0 0 -12787513.50239563 -21051245.712574005 0 -21051245.712574005 -769392.29578781128 0 0 0 0 -828597.66873792186 -336354.53262045141 0 -336354.53262045141 1173071.566072833 0 0 0 0 112059270.71242523 -26246070.633383989 0 -26246070.633383989 7157661.1823291183 0 0 0 0 -12294421.486455917 3603093.638995707 0 3603093.638995707 4528640.2576990128 0 0 0 0 -2182175.5769042969 58288.270025253296 0 58288.270025253296 -4757847.6026244164 0 0 0 0 52420.120513916016 -4087055.026134491 0 -4087055.026134491 2668359.4347543716 0 0 0 0 3591413.9154942036 17007510.995819837 0 17007510.995819837 37044329.841468573 0 0 0 0 -1278726.8634642344 165656.59081700817 0 165656.59081700817 630657.19470007508 0 0 0 0 13283858.457187653 -26839030.174438596 0 -26839030.174438596 -16199253.405858994 0 0 0 0 -2955461.1017532349 -2603845.7828044891 0 -2603845.7828044891 -28272907.512874365 0 0 0 0 -257460489.13831329 -60631875.618154883 0 -60631875.618154883 -36111895.304870367 0 0 0 0 -4748628.3819651604 91701272.818352193 0 91701272.818352193 19802746.041683197 0 0 0 0 -519466.23018413037 56274.51249336265 0 56274.51249336265 278776.7634168081 0 0 0 0 -81115977.319316864 -14018475.40789187 0 -14018475.40789187 -45285693.464885473 0 0 0 0 -100400950.94124222 63243892.548339367 0 63243892.548339367 9683105.3358778208 0 0 0 0 -31222597.799549103 62332726.313595057 0 62332726.313595057 -30920380.74617362 0 0 0 0 -236558.08682664298 1486162.5827739909 0 1486162.5827739909 3969178.9828004218 0 0 0 0 -118582259.13869095 60601622.246397674 0 60601622.246397674 -17240761.365076065 0 0 0 0 -164108680.11434555 3878542.5973235369 0 3878542.5973235369 20262738.752649546 0 0 0 0 -1494930.7700080872 -12023776.249337792 0 -12023776.249337792 -81962660.150217116 0 0 0 0 -265175.00101368036 749692.61656941846 0 749692.61656941846 2541852.2163780145 0 0 0 0 -264665338.68253326 102473541.68726653 0 102473541.68726653 13266971.226034403 0 0 0 0 -279338738.69124413 83151890.001942307 0 83151890.001942307 6121378.3716306686 0 0 0 0 -275244.20657705981 208369.48171601817 0 208369.48171601817 1145614.2592754588 0 0 0 0 -192778415.60406494 -19949678.805001155 0 -19949678.805001155 2270659.6959014535 0 0 0 0 -112971990.98867035 -48795286.560872793 0 -48795286.560872793 6623504.0085453987 0 0 0 0 -107238798.6761055 -35841102.476395845 0 -35841102.476395845 26275387.622945547 0 0 0 0 -137326256.93914223 -20818117.639274597 0 -20818117.639274597 41924888.408349037 0 0 0 0 -93548072.690826416 14581478.970346212 0 14581478.970346212 26235180.554027081 0 0 0 0 -124460645.65919018 113076032.34069872 0 113076032.34069872 73858224.973195553 0 0 0 0 -241358711.03559113 76298475.688333273 0 76298475.688333273 63248257.516028762 0 0 0 0 -70659731.790344238 93987623.597546101 0 93987623.597546101 67939729.474113524 0 0 0 0 -66011846.134536743 197478843.14567423 0 197478843.14567423 131122096.03244972 0 0 0 0 -133010184.81423187 209793883.52557182 0 209793883.52557182 192510953.64310873 0 0 0 0 -94326662.477470398 221295213.35034156 0 221295213.35034156 113561690.37291479 0 0 0 0 -106235458.47811127 91640647.36326623 0 91640647.36326623 259981026.48838449 0 0 0 0 -104694800.78752899 100474100.93098307 0 100474100.93098307 60769101.824687958 0 0 0 0 -337271.78775061294 -74578.89004627103 0 -74578.89004627103 109797.20165594015 0 0 0 0 -17455375.409360886 47883432.326978147 0 47883432.326978147 -130213290.34253573 0 0 0 0 -38194034.673618317 -35076177.123339057 0 -35076177.123339057 -58154385.91253233 0 0 0 0 -129248650.02955246 151438148.41676712 0 151438148.41676712 -11526993.276299715 0 0 0 0 -7482771.3575897217 -2359431.0276176929 0 -2359431.0276176929 42014737.695051908 0 0 0 0 -235114712.76568604 75151799.561097145 0 75151799.561097145 21203316.660830051 0 0 0 0 -164295103.31268895 48078177.529079899 0 48078177.529079899 -130184226.49652863 0 0 0 0 -210102325.80272675 -23729364.387343407 0 -23729364.387343407 14322343.443789244 0 0 0 0 73544566.532894135 92300997.590578675 0 92300997.590578675 6956385.5075135231 0 0 0 0 489841.70005873591 -29353.142199049704 0 -29353.142199049704 -1270142.2875432139 0 0 0 0 88622533.776052475 142174932.05958629 0 142174932.05958629 8893657.7327303886 0 0 0 0 31797518.944998741 35737942.867474318 0 35737942.867474318 -1607146.1712884903 0 0 0 0 34746621.688705444 43692306.512380719 0 43692306.512380719 23368007.406106383 0 0 0 0 -91376325.972381592 63918670.516812801 0 63918670.516812801 33877663.97822392 0 0 0 0 -90656071.032524109 85200340.857935667 0 85200340.857935667 -49115047.135117054 0 0 0 0 -175095134.58717728 77935430.581017852 0 77935430.581017852 29865867.021704435 0 0 0 0 -197643941.54013252 122313760.80926847 0 122313760.80926847 -27929476.701507568 0 0 0 0 -200166831.05353928 45448066.120229363 0 45448066.120229363 -13805698.923757777 0 0 0 0 -168237471.00547314 102375199.7924121 0 102375199.7924121 10984936.543014526 0 0 0 0 -142514640.69488811 47745022.770112082 0 47745022.770112082 595557.5301027298 0 0 0 0 -185939393.39442825 132393677.04001366 0 132393677.04001366 -42236791.634858489 0 0 0 0 -618420.96235737402 -201506.607374046 0 -201506.607374046 -4418.1529409882205 0 0 0 0 -39996535.568843842 41644283.03075102 0 41644283.03075102 -45287379.194702238 0 0 0 0 1909962.9761390686 8230843.5926513076 0 8230843.5926513076 11315863.899657488 0 0 0 0 23123457.118421257 28880824.960180633 0 28880824.960180633 24932046.334466219 0 0 0 0 -205616.60997717711 -236122.45287636667 0 -236122.45287636667 -1280.5458738261368 0 0 0 0 -161200517.72458267 70248884.004906774 0 70248884.004906774 -17516904.225454688 0 0 0 0 25410436.268455505 84075410.557700157 0 84075410.557700157 -8007211.6706221104 0 0 0 0 1187861.1500611305 29001605.640274823 0 29001605.640274823 76966525.770890713 0 0 0 0 7577697.0401935577 9941671.8434496112 0 9941671.8434496112 8196991.6359062307 0 0 0 0 -1514558.6532901432 1188951.4918394317 0 1188951.4918394317 582302.63724397519 0 0 0 0 -98233633.094848633 38311283.579797626 0 38311283.579797626 -39638252.94623971 0 0 0 0 99246793.204631805 108681978.1916858 0 108681978.1916858 128082658.24430388 0 0 0 0 128882501.50540924 82475483.341411412 0 82475483.341411412 26758463.245525599 0 0 0 0 -233469922.30908298 165889754.62327236 0 165889754.62327236 -137964481.19206077 0 0 0 0 -252392044.87137699 151210256.97608921 0 151210256.97608921 -58787174.180374503 0 0 0 0 -219550138.16136169 184440448.96505708 0 184440448.96505708 -111823420.37040496 0 0 0 0 -15754319.630163193 66577740.150153369 0 66577740.150153369 -93122733.030154943 0 0 0 0 -60952896.094917297 -8602875.268637985 0 -8602875.268637985 30309737.323607564 0 0 0 0 -1429460.4609062355 1719691.2994247722 0 1719691.2994247722 726196.71479288803 0 0 0 0 17790125.656661987 17387876.404570937 0 17387876.404570937 -78779688.471865535 0 0 0 0 -1022949.0378293667 1052165.6685332675 0 1052165.6685332675 904526.39072845085 0 0 0 0 20432904.070264935 23051117.808934703 0 23051117.808934703 21090896.405811906 0 0 0 0 -78990044.945274353 84079752.334955454 0 84079752.334955454 -56559456.86360538 0 0 0 0 -2859916.1817218177 518169.32115814136 0 518169.32115814136 872827.27692915162 0 0 0 0 -106305699.24508667 57398558.23857826 0 57398558.23857826 -35277041.757353842 0 0 0 0 -9383369.1256065369 45307361.889319479 0 45307361.889319479 10873920.34355104 0 0 0 0 -122863610.05443954 29799969.248859964 0 29799969.248859964 27408508.015307344 0 0 0 0 129644419.30499446 61899585.06942492 0 61899585.06942492 -681544.63450661302 0 0 0 0 -115057810.21327972 127259021.51596859 0 127259021.51596859 42442592.326665699 0 0 0 0 -484358.76254128222 1102917.5624161679 0 1102917.5624161679 -29958.712372493537 0 0 0 0 -116991400.12204081 103408526.92750438 0 103408526.92750438 -106610669.65144539 0 0 0 0 -199004916.69044113 192554077.84115461 0 192554077.84115461 -138601090.3300513 0 0 0 0 -153827492.18527603 41065506.615016833 0 41065506.615016833 10477076.71116361 0 0 0 0 -352272859.45454407 159197198.67548674 0 159197198.67548674 -27841995.513689607 0 0 0 0 -372600009.8451767 314429324.46093678 0 314429324.46093678 -157897152.76204187 0 0 0 0 -255348963.61214256 151616217.04562655 0 151616217.04562655 -144521405.24313447 0 0 0 0 -47181531.679019928 97274692.474968374 0 97274692.474968374 148036153.87584919 0 0 0 0 23617868.495544434 30942605.725652933 0 30942605.725652933 115529443.80582774 0 0 0 0 -200317203.69731522 -40507174.93441622 0 -40507174.93441622 9600888.4314105511 0 0 0 0 -103344004.86398315 -28996200.862086345 0 -28996200.862086345 9956417.7315147854 0 0 0 0 156501735.79982758 299573714.09711617 0 299573714.09711617 94702910.925535411 0 0 0 0 -360576581.60058594 -24128153.590611979 0 -24128153.590611979 31742682.008067667 0 0 0 0 -388545.79885469563 344219.88034615759 0 344219.88034615759 80495.515672563517 0 0 0 0 206173403.33768845 134532622.83786526 0 134532622.83786526 -6793103.9577960968 0 0 0 0 56625592.179359436 166184882.18731046 0 166184882.18731046 90006066.59230572 0 0 0 0 -30653549.789653778 28724419.271196306 0 28724419.271196306 44304817.655387402 0 0 0 0 165613398.45625687 61310715.852536738 0 61310715.852536738 15824894.268832684 0 0 0 0 -32553069.223304749 30202271.075247884 0 30202271.075247884 47859271.371021882 0 0 0 0 -88637619.778121948 -42465075.437339127 0 -42465075.437339127 -24574805.375970364 0 0 0 0 13725034.907557964 86599416.471623302 0 86599416.471623302 -31977084.797321558 0 0 0 0 -104902955.13584137 -109533965.10428061 0 -109533965.10428061 3753254.122674942 0 0 0 0 -349448230.46239853 329586806.4701767 0 329586806.4701767 -279133182.50695252 0 0 0 0 -1005926.0406362191 152633.00836094609 0 152633.00836094609 252775.48008284357 0 0 0 0 -725143363.90061951 -69017123.171473563 0 -69017123.171473563 227023279.13783145 0 0 0 0 -123980005.53435135 33287345.752428941 0 33287345.752428941 115771874.50243552 0 0 0 0 -443559203.26381302 -35606040.310902447 0 -35606040.310902447 101435512.80391768 0 0 0 0 -55542137.424167633 128100649.08182925 0 128100649.08182925 89854859.815338314 0 0 0 0 -94113058.120519638 35091903.634865478 0 35091903.634865478 32283431.084345907 0 0 0 0 -347267088.00351715 420994986.9244417 0 420994986.9244417 -319253132.05731076 0 0 0 0 -62022.519871332683 100038.69604978152 0 100038.69604978152 171984.63127153882 0 0 0 0 -326916363.20321655 121975546.22332749 0 121975546.22332749 163520092.25525483 0 0 0 0 2688716.5460205078 92573294.797628999 0 92573294.797628999 52667621.709504053 0 0 0 0 -324030290.89208221 125166644.8118899 0 125166644.8118899 92094252.721598089 0 0 0 0 -409264092.55919957 248682748.78303301 0 248682748.78303301 33217675.415395856 0 0 0 0 -118855667.63034439 78981104.158776313 0 78981104.158776313 61722077.693305671 0 0 0 0 -457396735.63202286 -54011801.890219599 0 -54011801.890219599 47929956.266195923 0 0 0 0 138321030.629022 296833455.56488705 0 296833455.56488705 -42562196.677591443 0 0 0 0 -356281.84615176171 321055.18859536201 0 321055.18859536201 16440.356224707211 0 0 0 0 136364065.72788239 -25713558.810081363 0 -25713558.810081363 -28034174.516722679 0 0 0 0 85997751.20362854 28996774.121995211 0 28996774.121995211 -37853765.302206933 0 0 0 0 -115498229.1606636 100587976.42307362 0 100587976.42307362 -37791652.196318746 0 0 0 0 -5728789.1624526978 -72332300.393208385 0 -72332300.393208385 139368121.66595387 0 0 0 0 -142960088.13746643 44037740.433832049 0 44037740.433832049 64562885.574130297 0 0 0 0 -730720.03017651476 661016.82135717943 0 661016.82135717943 87175.803948078479 0 0 0 0 -147141472.65385437 28197522.781563755 0 28197522.781563755 166640913.28679964 0 0 0 0 -34247593.364948273 93538350.517632172 0 93538350.517632172 72565004.463444576 0 0 0 0 5047218.1451797485 102763494.11756341 0 102763494.11756341 96340493.560364485 0 0 0 0 -222907381.52271271 -35091198.127746701 0 -35091198.127746701 70700716.59682633 0 0 0 0 -205698569.62210846 333117.77068019414 0 333117.77068019414 66275435.534726173 0 0 0 0 -134439118.4590683 45009560.545409471 0 45009560.545409471 85710244.51989156 0 0 0 0 -236582036.81781006 -13442850.280123591 0 -13442850.280123591 112231600.77626461 0 0 0 0 -294869787.81465149 -70287271.524710178 0 -70287271.524710178 66263657.644475788 0 0 0 0 -227311186.69144821 -6585274.7018190622 0 -6585274.7018190622 63275026.227248073 0 0 0 0 -282080011.13264465 -63084658.515573859 0 -63084658.515573859 44067103.309659719 0 0 0 0 -147335544.1199851 -18172616.90019682 0 -18172616.90019682 55266566.427379847 0 0 0 0 -252806725.49140167 -64522087.822281599 0 -64522087.822281599 18346708.350539327 0 0 0 0 -225445859.21086884 14475546.345533788 0 14475546.345533788 51188612.177248001 0 0 0 0 -298997762.25329208 -35926953.95399484 0 -35926953.95399484 11182333.918814421 0 0 0 0 -352463441.34460449 -89216452.390103817 0 -89216452.390103817 -9428620.9514498711 0 0 0 0 -416704197.5449791 -124323405.71027786 0 -124323405.71027786 -93397184.253876686 0 0 0 0 -329586970.32436371 -57711054.82358551 0 -57711054.82358551 -143612877.06859899 0 0 0 0 -349891138.4460907 -63477196.472563624 0 -63477196.472563624 -67302615.542535484 0 0 0 0 -263515904.68889618 -25585389.311747074 0 -25585389.311747074 -64935407.192137003 0 0 0 0 -357395095.57215118 -19514179.412698984 0 -19514179.412698984 -173109756.14851964 0 0 0 0 -234514976.99475098 -50367886.367634475 0 -50367886.367634475 -171497174.57961464 0 0 0 0 -482493466.52157593 -118657817.90081036 0 -118657817.90081036 -143365862.3088513 0 0 0 0 -467359835.43796539 -105822433.92619085 0 -105822433.92619085 -298159856.69120181 0 0 0 0 -432094798.77000046 -148647962.63595816 0 -148647962.63595816 -246389589.08762449 0 0 0 0 -390981285.10788345 50502336.398936838 0 50502336.398936838 -147519541.25987679 0 0 0 0 -296922704.91148567 3173498.0546068624 0 3173498.0546068624 -269684370.19688243 0 0 0 0 -161528353.79284286 41558669.214216769 0 41558669.214216769 -172218169.22238779 0 0 0 0 -291966599.57209396 33209921.906637624 0 33209921.906637624 -48096657.463718772 0 0 0 0 -236169637.42515564 205554107.03296137 0 205554107.03296137 24236052.477114007 0 0 0 0 -134297431.42879868 11133763.685172975 0 11133763.685172975 -76899799.925262839 0 0 0 0 -285628804.95628738 137002509.42167521 0 137002509.42167521 -70136315.185748398 0 0 0 0 -320915988.64105988 58787936.96004796 0 58787936.96004796 -2029286.2461594492 0 0 0 0 -323088259.99580002 -66704755.890963428 0 -66704755.890963428 -147167517.19987148 0 0 0 0 -324219528.42327499 -93707396.222258195 0 -93707396.222258195 -87316301.290635213 0 0 0 0 -198431727.17252541 727835.85409629345 0 727835.85409629345 -148534138.99241865 0 0 0 0 -361886430.19958878 6997106.7430627942 0 6997106.7430627942 -76583375.319666028 0 0 0 0 -485983815.14863586 -177563542.25065017 0 -177563542.25065017 -150830538.02878299 0 0 0 0 -530302244.95944118 -197457693.54956651 0 -197457693.54956651 -66240896.545800209 0 0 0 0 -542169123.31825256 -220622681.75051945 0 -220622681.75051945 -102153109.6917789 0 0 0 0 -786782513.65902328 -442279533.87517881 0 -442279533.87517881 -238201732.07065356 0 0 0 0 -932779681.98387146 -57714663.138895273 0 -57714663.138895273 -299404540.24758673 0 0 0 0 -415403535.38968277 -158447517.18694642 0 -158447517.18694642 -514006040.40797913 0 0 0 0 -458165748.90740204 -167764152.99007159 0 -167764152.99007159 -217434062.7311089 0 0 0 0 -455319209.2072258 335716687.28074312 0 335716687.28074312 -120543529.54568759 0 0 0 0 -366178996.90887976 313405513.21397966 0 313405513.21397966 -117622399.58904111 0 0 0 0 -326584655.58896446 287233551.28380072 0 287233551.28380072 -160977652.10188362 0 0 0 0 -433094312.32725143 244641107.97507063 0 244641107.97507063 -89381380.944021508 0 0 0 0 -119830.49163744081 209044.10323492065 0 209044.10323492065 -225731.77073540626 0 0 0 0 -449288348.17560196 239982585.06340146 0 239982585.06340146 -90686745.273994476 0 0 0 0 -260654.16368908505 771059.28510546684 0 771059.28510546684 -422377.99277688423 0 0 0 0 343510971.00868988 52573105.852880299 0 52573105.852880299 -75267367.593720496 0 0 0 0 496720636.25319672 54323508.687270224 0 54323508.687270224 -122803360.14479934 0 0 0 0 -85430132.019335747 157661530.90845904 0 157661530.90845904 63368484.873995245 0 0 0 0 -309858865.45657921 237446768.60196131 0 237446768.60196131 -57188590.418447316 0 0 0 0 -392936529.99401093 208813233.82464188 0 208813233.82464188 -44953446.735102415 0 0 0 0 -394525076.71159744 256359846.98327482 0 256359846.98327482 -43207215.177602291 0 0 0 0 -1021691586.482378 401210155.74626309 0 401210155.74626309 -36159474.246303558 0 0 0 0 -401193421.61040878 402779748.8054167 0 402779748.8054167 -154619383.61609626 0 0 0 0 -371033236.7221508 265957960.70212883 0 265957960.70212883 -39299464.135352612 0 0 0 0 -351899554.8676033 196405498.41563869 0 196405498.41563869 167723342.19897711 0 0 0 0 -214504658.12735367 300931081.80167103 0 300931081.80167103 -8747123.4152435064 0 0 0 0 -392927617.25963986 242886501.97792873 0 242886501.97792873 -11724351.681694984 0 0 0 0 -282054229.39914703 348815554.13513005 0 348815554.13513005 -170778113.48567614 0 0 0 0 -14039292.82271862 6681595.4776744246 0 6681595.4776744246 -1487285.6925258636 0 0 0 0 -1231275.7546785856 102926.50771030039 0 102926.50771030039 141398.66774355434 0 0 0 0 -12134582.18807888 1673831.120675683 0 1673831.120675683 -6902523.0214533806 0 0 0 0 -225858260.53711128 27636644.342556387 0 27636644.342556387 3805283.3789081573 0 0 0 0 -195669098.22288895 122709021.15840816 0 122709021.15840816 17023778.823010921 0 0 0 0 -380494823.62054253 270616433.63255405 0 270616433.63255405 19682702.38385725 0 0 0 0 -281249930.98483276 190723263.7994746 0 190723263.7994746 -30701894.354287148 0 0 0 0 -328683711.12513733 167667973.60642791 0 167667973.60642791 24171065.437091582 0 0 0 0 -136755347.57139206 120151452.05238914 0 120151452.05238914 -98442105.936660171 0 0 0 0 -354213847.88334465 248974966.45171767 0 248974966.45171767 -55640418.322628498 0 0 0 0 -475053542.15867233 200387381.93397474 0 200387381.93397474 -44468479.37245661 0 0 0 0 -462778171.2699585 231812732.51766759 0 231812732.51766759 -2430640.7661966085 0 0 0 0 -536291943.10071945 182043102.64096451 0 182043102.64096451 -28424066.068487644 0 0 0 0 -462780998.77244663 207982756.8358371 0 207982756.8358371 -37102115.025575876 0 0 0 0 -741290352.35624695 194456822.16126466 0 194456822.16126466 -19017445.436274409 0 0 0 0 -488226670.20443916 247667499.82809532 0 247667499.82809532 -77555777.171517372 0 0 0 0 -1178522723.9798317 265195886.29757321 0 265195886.29757321 -41522970.976837873 0 0 0 0 -2022949.884377528 527722.30794306379 0 527722.30794306379 285262.13743195124 0 0 0 0 -290357324.81728745 439877169.08203959 0 439877169.08203959 -467527774.81007099 0 0 0 0 -254949957.91537285 282492324.57231784 0 282492324.57231784 -167445596.13727236 0 0 0 0 -3481730.8801223766 -232949.39821070805 0 -232949.39821070805 1741156.185163829 0 0 0 0 -2672804.34375 -119593.80846261978 0 -119593.80846261978 935370.67821025848 0 0 0 0 -3289470.1614400428 628659.255365666 0 628659.255365666 1548384.3900820108 0 0 0 0 -4473537.736913681 834557.70178863406 0 834557.70178863406 3759916.109606266 0 0 0 0 -99383461.612804413 -15371547.477117062 0 -15371547.477117062 -112659100.43915564 0 0 0 0 -3906755.0575675964 1544120.0573074818 0 1544120.0573074818 3181120.1215484142 0 0 0 0 -3893218.8358459473 547931.92413890362 0 547931.92413890362 1978995.3208289146 0 0 0 0 -4655324.2586727142 1577702.1847168803 0 1577702.1847168803 1469203.1635962725 0 0 0 0 -3503369.6582707539 -377056.9707800243 0 -377056.9707800243 1859590.847059035 0 0 0 0 -416335887.72307205 -129342146.80062902 0 -129342146.80062902 -51479734.862010717 0 0 0 0 -590387283.44534302 -245932808.78128788 0 -245932808.78128788 -31257295.988862991 0 0 0 0 -577702438.24557304 -193309663.62752718 0 -193309663.62752718 12699157.546818018 0 0 0 0 -574202957.7312336 -184600879.56697965 0 -184600879.56697965 -66387338.210938096 0 0 0 0 -536729305.59103584 -9629447.3924502153 0 -9629447.3924502153 -72938732.59046638 0 0 0 0 -649240526.62909698 -22719915.323288441 0 -22719915.323288441 -25643173.523453951 0 0 0 0 -780073418.41277695 -50635604.328575134 0 -50635604.328575134 -29029430.30937171 0 0 0 0 -739304175.98596191 -136811749.99796748 0 -136811749.99796748 -43749531.702088937 0 0 0 0 -554065655.97406769 -163866912.50439382 0 -163866912.50439382 -45264579.660464525 0 0 0 0 -670576475.3931694 -62128188.31146419 0 -62128188.31146419 -76160842.230813026 0 0 0 0 -929673253.03250122 -99811999.670529842 0 -99811999.670529842 -81632654.160500884 0 0 0 0 -998670890.78185654 -244285841.72466397 0 -244285841.72466397 -349512732.12853622 0 0 0 0 -816890910.48860168 88862479.366983175 0 88862479.366983175 -768493213.69267082 0 0 0 0 -697736268.7215395 -119967276.09839144 0 -119967276.09839144 -89684644.04375267 0 0 0 0 -811471608.09982681 11496345.992764473 0 11496345.992764473 -186107611.7010541 0 0 0 0 -688896161.72616196 -76330581.943928003 0 -76330581.943928003 -368065582.06680298 0 0 0 0 -631194546.85001373 -28687269.584802151 0 -28687269.584802151 -218485314.25044072 0 0 0 0 -578525236.0395546 -118676489.03268921 0 -118676489.03268921 -121872824.84485435 0 0 0 0 -573369426.47645569 -142062668.41359079 0 -142062668.41359079 -166410000.08110881 0 0 0 0 -574624096.19996238 -151584601.38168198 0 -151584601.38168198 -5533084.3418903351 0 0 0 0 -652446.44033947587 -607125.3201085683 0 -607125.3201085683 -3673533.5200318466 0 0 0 0 -365771803.64215851 -104060658.39820957 0 -104060658.39820957 -129914103.64505029 0 0 0 0 -664358623.58583069 -187438977.26235819 0 -187438977.26235819 27743986.9043293 0 0 0 0 -174029.26097297668 -3148810.3999559283 0 -3148810.3999559283 -2757430.936486721 0 0 0 0 -2816801.4722943306 -1755564.7094103396 0 -1755564.7094103396 -3396862.4574117661 0 0 0 0 -2750200.2889785767 -2195660.2579407692 0 -2195660.2579407692 -1208618.3091285229 0 0 0 0 -4382740.0278091431 -2726186.7498899698 0 -2726186.7498899698 -791157.01735246181 0 0 0 0 -6736329.9778938293 -3678674.5745635033 0 -3678674.5745635033 2760346.3573470116 0 0 0 0 -4837005.2950401306 -3408609.9145410061 0 -3408609.9145410061 -166381.0928388834 0 0 0 0 -3746174.430267334 -4906916.6200031042 0 -4906916.6200031042 -2482980.7421169281 0 0 0 0 -11686667.782964706 -27971283.940750539 0 -27971283.940750539 -1304653.6602840424 0 0 0 0 16016349.546531677 -3247616.1114952564 0 -3247616.1114952564 -7849644.2088701725 0 0 0 0 -667475.5358638037 -727006.22038909048 0 -727006.22038909048 -3368220.4744529305 0 0 0 0 -20015685.933547974 26294359.558545113 0 26294359.558545113 -12136464.082883358 0 0 0 0 -446528.42376360297 -61233.56507550925 0 -61233.56507550925 -5602.9491264466196 0 0 0 0 -32827616.061893463 3186564.4995834231 0 3186564.4995834231 2344410.4733815193 0 0 0 0 -32940245.537788391 -32751725.840194941 0 -32751725.840194941 21514313.315853 0 0 0 0 -929347.81038811896 -1421817.8969542962 0 -1421817.8969542962 -2981033.5572072286 0 0 0 0 20443932.472816467 27073602.522134781 0 27073602.522134781 -23190758.66674912 0 0 0 0 -2695784.9444360286 -4148562.6413207161 0 -4148562.6413207161 -4313960.8350448329 0 0 0 0 -4431255.3267707825 -13039897.32301712 0 -13039897.32301712 33244998.836215258 0 0 0 0 26907197.32951355 -3589433.4460179806 0 -3589433.4460179806 -24138987.804144859 0 0 0 0 15650869.339912415 23340177.979423046 0 23340177.979423046 -31104520.118264675 0 0 0 0 13900739.880262375 -16935317.833610833 0 -16935317.833610833 875935.46406793594 0 0 0 0 -13616593.522842407 -2675905.8706967831 0 -2675905.8706967831 -3731715.8192243576 0 0 0 0 7014707.9296379089 -2027943.0205509663 0 -2027943.0205509663 -11180219.322277308 0 0 0 0 8183138.8851318359 1109194.4574403763 0 1109194.4574403763 -5216202.3251993656 0 0 0 0 -786047.40269036219 -669725.85547306761 0 -669725.85547306761 -498979.6178490147 0 0 0 0 -7832846.5415325165 -4739457.642018795 0 -4739457.642018795 -120003.19592761993 0 0 0 0 -9480893.6909829751 -1528337.5205862522 0 -1528337.5205862522 -278533.07743608445 0 0 0 0 -10705150.766281128 1632546.5280393362 0 1632546.5280393362 -3403147.682674408 0 0 0 0 -88553122.772293091 51462332.189284265 0 51462332.189284265 -6635275.4192070551 0 0 0 0 5618683.9542007446 -13923794.797765732 0 -13923794.797765732 -2628408.8933766484 0 0 0 0 7145186.8927154541 12020735.473929822 0 12020735.473929822 4349465.2568693161 0 0 0 0 -6848009.0126479343 -654832.37950754166 0 -654832.37950754166 -837510.33495490626 0 0 0 0 -61136457.55506134 -58240501.210667171 0 -58240501.210667171 20288018.745816261 0 0 0 0 5790560.0135345459 -29820120.59948191 0 -29820120.59948191 -9516329.5019336343 0 0 0 0 -9416471.5101909637 -590208.54318475723 0 -590208.54318475723 947115.47287511826 0 0 0 0 -11993791.397621155 3386561.7772123814 0 3386561.7772123814 2124621.1719026566 0 0 0 0 -1790957.436485447 -434305.55887603015 0 -434305.55887603015 296163.31578029529 0 0 0 0 -1960820.9934421182 -1043071.6108283196 0 -1043071.6108283196 -1485406.6400972402 0 0 0 0 -1713561.6298160553 288994.27767676115 0 288994.27767676115 694211.3356756568 0 0 0 0 -4214273.4249916077 -275367.80395495892 0 -275367.80395495892 374285.95279967785 0 0 0 0 -3855701.3504646719 1367918.7674186938 0 1367918.7674186938 2243685.0990139842 0 0 0 0 -55839461.878738403 -14890427.33468318 0 -14890427.33468318 15247123.250638366 0 0 0 0 -57663528.477857113 -26190615.991019513 0 -26190615.991019513 16258770.218960166 0 0 0 0 -58112271.609118462 -16224074.785125861 0 -16224074.785125861 14723280.047066927 0 0 0 0 -14131185.617767334 -2732782.0307219028 0 -2732782.0307219028 3073196.8068979681 0 0 0 0 -9682262.4115753174 13522075.338927984 0 13522075.338927984 530119.94953775406 0 0 0 0 2259201.3097000122 -869150.14936101437 0 -869150.14936101437 -1730034.066321969 0 0 0 0 -5600215.2319030762 25060314.222201109 0 25060314.222201109 -3182614.4535954222 0 0 0 0 -24766907.782455444 9676569.8973261714 0 9676569.8973261714 7862938.235497117 0 0 0 0 -21451911.15133667 9934087.6778954864 0 9934087.6778954864 7880931.5609817505 0 0 0 0 -63963566.888092041 -1906987.8476783633 0 -1906987.8476783633 36321169.521034718 0 0 0 0 -94227000.538970947 3122786.7558108568 0 3122786.7558108568 39024796.725746512 0 0 0 0 -104232221.04766846 27537096.101209879 0 27537096.101209879 57108902.301441431 0 0 0 0 -66140214.679412842 40235920.393206 0 40235920.393206 -2524291.3830115795 0 0 0 0 -107010898.96084595 -12289340.674755633 0 -12289340.674755633 54531354.641118169 0 0 0 0 -10144722.408500671 31380763.607980847 0 31380763.607980847 45871185.009775788 0 0 0 0 -108719369.73748064 -36387861.770920001 0 -36387861.770920001 29827109.495803356 0 0 0 0 -1332064.5523779113 -773050.11833000183 0 -773050.11833000183 -207351.31114051284 0 0 0 0 -137493062.51393127 116164382.26153374 0 116164382.26153374 51028521.292349994 0 0 0 0 -105993571.48801422 23610706.179787636 0 23610706.179787636 93687726.997081041 0 0 0 0 -95515252.687774658 2710343.5009150505 0 2710343.5009150505 72993051.063339472 0 0 0 0 -88045622.828872681 -26756759.540846348 0 -26756759.540846348 20910322.643577814 0 0 0 0 -24090601.460006714 -1947998.0102596283 0 -1947998.0102596283 14443980.910895169 0 0 0 0 -81900437.246017456 -8950564.3768808842 0 -8950564.3768808842 81350502.307263851 0 0 0 0 -40293493.886627197 -30040283.537219167 0 -30040283.537219167 -6632425.6886755228 0 0 0 0 -14062768.987220764 -9592299.7024946213 0 -9592299.7024946213 9537103.2519336939 0 0 0 0 -25360662.215400696 -21871899.017742515 0 -21871899.017742515 -1495972.5496958494 0 0 0 0 -35018658.95753479 -13401012.858064532 0 -13401012.858064532 28721701.83484894 0 0 0 0 -14113940.463027954 -10900926.680865228 0 -10900926.680865228 7196438.1652695835 0 0 0 0 -19437144.073861122 -8404796.95238363 0 -8404796.95238363 9414518.0984917879 0 0 0 0 -20268624.606124878 -6018974.2529930472 0 -6018974.2529930472 8239507.9425614476 0 0 0 0 -19878673.762097359 -5710245.2754804119 0 -5710245.2754804119 7980890.5876241922 0 0 0 0 -4279180.4606851581 -2562981.2176352348 0 -2562981.2176352348 -781506.13598329504 0 0 0 0 -36073458.540935516 3114067.1331532747 0 3114067.1331532747 -21753590.591152817 0 0 0 0 -2460457.0215672217 -1569066.4878543857 0 -1569066.4878543857 305806.6673730379 0 0 0 0 -92232448.674217224 -10996084.402259819 0 -10996084.402259819 7729435.9636076689 0 0 0 0 -88002462.493186951 -7027976.9058223367 0 -7027976.9058223367 -9126699.4152835608 0 0 0 0 -85719231.693130493 -36915254.620934829 0 -36915254.620934829 23560959.568223625 0 0 0 0 -86903718.465261459 -28121624.680854097 0 -28121624.680854097 -6086297.4989965558 0 0 0 0 -5841531.3149757385 -8438405.2068331242 0 -8438405.2068331242 -867210.62332934141 0 0 0 0 2276828.3011260033 -10843911.475085206 0 -10843911.475085206 3867271.5732825994 0 0 0 0 -5634938.8406763077 -5632896.1563979089 0 -5632896.1563979089 22144.146123886108 0 0 0 0 -5342488.5490152761 -3856739.0885696551 0 -3856739.0885696551 -1474379.3641221991 0 0 0 0 1616706.2557058334 -16944258.892331887 0 -16944258.892331887 -6168046.2536180019 0 0 0 0 -8098112.6570510715 -3644553.5031479839 0 -3644553.5031479839 -606933.47816234757 0 0 0 0 -5147296.2900466919 -7450166.9843924046 0 -7450166.9843924046 -8662166.1727323532 0 0 0 0 -2295457.1481399536 -2287679.7368173599 0 -2287679.7368173599 -2377300.5130108595 0 0 0 0 1225769.475440979 1239773.562261343 0 1239773.562261343 -8501729.3401050568 0 0 0 0 -266917.54235839844 2774159.0976324081 0 2774159.0976324081 -705400.81934452057 0 0 0 0 -814212.70415496826 1810028.9453208447 0 1810028.9453208447 -1456795.6476821899 0 0 0 0 -792052.40703558922 -1272253.5847820342 0 -1272253.5847820342 1801692.3609018326 0 0 0 0 -917434.69008636475 -2614318.7409200668 0 -2614318.7409200668 -4932407.5593633652 0 0 0 0 -70242.985092163086 4165480.6562461853 0 4165480.6562461853 915566.00630569458 0 0 0 0 -43826247.658317566 -31089933.244482994 0 -31089933.244482994 -371676.68895864487 0 0 0 0 -3646419.7300634012 -1664369.0002470268 0 -1664369.0002470268 648857.21611934295 0 0 0 0 -11281148.668810286 -1589014.2967131631 0 -1589014.2967131631 1314090.8088983851 0 0 0 0 1128499.3735351562 3406643.3463187218 0 3406643.3463187218 -1610084.2789349556 0 0 0 0 4533279.3206634521 20820343.237174988 0 20820343.237174988 15690229.215750694 0 0 0 0 661965.02614402771 2493359.0777790546 0 2493359.0777790546 -2273984.8705968857 0 0 0 0 -10724383.794151217 844634.00514365733 0 844634.00514365733 2777087.8385377163 0 0 0 0 -16041263.986816406 -4303665.3856277466 0 -4303665.3856277466 -737831.89220046997 0 0 0 0 -24066127.056594849 -3981148.198870644 0 -3981148.198870644 -15160301.130569423 0 0 0 0 -12292609.746479034 -8875112.4215364456 0 -8875112.4215364456 -6397296.9153575897 0 0 0 0 -6814522.6055603027 -53297947.86874783 0 -53297947.86874783 -15641555.150587678 0 0 0 0 -9148565.0930224136 -3394871.2521718149 0 -3394871.2521718149 876101.29335442651 0 0 0 0 -13771565.362808228 -4212231.0875713229 0 -4212231.0875713229 -1446839.3892438412 0 0 0 0 -9636440.4946551844 -1860265.657788597 0 -1860265.657788597 1941097.6949564947 0 0 0 0 -21547669.801818848 -12976899.362243086 0 -12976899.362243086 -7037472.3304255009 0 0 0 0 -19371118.850593567 -8844171.6321754456 0 -8844171.6321754456 -6379976.5093078613 0 0 0 0 -5366579.7977435086 -5471800.4935203362 0 -5471800.4935203362 -3172746.3658753 0 0 0 0 -4491362.0220031738 -1520809.52435112 0 -1520809.52435112 1264944.7532835007 0 0 0 0 -8949921.8011278994 -4565699.7129217349 0 -4565699.7129217349 -1570237.8171584755 0 0 0 0 -8380772.0900094323 -5060062.4001589818 0 -5060062.4001589818 -803463.86996062379 0 0 0 0 -5735974.7255854225 -1056562.0469911043 0 -1056562.0469911043 -88133.737270094454 0 0 0 0 -16810433.8695755 -9029570.4253520966 0 -9029570.4253520966 -8009415.8727378845 0 0 0 0 -29123869.632087708 -9249540.7410011292 0 -9249540.7410011292 -7820932.0179481506 0 0 0 0 -1194289.9954559896 -94327.371420473326 0 -94327.371420473326 942092.08617841825 0 0 0 0 -19527402.753807068 -9894999.744925499 0 -9894999.744925499 -11179658.549766541 0 0 0 0 -40663332.753738403 -16973128.328044891 0 -16973128.328044891 -2507755.1223812103 0 0 0 0 -5386719.1894378662 -1116078.7040586472 0 -1116078.7040586472 1686469.6082878113 0 0 0 0 -6628576.0546675939 -4448148.6599668739 0 -4448148.6599668739 -3061681.0491777952 0 0 0 0 -10765929.801893909 -1820384.4882460367 0 -1820384.4882460367 2675409.2156925141 0 0 0 0 -4168988.1645682398 -2246510.2192852171 0 -2246510.2192852171 183727.9603407206 0 0 0 0 -16062459.208721161 -7024064.5949497223 0 -7024064.5949497223 -7656888.0548820496 0 0 0 0 -15706054.80745697 -8459897.5884685516 0 -8459897.5884685516 -5996171.0473937988 0 0 0 0 -5681662.2101144791 8190318.152169317 0 8190318.152169317 29489392.625017166 0 0 0 0 -22659746.956569672 -20448891.977048397 0 -20448891.977048397 -9921981.701877594 0 0 0 0 -29538888.433654785 -11345061.357528687 0 -11345061.357528687 -1996769.2884902954 0 0 0 0 9572658.3751029968 -1790335.7270898819 0 -1790335.7270898819 3508817.253121376 0 0 0 0 -17554428.472106934 5513810.6130547523 0 5513810.6130547523 33317363.712085724 0 0 0 0 -40964135.716083527 -7466301.3798909187 0 -7466301.3798909187 -21298056.551552773 0 0 0 0 -33161454.967563629 -23747207.444478989 0 -23747207.444478989 -5583545.4140415192 0 0 0 0 -39197506.961971283 -12656585.031029701 0 -12656585.031029701 -10000823.589774489 0 0 0 0 -40871233.824221373 -20046588.29204008 0 -20046588.29204008 -5975269.4085388184 0 0 0 0 -3347093.0491558136 -338401.90481316578 0 -338401.90481316578 1582057.8796728798 0 0 0 0 -23134436.453598022 3923109.4603319168 0 3923109.4603319168 32644520.434078693 0 0 0 0 19210177.252346039 47478581.182833672 0 47478581.182833672 1222212.7682037354 0 0 0 0 -9432961.5507564545 14983061.307506561 0 14983061.307506561 -61369239.242012024 0 0 0 0 -34546754.763246536 -8505841.4900362492 0 -8505841.4900362492 -26684565.950379372 0 0 0 0 -11560235.137714386 20799561.257436275 0 20799561.257436275 -19620341.99195385 0 0 0 0 -39818634.611337662 -19624325.96832943 0 -19624325.96832943 3659937.7727270126 0 0 0 0 -11707568.477655565 1183889.8237849344 0 1183889.8237849344 1106669.6740456964 0 0 0 0 -14335585.761657715 13104193.751778364 0 13104193.751778364 -4549626.1014661789 0 0 0 0 -24567454.470664978 -10993549.715504408 0 -10993549.715504408 -7286438.2879676819 0 0 0 0 -47117303.072029114 -10303188.07871151 0 -10303188.07871151 -5498667.993997097 0 0 0 0 -2031856.2877564663 80383.177235463634 0 80383.177235463634 337595.34252930526 0 0 0 0 -64506763.287464142 -46629446.958822727 0 -46629446.958822727 -965757.20863628387 0 0 0 0 -45409370.01663208 -13043983.665173531 0 -13043983.665173531 -2439691.0760512352 0 0 0 0 -46421256.923145294 -15169863.574908733 0 -15169863.574908733 527952.63764047623 0 0 0 0 -47468940.503702641 -13047724.989011735 0 -13047724.989011735 -645981.41054916382 0 0 0 0 -41798180.496644974 -15204284.144454598 0 -15204284.144454598 9051089.438955307 0 0 0 0 -45533550.528031826 -29104490.327984989 0 -29104490.327984989 -17911975.488994598 0 0 0 0 -44516910.194850922 -36764672.305139065 0 -36764672.305139065 -11421166.895877838 0 0 0 0 -46874854.71362114 -32624876.230457425 0 -32624876.230457425 -18351977.942552328 0 0 0 0 -2506753.216451575 340455.93908582162 0 340455.93908582162 1713700.3760598775 0 0 0 0 -62860137.913547516 -34101518.697162867 0 -34101518.697162867 -6337325.8035480976 0 0 0 0 -65894056.511047363 -20507657.415915489 0 -20507657.415915489 -25402052.659608841 0 0 0 0 -63025825.711781025 -91539218.054471806 0 -91539218.054471806 -92558073.994870424 0 0 0 0 -1231434.4825878264 319854.81998431496 0 319854.81998431496 998402.88464306667 0 0 0 0 -39883975.946943283 -54723331.503669024 0 -54723331.503669024 -9414197.8965764046 0 0 0 0 -12934596.541801453 -18991444.466140747 0 -18991444.466140747 -138542967.03697345 0 0 0 0 -12122103.946460724 -47765732.457719803 0 -47765732.457719803 -65235291.481378555 0 0 0 0 21174235.374681473 -9138634.4430568218 0 -9138634.4430568218 -71713193.786399841 0 0 0 0 11859256.871582031 -42204608.453629494 0 -42204608.453629494 -39292197.612270355 0 0 0 0 -3520585.5429458618 -15588820.197001338 0 -15588820.197001338 -80166657.749515533 0 0 0 0 -19130270.143482208 -71679204.841059804 0 -71679204.841059804 -112481815.40085655 0 0 0 0 -15482143.929927826 -33920271.575121164 0 -33920271.575121164 -45893321.675316274 0 0 0 0 -27091173.071090698 -119520923.38160753 0 -119520923.38160753 -135066765.13430357 0 0 0 0 -26971275.954402342 -138269622.49291632 0 -138269622.49291632 -206263837.01414108 0 0 0 0 -1084734.3090629578 -69392585.210894346 0 -69392585.210894346 -155028707.97927952 0 0 0 0 -22541635.141929626 -81607428.797465086 0 -81607428.797465086 -137842169.29499084 0 0 0 0 -24170118.937683105 -55951365.739121795 0 -55951365.739121795 -204588634.68978691 0 0 0 0 -133067265.65634918 -167596077.18976653 0 -167596077.18976653 -216818618.75884247 0 0 0 0 -52649746.239822388 -80946224.823264599 0 -80946224.823264599 -290786782.01420045 0 0 0 0 -68500358.76593399 -83537099.639733791 0 -83537099.639733791 -184134030.64916039 0 0 0 0 -34008556.730422974 -20332218.109118938 0 -20332218.109118938 -186626227.15049756 0 0 0 0 -31925783.441814423 -54883374.828897715 0 -54883374.828897715 -254615815.51920128 0 0 0 0 -101223577.60435104 -100314555.70996189 0 -100314555.70996189 -227178611.0826416 0 0 0 0 -63956354.459918976 -50937805.921960831 0 -50937805.921960831 -156391737.13195515 0 0 0 0 -67265735.900352478 6502771.9561786652 0 6502771.9561786652 -110795026.23037529 0 0 0 0 -35281184.564296722 -46896978.189337492 0 -46896978.189337492 -111514585.06157207 0 0 0 0 3371482.4883728027 41796386.222737312 0 41796386.222737312 -263930739.48489428 0 0 0 0 -63951713.614448547 46451966.651732922 0 46451966.651732922 -73249585.233884811 0 0 0 0 -35594766.41166687 -3616660.0976991653 0 -3616660.0976991653 -189773368.98046875 0 0 0 0 -50639036.801914215 -33905196.819688797 0 -33905196.819688797 -200771348.73412609 0 0 0 0 -46540449.317169189 -139852925.41380692 0 -139852925.41380692 -361270021.26852512 0 0 0 0 4562318.6064834595 -123280.92321825027 0 -123280.92321825027 -316711250.59398842 0 0 0 0 118467789.10443115 5389464.5986838341 0 5389464.5986838341 -455374294.53901291 0 0 0 0 -20256761.012401581 -39078194.006596088 0 -39078194.006596088 -305654885.43890476 0 0 0 0 36700202.501541138 -197625914.84370232 0 -197625914.84370232 -653784328.71813202 0 0 0 0 -14754510.037307739 -391146137.12192822 0 -391146137.12192822 -445902082.70938492 0 0 0 0 -95861196.516387939 -329257654.1939494 0 -329257654.1939494 -414457888.63991117 0 0 0 0 -440034078.36903811 -404617266.45852542 0 -404617266.45852542 -267773659.56022811 0 0 0 0 -232168696.23323822 -214126023.87216771 0 -214126023.87216771 -281067767.88951802 0 0 0 0 -32888528.285049438 -126257212.02961326 0 -126257212.02961326 -349217580.95126295 0 0 0 0 -117312902.62485123 -190533097.67651257 0 -190533097.67651257 -326912068.35730934 0 0 0 0 -123290273.26807404 -322956845.98010588 0 -322956845.98010588 -221967477.21950412 0 0 0 0 -578313943.59482574 -407755550.07051659 0 -407755550.07051659 -100993073.3763566 0 0 0 0 -363725063.41184235 -160960983.85625458 0 -160960983.85625458 -410516263.11526108 0 0 0 0 -418691582.46157837 -278845645.2466886 0 -278845645.2466886 -489144575.08673191 0 0 0 0 -933421758.80554199 -15221653.839892387 0 -15221653.839892387 -209527405.23874402 0 0 0 0 -169572823.68972015 -685727225.23683619 0 -685727225.23683619 -982845284.86074638 0 0 0 0 -404275275.65361786 -178769369.40600336 0 -178769369.40600336 -204968712.40837622 0 0 0 0 -326199708.92008209 -77800558.426903129 0 -77800558.426903129 -90700284.313006401 0 0 0 0 -328058901.42186356 -141460175.68831372 0 -141460175.68831372 -102208404.83006454 0 0 0 0 -386834585.46472168 -93716550.093346119 0 -93716550.093346119 -111719079.82188249 0 0 0 0 -418581092.52380371 -195601847.03416872 0 -195601847.03416872 -134495339.19506812 0 0 0 0 -466969912.2438736 -296002241.10715008 0 -296002241.10715008 -382932573.46795642 0 0 0 0 -424169126.70166016 -233447286.84338236 0 -233447286.84338236 -382727907.47344685 0 0 0 0 -406002447.7365036 -108517307.38431025 0 -108517307.38431025 -198040867.79486895 0 0 0 0 -399580854.74420929 -201278084.74700069 0 -201278084.74700069 -441243286.46147919 0 0 0 0 -400912129.87052917 -125416185.22109967 0 -125416185.22109967 -293463908.64849567 0 0 0 0 -432090271.21624756 -219013128.85413644 0 -219013128.85413644 -270133249.68699026 0 0 0 0 -377659187.33332825 -106872590.81163037 0 -106872590.81163037 -183621910.9504559 0 0 0 0 -546289955.65270233 -514691344.98111975 0 -514691344.98111975 -267777573.25144637 0 0 0 0 -417233769.01786804 -213053465.94652009 0 -213053465.94652009 -284486802.74104977 0 0 0 0 -715889717.50744629 -386169773.74745727 0 -386169773.74745727 -347351127.99061686 0 0 0 0 -382104335.11501312 -325279350.12298524 0 -325279350.12298524 -676003065.311553 0 0 0 0 -554127788.25943375 -601429591.56503856 0 -601429591.56503856 -476627247.76787674 0 0 0 0 -399316.9384583272 462087.08557232842 0 462087.08557232842 -1067544.0618207525 0 0 0 0 -577469948.81834412 -708897946.79319561 0 -708897946.79319561 -783470507.85431933 0 0 0 0 224719963.62698746 161082416.09936452 0 161082416.09936452 -364943179.66831875 0 0 0 0 161779069.85662842 -69283823.618478298 0 -69283823.618478298 -912342163.84562373 0 0 0 0 -429062717.83263397 -114941204.73674893 0 -114941204.73674893 -1023865181.7288084 0 0 0 0 -4636192.0103912354 83125442.741816998 0 83125442.741816998 23920169.166401863 0 0 0 0 -712960.20036172401 639623.73210477829 0 639623.73210477829 -3081346.0096047572 0 0 0 0 7913588.8879585266 -82857575.695600986 0 -82857575.695600986 37663855.959646225 0 0 0 0 115603161.53174973 -29551205.39003706 0 -29551205.39003706 -612087.17082118988 0 0 0 0 -44463854.899871826 -148785722.50451303 0 -148785722.50451303 -509811360.54479933 0 0 0 0 -743529428.52416897 -496650834.66765302 0 -496650834.66765302 -242902249.2350142 0 0 0 0 -216317.30174031481 -537948.88499824889 0 -537948.88499824889 -1157466.032952084 0 0 0 0 -908247614.06254482 -4944232.3684064038 0 -4944232.3684064038 30673221.836322173 0 0 0 0 -318213529.5398674 48609695.701118961 0 48609695.701118961 -54396776.404077008 0 0 0 0 15499463.442289352 -42455956.578490257 0 -42455956.578490257 16739865.049308777 0 0 0 0 -336296.2124469392 -2502929.4347838722 0 -2502929.4347838722 -4883219.5178278331 0 0 0 0 -17926019.474411011 -3205752.0192351341 0 -3205752.0192351341 17677316.608886719 0 0 0 0 7917054.675447464 -53916980.512183428 0 -53916980.512183428 11114790.570924759 0 0 0 0 -27403048.093940735 -10372099.999949455 0 -10372099.999949455 33061715.008627832 0 0 0 0 -11865297.664226532 549091.82900857925 0 549091.82900857925 16949319.459411621 0 0 0 0 -45059896.494556427 1991508.0363411903 0 1991508.0363411903 17593822.255901575 0 0 0 0 -30393227.01524353 -21791440.765269995 0 -21791440.765269995 -4536484.4546976089 0 0 0 0 -32411387.098907471 17025971.117731094 0 17025971.117731094 -83727451.871166468 0 0 0 0 -43624643.004303932 -26392206.189566731 0 -26392206.189566731 -89359244.530508995 0 0 0 0 -61408682.554607391 15919689.936456203 0 15919689.936456203 -24004867.229082108 0 0 0 0 -40064516.821537018 -35663721.441812515 0 -35663721.441812515 -59025685.19131279 0 0 0 0 -31864977.370775223 -4305111.846811533 0 -4305111.846811533 6090574.6820259094 0 0 0 0 -758989998.15482616 510336614.38933426 0 510336614.38933426 235080660.20241088 0 0 0 0 -403860972.44699669 503996557.24336731 0 503996557.24336731 -84651863.035635248 0 0 0 0 -1570833643.5683169 787053501.45955098 0 787053501.45955098 223124736.35463676 0 0 0 0 -743142332.02941513 433601672.66107804 0 433601672.66107804 372389713.20457697 0 0 0 0 -975542889.65926552 460476100.8228389 0 460476100.8228389 430298680.41068566 0 0 0 0 -800275681.66153717 271550832.50923854 0 271550832.50923854 633839739.30341923 0 0 0 0 -1575533746.6011381 -264687406.35703328 0 -264687406.35703328 907293961.85731792 0 0 0 0 -525232272.19494057 347424716.03022981 0 347424716.03022981 256770786.19154117 0 0 0 0 -526479716.29711819 335042413.83698881 0 335042413.83698881 296341142.22506762 0 0 0 0 -377529186.0168438 307015691.96814394 0 307015691.96814394 93259792.44130598 0 0 0 0 -521975314.74304962 321889054.44122016 0 321889054.44122016 150984656.60368955 0 0 0 0 -361068696.19043672 159977090.27640238 0 159977090.27640238 106524099.84441614 0 0 0 0 -184583877.44942856 298469577.82877582 0 298469577.82877582 -44408188.544139758 0 0 0 0 -385533035.40395546 377660586.49598354 0 377660586.49598354 -613333.07133807987 0 0 0 0 -58250529.222548485 141423469.2104001 0 141423469.2104001 -206664760.5828135 0 0 0 0 -298906774.75089455 422285713.16214687 0 422285713.16214687 -148520864.05818158 0 0 0 0 -88064441.51707077 70028987.229960084 0 70028987.229960084 69289282.316835076 0 0 0 0 -300228986.64987087 223185229.98113227 0 223185229.98113227 51836151.820661485 0 0 0 0 -92237276.847829819 31469054.886069816 0 31469054.886069816 54980495.594816156 0 0 0 0 -78667259.553281784 23059719.220616102 0 23059719.220616102 222264787.15608311 0 0 0 0 -79560661.68094635 130835974.0965519 0 130835974.0965519 191099739.75654936 0 0 0 0 -28860613.023628235 95468308.429703712 0 95468308.429703712 135928246.46147627 0 0 0 0 -200445802.38985538 163674097.93532163 0 163674097.93532163 139917795.41232705 0 0 0 0 -95067323.168498993 60100292.803726077 0 60100292.803726077 148471875.18782401 0 0 0 0 -182651764.69012642 143184406.0726192 0 143184406.0726192 277954219.41494703 0 0 0 0 -297116057.37391472 451028308.59985179 0 451028308.59985179 -69878424.10079211 0 0 0 0 -654606227.32071209 1039563322.1145419 0 1039563322.1145419 -481424918.41879714 0 0 0 0 -1573471185.2468874 -855139169.7054013 0 -855139169.7054013 -334804584.9841637 0 0 0 0 261538588.65389061 483323703.81392646 0 483323703.81392646 -713146025.65357375 0 0 0 0 -1494243.3531871382 861418.19737762725 0 861418.19737762725 -908517.28319007973 0 0 0 0 -814465662.96789074 -365764846.05016333 0 -365764846.05016333 -25208159.704363406 0 0 0 0 87265972.541093826 224215780.03955531 0 224215780.03955531 250404084.40034461 0 0 0 0 -3552491.3000300229 2692027.846531502 0 2692027.846531502 -1555037.4740835261 0 0 0 0 -817464881.32755065 -219789158.94317216 0 -219789158.94317216 -3762127.2077219933 0 0 0 0 -262718325.74386597 -189286663.28342021 0 -189286663.28342021 -67529157.33417958 0 0 0 0 -1574924898.0491819 -334653799.99861097 0 -334653799.99861097 245894536.44177574 0 0 0 0 -1093592638.2136791 -91778456.671005502 0 -91778456.671005502 220767214.41466954 0 0 0 0 -1098056438.8512299 -65194216.27442041 0 -65194216.27442041 104298289.14961031 0 0 0 0 -277810497.40796041 162109845.39172387 0 162109845.39172387 9416206.2355957925 0 0 0 0 -1262807569.5746536 401123565.81010175 0 401123565.81010175 -34249419.382283181 0 0 0 0 -985357.19941175624 765201.21801660629 0 765201.21801660629 613490.80024359655 0 0 0 0 -160141752.35817385 -43161073.626875162 0 -43161073.626875162 140273903.18029436 0 0 0 0 -1281492507.7952511 673003860.00318885 0 673003860.00318885 243205606.44449311 0 0 0 0 -1357642333.7309968 -86186762.752502784 0 -86186762.752502784 222060473.37199107 0 0 0 0 -1574808240.0823772 -146737270.48500776 0 -146737270.48500776 110531062.25022951 0 0 0 0 -2121197251.8993719 194892516.51731524 0 194892516.51731524 403550369.4570629 0 0 0 0 -8443208.4734363556 3214484.0162590742 0 3214484.0162590742 33390298.76333908 0 0 0 0 -15310093.641040802 23979720.941233516 0 23979720.941233516 1018442.8159537315 0 0 0 0 34451474.196537495 9062492.8460828066 0 9062492.8460828066 -19298731.621986389 0 0 0 0 38763753.133489132 14047672.360025167 0 14047672.360025167 -122936593.55109334 0 0 0 0 2294286.0848331451 21597242.583870411 0 21597242.583870411 -24122847.504545808 0 0 0 0 -160814564.63112104 -101614583.60233997 0 -101614583.60233997 -4300339.2268170714 0 0 0 0 -2490965.6439643293 2524186.0620588628 0 2524186.0620588628 1746345.94206172 0 0 0 0 -2934658.7105842829 -4645125.6221344173 0 -4645125.6221344173 -38506191.31987524 0 0 0 0 -19614787.167707443 -2291456.758862257 0 -2291456.758862257 5392884.7922539711 0 0 0 0 -1110615.4587803232 -28949.61690401833 0 -28949.61690401833 978198.11737615324 0 0 0 0 -6445314.0887503624 11752719.65389362 0 11752719.65389362 55334700.187749863 0 0 0 0 -6945616.8625354422 1747656.8773293081 0 1747656.8773293081 3073012.4140211293 0 0 0 0 -3467003.6725730896 -86263600.235212803 0 -86263600.235212803 176563907.43381381 0 0 0 0 -154312784.09401608 103323693.60577086 0 103323693.60577086 -34125912.76476828 0 0 0 0 -6117603.4394219518 18703711.707174137 0 18703711.707174137 154342829.83828497 0 0 0 0 -5079028.5844606357 3966289.107705012 0 3966289.107705012 -1094427.7501979528 0 0 0 0 -62528737.05729866 45733720.357685089 0 45733720.357685089 157724278.91698039 0 0 0 0 -77764742.101159096 -10232229.917296767 0 -10232229.917296767 225303276.48750401 0 0 0 0 -65932073.487188339 10000686.456540823 0 10000686.456540823 243255351.61539507 0 0 0 0 -119992206.6413517 58822364.908241153 0 58822364.908241153 237075172.04275131 0 0 0 0 -48147873.053092957 75897156.893480778 0 75897156.893480778 306700681.63143396 0 0 0 0 -71880964.903053284 -45082318.611194611 0 -45082318.611194611 284653921.14868152 0 0 0 0 113083173.96894836 42406668.021075606 0 42406668.021075606 329054604.11017466 0 0 0 0 133182662.63188744 -227020196.4959228 0 -227020196.4959228 161697343.90897322 0 0 0 0 -971949.97893375903 128181.3050155323 0 128181.3050155323 855904.49630812602 0 0 0 0 -67347556.998535156 -16936456.111355782 0 -16936456.111355782 443345184.5721612 0 0 0 0 400742556.63853264 115932884.74627149 0 115932884.74627149 1190170.8989971876 0 0 0 0 127372648.77519608 -134812593.09080184 0 -134812593.09080184 370758292.22243154 0 0 0 0 47959010.951084137 26255857.944833279 0 26255857.944833279 647281035.10429871 0 0 0 0 -898252.20748830214 855448.63586122263 0 855448.63586122263 614174.05665696878 0 0 0 0 -2845545.2146339417 -52714049.716642737 0 -52714049.716642737 633794321.31370211 0 0 0 0 116036457.10559082 185661487.87760043 0 185661487.87760043 459936237.7082479 0 0 0 0 180464442.2122612 62235096.558084428 0 62235096.558084428 31983936.156367064 0 0 0 0 -2444981.0316045284 9431510.1226036549 0 9431510.1226036549 -1721887.4780921936 0 0 0 0 -2307688.0801695129 3979527.787394993 0 3979527.787394993 -2759325.2607300654 0 0 0 0 -4100900.382938385 -19362529.464774609 0 -19362529.464774609 114919974.07316732 0 0 0 0 -6134030.4054635987 1621944.1818032595 0 1621944.1818032595 2814196.4222140191 0 0 0 0 -3296937.3509815931 5367383.3281749487 0 5367383.3281749487 1794663.8368597031 0 0 0 0 -7164624.6152172089 7770436.7323899269 0 7770436.7323899269 1007437.6575981379 0 0 0 0 10327.446450233459 10340590.541851521 0 10340590.541851521 -20824213.218179584 0 0 0 0 -14526891.039592981 15278815.192349434 0 15278815.192349434 -6245667.5794734955 0 0 0 0 3261852.2890315056 2758839.4590679407 0 2758839.4590679407 -2772801.789323926 0 0 0 0 4598347.7925109863 2552172.6114413738 0 2552172.6114413738 -7849698.6121374369 0 0 0 0 -4613281.8682179451 11468620.76999712 0 11468620.76999712 -2989886.9688315392 0 0 0 0 1178224.5196895599 -1351677.7962180972 0 -1351677.7962180972 -2574174.1791111231 0 0 0 0 -5533861.3782445192 -15229299.839765102 0 -15229299.839765102 -8378052.8797907829 0 0 0 0 -5339540.6191339493 -945849.55144548416 0 -945849.55144548416 20678407.745267741 0 0 0 0 256415038.90294552 174959123.1039539 0 174959123.1039539 -12303218.781429052 0 0 0 0 -216458425.03667831 -7605991.082713306 0 -7605991.082713306 79801369.550944358 0 0 0 0 -3239058.8655333212 1765695.6549086962 0 1765695.6549086962 339741.06874336395 0 0 0 0 -1524694.533405304 483464.05925309658 0 483464.05925309658 6874157.0995532423 0 0 0 0 -2323538.003387793 2744676.0619557844 0 2744676.0619557844 -1821497.8258562451 0 0 0 0 246117711.65420532 179719920.52699548 0 179719920.52699548 37822413.502623558 0 0 0 0 202916079.82320976 49083030.246558636 0 49083030.246558636 -35589946.296193242 0 0 0 0 -224846393.03708076 138709052.18650928 0 138709052.18650928 76776284.977499366 0 0 0 0 19715647.120239258 -31090118.149126887 0 -31090118.149126887 33071353.045919776 0 0 0 0 200478753.67845154 91794780.826273084 0 91794780.826273084 39906114.34396027 0 0 0 0 73521577.885068893 157401939.36284465 0 157401939.36284465 101326808.55474114 0 0 0 0 -58864464.751283646 42863197.163957268 0 42863197.163957268 323343730.40860868 0 0 0 0 49465113.18088913 27321794.296102166 0 27321794.296102166 83637681.417181373 0 0 0 0 -89209691.545133591 -65562188.10543406 0 -65562188.10543406 73014456.128406763 0 0 0 0 -286052692.14468765 29770540.488250613 0 29770540.488250613 149962983.26166233 0 0 0 0 -236886299.30065918 -149260120.6862672 0 -149260120.6862672 140572666.21969771 0 0 0 0 -161969013.68355751 -184501746.78835779 0 -184501746.78835779 -36528586.594006106 0 0 0 0 -84943267.344303131 -32573378.723064106 0 -32573378.723064106 176034290.7431466 0 0 0 0 -53448.868355050683 218089.25115332135 0 218089.25115332135 -52802.23232543192 0 0 0 0 -19159661.472922325 -117716566.3166167 0 -117716566.3166167 180023787.49913561 0 0 0 0 66208618.712610245 -16326074.393461227 0 -16326074.393461227 141341123.48490477 0 0 0 0 370178303.41748142 124201595.15282178 0 124201595.15282178 283888165.95295334 0 0 0 0 94891624.923343658 -53692828.179963112 0 -53692828.179963112 197483210.57888365 0 0 0 0 -8084399.9689750671 9253812.4605648518 0 9253812.4605648518 121843356.98510134 0 0 0 0 -36227506.126675367 8464180.6164351702 0 8464180.6164351702 330622664.41288114 0 0 0 0 147932784.62824249 132845062.54972863 0 132845062.54972863 216388414.89715195 0 0 0 0 34755715.669261932 92018456.887906283 0 92018456.887906283 69238909.171660066 0 0 0 0 93417974.731298447 35860986.058272287 0 35860986.058272287 91968197.642773628 0 0 0 0 -150802.38380436786 515348.23474758421 0 515348.23474758421 -123857.81362722669 0 0 0 0 79210242.298126221 -35411858.089980774 0 -35411858.089980774 9033765.7124020532 0 0 0 0 -92182623.413047791 -921261.07774531841 0 -921261.07774531841 176811477.10765707 0 0 0 0 -189662504.29918861 241443295.95717639 0 241443295.95717639 77429344.734184742 0 0 0 0 -57562.51858494617 402187.64719541703 0 402187.64719541703 -106763.12071638551 0 0 0 0 -69034860.401226044 -79043761.488332406 0 -79043761.488332406 18707079.239803195 0 0 0 0 -144691079.76458931 -117288679.03686345 0 -117288679.03686345 19467407.344374955 0 0 0 0 -164029772.9335041 -112095047.6995977 0 -112095047.6995977 41592514.99297452 0 0 0 0 -166190455.01860809 -121579060.67996943 0 -121579060.67996943 18611227.987840384 0 0 0 0 -257908393.4280777 -134081288.64710037 0 -134081288.64710037 37122918.712651789 0 0 0 0 -54762080.663751125 -133795903.01909736 0 -133795903.01909736 -21783038.100508213 0 0 0 0 -214961436.87776375 -64382093.506219968 0 -64382093.506219968 47842308.986282602 0 0 0 0 -209667990.34088707 -71184108.313112929 0 -71184108.313112929 55902190.724319071 0 0 0 0 -165655403.59851265 -99092528.024732947 0 -99092528.024732947 25772953.83751595 0 0 0 0 -158170370.95237541 -38896260.856994987 0 -38896260.856994987 59269260.617632151 0 0 0 0 -6716866.5756778717 44584798.491595864 0 44584798.491595864 32640719.605502784 0 0 0 0 -180983165.33645248 75211962.560358167 0 75211962.560358167 31944968.204676032 0 0 0 0 -204949819.24635887 65605080.435181677 0 65605080.435181677 28239924.148826241 0 0 0 0 -157133101.94022465 59574768.556447692 0 59574768.556447692 12062015.918037593 0 0 0 0 -365357934.51586533 125458103.86298969 0 125458103.86298969 -27254896.670343295 0 0 0 0 -184089228.3413229 46903616.92134615 0 46903616.92134615 6532100.0420895815 0 0 0 0 -310446143.16218162 316775519.52296495 0 316775519.52296495 -121905915.7038734 0 0 0 0 -333332680.88308907 161014725.72599846 0 161014725.72599846 -955605.65301650763 0 0 0 0 -435905914.79368973 220963985.21937674 0 220963985.21937674 -35697717.34031868 0 0 0 0 -499303710.04915619 48839779.061292827 0 48839779.061292827 80454445.078101218 0 0 0 0 -269305969.11686039 -6149131.4819747806 0 -6149131.4819747806 37890611.829773545 0 0 0 0 -333029524.35417747 -47413971.351219565 0 -47413971.351219565 68063896.393059462 0 0 0 0 -373787854.45766735 -85449409.357884586 0 -85449409.357884586 35392560.728283048 0 0 0 0 -496387783.29048824 105489354.89610285 0 105489354.89610285 14500782.456425548 0 0 0 0 -553245899.10135508 245274278.61940551 0 245274278.61940551 -316985887.15645099 0 0 0 0 -646662258.68655396 39422565.472543836 0 39422565.472543836 3421197.3761802912 0 0 0 0 -569237396.5570755 165189393.01268989 0 165189393.01268989 22534868.670792159 0 0 0 0 -385493058.37534332 240241236.60258329 0 240241236.60258329 -67368518.000970036 0 0 0 0 -318526196.63200378 -13330238.097471952 0 -13330238.097471952 8472525.4849696159 0 0 0 0 -762761063.39327431 243987869.63912338 0 243987869.63912338 -169168084.40668201 0 0 0 0 -876621106.0079689 687036827.84816253 0 687036827.84816253 -375283398.80103171 0 0 0 0 -961130542.2924118 639401689.55024064 0 639401689.55024064 -200177086.87180516 0 0 0 0 -734303297.75979781 659072918.01821053 0 659072918.01821053 -216697640.6122151 0 0 0 0 -788092415.95709801 187982555.82843545 0 187982555.82843545 148608919.56383181 0 0 0 0 -1534042615.9964905 513222668.55279171 0 513222668.55279171 95246623.627290189 0 0 0 0 -1570103.1238078494 1004367.035754554 0 1004367.035754554 343839.25166579545 0 0 0 0 -68020369.510692596 -19828471.127391934 0 -19828471.127391934 35232333.40954566 0 0 0 0 -8004817.2040023804 20126053.851656318 0 20126053.851656318 17804782.319220543 0 0 0 0 -81430.161834795028 110735.60492825462 0 110735.60492825462 -41331.040134457668 0 0 0 0 -768664371.57148194 351793241.91947305 0 351793241.91947305 81871618.640145063 0 0 0 0 -1194928152.0475883 665715644.98577106 0 665715644.98577106 -70033963.209047675 0 0 0 0 -1022876100.7897758 380326771.33517677 0 380326771.33517677 -307583613.52062964 0 0 0 0 -1702198862.9157462 686668000.68728375 0 686668000.68728375 -89880532.265070438 0 0 0 0 43045.58729200653 52990.005222838372 0 52990.005222838372 -1115926.1080405645 0 0 0 0 -913066295.50939369 696980204.63575959 0 696980204.63575959 -1030261865.2600493 0 0 0 0 -16292282.899218708 -70632660.92742458 0 -70632660.92742458 -329225699.18575907 0 0 0 0 -50475026.348064423 413408652.04900193 0 413408652.04900193 -545763807.61323261 0 0 0 0 -620075561.39165306 547125564.71346116 0 547125564.71346116 -236607152.27294755 0 0 0 0 -863249502.41472149 190549736.36004993 0 190549736.36004993 -157189220.78716397 0 0 0 0 -675140772.01932907 317233829.01422518 0 317233829.01422518 -73603816.898188233 0 0 0 0 -491818919.16393805 222479980.76796132 0 222479980.76796132 -24713264.631151795 0 0 0 0 -465581652.64909387 418847307.81147176 0 418847307.81147176 -129150658.22091603 0 0 0 0 -225478484.8764267 306141577.39538956 0 306141577.39538956 -139257899.77478611 0 0 0 0 -220688911.67151451 340526205.7340979 0 340526205.7340979 -174088338.81890529 0 0 0 0 -307588779.70584106 143664556.33733302 0 143664556.33733302 -126504895.60911199 0 0 0 0 -83892146.771567345 328288572.24040735 0 328288572.24040735 -161609133.51918077 0 0 0 0 30538335.727642059 114319234.80803579 0 114319234.80803579 -149810294.88977504 0 0 0 0 -212954186.69314194 415690426.81588852 0 415690426.81588852 -202318541.58845747 0 0 0 0 -107574685.44347763 121858815.51020265 0 121858815.51020265 -40758766.283162832 0 0 0 0 -1831789.1046156883 711975.0124045168 0 711975.0124045168 650927.49827065854 0 0 0 0 -193734209.63457489 115069843.36537313 0 115069843.36537313 -40775359.49140358 0 0 0 0 -183274391.18150806 131759659.80525133 0 131759659.80525133 -43111850.269073009 0 0 0 0 -144139634.84610844 70544924.749862313 0 70544924.749862313 -6739339.3680946827 0 0 0 0 -19669568.314668655 31214897.096383572 0 31214897.096383572 -19284256.721828461 0 0 0 0 -284790521.57215691 96950027.2340312 0 96950027.2340312 65412579.094688416 0 0 0 0 -260820020.05161858 161876440.8876884 0 161876440.8876884 10229387.664382219 0 0 0 0 -52416256.976548195 -3285511.0380441546 0 -3285511.0380441546 21211863.677686214 0 0 0 0 -459667857.39917374 133454526.93732929 0 133454526.93732929 80492389.240933597 0 0 0 0 111038148.09358835 13122118.7107834 0 13122118.7107834 29978944.186742663 0 0 0 0 248563.58965299278 -36187.458162443712 0 -36187.458162443712 -635845.58454551164 0 0 0 0 -265784795.23130417 76734625.618959188 0 76734625.618959188 -25507792.660811186 0 0 0 0 -863476.63456336595 301285.29361184174 0 301285.29361184174 354775.0701154244 0 0 0 0 -335873582.32808113 386910634.62662327 0 386910634.62662327 -298827078.48854685 0 0 0 0 -462610912.08895493 -35319252.198207855 0 -35319252.198207855 626850683.12630618 0 0 0 0 -591044240.45399284 347266989.6569677 0 347266989.6569677 -137288962.40349722 0 0 0 0 -558608202.0633316 39375033.51990509 0 39375033.51990509 570485627.29105568 0 0 0 0 -399218425.55919266 457822361.22798151 0 457822361.22798151 -455087984.21457386 0 0 0 0 -669395112.54280853 -154426893.63684511 0 -154426893.63684511 581675087.1956811 0 0 0 0 405913978.13430786 -50221471.141854405 0 -50221471.141854405 41463928.990794182 0 0 0 0 -778319.87311577611 507819.64875095745 0 507819.64875095745 265707.09577213827 0 0 0 0 -218036953.43394089 191820963.78571433 0 191820963.78571433 -92898368.369193792 0 0 0 0 -485305140.50695419 341580935.32929361 0 341580935.32929361 -171260954.37287438 0 0 0 0 -124530454.50452375 210921316.81115052 0 210921316.81115052 -273815339.57865858 0 0 0 0 -390731291.66314697 256690684.17968237 0 256690684.17968237 -98303365.815097138 0 0 0 0 -462109615.17153645 257416273.35599503 0 257416273.35599503 -110841105.66993499 0 0 0 0 -351435462.99425125 316114007.43283784 0 316114007.43283784 -87094519.40509747 0 0 0 0 -295046462.842659 288790738.48157656 0 288790738.48157656 -151322476.50160217 0 0 0 0 -280164538.02829361 325687829.89525735 0 325687829.89525735 -170424365.26150811 0 0 0 0 -276005501.10018539 345813463.2469303 0 345813463.2469303 -103910811.31620353 0 0 0 0 -73291063.697805405 241876123.65458709 0 241876123.65458709 -153150381.3052094 0 0 0 0 -293748051.61778641 298012390.76362103 0 298012390.76362103 -105875018.10971075 0 0 0 0 -529643932.06931305 302176403.53282726 0 302176403.53282726 -65703917.19806084 0 0 0 0 -265185047.28490353 401031452.1275019 0 401031452.1275019 -123388818.45103228 0 0 0 0 376245949.82018089 274347550.16154838 0 274347550.16154838 -108383459.00569217 0 0 0 0 -415668.69091126509 516676.04021059815 0 516676.04021059815 -657306.93004553288 0 0 0 0 -617228808.85541916 441271716.34279919 0 441271716.34279919 -247935574.50743955 0 0 0 0 -437589377.62460899 250482993.32675421 0 250482993.32675421 -149152701.03394514 0 0 0 0 -381837502.06124115 241318148.57131624 0 241318148.57131624 -146226132.24104148 0 0 0 0 -371083336.27803516 246171388.32339525 0 246171388.32339525 -284500329.79714549 0 0 0 0 -466770951.9095192 189722718.36412334 0 189722718.36412334 -150955582.07810915 0 0 0 0 -424414106.38461685 47448930.520467579 0 47448930.520467579 -40302653.084027529 0 0 0 0 -359065487.78125 301528175.35443127 0 301528175.35443127 -138852378.35690552 0 0 0 0 -355779055.26507282 279971384.57152331 0 279971384.57152331 -170708435.99366665 0 0 0 0 -1031434261.7771673 -26573948.078561544 0 -26573948.078561544 -47988901.151097417 0 0 0 0 -76392150.023816109 120902727.41063505 0 120902727.41063505 177753582.25027001 0 0 0 0 245620913.21938133 213128777.74716938 0 213128777.74716938 108862755.28336763 0 0 0 0 -1276149.9880150296 1495021.9945872556 0 1495021.9945872556 -1265100.5151768348 0 0 0 0 -337368587.7065897 -114150334.88656195 0 -114150334.88656195 -91101269.899538219 0 0 0 0 -291298752.36291504 -26856624.893462837 0 -26856624.893462837 -48122467.612461708 0 0 0 0 -186412308.19903183 -89234775.339715078 0 -89234775.339715078 -107069607.191697 0 0 0 0 -219927873.2753582 24681269.858744465 0 24681269.858744465 78708991.700538278 0 0 0 0 -135329486.58114624 37132658.950742841 0 37132658.950742841 11002475.053268015 0 0 0 0 -219560409.2215786 -7768639.2255963571 0 -7768639.2255963571 172581086.08986571 0 0 0 0 -196901285.16349792 -33773938.353395313 0 -33773938.353395313 275102077.69935554 0 0 0 0 -137307666.52964401 -134837777.7331844 0 -134837777.7331844 309722144.42628062 0 0 0 0 -167869854.60185242 43106202.187531009 0 43106202.187531009 84999553.945853829 0 0 0 0 -209990399.44828033 -49865198.496286631 0 -49865198.496286631 137860084.85493875 0 0 0 0 -142201323.59584045 -19249203.301229119 0 -19249203.301229119 149758904.28279454 0 0 0 0 -185226675.63383102 2739630.9812689126 0 2739630.9812689126 246720843.63386679 0 0 0 0 -131078680.8731041 51441065.566876352 0 51441065.566876352 198193866.6562885 0 0 0 0 -123037315.84589386 -19392272.140539527 0 -19392272.140539527 144155081.49350363 0 0 0 0 8143761.2496681213 92989251.297652721 0 92989251.297652721 64796907.977529764 0 0 0 0 -229380895.69684219 74691193.501199186 0 74691193.501199186 67766943.984539866 0 0 0 0 -131477012.52061462 59071926.450094789 0 59071926.450094789 -44607598.083731771 0 0 0 0 -138964280.88766479 252286912.83575535 0 252286912.83575535 -53710910.731288135 0 0 0 0 -305010640.96568108 221864515.06911826 0 221864515.06911826 -46216224.59281826 0 0 0 0 -223485864.43324149 150417121.31171969 0 150417121.31171969 125777114.31608677 0 0 0 0 -67939354.165164948 285556358.69515955 0 285556358.69515955 239119904.31382525 0 0 0 0 83919135.231311798 28098674.201360822 0 28098674.201360822 116440909.35221732 0 0 0 0 26440824.59462738 102694966.7082094 0 102694966.7082094 340546026.89857304 0 0 0 0 -778985.19297175482 -118559.83045536838 0 -118559.83045536838 516640.88015772589 0 0 0 0 171495106.11720276 136758793.68264985 0 136758793.68264985 33737286.092539072 0 0 0 0 -606666.40530318767 191856.40527086426 0 191856.40527086426 568646.50578382483 0 0 0 0 -28421030.475410461 162471318.37747896 0 162471318.37747896 392173752.59537768 0 0 0 0 -24228413.959751129 -50110782.93809098 0 -50110782.93809098 294708839.26569259 0 0 0 0 -88952476.125061035 43644033.459113538 0 43644033.459113538 160988751.31313682 0 0 0 0 6608258.1797246933 77190043.181524187 0 77190043.181524187 140533741.14861178 0 0 0 0 -6327682.8929176331 24844900.328590259 0 24844900.328590259 25324462.412836492 0 0 0 0 -4268362.0300331116 767261.22783359885 0 767261.22783359885 108578.02863764763 0 0 0 0 -2288010.4359436873 1722211.3386537898 0 1722211.3386537898 604780.95539487433 0 0 0 0 13119229.254508972 -4277513.7555415332 0 -4277513.7555415332 29911693.415343516 0 0 0 0 -3407155.6177839097 -859235.11444496363 0 -859235.11444496363 1324528.510746951 0 0 0 0 -3340481.9485397339 671916.86489373446 0 671916.86489373446 118180.33753114939 0 0 0 0 -3743079.6356182098 885431.02002641559 0 885431.02002641559 1346863.4892034531 0 0 0 0 -5643934.8268470764 -10335838.104497015 0 -10335838.104497015 20934393.178708911 0 0 0 0 -2308973.0551407076 1621138.6679757703 0 1621138.6679757703 749486.29328440689 0 0 0 0 -2709772.4591789246 1398580.6275885105 0 1398580.6275885105 1408575.083334595 0 0 0 0 -3144965.00545609 1835621.2524404339 0 1835621.2524404339 2883018.946092844 0 0 0 0 -4210644.2290115356 1176969.980692476 0 1176969.980692476 4007422.4084383249 0 0 0 0 -1822696.5058650067 -171448.4255878171 0 -171448.4255878171 1219177.3294317368 0 0 0 0 -316310472.03730011 9993764.3589568734 0 9993764.3589568734 -53402007.999069452 0 0 0 0 -266587449.05285263 -57867912.557012737 0 -57867912.557012737 -15262462.697254658 0 0 0 0 -6722923.1277160645 3056386.865622744 0 3056386.865622744 -4434298.1440162212 0 0 0 0 -2555331.6510667764 1717389.5607444691 0 1717389.5607444691 1223324.3920340384 0 0 0 0 -3185135.1959270239 1098532.6295315791 0 1098532.6295315791 1974096.162512064 0 0 0 0 6487076.0525856018 5068160.6405166388 0 5068160.6405166388 -4253167.8808638901 0 0 0 0 -907630.08819768298 97380.057304133661 0 97380.057304133661 1089510.6506481222 0 0 0 0 -566145532.50256348 69973863.249958664 0 69973863.249958664 205708017.09667325 0 0 0 0 -2597673.6699829102 -4825168.3261976242 0 -4825168.3261976242 38027751.886082977 0 0 0 0 -14361706.847473145 -6522151.8302978277 0 -6522151.8302978277 38793897.0117625 0 0 0 0 -18805994.364852905 -5676714.9464212656 0 -5676714.9464212656 155153505.38962996 0 0 0 0 -102652392.82300568 -16727467.16372633 0 -16727467.16372633 154260735.83078125 0 0 0 0 -71883706.378807068 -81492072.389574289 0 -81492072.389574289 233102734.35803801 0 0 0 0 -87644525.646413803 26718136.660462961 0 26718136.660462961 242234414.52358902 0 0 0 0 -243770.67558588553 144794.27507271245 0 144794.27507271245 473802.60161793401 0 0 0 0 163257195.02687836 -215544896.63583305 0 -215544896.63583305 173859458.32482514 0 0 0 0 58176519.577217102 -85447498.809022009 0 -85447498.809022009 91558201.458712012 0 0 0 0 -60389966.907234192 -74953602.482677758 0 -74953602.482677758 226444388.4303056 0 0 0 0 -63024665.392844796 -195617070.35938758 0 -195617070.35938758 310969916.21726227 0 0 0 0 -202147822.89271927 80860166.262040138 0 80860166.262040138 127328943.85164285 0 0 0 0 -390286630.5628891 329679803.457421 0 329679803.457421 149124196.30492765 0 0 0 0 -115060058.86374664 347124811.69562596 0 347124811.69562596 89057799.009680167 0 0 0 0 -2369957.260482939 3039794.0341621237 0 3039794.0341621237 -2387825.9745121198 0 0 0 0 13177296.922131538 71823375.483873188 0 71823375.483873188 55157898.595796108 0 0 0 0 -251402600.6799469 100208755.53435504 0 100208755.53435504 -193371313.61391175 0 0 0 0 -251538515.53067017 114153049.02344942 0 114153049.02344942 431257070.39774585 0 0 0 0 -305436431.4281311 34759849.347500324 0 34759849.347500324 133159077.96312666 0 0 0 0 -304677781.07882309 -34114575.993626714 0 -34114575.993626714 -12953252.892202139 0 0 0 0 159120936.65006638 -155256244.23233068 0 -155256244.23233068 109519814.54950202 0 0 0 0 536013519.5743742 310447567.2309736 0 310447567.2309736 14586554.044625759 0 0 0 0 449932888.89858723 799348878.57039714 0 799348878.57039714 -4978640.4510941505 0 0 0 0 -531693641.45809937 219625534.60493004 0 219625534.60493004 87985676.47054708 0 0 0 0 -225653096.23739243 815076227.02867854 0 815076227.02867854 200513064.38869739 0 0 0 0 -296316373.54147339 40372645.797775149 0 40372645.797775149 -9749276.6528782845 0 0 0 0 -320485338.1053772 139383693.5150075 0 139383693.5150075 -297071487.70635056 0 0 0 0 -273434630.93274307 -109741790.03277284 0 -109741790.03277284 -136951442.7034564 0 0 0 0 -1052936.1838871688 289701.48311169411 0 289701.48311169411 139032.25586211827 0 0 0 0 -820533738.56460953 -254764251.86672986 0 -254764251.86672986 305359951.46553516 0 0 0 0 -691268730.93451881 -279991738.92365146 0 -279991738.92365146 283563611.44449711 0 0 0 0 52576204.766212463 -49665017.772565603 0 -49665017.772565603 64938652.84717083 0 0 0 0 -1022154577.9735527 -235563199.67927969 0 -235563199.67927969 328656411.53820634 0 0 0 0 701911846.35172844 -5270376.4140303135 0 -5270376.4140303135 -375914370.25479954 0 0 0 0 -875769701.76586914 -179820708.6392746 0 -179820708.6392746 221580723.601614 0 0 0 0 -201347001.5371933 51787894.695224285 0 51787894.695224285 -22892804.083109856 0 0 0 0 -362525302.24401855 -478889977.41777349 0 -478889977.41777349 -669380016.0649848 0 0 0 0 -1815299.5285815299 2840590.3667831579 0 2840590.3667831579 -3252005.9981602104 0 0 0 0 -95518173.086559296 178444939.23279428 0 178444939.23279428 -292018590.38943911 0 0 0 0 -463299817.21688461 252498611.37111712 0 252498611.37111712 -3348219.3313546181 0 0 0 0 -207268434.71387118 198900748.9563641 0 198900748.9563641 84494462.262138367 0 0 0 0 -209394092.98465598 122234236.2360983 0 122234236.2360983 63021524.270687103 0 0 0 0 -249668593.52456284 148982620.09463072 0 148982620.09463072 113584827.23128533 0 0 0 0 -240127825.05143356 -48600412.786618948 0 -48600412.786618948 52460108.934854507 0 0 0 0 -150336242.00735855 58724975.420600176 0 58724975.420600176 90901032.300777435 0 0 0 0 -11607283.499853134 25526399.053319335 0 25526399.053319335 61165333.70684433 0 0 0 0 -164769921.31551361 133595981.66333866 0 133595981.66333866 107262339.37494588 0 0 0 0 -157177905.50147152 195420030.68023825 0 195420030.68023825 136498592.20230865 0 0 0 0 -130013450.81723404 126177631.10054803 0 126177631.10054803 85408098.315087795 0 0 0 0 -93304626.68810457 118902079.01846127 0 118902079.01846127 78081371.190988541 0 0 0 0 -85284105.119132996 94551377.634962559 0 94551377.634962559 30439582.750808954 0 0 0 0 -86991567.855293274 37406553.751033545 0 37406553.751033545 51832090.476028204 0 0 0 0 -79839441.762060165 44468265.648210406 0 44468265.648210406 16168180.978200912 0 0 0 0 -78408922.836748123 60631823.02357471 0 60631823.02357471 92521277.505609512 0 0 0 0 -73933231.922745705 66554771.055522323 0 66554771.055522323 94149415.835884571 0 0 0 0 -32508117.061103821 85315820.830249786 0 85315820.830249786 80735323.616781712 0 0 0 0 94656859.543022156 61371425.169620752 0 61371425.169620752 58712672.599022388 0 0 0 0 -19496052.51574564 50452491.604463637 0 50452491.604463637 71636098.298198223 0 0 0 0 -2002227.25313308 2304756.1390702194 0 2304756.1390702194 -1508692.6977308581 0 0 0 0 -59164387.707244873 -304882313.5854063 0 -304882313.5854063 50460619.840798795 0 0 0 0 133489620.91822052 156992475.9411149 0 156992475.9411149 86594490.811132431 0 0 0 0 -28865306.446699142 82783842.00040102 0 82783842.00040102 118366593.00911927 0 0 0 0 -29235251.30440712 59909451.197876096 0 59909451.197876096 60494165.448196411 0 0 0 0 34854088.572872162 66010657.446394563 0 66010657.446394563 71769362.122030735 0 0 0 0 -47058543.984205246 79034026.083342075 0 79034026.083342075 122427744.26705694 0 0 0 0 25253044.446371078 97550373.799514771 0 97550373.799514771 139577709.77128482 0 0 0 0 -120679936.86114693 11024202.82222259 0 11024202.82222259 114360480.3377142 0 0 0 0 -104885212.9200902 -36274107.548042417 0 -36274107.548042417 41515888.913516998 0 0 0 0 -123307658.43698502 -36961488.209050953 0 -36961488.209050953 16062708.706800699 0 0 0 0 -96683254.53704834 7076732.9586501122 0 7076732.9586501122 73339201.594928145 0 0 0 0 -78028193.079408646 8758896.019090116 0 8758896.019090116 55154030.869382858 0 0 0 0 -141219085.33071136 -59427128.901424885 0 -59427128.901424885 -74967356.121718407 0 0 0 0 -121022750.66200256 -76040844.414142966 0 -76040844.414142966 -70996464.548432827 0 0 0 0 -104506744.79857445 -41520723.235539496 0 -41520723.235539496 -11341589.259194136 0 0 0 0 -153045543.08784103 -104824418.88523185 0 -104824418.88523185 10968190.006523967 0 0 0 0 -130695811.78899002 -129070374.89111286 0 -129070374.89111286 -54605201.395569086 0 0 0 0 -318448708.0207634 -93816847.782678962 0 -93816847.782678962 -44283580.114033461 0 0 0 0 -186639527.29724312 -16721659.110416412 0 -16721659.110416412 -6202345.8545300364 0 0 0 0 -284616756.64494371 58191671.992333472 0 58191671.992333472 23146352.81248045 0 0 0 0 -439071303.89010262 -39875848.758756995 0 -39875848.758756995 -103513540.92492819 0 0 0 0 -419226313.50992393 -145348200.82289863 0 -145348200.82289863 -130389394.47961998 0 0 0 0 -587983054.1173439 -84429106.237781525 0 -84429106.237781525 -38355782.15217936 0 0 0 0 -265367551.91228867 -38276500.080233097 0 -38276500.080233097 -69744450.594911695 0 0 0 0 -182307993.69716454 -114407263.57763159 0 -114407263.57763159 -143550692.74544048 0 0 0 0 -193133754.48077011 -97555378.04294157 0 -97555378.04294157 -320472117.4567318 0 0 0 0 -154191064.16306686 -9839008.6311087608 0 -9839008.6311087608 -168021888.23760521 0 0 0 0 -539088334.35753632 73458164.740579367 0 73458164.740579367 -333711345.92205381 0 0 0 0 -347855692.18265343 -88907751.841846704 0 -88907751.841846704 -344834246.3209548 0 0 0 0 -250945377.0648365 57347789.117327929 0 57347789.117327929 -215950691.64329875 0 0 0 0 -170986316.45026779 -15016539.879339337 0 -15016539.879339337 -161378706.49358892 0 0 0 0 -34866096.314235687 78560168.391045809 0 78560168.391045809 -167599830.29242849 0 0 0 0 -66704224.236557007 74923980.043802977 0 74923980.043802977 -88170429.272908211 0 0 0 0 -124227616.72631073 -41501485.228404045 0 -41501485.228404045 -146961858.79754925 0 0 0 0 -73563148.920772552 20706789.073010445 0 20706789.073010445 -85210204.438879937 0 0 0 0 -90426382.546330452 17580762.468014538 0 17580762.468014538 -51054179.881980896 0 0 0 0 -42627221.135406494 122832099.65850401 0 122832099.65850401 -27308159.847993374 0 0 0 0 -93259175.9899652 126803267.66726682 0 126803267.66726682 3907778.2620868683 0 0 0 0 -47724191.790411949 180121581.30905753 0 180121581.30905753 31809683.323231697 0 0 0 0 -41937570.699825287 202576183.50181293 0 202576183.50181293 55254047.10176158 0 0 0 0 151201851.8661375 72589826.710624829 0 72589826.710624829 19408188.016275883 0 0 0 0 -68324119.517518044 83902101.242516041 0 83902101.242516041 19779600.101832867 0 0 0 0 30084583.948421478 179096057.9029429 0 179096057.9029429 -67527300.572149932 0 0 0 0 118389475.65506363 281646610.12237835 0 281646610.12237835 91295125.235263586 0 0 0 0 -110099155.07785034 154436933.39715099 0 154436933.39715099 92070258.12050271 0 0 0 0 -97353656.101560593 217178568.78053093 0 217178568.78053093 318635141.73224592 0 0 0 0 -6899675.3577461243 43567824.805758238 0 43567824.805758238 -87028511.416293859 0 0 0 0 -18099454.846700668 30547161.073860407 0 30547161.073860407 24369492.782236099 0 0 0 0 -28688133.331424713 -21318136.757231712 0 -21318136.757231712 109161207.17905521 0 0 0 0 -26120821.828754425 -28304974.924268246 0 -28304974.924268246 11937039.78856039 0 0 0 0 -257824.25856384076 -245059.87834714353 0 -245059.87834714353 717051.6146671779 0 0 0 0 -1258772.7444009781 8994694.9183818102 0 8994694.9183818102 5712202.4739317894 0 0 0 0 -2345106.1070340611 847309.30794826709 0 847309.30794826709 471441.27201462624 0 0 0 0 504499.75117492676 9778751.3816450834 0 9778751.3816450834 -9579632.4924545288 0 0 0 0 38349320.343421936 180146586.78701091 0 180146586.78701091 249009119.35188317 0 0 0 0 38290129.531655312 314567267.99424398 0 314567267.99424398 -68176844.722648144 0 0 0 0 -518261.64531840943 16556.819585685153 0 16556.819585685153 234970.53605064721 0 0 0 0 -307815848.05716133 159188722.20604163 0 159188722.20604163 -80220641.08438307 0 0 0 0 -51508242.628853798 -95259347.853746906 0 -95259347.853746906 268629966.71191907 0 0 0 0 149035.24550376832 80183.289823652245 0 80183.289823652245 105382.76825612187 0 0 0 0 -3089285.8613289073 716530.96913020476 0 716530.96913020476 1270540.9608568882 0 0 0 0 17743731.446662903 113808849.99070978 0 113808849.99070978 224586184.88336968 0 0 0 0 -1317884.4340946171 -699022.96899002697 0 -699022.96899002697 2605868.9868272026 0 0 0 0 -15103284.105728149 1468161.8916702271 0 1468161.8916702271 8887869.0027605295 0 0 0 0 184732976.01445961 347349889.16560769 0 347349889.16560769 313721895.64354539 0 0 0 0 -86856994.119808197 66741424.79545927 0 66741424.79545927 212243012.75536913 0 0 0 0 -399764858.58219719 -87155661.473646045 0 -87155661.473646045 274034798.4041779 0 0 0 0 -106115557.37130165 86982606.289952278 0 86982606.289952278 209998442.12606287 0 0 0 0 -419817644.06913233 -73064167.774727419 0 -73064167.774727419 184402106.39300537 0 0 0 0 -433387679.93471146 39844440.224371672 0 39844440.224371672 256960362.14578485 0 0 0 0 -116683465.66170406 106139701.05627084 0 106139701.05627084 45130554.289445877 0 0 0 0 -143472266.88173294 67829897.228083849 0 67829897.228083849 328544624.47146517 0 0 0 0 -315435704.13759613 38412347.483932734 0 38412347.483932734 53556750.069163799 0 0 0 0 -53308700.10118866 134593882.80341291 0 134593882.80341291 -167173230.65745991 0 0 0 0 -441717638.12658882 219461089.869964 0 219461089.869964 -203724853.49496031 0 0 0 0 -553792502.03788376 28053192.405142307 0 28053192.405142307 110416803.89577579 0 0 0 0 -702375168.02576065 -73488393.650631428 0 -73488393.650631428 70639879.729577661 0 0 0 0 -548454681.00824833 -235178446.69202965 0 -235178446.69202965 43779745.594876528 0 0 0 0 -674249039.04922867 -231544781.35114527 0 -231544781.35114527 45972310.805812716 0 0 0 0 -555761419.58278465 -71340947.531217933 0 -71340947.531217933 251596890.90307879 0 0 0 0 -718804279.98015213 -80130155.075329721 0 -80130155.075329721 256137872.55327797 0 0 0 0 -543057361.70215225 -3428245.2841722965 0 -3428245.2841722965 295928959.62425077 0 0 0 0 -493642829.74314499 -119275358.65331727 0 -119275358.65331727 200270858.16308343 0 0 0 0 -568735785.08589554 -155913794.76965892 0 -155913794.76965892 267237879.3603394 0 0 0 0 -584382983.01944733 -112028370.55638242 0 -112028370.55638242 201594471.45046747 0 0 0 0 -425486202.68282318 -241841959.40510058 0 -241841959.40510058 127381891.7660607 0 0 0 0 -542962215.25408745 -169499684.83607113 0 -169499684.83607113 170366943.11928844 0 0 0 0 -397507734.47099686 -152055785.56497002 0 -152055785.56497002 2773842.4463363364 0 0 0 0 -415832319.3613205 -95627916.202475667 0 -95627916.202475667 63223044.376828745 0 0 0 0 -495932592.15657425 -71483579.209687859 0 -71483579.209687859 125014303.38235825 0 0 0 0 -512912133.09637642 3628112.4591367543 0 3628112.4591367543 92470933.885059118 0 0 0 0 -434066491.83192444 -96927963.342042118 0 -96927963.342042118 99127422.843751252 0 0 0 0 -1035306326.4384918 -191906797.90874854 0 -191906797.90874854 525363688.46141893 0 0 0 0 -1570600109.0517998 -556248062.39375949 0 -556248062.39375949 388636837.35215509 0 0 0 0 -472165815.79306984 -324303043.8736769 0 -324303043.8736769 3667334.0157245398 0 0 0 0 -528684112.1147058 137492889.86082062 0 137492889.86082062 598492923.57818925 0 0 0 0 -557291483.40731049 -199767914.96553993 0 -199767914.96553993 215053139.66061878 0 0 0 0 -1574536139.6624489 -231569394.83480909 0 -231569394.83480909 175711915.79460886 0 0 0 0 -2172224.5677947477 142665.35152288154 0 142665.35152288154 1035692.0189168553 0 0 0 0 75176207.494937897 268741145.67145312 0 268741145.67145312 294401943.50016117 0 0 0 0 -1571817937.1662178 -233099758.62848482 0 -233099758.62848482 176483560.97048691 0 0 0 0 -389911739.27498817 -92024640.183718324 0 -92024640.183718324 158321954.3787868 0 0 0 0 -385252849.33310127 -35099347.896180868 0 -35099347.896180868 94496059.3284657 0 0 0 0 -2102953.1494396301 -334183.0587555198 0 -334183.0587555198 1701493.5317777025 0 0 0 0 -213649862.80654144 315591216.13664985 0 315591216.13664985 -284049697.19845903 0 0 0 0 -257785967.80462265 47966988.006949529 0 47966988.006949529 -17622744.745252073 0 0 0 0 -3646066.9448544253 6384423.8891553786 0 6384423.8891553786 -199488.55764159461 0 0 0 0 113130626.97454834 54856285.355800986 0 54856285.355800986 -76012782.574644327 0 0 0 0 -27114507.923641205 -39692905.252525091 0 -39692905.252525091 -6898384.6758085638 0 0 0 0 3893335.9760017395 19487246.778310657 0 19487246.778310657 28155701.417221248 0 0 0 0 -3013491.807115532 752383.1661721589 0 752383.1661721589 -623142.32464862603 0 0 0 0 -1552706919.3980589 126976347.77205776 0 126976347.77205776 -9702060.9082566444 0 0 0 0 -69812821.223495483 4111636.6027130485 0 4111636.6027130485 39080405.505164862 0 0 0 0 -10696300.959884644 3829752.2392932177 0 3829752.2392932177 11531223.591236591 0 0 0 0 -19227447.532985687 24175014.761614442 0 24175014.761614442 -35947221.301646948 0 0 0 0 -2035434.5517742583 -398731.20932447352 0 -398731.20932447352 2290939.9623901155 0 0 0 0 -1507382320.8458233 -326938757.83535248 0 -326938757.83535248 -70769425.997187912 0 0 0 0 -726466.40060216188 2374839.1439483697 0 2374839.1439483697 1931790.5985098132 0 0 0 0 -5013639.0648701126 1716951.7278206167 0 1716951.7278206167 2136354.1465586005 0 0 0 0 -34277196.684614182 -8446257.1874599457 0 -8446257.1874599457 29792568.084252834 0 0 0 0 -103442830.18746948 168063653.68401122 0 168063653.68401122 -143920912.19223452 0 0 0 0 -133237396.33788681 91467139.334635258 0 91467139.334635258 -45913200.954971313 0 0 0 0 30938577.494506836 69100471.137879372 0 69100471.137879372 -109040155.70226717 0 0 0 0 -4406802.9323669877 2082996.9542840235 0 2082996.9542840235 1919094.0725703319 0 0 0 0 -129166066.48231888 29524982.239991665 0 29524982.239991665 10926138.423764229 0 0 0 0 -4970450.4507713318 -4495511.1605400145 0 -4495511.1605400145 6704737.6559655666 0 0 0 0 6427654.1445713043 -10014756.97570771 0 -10014756.97570771 9371156.1448974609 0 0 0 0 -2523654.0407725666 -1130208.4067531694 0 -1130208.4067531694 3116159.2995866365 0 0 0 0 -1060983487.3633156 -502732159.49207616 0 -502732159.49207616 -11375672.396075726 0 0 0 0 -125741949.24794769 -105998742.77307701 0 -105998742.77307701 -235866512.31732273 0 0 0 0 -490982066.67305756 -572409760.93587923 0 -572409760.93587923 -501623394.53702879 0 0 0 0 -1587124.6323322169 -222488.86928121373 0 -222488.86928121373 503930.76582861156 0 0 0 0 -1115155821.1189823 284908861.68135571 0 284908861.68135571 -237504791.45476866 0 0 0 0 -661406870.00338745 -216391758.37066841 0 -216391758.37066841 -922737026.8057189 0 0 0 0 -1318104861.4884186 -346246705.68696523 0 -346246705.68696523 -282070586.21238756 0 0 0 0 -697559665.56380081 30590746.99728775 0 30590746.99728775 -75293924.506931305 0 0 0 0 -736744352.96352386 -284331277.42294836 0 -284331277.42294836 -295402531.97965997 0 0 0 0 113143156.36334991 28070703.190711975 0 28070703.190711975 -301475988.25796199 0 0 0 0 -567032.13157416414 284512.57146183634 0 284512.57146183634 477392.38710353151 0 0 0 0 -358538331.46420288 499830862.02388573 0 499830862.02388573 -698703325.21526241 0 0 0 0 -1451375513.1296358 493702951.63351017 0 493702951.63351017 -158651426.3425312 0 0 0 0 -486979364.74033356 221272409.58900833 0 221272409.58900833 -106368156.37776089 0 0 0 0 -364864477.64340973 321314233.54616499 0 321314233.54616499 -213844346.31408346 0 0 0 0 -496377983.27774048 215701370.78953362 0 215701370.78953362 -54822314.444032669 0 0 0 0 -556895458.57954788 186772121.68342972 0 186772121.68342972 76246464.747899428 0 0 0 0 -484420996.85736465 274725852.13002825 0 274725852.13002825 -51154138.476108819 0 0 0 0 -414016794.57910919 201678895.76923251 0 201678895.76923251 -4449346.5860118866 0 0 0 0 -489004604.43134308 260183064.96445704 0 260183064.96445704 -94978435.370287299 0 0 0 0 -576716177.9349432 179435045.58840811 0 179435045.58840811 174803426.3692224 0 0 0 0 -973522656.12812424 141768505.5281992 0 141768505.5281992 72626569.879021645 0 0 0 0 -666008127.77361345 141307583.75809532 0 141307583.75809532 139475505.73307419 0 0 0 0 -508170890.25283813 139281944.17027974 0 139281944.17027974 105746241.11124942 0 0 0 0 -478937637.41817474 168979928.55566192 0 168979928.55566192 132541069.29333568 0 0 0 0 -521215741.5219326 241775606.70449054 0 241775606.70449054 172803055.41927886 0 0 0 0 -532104810.54858875 249974498.34623981 0 249974498.34623981 203500801.03035116 0 0 0 0 -505194068.13865662 199819068.18915033 0 199819068.18915033 272522451.59038079 0 0 0 0 -545923705.50667953 165237691.58832574 0 165237691.58832574 262947595.12055874 0 0 0 0 -312940405.8727951 52006544.335465908 0 52006544.335465908 259544123.22546762 0 0 0 0 14970757.070964813 -115636527.39444721 0 -115636527.39444721 156357003.21848631 0 0 0 0 -675641.43406343949 -414869.67275893176 0 -414869.67275893176 775772.77520239993 0 0 0 0 -312716992.25992584 -117688363.50200868 0 -117688363.50200868 598302088.87905896 0 0 0 0 -1625941703.0118237 -80578184.176168248 0 -80578184.176168248 376412120.32548618 0 0 0 0 -133705028.22882462 37060869.89709568 0 37060869.89709568 4971944.9076633453 0 0 0 0 -1574277030.874136 -165654985.84959638 0 -165654985.84959638 -142344273.30683106 0 0 0 0 -58989193.588169098 15358154.605760574 0 15358154.605760574 521887.19334125519 0 0 0 0 -95503001.922584534 103817002.05390453 0 103817002.05390453 -64178157.041712284 0 0 0 0 -263804050.46572876 155947367.7771399 0 155947367.7771399 9002114.668050766 0 0 0 0 -511519785.78931046 223587593.47835124 0 223587593.47835124 118275911.94184446 0 0 0 0 -134368775.66374207 28827218.168715715 0 28827218.168715715 77537775.04383707 0 0 0 0 -266918770.33878529 106726620.1607084 0 106726620.1607084 33843833.086039543 0 0 0 0 -1249478877.0148582 270875862.66329432 0 270875862.66329432 -26387947.978871763 0 0 0 0 -1306967543.1727753 123062450.00281233 0 123062450.00281233 159595253.63860235 0 0 0 0 -1574597510.0048409 -65032718.726557516 0 -65032718.726557516 294947201.93246377 0 0 0 0 -1181975375.5467033 66310957.562614769 0 66310957.562614769 160591194.79129499 0 0 0 0 -1189625439.6562538 123377949.46671972 0 123377949.46671972 117618701.21651107 0 0 0 0 -36046641.984071732 60364337.089674011 0 60364337.089674011 6915426.1827255487 0 0 0 0 -1082297084.4196091 131925492.73177069 0 131925492.73177069 87991611.210882291 0 0 0 0 20182649.824951172 16880538.978414118 0 16880538.978414118 -2461775.8069031835 0 0 0 0 -441343.03746151458 324410.41326084547 0 324410.41326084547 166733.18499670582 0 0 0 0 -11292670.839439392 9745294.3380493522 0 9745294.3380493522 3707871.1487987041 0 0 0 0 -15492387.705383301 14801095.038503826 0 14801095.038503826 -2140772.1571367979 0 0 0 0 -1251123.4854188245 907079.38229977898 0 907079.38229977898 450096.13794000651 0 0 0 0 -29715527.276069641 9635298.6972599924 0 9635298.6972599924 7478335.8818006516 0 0 0 0 -27314314.450415611 -79034.493753880262 0 -79034.493753880262 35949113.228936315 0 0 0 0 -7886684.1231929101 -3568772.6700188145 0 -3568772.6700188145 393903.75649469078 0 0 0 0 -6078059.1844291687 -6685650.9737975597 0 -6685650.9737975597 17934035.031590998 0 0 0 0 -16600415.600017548 -17133333.07115379 0 -17133333.07115379 10395381.020028114 0 0 0 0 -11160610.294055939 7126944.829374969 0 7126944.829374969 471998.90377688408 0 0 0 0 -1309642193.9563293 413468323.08534384 0 413468323.08534384 9698380.9378063232 0 0 0 0 -1127447342.0053558 306679873.20449686 0 306679873.20449686 -21286839.593350053 0 0 0 0 -1574472822.0683823 298027151.49369872 0 298027151.49369872 133615431.18924034 0 0 0 0 -1575874641.5679588 497348504.28695399 0 497348504.28695399 53587926.33631523 0 0 0 0 -1347806858.9907417 331158656.44327116 0 331158656.44327116 110382419.77018753 0 0 0 0 -1339859121.7392783 475226269.13230884 0 475226269.13230884 -317764652.2681278 0 0 0 0 -1276402980.2345896 836095290.61649871 0 836095290.61649871 -445466756.35721362 0 0 0 0 -2138667780.9073868 436084709.44921607 0 436084709.44921607 -310407691.49799114 0 0 0 0 -2530125.5856008362 1006501.4277341142 0 1006501.4277341142 1056442.1823844081 0 0 0 0 -695266286.14179993 359021893.38674748 0 359021893.38674748 -218008813.95413804 0 0 0 0 -49917633.942539215 -107931056.46407366 0 -107931056.46407366 -280087277.83010858 0 0 0 0 429839537.14759254 -118030933.0094496 0 -118030933.0094496 388965487.9742713 0 0 0 0 767607790.92795181 -167746730.25576085 0 -167746730.25576085 -249604068.24238959 0 0 0 0 -949189.68811916374 -168821.64746837504 0 -168821.64746837504 -82888.874997319421 0 0 0 0 414515315.37727356 -642535600.07757986 0 -642535600.07757986 -669478104.0679611 0 0 0 0 -1858282722.871151 -538904702.63565719 0 -538904702.63565719 302017189.21511334 0 0 0 0 -1572854301.1839886 -46933580.546436377 0 -46933580.546436377 -913999272.52556419 0 0 0 0 -1605359424.1785965 862312542.95849371 0 862312542.95849371 -441748230.75095856 0 0 0 0 -2135109.0693379827 -85569.481695640832 0 -85569.481695640832 115385.54422816166 0 0 0 0 -603618622.75071716 226416832.68466777 0 226416832.68466777 759197035.18578386 0 0 0 0 -849694067.45803833 -1008718786.6228591 0 -1008718786.6228591 -471895969.18882996 0 0 0 0 -92275551.452148438 -592383313.59556031 0 -592383313.59556031 -527029775.56412411 0 0 0 0 -108704.83648620732 -1400953.1721047568 0 -1400953.1721047568 -881132.31605467806 0 0 0 0 458022711.23673058 -20133620.557517663 0 -20133620.557517663 -205841120.22998178 0 0 0 0 232784945.16720772 336956239.02807522 0 336956239.02807522 338918716.18883491 0 0 0 0 -95761869.088066101 65248938.538390636 0 65248938.538390636 183825106.51048899 0 0 0 0 -272436166.30150604 -400777874.96411222 0 -400777874.96411222 -294673219.15980208 0 0 0 0 381460191.60889816 -163684508.59173954 0 -163684508.59173954 -337899825.6579082 0 0 0 0 -387472244.79921913 -321092328.2699632 0 -321092328.2699632 3565175.8037295341 0 0 0 0 33328982.825428009 -129482816.40708447 0 -129482816.40708447 -136921954.35996413 0 0 0 0 -312631155.19416046 -278048664.70988894 0 -278048664.70988894 -168952604.39853138 0 0 0 0 -1573162449.6986015 -918131002.51066458 0 -918131002.51066458 99683383.303091988 0 0 0 0 -780089435.84297562 -683839420.35155332 0 -683839420.35155332 -170001111.64001071 0 0 0 0 -1017524384.0613556 -501197459.1667375 0 -501197459.1667375 343452739.49739611 0 0 0 0 -165604768.13338852 -530426762.057082 0 -530426762.057082 -213171858.22862792 0 0 0 0 -328552780.44825745 -89345641.104835361 0 -89345641.104835361 -20027829.10254705 0 0 0 0 -369505096.80467224 1849436.6124088466 0 1849436.6124088466 77877874.810308278 0 0 0 0 -431113934.48305702 -87147960.041541666 0 -87147960.041541666 63489950.40190208 0 0 0 0 -435700728.04533768 -88669177.24832949 0 -88669177.24832949 62985535.585437715 0 0 0 0 -443586888.42361355 -68511959.601624966 0 -68511959.601624966 53488939.139813796 0 0 0 0 -217742992.2558136 -128619983.05278534 0 -128619983.05278534 -2753390.6522994041 0 0 0 0 -383903844.65832901 -49875788.760268167 0 -49875788.760268167 -11034002.376839042 0 0 0 0 -426818343.13097382 -78142158.505224109 0 -78142158.505224109 121187556.49621439 0 0 0 0 -235211272.32317352 -22094530.131557941 0 -22094530.131557941 -5979711.8505969048 0 0 0 0 -76975765.435379028 20844685.602047205 0 20844685.602047205 34447611.229555488 0 0 0 0 -270698038.53871536 -76124984.187826514 0 -76124984.187826514 -6714973.1925603151 0 0 0 0 -319072433.45320892 40493140.969168544 0 40493140.969168544 242081122.10146308 0 0 0 0 -342684769.71132278 -359438275.58008909 0 -359438275.58008909 216736785.40536422 0 0 0 0 -541419.00909950957 426438.22228370793 0 426438.22228370793 80862.043237519334 0 0 0 0 -635618651.44695282 -197876800.06818563 0 -197876800.06818563 3023633.9873120189 0 0 0 0 -469861765.92388535 7134535.3526965976 0 7134535.3526965976 -43929962.638307333 0 0 0 0 -187063287.24633026 118547114.69056422 0 118547114.69056422 -62012524.680733442 0 0 0 0 -343048558.36254883 -337916332.81510043 0 -337916332.81510043 -194375723.31876725 0 0 0 0 -343746770.167346 -298244247.78490734 0 -298244247.78490734 -261955886.13691068 0 0 0 0 -146699848.90584564 67982218.628288746 0 67982218.628288746 -85124896.498220682 0 0 0 0 -343229391.2092247 -163873144.05472714 0 -163873144.05472714 633455662.30880857 0 0 0 0 546607228.42579651 -389611501.82776111 0 -389611501.82776111 -227155990.92175138 0 0 0 0 -506258.17341648415 -980562.4303943438 0 -980562.4303943438 -578236.05738909787 0 0 0 0 -717704982.04585266 -366937093.45810008 0 -366937093.45810008 305077264.54505491 0 0 0 0 -161875952.0398407 -707267485.00438356 0 -707267485.00438356 -179937916.81745505 0 0 0 0 -138535458.49983597 -619784393.65663815 0 -619784393.65663815 504367074.14856243 0 0 0 0 -7096745.1527897269 -3397329.9184721024 0 -3397329.9184721024 -87215.009747726494 0 0 0 0 -14107063.687829018 -579893.76015844941 0 -579893.76015844941 10575499.777749777 0 0 0 0 224221176.56674576 -442807582.72987175 0 -442807582.72987175 278139153.42377323 0 0 0 0 -107209051.43967056 90715609.439093947 0 90715609.439093947 589014190.0684917 0 0 0 0 -104549129.33222938 163245682.01434824 0 163245682.01434824 182913924.67275143 0 0 0 0 -138325054.05049372 -102996766.80330487 0 -102996766.80330487 179770489.09815741 0 0 0 0 172291714.86194611 103285817.75872159 0 103285817.75872159 294643435.78328633 0 0 0 0 -42925165.82804203 56759092.916090041 0 56759092.916090041 324254556.04587436 0 0 0 0 28885155.071102142 -19465288.943928719 0 -19465288.943928719 132713350.15458715 0 0 0 0 4942893.2433013916 -25127252.70625186 0 -25127252.70625186 282276518.0519433 0 0 0 0 -98143857.152450562 -123260024.14922544 0 -123260024.14922544 316780169.58331102 0 0 0 0 2164037.501625061 75122660.581606627 0 75122660.581606627 123104830.84278071 0 0 0 0 -82478664.018554211 22587522.271185633 0 22587522.271185633 91025759.009937525 0 0 0 0 3822127.9804229736 68540658.425078392 0 68540658.425078392 34333452.055339098 0 0 0 0 19238745.167256355 52615847.097328842 0 52615847.097328842 -35376541.94705534 0 0 0 0 -34171034.397979736 29476491.701976299 0 29476491.701976299 -5816233.8943607807 0 0 0 0 -5707222.5782623291 86822496.851567864 0 86822496.851567864 86027203.230416536 0 0 0 0 12886216.049793243 21373190.8756392 0 21373190.8756392 -27434516.136933565 0 0 0 0 2558054.2882041931 2071721.1778208613 0 2071721.1778208613 -17524846.85130477 0 0 0 0 3605764.4173927307 -7088622.1605062485 0 -7088622.1605062485 -111076542.69891208 0 0 0 0 -6552266.4939193726 12734439.103917003 0 12734439.103917003 -8648228.4016755223 0 0 0 0 3855575.5757446289 14313310.710906863 0 14313310.710906863 -40904207.947173581 0 0 0 0 4772647.1399507523 20269681.146893829 0 20269681.146893829 -3642923.3543686867 0 0 0 0 -2167522.5519733429 2569310.39419958 0 2569310.39419958 -6892892.901866436 0 0 0 0 -2931578.7649712563 5874822.0902377516 0 5874822.0902377516 -3758260.5366556644 0 0 0 0 -1266965.4344840087 2157369.444170109 0 2157369.444170109 956582.1101697319 0 0 0 0 90593790.707271576 10266210.835531831 0 10266210.835531831 4243006.3865815401 0 0 0 0 -198651897.60923386 -26046376.383409888 0 -26046376.383409888 -1648316.6380034685 0 0 0 0 -1748281.9512214661 3462768.8773768991 0 3462768.8773768991 -9600926.4929139614 0 0 0 0 -1638218.850065155 1381354.6112905312 0 1381354.6112905312 429835.32889210072 0 0 0 0 -2337021.9114780426 6446949.9738922715 0 6446949.9738922715 -12992410.937133074 0 0 0 0 -205105949.00252914 -4379539.5047185719 0 -4379539.5047185719 2470817.754689455 0 0 0 0 162086034.64754486 61771025.139125466 0 61771025.139125466 -51974793.307441473 0 0 0 0 148476626.34867287 192361915.6687429 0 192361915.6687429 -351768607.85163784 0 0 0 0 197646804.96943951 64226037.598133385 0 64226037.598133385 -85873716.530051708 0 0 0 0 81050805.767425537 86187036.431309223 0 86187036.431309223 -20777826.649429798 0 0 0 0 -5025867.9460186958 4530219.0456278101 0 4530219.0456278101 206425.54202032089 0 0 0 0 363108375.27446085 34170500.137036368 0 34170500.137036368 -539324911.41062975 0 0 0 0 -1330873.3044973779 2058172.6779866777 0 2058172.6779866777 808049.02235441154 0 0 0 0 353640010.28161621 -349360136.03361201 0 -349360136.03361201 -39675111.915837027 0 0 0 0 28582455.886444092 -70322904.870341301 0 -70322904.870341301 -32081622.428063393 0 0 0 0 -167692.89188462868 831826.70783198718 0 831826.70783198718 -72227.806150461547 0 0 0 0 -13254068.204647064 5910818.4519422054 0 5910818.4519422054 253639.553685911 0 0 0 0 -16275448.505533218 7376196.9163774252 0 7376196.9163774252 10588552.975996733 0 0 0 0 -79971408.08653295 -35872661.002933659 0 -35872661.002933659 4043342.5483167171 0 0 0 0 54491376.06477356 134227661.70499179 0 134227661.70499179 226149606.22428617 0 0 0 0 64680.269142378122 259515.6175622195 0 259515.6175622195 -115754.45910804207 0 0 0 0 -27372417.260868073 -78249453.474754333 0 -78249453.474754333 136696546.4197222 0 0 0 0 52727883.423603058 -55809961.709593982 0 -55809961.709593982 282512003.85161668 0 0 0 0 4905275.9180421829 87430875.032555953 0 87430875.032555953 129832643.82246494 0 0 0 0 19718837.250892639 -38538460.133692503 0 -38538460.133692503 -66827656.011388302 0 0 0 0 -49635063.681564331 -24058548.624575019 0 -24058548.624575019 19476627.710688591 0 0 0 0 15828895.979036331 1672538.6961969137 0 1672538.6961969137 27525099.93209362 0 0 0 0 -21344253.661219597 -57402106.912087619 0 -57402106.912087619 52253088.4240942 0 0 0 0 -9413123.2233745158 -466159.85351983365 0 -466159.85351983365 1849682.9579766439 0 0 0 0 4012439.2567749023 -29830747.120041192 0 -29830747.120041192 24297181.054946601 0 0 0 0 1180988.1434389465 -340064.3830561816 0 -340064.3830561816 17358.656613010273 0 0 0 0 -11391172.571777344 17274677.606866598 0 17274677.606866598 19441963.781480551 0 0 0 0 -85432633.22902298 83080510.504249737 0 83080510.504249737 582949770.3693136 0 0 0 0 1448662.7996418718 -4248412.3705576658 0 -4248412.3705576658 662602.80492721614 0 0 0 0 -53512407.031478882 16184025.424886167 0 16184025.424886167 476043005.30373466 0 0 0 0 11710039.751038074 -38570911.63692072 0 -38570911.63692072 -349700.262362957 0 0 0 0 -10645795.130084742 -1778607.1261880426 0 -1778607.1261880426 1570043.808975351 0 0 0 0 -689960.92249546945 -2607770.927565543 0 -2607770.927565543 532859.1544895455 0 0 0 0 -72198144.004817963 -163471498.89075059 0 -163471498.89075059 644434971.21472096 0 0 0 0 -21898622.942672729 8221392.4766511917 0 8221392.4766511917 47385194.843921855 0 0 0 0 89670413.942138672 -114602619.95307815 0 -114602619.95307815 329504737.97031116 0 0 0 0 -24000626.65184021 6778697.3436726928 0 6778697.3436726928 24002233.880250156 0 0 0 0 -2677481.8903465271 -9072050.7528709471 0 -9072050.7528709471 35554769.650957942 0 0 0 0 -42219480.527809143 -8484204.6905776262 0 -8484204.6905776262 36192315.090899989 0 0 0 0 -20241980.429634094 -26443896.24063921 0 -26443896.24063921 47197286.978733957 0 0 0 0 -6376549.5486907959 -5956942.7528156638 0 -5956942.7528156638 35581148.298959881 0 0 0 0 -17686496.482368469 -26070161.423728764 0 -26070161.423728764 9691847.7871992588 0 0 0 0 -16188293.110992432 -12165637.697245598 0 -12165637.697245598 7723391.8531844057 0 0 0 0 -2312555.0017547607 -26977806.572866768 0 -26977806.572866768 -10048111.683539033 0 0 0 0 -87663729.569553375 -4507399.6294344068 0 -4507399.6294344068 22050031.236207083 0 0 0 0 -37934338.2123909 -43247796.399520636 0 -43247796.399520636 -36582819.261868954 0 0 0 0 -1693645.8265304565 2174800.2348373905 0 2174800.2348373905 -65786690.844010398 0 0 0 0 -2662803.8238525391 3888948.3980075195 0 3888948.3980075195 -15027957.649487115 0 0 0 0 4276225.1230659485 -8092737.8055947721 0 -8092737.8055947721 -2080319.6572256088 0 0 0 0 7411650.7633895874 -6965761.6457224488 0 -6965761.6457224488 -28273816.650665343 0 0 0 0 7529037.383266449 -6893726.5550146848 0 -6893726.5550146848 -8474288.2407912612 0 0 0 0 6895056.7302627563 -9103024.0042054653 0 -9103024.0042054653 -2532943.3173374534 0 0 0 0 5078927.7546796799 -13487332.022349328 0 -13487332.022349328 7363588.7666202784 0 0 0 0 -4661445.1314163208 -14844513.478093505 0 -14844513.478093505 19514514.221696347 0 0 0 0 -6249122.3565246053 2066646.13206001 0 2066646.13206001 1883498.5299248195 0 0 0 0 31383061.968528748 -66022726.800451279 0 -66022726.800451279 91746407.977443218 0 0 0 0 39313487.793251038 -61175656.994180679 0 -61175656.994180679 90121047.654934168 0 0 0 0 31950800.652008057 -72561184.596113205 0 -72561184.596113205 86585343.945084333 0 0 0 0 17249476.386756897 -40895541.577629328 0 -40895541.577629328 82311474.059851408 0 0 0 0 -7824235.9115278944 732614.70968366414 0 732614.70968366414 1951306.8053695767 0 0 0 0 2710119.1919822693 -5452575.6194017828 0 -5452575.6194017828 1131365.5838811249 0 0 0 0 594663.71918678284 -771286.06809021533 0 -771286.06809021533 -4147180.6485381126 0 0 0 0 1352387.0587768555 -755101.0101365447 0 -755101.0101365447 -4736163.3541638851 0 0 0 0 381246.64638900757 -625177.30458331108 0 -625177.30458331108 -3296433.231731832 0 0 0 0 1739870.3043117523 644748.46662247926 0 644748.46662247926 -4049640.0611159801 0 0 0 0 -2224973.8669204712 122017.96053957939 0 122017.96053957939 -3331984.5966804624 0 0 0 0 -7039233.1690673828 2734530.0348615646 0 2734530.0348615646 -1930659.4420990944 0 0 0 0 -757117.63900756836 1141941.6769640446 0 1141941.6769640446 -3948090.6310630441 0 0 0 0 -1788989.6743469238 3424716.4936834574 0 3424716.4936834574 -2650626.1003715992 0 0 0 0 -922274.78216838837 3164277.8274912313 0 3164277.8274912313 -2644833.9338929653 0 0 0 0 -17907301.019348145 -44188085.254026413 0 -44188085.254026413 177326351.21598339 0 0 0 0 -3951581.498916626 4657742.6008724868 0 4657742.6008724868 -2023319.8506598473 0 0 0 0 -944956.31680297852 4883469.0110647082 0 4883469.0110647082 -2088529.5622492731 0 0 0 0 -3761302.208959315 3182561.9569230587 0 3182561.9569230587 1946773.1061274987 0 0 0 0 -4494598.7540206909 6211071.949649632 0 6211071.949649632 -2307172.8008859754 0 0 0 0 -4429080.3625030518 6270237.2108649611 0 6270237.2108649611 -2274024.7136757374 0 0 0 0 -456487.10993283615 530165.05380373262 0 530165.05380373262 -421373.2947120092 0 0 0 0 -21765422.605529785 -64649750.648540497 0 -64649750.648540497 173603925.38411713 0 0 0 0 -6039603.1649475098 2514496.0680480003 0 2514496.0680480003 -2067260.6760779619 0 0 0 0 -2127443.6446533203 2718419.0135155916 0 2718419.0135155916 -2090404.0535490513 0 0 0 0 -4130973.0569610596 4877674.9756076932 0 4877674.9756076932 -2058455.2082238197 0 0 0 0 -4755033.2107849121 5318511.2315404415 0 5318511.2315404415 -2086657.0278733969 0 0 0 0 -2903390.0736694336 5378289.205047071 0 5378289.205047071 -2157132.6032955945 0 0 0 0 -3542298.7027740479 5947135.9202916622 0 5947135.9202916622 -2295816.7614347935 0 0 0 0 -3393882.7979812622 6286953.749980092 0 6286953.749980092 -2114958.672008276 0 0 0 0 -3054353.8441162109 6370308.496545434 0 6370308.496545434 -2432971.9250768498 0 0 0 0 -3348392.3822631836 6064306.5594637394 0 6064306.5594637394 -1966636.6975577474 0 0 0 0 -3533670.0770874023 6602083.7495909929 0 6602083.7495909929 -2415431.8813129514 0 0 0 0 -4007198.4774780273 6633794.7975852489 0 6633794.7975852489 -2317476.3684619665 0 0 0 0 -3233212.2467346191 6242832.4564960003 0 6242832.4564960003 -2252463.6949446201 0 0 0 0 -3956291.3745422363 6428344.9596083462 0 6428344.9596083462 -2271355.8512964249 0 0 0 0 -29768051.547271729 -57753736.04598999 0 -57753736.04598999 169793728.61805099 0 0 0 0 -29873054.42880249 -62684638.296051025 0 -62684638.296051025 164026283.35216331 0 0 0 0 -26229865.999526978 -55256922.567899704 0 -55256922.567899704 151805114.60106277 0 0 0 0 -25191165.834136963 -55021067.893356323 0 -55021067.893356323 156105565.5670166 0 0 0 0 -26982868.754943848 -53143639.487197876 0 -53143639.487197876 165992087.09327602 0 0 0 0 -16751203.233215332 -42586278.571346283 0 -42586278.571346283 170042648.21613085 0 0 0 0 -12219406.459838867 -45183652.732341766 0 -45183652.732341766 159365167.90551758 0 0 0 0 5665896.9437408447 -29643426.885858536 0 -29643426.885858536 170451325.48526573 0 0 0 0 17573869.801361084 -26136463.605503082 0 -26136463.605503082 162192189.21363068 0 0 0 0 -7449405.9746170044 4079796.6819341183 0 4079796.6819341183 -2135966.5426845551 0 0 0 0 -5678262.2014465332 5701262.9131762981 0 5701262.9131762981 -2316872.2867956161 0 0 0 0 -11948059.617553711 16173855.392293811 0 16173855.392293811 -12229291.169236362 0 0 0 0 31197904.318519592 -7990873.1339426041 0 -7990873.1339426041 116154423.37962341 0 0 0 0 10024704.990560532 -1617069.0445562601 0 -1617069.0445562601 -16256801.533484817 0 0 0 0 12378654.034378052 6720172.0851092935 0 6720172.0851092935 -32449516.915318727 0 0 0 0 38803846.357940674 -64407389.317970276 0 -64407389.317970276 138930924.16026306 0 0 0 0 54177128.567108154 -38860564.693649292 0 -38860564.693649292 120799573.54632568 0 0 0 0 -5216333.4255828857 6130016.0779998899 0 6130016.0779998899 -2291804.3842673898 0 0 0 0 -7564096.634765625 5548334.9120839834 0 5548334.9120839834 -2398641.1732831001 0 0 0 0 -4045304.9753646851 6573636.0756539702 0 6573636.0756539702 -2384569.7790324688 0 0 0 0 10361179.645446777 -73294399.047142029 0 -73294399.047142029 151153379.27414703 0 0 0 0 -27100887.95360899 -54956797.957845315 0 -54956797.957845315 149866925.07073212 0 0 0 0 -27170450.78012085 -62876529.742557526 0 -62876529.742557526 161084865.19949341 0 0 0 0 -7942667.9217834473 -53074502.132751465 0 -53074502.132751465 144304758.13265228 0 0 0 0 -28235927.697570801 -56469460.249822617 0 -56469460.249822617 153108326.1362915 0 0 0 0 -5987245.1311950684 -70071459.342937469 0 -70071459.342937469 155755435.33385944 0 0 0 0 -267293.12631225586 -49296939.23223877 0 -49296939.23223877 134116537.49993896 0 0 0 0 2000780.6555175781 -24802699.785005569 0 -24802699.785005569 122205373.48832703 0 0 0 0 15066248.485351562 -42871929.234493256 0 -42871929.234493256 133563584.28479767 0 0 0 0 -23458921.795227051 -31555448.339313507 0 -31555448.339313507 133346800.0104087 0 0 0 0 -11397812.268013 -21512597.58556366 0 -21512597.58556366 132823342.60163116 0 0 0 0 -33946486.350997925 -4817671.8170852661 0 -4817671.8170852661 127207528.74441028 0 0 0 0 -20183466.609375 10166117.750278473 0 10166117.750278473 118665525.63748932 0 0 0 0 12941031.939819336 -14586466.834106445 0 -14586466.834106445 127826291.49843264 0 0 0 0 -60971705.543167114 -14756611.361177444 0 -14756611.361177444 134468133.44294739 0 0 0 0 -54203057.652164459 -15108658.095654488 0 -15108658.095654488 131220741.98924446 0 0 0 0 -47764070.419754028 -11089977.339756012 0 -11089977.339756012 130586532.8311553 0 0 0 0 -28565045.840309143 -37422107.420380592 0 -37422107.420380592 139032850.40371704 0 0 0 0 -63417000.499145508 -25179233.205612183 0 -25179233.205612183 134779326.72951031 0 0 0 0 -43780682.522460938 -47714659.383546829 0 -47714659.383546829 129353757.89544296 0 0 0 0 -28822045.806625366 -55773967.421806335 0 -55773967.421806335 149488014.00796318 0 0 0 0 -33533971.854385376 -40158761.62100029 0 -40158761.62100029 137999372.49569702 0 0 0 0 -28915200.451293945 -48754028.724908829 0 -48754028.724908829 138735922.37368393 0 0 0 0 -31843452.730113983 -56739588.453498363 0 -56739588.453498363 151511305.6347847 0 0 0 0 -36469043.60307312 -58795796.928439617 0 -58795796.928439617 133538793.48112106 0 0 0 0 -42955960.646118164 -43962983.194768906 0 -43962983.194768906 139795559.92636895 0 0 0 0 -51710626.244674683 -70834851.836604118 0 -70834851.836604118 112772195.33634567 0 0 0 0 -71094344.025352478 -39114519.103894234 0 -39114519.103894234 127687513.85864353 0 0 0 0 -101800664.27839661 -13227275.490665436 0 -13227275.490665436 132603727.38437843 0 0 0 0 -66844037.954421997 -36587686.902841091 0 -36587686.902841091 124388835.78699112 0 0 0 0 44063204.507808685 -45291268.673913956 0 -45291268.673913956 113395067.73861694 0 0 0 0 6882662.8587036133 -53843659.889411926 0 -53843659.889411926 120632554.14153671 0 0 0 0 21841018.386749268 -49480952.91185379 0 -49480952.91185379 109906361.86990738 0 0 0 0 27548418.812576294 -63548891.614742279 0 -63548891.614742279 93235163.845164299 0 0 0 0 31841050.858230591 -27644791.372643471 0 -27644791.372643471 142559256.65137482 0 0 0 0 22830702.427047729 -39704126.013645172 0 -39704126.013645172 127998097.1008606 0 0 0 0 5338984.4031219482 -42468500.424724579 0 -42468500.424724579 142129912.76898956 0 0 0 0 990718.15787506104 -36482117.000639915 0 -36482117.000639915 153180337.84579468 0 0 0 0 -11584812.56035614 -43785208.712233543 0 -43785208.712233543 152013003.2954483 0 0 0 0 -8936553.237121582 -49526047.972488403 0 -49526047.972488403 137786033.57375336 0 0 0 0 -22201636.216308594 -49727591.253040314 0 -49727591.253040314 139268502.86864281 0 0 0 0 -23239484.670288086 -54019168.139877319 0 -54019168.139877319 144065599.17834663 0 0 0 0 -3632359.9752960205 -51480048.075954437 0 -51480048.075954437 125707586.86117935 0 0 0 0 -20994014.045181274 -58761566.769865036 0 -58761566.769865036 123571033.39148712 0 0 0 0 1657965.8245697021 -43895394.41282177 0 -43895394.41282177 136525521.13892365 0 0 0 0 6868006.5432891846 -64084806.607368469 0 -64084806.607368469 102894600.81030083 0 0 0 0 -40684105.703140259 -59738501.082099915 0 -59738501.082099915 119441504.37558365 0 0 0 0 -18221214.786529541 -55020965.258579254 0 -55020965.258579254 120431639.00319672 0 0 0 0 -12137354.981155396 -71512847.742834091 0 -71512847.742834091 104712866.76227188 0 0 0 0 -13249137.311649323 -73920218.05719614 0 -73920218.05719614 99591438.583244324 0 0 0 0 11301045.85068512 -75789337.613883018 0 -75789337.613883018 90162854.301628113 0 0 0 0 31888231.899108887 -73114294.818730354 0 -73114294.818730354 82342484.640979767 0 0 0 0 9894245.9408874512 -60863470.271760941 0 -60863470.271760941 104527144.27529621 0 0 0 0 15801477.502883911 -74143146.963226318 0 -74143146.963226318 90820905.992241383 0 0 0 0 48163801.66758728 -89761209.736817837 0 -89761209.736817837 65994697.629285812 0 0 0 0 14085265.697134972 -88738825.69048214 0 -88738825.69048214 68645100.636606216 0 0 0 0 -13833927.243881226 -91066099.172449112 0 -91066099.172449112 87165536.674020767 0 0 0 0 -42876169.259002686 -73928376.350701332 0 -73928376.350701332 104523071.98241377 0 0 0 0 -22557156.968948364 -89017463.99985218 0 -89017463.99985218 86739763.011445045 0 0 0 0 -36504084.424781799 -98701318.68504715 0 -98701318.68504715 96363273.099023819 0 0 0 0 -105161327.36960602 -96276043.777629852 0 -96276043.777629852 100605167.12707925 0 0 0 0 7084186.3125648499 -117881590.22221899 0 -117881590.22221899 64715115.588402748 0 0 0 0 24098072.357429504 -115434775.95239878 0 -115434775.95239878 64497955.788944602 0 0 0 0 -106285243.35892105 -730409.73709750175 0 -730409.73709750175 118338731.24414253 0 0 0 0 -131907264.2686348 -43520467.680263042 0 -43520467.680263042 125137367.38493538 0 0 0 0 -92560819.700592041 -76075142.408307076 0 -76075142.408307076 109551241.09672451 0 0 0 0 -79738566.7108078 -57033205.308907509 0 -57033205.308907509 104733099.71192551 0 0 0 0 -38452825.054824829 -66473120.560804844 0 -66473120.560804844 106879446.20539474 0 0 0 0 -156349098.8394165 -60739937.676207542 0 -60739937.676207542 112638259.30882359 0 0 0 0 -93415169.148643494 -79970710.695952415 0 -79970710.695952415 101784516.15382624 0 0 0 0 -136765518.02944374 -32430781.656630516 0 -32430781.656630516 94009422.566285133 0 0 0 0 -300367954.88426208 -12254308.360142946 0 -12254308.360142946 116316545.27849913 0 0 0 0 -191364542.23839903 4562692.5479482114 0 4562692.5479482114 85699294.407505035 0 0 0 0 -203428983.46520996 -38364440.115451097 0 -38364440.115451097 99852160.917255402 0 0 0 0 -180909661.29409218 -80144950.844836205 0 -80144950.844836205 125803405.90508556 0 0 0 0 -209481560.30314636 -44423786.409400821 0 -44423786.409400821 93853262.764398336 0 0 0 0 13896681.866241455 -142157064.58200669 0 -142157064.58200669 86662880.675294876 0 0 0 0 14072778.994311333 -142608601.52800786 0 -142608601.52800786 83446007.665803909 0 0 0 0 -36238266.306293488 -146679428.91930771 0 -146679428.91930771 88111639.537108421 0 0 0 0 -34205866.909622192 -127913339.50333363 0 -127913339.50333363 130970771.68615052 0 0 0 0 -154752533.45374489 -168924338.95052081 0 -168924338.95052081 160535857.96384954 0 0 0 0 141803761.59828186 -201451685.46943784 0 -201451685.46943784 108895236.84542513 0 0 0 0 111977441.02719879 -139646134.05579758 0 -139646134.05579758 226639065.2557452 0 0 0 0 97545712.105226517 -64515231.889062762 0 -64515231.889062762 5194455.7313818932 0 0 0 0 197116900.74483109 -152619438.3553803 0 -152619438.3553803 19626345.370286465 0 0 0 0 62899309.386520386 -153184571.22046614 0 -153184571.22046614 72030848.32389164 0 0 0 0 54904377.262387753 -44094162.02808103 0 -44094162.02808103 27071381.823263168 0 0 0 0 121275575.38349533 -104981391.9376297 0 -104981391.9376297 33056038.771945 0 0 0 0 51617866.281169415 -72769484.13415128 0 -72769484.13415128 59075472.339736938 0 0 0 0 48282330.695655823 -87602339.763299942 0 -87602339.763299942 29565358.683488369 0 0 0 0 19469394.519210815 -34178245.265935659 0 -34178245.265935659 60950169.086564302 0 0 0 0 100327198.85140991 -54382621.159513474 0 -54382621.159513474 26209234.088235766 0 0 0 0 48474102.728538513 12655001.092165947 0 12655001.092165947 -52075718.475246906 0 0 0 0 137193821.24514771 -53412464.177046299 0 -53412464.177046299 -121470605.65593219 0 0 0 0 482217.98921965063 407933.31082308944 0 407933.31082308944 -78962.004584886527 0 0 0 0 -81927781.116172791 16324817.829490647 0 16324817.829490647 662431274.51987517 0 0 0 0 58471905.57415092 124910899.46579114 0 124910899.46579114 377532719.68391991 0 0 0 0 -15205619.194458008 151645543.27114904 0 151645543.27114904 241224987.17060879 0 0 0 0 2481073.317779541 -130532649.78970027 0 -130532649.78970027 139579382.94173443 0 0 0 0 177303216.85270309 -244942817.78318906 0 -244942817.78318906 285611422.02993464 0 0 0 0 404440568.91954803 -29357730.411947742 0 -29357730.411947742 216309171.93308586 0 0 0 0 402291499.39840317 -40881483.719218329 0 -40881483.719218329 275364404.99888003 0 0 0 0 -186326.49714901112 551476.45708820876 0 551476.45708820876 463779.64179424534 0 0 0 0 509869686.14163208 80084559.135631919 0 80084559.135631919 -23453221.288746119 0 0 0 0 84970183.97328949 61007440.31243962 0 61007440.31243962 441411551.76438195 0 0 0 0 255909446.12887573 -71503689.360508919 0 -71503689.360508919 -84672227.462429762 0 0 0 0 476351573.92132711 -253157954.49877277 0 -253157954.49877277 46208011.102062464 0 0 0 0 217634259.42007446 -76477016.150571823 0 -76477016.150571823 2872890.6310108006 0 0 0 0 313396760.97535324 -23323128.501114786 0 -23323128.501114786 -151115712.65273166 0 0 0 0 96033243.915519714 54470496.651983976 0 54470496.651983976 -91529338.685138941 0 0 0 0 124072228.70085526 -1116441.5716820955 0 -1116441.5716820955 1900211.2821679115 0 0 0 0 36928623.820078731 67295699.947135076 0 67295699.947135076 -56476123.479678869 0 0 0 0 -385784.49637069181 1496553.7552498719 0 1496553.7552498719 747946.82986829407 0 0 0 0 233018314.79673767 65065715.100564003 0 65065715.100564003 -5246568.7366968393 0 0 0 0 -926523.95543665625 2610829.1721592881 0 2610829.1721592881 -2002512.0151086426 0 0 0 0 -1220426385.9953003 782021060.58840656 0 782021060.58840656 -141789471.28728771 0 0 0 0 233110146.03344727 25265048.549009562 0 25265048.549009562 -97615850.958366871 0 0 0 0 119814142.65561295 92604636.463276267 0 92604636.463276267 -126893520.5932796 0 0 0 0 -198952.8188514635 1149764.6491556149 0 1149764.6491556149 -1235016.2339443709 0 0 0 0 -4280647.6716156006 50371249.410113335 0 50371249.410113335 125975286.83110571 0 0 0 0 784321447.70828438 -249454305.77988029 0 -249454305.77988029 283956237.04134655 0 0 0 0 -655737.49145586509 1135327.5014981776 0 1135327.5014981776 -1733793.7915499178 0 0 0 0 -1099597073.9636421 -100504243.93480563 0 -100504243.93480563 363047250.00948811 0 0 0 0 -1102925997.4471626 372248360.18892694 0 372248360.18892694 40600335.377438068 0 0 0 0 -879000301.0868988 232613169.68610001 0 232613169.68610001 -13016905.838152409 0 0 0 0 -532229456.26448822 536272567.62844706 0 536272567.62844706 -488168950.43122101 0 0 0 0 -469746549.36093521 83405418.043610096 0 83405418.043610096 -3182331.5551865101 0 0 0 0 -526672692.05015564 283816636.30636287 0 283816636.30636287 31743880.348810196 0 0 0 0 -528278862.44416964 103026878.17563094 0 103026878.17563094 123202103.37719059 0 0 0 0 -222843734.63433075 309231116.05331647 0 309231116.05331647 -63208070.719765186 0 0 0 0 -231665392.65768051 329876859.73725557 0 329876859.73725557 144878335.56884861 0 0 0 0 -221731214.89273739 354536460.75430632 0 354536460.75430632 -168556902.53186798 0 0 0 0 -409984247.70704269 274298882.57885361 0 274298882.57885361 16684705.968097687 0 0 0 0 -177812596.25061035 215466992.40840936 0 215466992.40840936 -25571734.87898922 0 0 0 0 48659780.896034241 33140404.793373823 0 33140404.793373823 -98312058.830539644 0 0 0 0 -39195542.679561615 186322004.52243912 0 186322004.52243912 -251849928.13985109 0 0 0 0 -184743797.89667511 155104492.67116523 0 155104492.67116523 -173241764.20846653 0 0 0 0 -751395540.02830124 572966825.82098019 0 572966825.82098019 -243325003.98535943 0 0 0 0 -229611494.85024261 327731696.97233498 0 327731696.97233498 -744353390.58301508 0 0 0 0 -1022890314.2805042 252919096.17633206 0 252919096.17633206 175599309.44337559 0 0 0 0 -1002898087.3614922 60200887.538662791 0 60200887.538662791 -8827438.5220593214 0 0 0 0 -427614764.42894745 -184047609.73068047 0 -184047609.73068047 -463656887.40088534 0 0 0 0 106958524.96826172 98950650.809235573 0 98950650.809235573 -301148894.54560816 0 0 0 0 -201247677.19270325 86519555.540196955 0 86519555.540196955 -154931109.73032212 0 0 0 0 72209615.4661026 114048055.30716562 0 114048055.30716562 17808773.48494637 0 0 0 0 -110944823.46333313 -47854251.857979 0 -47854251.857979 -117134802.72561455 0 0 0 0 -13664231.054069519 -131327022.02187449 0 -131327022.02187449 85413977.266029522 0 0 0 0 -165657466.58012962 21005301.460378513 0 21005301.460378513 146738044.29821968 0 0 0 0 -425400864.14808655 -162934832.66213042 0 -162934832.66213042 21456076.901497096 0 0 0 0 -254088608.47695923 -150500321.14496529 0 -150500321.14496529 197241194.30258602 0 0 0 0 -34758787.721969604 -119651873.60221612 0 -119651873.60221612 261999492.38129097 0 0 0 0 -399063767.2316246 54904274.924573064 0 54904274.924573064 90893224.422403216 0 0 0 0 -483551361.16205454 163805900.09770983 0 163805900.09770983 11043873.663855255 0 0 0 0 -343800253.93475437 73377579.465861291 0 73377579.465861291 87220797.717460155 0 0 0 0 -497154044.83098984 259628889.78199291 0 259628889.78199291 -17291102.908603668 0 0 0 0 -388300851.45763779 294325100.49832678 0 294325100.49832678 -152405029.16018561 0 0 0 0 -360795124.23134613 232099819.20305443 0 232099819.20305443 -98462720.119395971 0 0 0 0 -145442062.09623718 164000662.93097115 0 164000662.93097115 -202602842.2618787 0 0 0 0 191231382.24660873 98645968.11550656 0 98645968.11550656 34257317.175673485 0 0 0 0 -2027266.1533853766 491144.74365686253 0 491144.74365686253 739234.43661031337 0 0 0 0 -395494690.5837307 424936992.79084945 0 424936992.79084945 -455271972.52762485 0 0 0 0 -529895255.28399277 -228960740.29391491 0 -228960740.29391491 -94394000.180889368 0 0 0 0 -1534243.2891812548 1478958.5331114191 0 1478958.5331114191 80613.834046298347 0 0 0 0 -3625638.3059465354 2088140.1146152709 0 2088140.1146152709 1500697.2597662511 0 0 0 0 -2265203.2555770874 2048835.8943772912 0 2048835.8943772912 2775710.0009250641 0 0 0 0 1860643.1241378784 2596692.3082194924 0 2596692.3082194924 -3236788.3716750741 0 0 0 0 229139.90960231051 42350.004621869884 0 42350.004621869884 376057.41787490336 0 0 0 0 -464275647.42184198 -57245534.970414877 0 -57245534.970414877 -6734935.5228531361 0 0 0 0 -3368449.4971113205 3059701.6230345108 0 3059701.6230345108 5810610.5011249781 0 0 0 0 -4766307.4755840227 3228476.6023632991 0 3228476.6023632991 1374090.1042060405 0 0 0 0 -3308427.1927185059 1790033.5853447914 0 1790033.5853447914 2993474.2317160368 0 0 0 0 -2137641.7266845703 53588196.623443365 0 53588196.623443365 41319149.298126101 0 0 0 0 -2934027.3846740723 2430033.5233612657 0 2430033.5233612657 3623777.9978015423 0 0 0 0 -2812791.4509517439 3737677.327925235 0 3737677.327925235 201624.07790508794 0 0 0 0 -35593459.142032623 11196687.870853186 0 11196687.870853186 96784871.474178314 0 0 0 0 -7801130.5554275513 57374465.435038447 0 57374465.435038447 157179833.88636529 0 0 0 0 -215206935.00066376 79634588.954938054 0 79634588.954938054 155887580.55026999 0 0 0 0 -97407048.842502594 -34641237.249158919 0 -34641237.249158919 114482906.9624283 0 0 0 0 -3050402.5983581543 205037251.12674141 0 205037251.12674141 94916606.152560651 0 0 0 0 -337568140.72213745 222554896.44565642 0 222554896.44565642 94961631.285803601 0 0 0 0 -433469177.4149456 -113363155.1683345 0 -113363155.1683345 96712165.526888102 0 0 0 0 -508446335.07222748 436996289.88966155 0 436996289.88966155 -396999690.10031891 0 0 0 0 -1304314093.4160957 -177684134.01984322 0 -177684134.01984322 57622311.806110859 0 0 0 0 -94587.693061806262 511166.00205372274 0 511166.00205372274 -1524307.0894463575 0 0 0 0 -1166606828.0633144 293932048.18415636 0 293932048.18415636 9745878.1132669449 0 0 0 0 -622400702.39115906 -146386452.25786734 0 -146386452.25786734 -65932988.430935502 0 0 0 0 -516379750.12273407 209134737.19081211 0 209134737.19081211 -71835520.871191025 0 0 0 0 -780499644.16510773 122601110.47953022 0 122601110.47953022 77690540.336546421 0 0 0 0 274694744.53280258 87868282.007157564 0 87868282.007157564 -136682781.17460728 0 0 0 0 176974032.1629715 88873663.159665108 0 88873663.159665108 43290902.196519852 0 0 0 0 -868041.5812136801 -389581.37947529554 0 -389581.37947529554 450688.06077865977 0 0 0 0 726640215.02092361 277788684.88688302 0 277788684.88688302 -392219468.18155384 0 0 0 0 -71898776.441589355 312851047.65388346 0 312851047.65388346 -167714196.32306957 0 0 0 0 -563885960.51736069 406191834.03456295 0 406191834.03456295 -60561156.547617435 0 0 0 0 -257381270.26026154 121748198.18729401 0 121748198.18729401 -5875856.6752185822 0 0 0 0 -424994394.25617027 167553377.22689164 0 167553377.22689164 56360580.981236458 0 0 0 0 -160181313.4603653 67071031.422916889 0 67071031.422916889 72299359.295440674 0 0 0 0 -229225914.27184296 44015200.726083755 0 44015200.726083755 66264690.944756985 0 0 0 0 -141938086.4981308 31384142.483365774 0 31384142.483365774 115488575.44761848 0 0 0 0 -195176345.29569244 -11804332.619525433 0 -11804332.619525433 123650425.42490673 0 0 0 0 121606891.5556488 193525973.31369972 0 193525973.31369972 -96883249.068876266 0 0 0 0 -282442940.53188515 195301644.99678922 0 195301644.99678922 39688147.45413208 0 0 0 0 -78950198.297874451 123023702.65151691 0 123023702.65151691 62894797.358306408 0 0 0 0 -159307507.56834793 69183938.205040932 0 69183938.205040932 136415854.80148315 0 0 0 0 -95759436.553245544 142113206.87458277 0 142113206.87458277 94705456.288986206 0 0 0 0 29614243.501045227 123684715.7293992 0 123684715.7293992 92876586.552726746 0 0 0 0 81881192.147758484 65832380.169837475 0 65832380.169837475 134003271.04624748 0 0 0 0 -67006945.268281937 68876385.273910403 0 68876385.273910403 133634584.86428833 0 0 0 0 -77304909.326820374 102245801.46229744 0 102245801.46229744 161290272.06077003 0 0 0 0 4601612.5412902832 110894850.04384422 0 110894850.04384422 130226339.50324249 0 0 0 0 -34848171.469482422 73778310.500476837 0 73778310.500476837 123538107.54448128 0 0 0 0 -35927236.197296143 91378204.236314774 0 91378204.236314774 122272443.74317932 0 0 0 0 -626267.77897262573 126798976.80856705 0 126798976.80856705 172422252.48362923 0 0 0 0 96388610.959594727 150081023.30548859 0 150081023.30548859 105719737.3716507 0 0 0 0 -91660318.637489319 -9998512.1587343216 0 -9998512.1587343216 122926435.5560894 0 0 0 0 -129423248.73110199 28783730.27169323 0 28783730.27169323 139436775.56367493 0 0 0 0 -120935199.71678162 80854845.233233452 0 80854845.233233452 139524126.97812176 0 0 0 0 -96318018.278915405 42877363.801120758 0 42877363.801120758 117507125.04926491 0 0 0 0 -85495731.693172455 40994990.050793171 0 40994990.050793171 136462765.45234299 0 0 0 0 -73862267.271697998 76984037.505205154 0 76984037.505205154 142856344.48115063 0 0 0 0 -68214103.473190308 26794312.414375305 0 26794312.414375305 139032729.93288279 0 0 0 0 -74780652.200286865 20902121.090586901 0 20902121.090586901 134667641.01626205 0 0 0 0 -2075583.6261085719 5638229.6054487452 0 5638229.6054487452 1221825.8942295457 0 0 0 0 -13993263.993133545 21856974.000564575 0 21856974.000564575 103009140.2699213 0 0 0 0 755553.88375854492 8028.6858432292938 0 8028.6858432292938 2989198.2217072248 0 0 0 0 -14684964.268386841 18584892.713340759 0 18584892.713340759 102638066.12666512 0 0 0 0 -34053572.685623169 22570406.281177521 0 22570406.281177521 121799018.64093781 0 0 0 0 -23673987.761642456 10328547.493835449 0 10328547.493835449 127345661.93159485 0 0 0 0 -32116094.589420319 13958292.033168793 0 13958292.033168793 126015296.71052551 0 0 0 0 -43144193.446060181 14894798.725521088 0 14894798.725521088 135722130.92700577 0 0 0 0 -56458627.460693359 30155939.364274979 0 30155939.364274979 130707407.54273605 0 0 0 0 -28357716.537689209 22821205.642929077 0 22821205.642929077 121471109.09306717 0 0 0 0 -33342245.059631348 26244221.200435638 0 26244221.200435638 129951031.43073273 0 0 0 0 -27087686.886047363 26174331.018650055 0 26174331.018650055 117036560.9381218 0 0 0 0 -34292908.556663513 39216666.836282253 0 39216666.836282253 113093204.43166351 0 0 0 0 -21534414.555084229 36919668.762111664 0 36919668.762111664 113474310.43299007 0 0 0 0 -36422566.441009521 32377659.94165802 0 32377659.94165802 120168448.50765991 0 0 0 0 -46481299.250839233 41894856.062311172 0 41894856.062311172 135670037.087327 0 0 0 0 -41451948.575592041 44098695.747022629 0 44098695.747022629 123006693.78645325 0 0 0 0 -38180669.62234211 62807282.409323335 0 62807282.409323335 114470051.3116684 0 0 0 0 -16883627.986068726 35254611.444774628 0 35254611.444774628 90522822.627906799 0 0 0 0 -16370512.337585449 43595850.012015343 0 43595850.012015343 90749574.877864838 0 0 0 0 -21984787.144714355 40692676.927696228 0 40692676.927696228 102448729.46739197 0 0 0 0 -16569854.302200317 31339849.994106293 0 31339849.994106293 99525108.463195801 0 0 0 0 -20916999.829345703 28471009.311454773 0 28471009.311454773 110379798.8539505 0 0 0 0 -29866169.328643799 31087337.146720886 0 31087337.146720886 110151195.99951935 0 0 0 0 -3036289.1301422119 10936588.94103241 0 10936588.94103241 106219674.96414948 0 0 0 0 7572752.0844345093 8611846.4103450775 0 8611846.4103450775 22564527.466335297 0 0 0 0 47232647.704799652 5699469.8582895994 0 5699469.8582895994 -4431157.3833808899 0 0 0 0 8770329.1750068665 42127374.967210054 0 42127374.967210054 42661533.744346619 0 0 0 0 36596217.59072876 61233937.972230911 0 61233937.972230911 55612903.264974594 0 0 0 0 18914860.109329224 79986327.028371811 0 79986327.028371811 42305231.27671814 0 0 0 0 13180876.212188721 93392768.271619797 0 93392768.271619797 101344574.48720169 0 0 0 0 -13247148.975311279 59855168.631158829 0 59855168.631158829 100687380.02498627 0 0 0 0 -12864405.590637207 65009369.999040604 0 65009369.999040604 75321200.793804169 0 0 0 0 5466774.0040473938 58537117.592214584 0 58537117.592214584 75642959.058158875 0 0 0 0 -5000401.9291687012 40243408.888439178 0 40243408.888439178 62206617.84803772 0 0 0 0 -4653150.330657959 6223230.4494400024 0 6223230.4494400024 80387234.614099503 0 0 0 0 -2448824.1504211426 36281589.140018463 0 36281589.140018463 64923096.309448242 0 0 0 0 -5601591.1478271484 39875999.737991333 0 39875999.737991333 92033644.099212646 0 0 0 0 -4994669.8733978271 43669952.358325958 0 43669952.358325958 77272351.859046936 0 0 0 0 -8642762.4719848633 27656845.795120239 0 27656845.795120239 93389951.527637482 0 0 0 0 -2634614.9997253418 24361524.007835388 0 24361524.007835388 75765916.196430206 0 0 0 0 -187117.36939239502 32949581.7391119 0 32949581.7391119 46294378.114120483 0 0 0 0 -1714638.6474609375 2636230.4770126343 0 2636230.4770126343 59029782.128619194 0 0 0 0 -1237011.4566192627 -1986715.1991081238 0 -1986715.1991081238 21745663.146238327 0 0 0 0 -2398014.2435913086 27017237.216426849 0 27017237.216426849 47297807.958557129 0 0 0 0 9166687.298210144 27214433.352622032 0 27214433.352622032 8270851.9032058716 0 0 0 0 -8223745.9618148804 25162736.109985352 0 25162736.109985352 49089564.751384735 0 0 0 0 253591.42626178637 2973968.5776091833 0 2973968.5776091833 -4051623.6136509748 0 0 0 0 -472158408.7665329 -16453243.241226435 0 -16453243.241226435 72683881.292430997 0 0 0 0 -954824.81184092164 1907333.349852046 0 1907333.349852046 -1658205.6980540417 0 0 0 0 -209352595.51554871 29409562.800177515 0 29409562.800177515 -67853668.143756688 0 0 0 0 -255099003.59428787 77920996.079490066 0 77920996.079490066 2505532.172246933 0 0 0 0 -484872126.49910116 182889219.09478226 0 182889219.09478226 25813324.460608721 0 0 0 0 -321939288.29497528 66430446.832759142 0 66430446.832759142 60988637.606027365 0 0 0 0 -210181.93528228812 98217.543393630534 0 98217.543393630534 -95605.02331551176 0 0 0 0 -459350922.03547668 60419622.459310055 0 60419622.459310055 87553413.729284912 0 0 0 0 -471306299.33133698 102793362.52326882 0 102793362.52326882 71982558.929440022 0 0 0 0 -372268236.73027039 -24160449.668804765 0 -24160449.668804765 -14583770.79475069 0 0 0 0 -555070925.17488098 66914552.792820454 0 66914552.792820454 88268216.085058928 0 0 0 0 -528428.90124497376 2058158.7844296098 0 2058158.7844296098 -3921726.9575462099 0 0 0 0 -358058040.73461151 22256151.433217406 0 22256151.433217406 -26556918.327826738 0 0 0 0 129456211.5926857 133851606.06200933 0 133851606.06200933 118245525.50367165 0 0 0 0 132441506.431427 174137941.00752068 0 174137941.00752068 34651047.064356446 0 0 0 0 180412769.21576691 71447036.287140846 0 71447036.287140846 -17399874.2349298 0 0 0 0 11703.781688097864 719825.69956569001 0 719825.69956569001 -458230.23446599022 0 0 0 0 -2077312.1424808502 2288158.1016828418 0 2288158.1016828418 -1091264.3462359905 0 0 0 0 -1773286.9739074707 3388318.2704801559 0 3388318.2704801559 -25059.88493680954 0 0 0 0 -1818743.8507614136 1988583.9459857941 0 1988583.9459857941 -1032734.3838062286 0 0 0 0 -1843460.1665687561 1784118.7755464911 0 1784118.7755464911 -2455028.4232149124 0 0 0 0 -2062116.8784637451 4272645.5228505135 0 4272645.5228505135 -4268131.1761188507 0 0 0 0 -2291765.0013008118 3097229.5896092653 0 3097229.5896092653 654406.0448589325 0 0 0 0 -2445381.2937469482 1943702.0647916794 0 1943702.0647916794 -2091609.3600151539 0 0 0 0 -476458169.8725214 103264565.32327035 0 103264565.32327035 -73994365.342419714 0 0 0 0 -1814472.1559819877 1695772.9099923633 0 1695772.9099923633 -1485511.0201455203 0 0 0 0 -378888796.49815178 216970917.21753457 0 216970917.21753457 -36488459.899895057 0 0 0 0 -327823054.13134003 -30698102.048273053 0 -30698102.048273053 -6016785.4909373857 0 0 0 0 -592374.89053491503 28453.889011899009 0 28453.889011899009 -176706.39535280061 0 0 0 0 -472523108.08416402 245682916.94478443 0 245682916.94478443 -114744628.31669575 0 0 0 0 -428380.27802064642 516540.19224174647 0 516540.19224174647 -71318.599506624349 0 0 0 0 -301416346.66750336 124837227.67553538 0 124837227.67553538 -29668527.281201243 0 0 0 0 -231321253.26944733 245166462.16113636 0 245166462.16113636 -136130562.05740333 0 0 0 0 -1079645.8469161987 1767320.0086836219 0 1767320.0086836219 -132365.47008371353 0 0 0 0 -2848546.9017868042 1296062.1516143084 0 1296062.1516143084 412226.8298125267 0 0 0 0 -1762659.6460338905 2057149.7323872587 0 2057149.7323872587 -754441.54729696934 0 0 0 0 -2921305.9414215088 836741.52471756935 0 836741.52471756935 -647043.01875305176 0 0 0 0 -8784528.8991127014 -2934155.7852842808 0 -2934155.7852842808 1304120.3413083553 0 0 0 0 -3741272.6515433677 2040162.8716434818 0 2040162.8716434818 1592035.7878909961 0 0 0 0 -4807227.2008113265 4076746.2424515202 0 4076746.2424515202 2636631.0765036531 0 0 0 0 17807845.70010376 11687716.977518082 0 11687716.977518082 -59515846.324100494 0 0 0 0 -1169372.1655960083 7219701.6427502707 0 7219701.6427502707 3468430.0420646751 0 0 0 0 -401806.65732955933 7905069.7764715999 0 7905069.7764715999 2308899.8926487863 0 0 0 0 -1523201.3692550659 6445266.860346958 0 6445266.860346958 2066357.6881802231 0 0 0 0 -428568.58938026428 7761464.8489761371 0 7761464.8489761371 1560045.1265512705 0 0 0 0 -3731293.3684921265 6729299.179038845 0 6729299.179038845 4706427.4725756347 0 0 0 0 -858674.25360780582 230061.34698775224 0 230061.34698775224 289407.20588807412 0 0 0 0 -2809007.1060390472 1137424.7711717188 0 1137424.7711717188 -2641921.9081611633 0 0 0 0 -10844759.365333557 9159024.840503931 0 9159024.840503931 2835.754448890686 0 0 0 0 -17501965.486846924 -10052126.83210659 0 -10052126.83210659 598851.96826528758 0 0 0 0 -12905929.955032349 9282789.3884747028 0 9282789.3884747028 -3930523.9623791575 0 0 0 0 -2683000.0250396729 3079202.2199816704 0 3079202.2199816704 -5375492.2258348465 0 0 0 0 -5660481.3072357178 3388028.9550035 0 3388028.9550035 852893.74207353592 0 0 0 0 -7147845.4598617554 124463.39905357361 0 124463.39905357361 6273150.1947181225 0 0 0 0 -699283.00734710693 2142814.1882016659 0 2142814.1882016659 1127508.0416121483 0 0 0 0 1414425.4494895935 -711162.68099844456 0 -711162.68099844456 2002484.7689073086 0 0 0 0 -8689813.2184333801 4905625.633121267 0 4905625.633121267 7179383.3656969666 0 0 0 0 -5396179.1782582812 1613131.562571492 0 1613131.562571492 1628587.923923261 0 0 0 0 -3906498.0920131989 1770059.3606642471 0 1770059.3606642471 -75140.548508364824 0 0 0 0 -5041546.9519577026 2149301.7967616376 0 2149301.7967616376 -94872.236700418405 0 0 0 0 -4598571.8956604004 1166058.8173737202 0 1166058.8173737202 -262424.56979358243 0 0 0 0 -5693434.3166007996 1339088.7602217565 0 1339088.7602217565 372108.51495295623 0 0 0 0 -5505115.7262802124 945816.69169768319 0 945816.69169768319 -337598.26380433515 0 0 0 0 -3671129.5455551147 3839928.8030457497 0 3839928.8030457497 4067020.2155265808 0 0 0 0 -4377412.20700581 1017837.2128237053 0 1017837.2128237053 308505.74645414401 0 0 0 0 -2826231.4031066895 5466777.2282295227 0 5466777.2282295227 644515.23513507843 0 0 0 0 -290732843.27022934 64819063.064196229 0 64819063.064196229 -62449747.506840631 0 0 0 0 -2220849.5270993989 1268844.5001873598 0 1268844.5001873598 -1016117.8684167452 0 0 0 0 -2918400.0460357666 910415.2215294838 0 910415.2215294838 754244.17960494757 0 0 0 0 -5004908.0429573059 161206.94942409289 0 161206.94942409289 -526863.41920959763 0 0 0 0 -4537949.9264335632 513989.90247114911 0 513989.90247114911 -321581.81248671934 0 0 0 0 -5096693.0179443359 1638240.1458322052 0 1638240.1458322052 -551730.2846424263 0 0 0 0 -2512654.8473283853 137011.42577193864 0 137011.42577193864 -576058.83008327708 0 0 0 0 -6649839.6222839355 857513.29901164677 0 857513.29901164677 95925.15764123667 0 0 0 0 -6218397.3577880859 658525.67693565506 0 658525.67693565506 -104689.48658906994 0 0 0 0 -3154.862751185894 390.4877608846873 0 390.4877608846873 -1294.5279003205169 0 0 0 0 -6875091.698638916 1425117.2377524141 0 1425117.2377524141 17242.103508094326 0 0 0 0 -6161162.6182098389 1255297.2980740345 0 1255297.2980740345 -220173.44530738518 0 0 0 0 -5819765.3374176025 1012251.9226058596 0 1012251.9226058596 -262345.10735531099 0 0 0 0 -6073653.0341491699 1416554.7980397523 0 1416554.7980397523 -456623.62794160983 0 0 0 0 -5644679.579120636 1068317.8669385565 0 1068317.8669385565 -155978.11127431458 0 0 0 0 -5510626.7454691529 1320501.5941997813 0 1320501.5941997813 -83686.96174871549 0 0 0 0 -5731201.3730430603 1139969.6425066991 0 1139969.6425066991 -86679.27331240382 0 0 0 0 -5772520.2321624756 978748.88720037951 0 978748.88720037951 255288.62614203151 0 0 0 0 -5777146.8662071228 904204.29524573253 0 904204.29524573253 -100652.48815740645 0 0 0 0 -5600430.9829750061 994054.92915212805 0 994054.92915212805 -139712.3255430758 0 0 0 0 -5626195.2568283081 1059385.8936279805 0 1059385.8936279805 -299378.64175504819 0 0 0 0 -5823910.6874160767 924651.73159745533 0 924651.73159745533 -46763.917443488725 0 0 0 0 -5510508.2163543701 813128.83339197072 0 813128.83339197072 -44650.065286347621 0 0 0 0 -5549324.4590768814 1009130.9577718583 0 1009130.9577718583 -143925.64992075437 0 0 0 0 -5732801.429233551 693914.72732016305 0 693914.72732016305 93311.636132939835 0 0 0 0 -5894374.0435295105 790132.06456980878 0 790132.06456980878 159272.58944858797 0 0 0 0 -5798013.8119888306 509166.36882052541 0 509166.36882052541 937.05615238447467 0 0 0 0 -5466690.1606273651 760735.99460822565 0 760735.99460822565 103625.30573589879 0 0 0 0 -5298037.1117038727 572598.95541834168 0 572598.95541834168 -379.19900130321963 0 0 0 0 -6629882.8808841705 302379.09185034264 0 302379.09185034264 -3153.7458008066651 0 0 0 0 -6269528.0210571289 730738.35316297447 0 730738.35316297447 342781.36887864518 0 0 0 0 -5844750.2602996826 902624.70093827602 0 902624.70093827602 398432.58666516299 0 0 0 0 -6195843.2439937592 1145980.6755395455 0 1145980.6755395455 1435218.5476460233 0 0 0 0 -6130616.7480773926 1017757.7785054097 0 1017757.7785054097 379362.57165655983 0 0 0 0 -5606201.219502449 1524051.1907715113 0 1524051.1907715113 809085.65048873704 0 0 0 0 -5580103.8486862183 1162176.2195423138 0 1162176.2195423138 -24874.157319303602 0 0 0 0 -5855094.3335189819 2122770.2208149005 0 2122770.2208149005 115643.12450545863 0 0 0 0 -12931316.017105103 -2030576.3324830569 0 -2030576.3324830569 6373918.6659644544 0 0 0 0 -5893105.1504917145 2255975.89730473 0 2255975.89730473 1198026.2245565853 0 0 0 0 -3089435.6079365853 61184.4997188095 0 61184.4997188095 558111.98187138198 0 0 0 0 -8131878.1558990479 -1551752.1562093087 0 -1551752.1562093087 -1167728.330522581 0 0 0 0 -701343.78854623437 -106827.72256360576 0 -106827.72256360576 20349.771216936773 0 0 0 0 -25062554.634023666 -5589455.9137191279 0 -5589455.9137191279 1637405.7028500568 0 0 0 0 -2863471.8125762939 3042567.3465074077 0 3042567.3465074077 588255.7437357126 0 0 0 0 -15813821.473106384 -69798.257468701107 0 -69798.257468701107 4013.425001813845 0 0 0 0 -10932331.205841064 3786194.7347996077 0 3786194.7347996077 589958.69784534199 0 0 0 0 -12013717.79426384 919462.29436364095 0 919462.29436364095 -1939.2944986547368 0 0 0 0 -12725448.403091431 -1314617.3623861717 0 -1314617.3623861717 -2143456.0780628333 0 0 0 0 -12946999.107463837 1104338.827266654 0 1104338.827266654 1671725.9163681772 0 0 0 0 -13510328.236297607 2863089.889845307 0 2863089.889845307 -3046768.0578219136 0 0 0 0 -8581815.1694793701 1087485.0105039799 0 1087485.0105039799 -1988412.4323222225 0 0 0 0 -7588946.3078896999 4437139.9624753604 0 4437139.9624753604 3434957.1366765741 0 0 0 0 -7511906.5025672913 1310877.312772057 0 1310877.312772057 8313.2589536644518 0 0 0 0 -12039586.64201355 3353844.013064336 0 3353844.013064336 10471110.037839711 0 0 0 0 3811623.2897462845 12879841.131910957 0 12879841.131910957 11695770.098488271 0 0 0 0 154573.89958905429 -57913.342428471893 0 -57913.342428471893 -146521.04191879445 0 0 0 0 18864965.462284207 -2038148.408878047 0 -2038148.408878047 -4619221.3210253865 0 0 0 0 18240959.705322266 16085687.378984794 0 16085687.378984794 5652464.7107805014 0 0 0 0 -4779308.2426948547 9173867.0624461174 0 9173867.0624461174 14361605.478624672 0 0 0 0 1966072.1785459518 14974257.73501692 0 14974257.73501692 19312323.050176978 0 0 0 0 -8511122.2242331207 713274.8510192493 0 713274.8510192493 620935.12086702266 0 0 0 0 -8462618.6973522529 1448087.0140593257 0 1448087.0140593257 838171.64268875681 0 0 0 0 -5951159.5510559082 6408045.7824214697 0 6408045.7824214697 6293379.9853190482 0 0 0 0 -4709306.7029533386 5288333.8312699944 0 5288333.8312699944 7195947.6217559278 0 0 0 0 186532.12079811096 6809388.9807196837 0 6809388.9807196837 2131336.2507784367 0 0 0 0 -919532.61196327209 9214043.8506360929 0 9214043.8506360929 4065734.0111519843 0 0 0 0 -4907820.5833740234 7428330.5936123878 0 7428330.5936123878 3625790.6200559288 0 0 0 0 -1097251.8029785156 6472491.2217344251 0 6472491.2217344251 2066049.7040733472 0 0 0 0 -5918906.2633476257 8108070.6086718589 0 8108070.6086718589 9025177.9032824859 0 0 0 0 -5862594.3117141724 6518415.2061699033 0 6518415.2061699033 4806714.396418184 0 0 0 0 -6198980.2604598999 8752407.9592111409 0 8752407.9592111409 3048557.7203834951 0 0 0 0 -6812324.4940338135 6886802.0215170383 0 6886802.0215170383 1828042.586070925 0 0 0 0 -5400445.3926868439 6384180.0477965977 0 6384180.0477965977 1472174.0806621313 0 0 0 0 -8483960.2606468201 5952916.3985751309 0 5952916.3985751309 1411868.9067887962 0 0 0 0 -4545492.4314804077 6635223.8881426156 0 6635223.8881426156 -2202097.4771287888 0 0 0 0 -8408425.9549865723 5996430.7769829035 0 5996430.7769829035 -1905626.1479655504 0 0 0 0 -9948778.7419433594 4791401.6862549782 0 4791401.6862549782 -1886019.9452866912 0 0 0 0 -2469430.8459892273 10000860.005841959 0 10000860.005841959 -3838245.2105183005 0 0 0 0 -6917149.7445144653 8175187.4477709681 0 8175187.4477709681 -1693963.537198782 0 0 0 0 -18420080.758773804 9982831.4700426757 0 9982831.4700426757 -914512.26945984364 0 0 0 0 -7303814.7151794434 20111120.029353857 0 20111120.029353857 -18148042.986917794 0 0 0 0 -3631661.2796630859 10353871.05285728 0 10353871.05285728 -3936632.7325571179 0 0 0 0 -881830.8416633606 5206106.1313422918 0 5206106.1313422918 -1071203.6068253517 0 0 0 0 -1411766.2993583679 5724864.5590228327 0 5724864.5590228327 290697.37778952718 0 0 0 0 -2128334.687789917 6777459.0430047512 0 6777459.0430047512 -251700.90330009162 0 0 0 0 -4154147.0029640198 5451940.296027571 0 5451940.296027571 -1388690.8812931776 0 0 0 0 -4021677.5509185791 5721825.6376281232 0 5721825.6376281232 -840057.71444636583 0 0 0 0 -3518250.7133636475 5885240.2928322554 0 5885240.2928322554 -2466519.043143034 0 0 0 0 -3229208.423828125 6500398.8142259568 0 6500398.8142259568 -1158742.9517608285 0 0 0 0 -2496046.2049102783 5259732.6024404764 0 5259732.6024404764 -1545384.2647572756 0 0 0 0 -517673.23199462891 5774195.4194695354 0 5774195.4194695354 -1559560.5720017403 0 0 0 0 -1929379.1360015869 6001035.3938300312 0 6001035.3938300312 -2132527.5016358495 0 0 0 0 3980846.8488616943 2281234.835597422 0 2281234.835597422 -3846401.9184659868 0 0 0 0 1440710.7897186279 4023864.528961733 0 4023864.528961733 -2631955.9393844455 0 0 0 0 706060.84361457825 2687411.6318850741 0 2687411.6318850741 -2797370.7864268422 0 0 0 0 5145613.4081802368 3615305.7050962895 0 3615305.7050962895 -2608045.8160638679 0 0 0 0 2249782.8380432129 7078935.0067836158 0 7078935.0067836158 48635.511909388006 0 0 0 0 3103426.912109375 2294344.7177311629 0 2294344.7177311629 -3608661.6566029191 0 0 0 0 8135703.8238067627 897799.75816244539 0 897799.75816244539 -4746926.2053162614 0 0 0 0 5848976.819270134 -4347385.2832027283 0 -4347385.2832027283 -3628539.1379202455 0 0 0 0 3222856.3218154907 -409615.17480397224 0 -409615.17480397224 -4858159.3357122168 0 0 0 0 8919214.9379959106 -4114773.2955348194 0 -4114773.2955348194 -4739209.5932140648 0 0 0 0 18200780.173923492 4904658.0904849283 0 4904658.0904849283 -3494133.7436674386 0 0 0 0 1959118.2888717651 8455728.2509838678 0 8455728.2509838678 2377308.8995668273 0 0 0 0 230494.60382396355 -126453.79040911142 0 -126453.79040911142 -272181.73734254914 0 0 0 0 29283896.038135529 17547496.08897391 0 17547496.08897391 -44645275.570385993 0 0 0 0 1821741.9399032593 364484.76790315658 0 364484.76790315658 -8181138.6027247794 0 0 0 0 3316600.2011871338 1697429.7964282539 0 1697429.7964282539 -14854575.317844473 0 0 0 0 108019.70477296785 -84422.22815117985 0 -84422.22815117985 -158484.37597415084 0 0 0 0 -67477573.231399536 -53719192.30503428 0 -53719192.30503428 -1601708.8852183521 0 0 0 0 -44983236.459171295 -21825130.201802917 0 -21825130.201802917 -93256033.712649822 0 0 0 0 -47865047.331874847 35847278.922350302 0 35847278.922350302 -62172338.50947924 0 0 0 0 -6921079.4063110352 28967768.721312758 0 28967768.721312758 -32270732.893111221 0 0 0 0 28081195.110240936 12984881.701187223 0 12984881.701187223 -61456447.54955408 0 0 0 0 6318778.5123968944 39208001.599959753 0 39208001.599959753 -21700386.068471313 0 0 0 0 6388588.2814064026 13549276.040513039 0 13549276.040513039 -65788715.843276858 0 0 0 0 -47742151.956954956 21835594.763145268 0 21835594.763145268 4751883.1948035955 0 0 0 0 -19646683.336265564 60575641.581914157 0 60575641.581914157 137693.39701521397 0 0 0 0 -10201453.456012726 22863234.817044616 0 22863234.817044616 77953827.603962421 0 0 0 0 29375547.888343811 23006630.473546624 0 23006630.473546624 -12847736.664149255 0 0 0 0 8779899.7826919556 68960666.057095766 0 68960666.057095766 34174530.459691882 0 0 0 0 4583049.4902114868 20869716.669875562 0 20869716.669875562 114646416.84687066 0 0 0 0 -2147670.4575424194 19004340.916862369 0 19004340.916862369 35728071.648722708 0 0 0 0 13788680.03868866 43640856.821544215 0 43640856.821544215 14168399.02595824 0 0 0 0 23596505.104240417 36443651.254690051 0 36443651.254690051 35889053.290649831 0 0 0 0 5988280.7286148071 35704977.420864999 0 35704977.420864999 36001532.019381836 0 0 0 0 -7475100.6279792786 44482094.90417847 0 44482094.90417847 -5829703.1964996755 0 0 0 0 -15151283.849769592 9980528.8913468719 0 9980528.8913468719 -7575384.9012880325 0 0 0 0 -17226511.657665253 28736598.447381973 0 28736598.447381973 55719943.631023347 0 0 0 0 -8279218.863212727 630466.75820833119 0 630466.75820833119 503274.22211881069 0 0 0 0 -8753045.3841934204 3267435.8181520533 0 3267435.8181520533 7955973.1708949413 0 0 0 0 -8775187.6999320984 3116743.6591440756 0 3116743.6591440756 4666040.460218871 0 0 0 0 -7739866.5605226867 1224671.7354845796 0 1224671.7354845796 362362.77742841758 0 0 0 0 -125326.76960754395 32952980.836875498 0 32952980.836875498 86946603.937556267 0 0 0 0 -7254066.5878143311 2703278.1120933495 0 2703278.1120933495 2829844.417996753 0 0 0 0 -7977087.5955276489 2815025.9045171477 0 2815025.9045171477 2827387.8145901747 0 0 0 0 -6697947.2047119141 1947563.1731343654 0 1947563.1731343654 -377813.09575143782 0 0 0 0 -8849158.1020317078 1072208.7903119982 0 1072208.7903119982 366894.49379850319 0 0 0 0 -8380403.7171134949 1963300.3995378041 0 1963300.3995378041 975024.79941806896 0 0 0 0 -7777266.346157074 2328250.1332367584 0 2328250.1332367584 1076685.7775184959 0 0 0 0 -7832314.4336624146 1797241.3257875885 0 1797241.3257875885 -365.08148769841546 0 0 0 0 -13940331.862728119 5857019.1595441746 0 5857019.1595441746 -375310.89041370666 0 0 0 0 -2741166.3112484589 1038344.5906209555 0 1038344.5906209555 -152976.34607716103 0 0 0 0 -8133284.0544662476 2027010.8624521566 0 2027010.8624521566 -246913.98757573031 0 0 0 0 -10375445.068939209 1449340.9199663063 0 1449340.9199663063 -4217.6504222552321 0 0 0 0 -7454477.9645843506 3660205.0528186429 0 3660205.0528186429 -500325.27761060372 0 0 0 0 -7710581.6828613281 1830029.7834251905 0 1830029.7834251905 2162909.8040517825 0 0 0 0 -10784546.190765381 2481270.1851237798 0 2481270.1851237798 2087327.5042192701 0 0 0 0 -8326219.6031938009 389215.57792140543 0 389215.57792140543 599974.11374219821 0 0 0 0 -8892509.5614700317 2629350.3568462878 0 2629350.3568462878 3766657.6634572404 0 0 0 0 -11165985.087020874 26182160.487603188 0 26182160.487603188 2934206.9352378845 0 0 0 0 -9052200.052230835 2199356.4909500433 0 2199356.4909500433 3599953.8086405946 0 0 0 0 -13093213.404953003 -12903783.96023798 0 -12903783.96023798 63011179.489389241 0 0 0 0 24970758.153311729 86448656.109236583 0 86448656.109236583 142499340.08460903 0 0 0 0 -1207168.2354734614 -716339.51884558611 0 -716339.51884558611 724624.30537384516 0 0 0 0 -29122433.881637573 70374004.025047302 0 70374004.025047302 179688917.58098459 0 0 0 0 522864.54205792025 1226530.6458282247 0 1226530.6458282247 -159158.63283671878 0 0 0 0 6417089.1545257568 74187880.925977945 0 74187880.925977945 121369983.07426453 0 0 0 0 17925128.335060596 25862436.864944257 0 25862436.864944257 127395212.82340956 0 0 0 0 3320694.6022033691 63477273.764479637 0 63477273.764479637 76487187.536898851 0 0 0 0 -48548414.550300598 50792756.143125772 0 50792756.143125772 130198855.92839718 0 0 0 0 -29078802.735450745 26463432.753151953 0 26463432.753151953 105089174.12246323 0 0 0 0 -56889381.82611084 53721056.077414036 0 53721056.077414036 81659387.952911258 0 0 0 0 -83058306.819793701 13705740.718357921 0 13705740.718357921 121847584.44835705 0 0 0 0 -52399565.284431458 18813799.161130667 0 18813799.161130667 120818688.50902367 0 0 0 0 -42304719.240234375 12641041.103466034 0 12641041.103466034 118724991.81944036 0 0 0 0 -39625103.609573364 41347058.331076622 0 41347058.331076622 111473065.20232999 0 0 0 0 -15149102.517749786 30474372.391952932 0 30474372.391952932 99589290.614733696 0 0 0 0 -70534484.069961548 -23581814.569525957 0 -23581814.569525957 185323194.57206726 0 0 0 0 -73633193.765319824 44319276.940881014 0 44319276.940881014 143278476.30271196 0 0 0 0 -2108558.7524492592 -95103.513554033823 0 -95103.513554033823 355946.34877157933 0 0 0 0 9333962.6112670898 -67324775.699545145 0 -67324775.699545145 130610037.36003661 0 0 0 0 -3854141.4261207581 1619922.1890214682 0 1619922.1890214682 -2231864.8390971422 0 0 0 0 -22595806.434612274 -1997556.2854355574 0 -1997556.2854355574 -2537722.8503158092 0 0 0 0 -3767070.815449765 -1128122.465345379 0 -1128122.465345379 -1238543.7128890124 0 0 0 0 -7603771.2490585186 289631.26180688292 0 289631.26180688292 326926.54321765742 0 0 0 0 12196645.558395386 -19632777.908227921 0 -19632777.908227921 38693955.8616395 0 0 0 0 -7119841.293715477 4391314.3981806012 0 4391314.3981806012 2239583.1167037059 0 0 0 0 10482667.686340332 -23917427.185820341 0 -23917427.185820341 60630668.080092907 0 0 0 0 -11966617.90385437 18761625.95584631 0 18761625.95584631 38427434.104495525 0 0 0 0 -9326255.6560592651 50964919.175371259 0 50964919.175371259 96340380.989666462 0 0 0 0 -5871884.0041656494 -5642019.8934965134 0 -5642019.8934965134 122613612.20415851 0 0 0 0 -7751249.9906005859 3070878.2963946676 0 3070878.2963946676 1606295.8058608258 0 0 0 0 -10046754.300655365 -1930385.8961134232 0 -1930385.8961134232 1174423.7052160613 0 0 0 0 -4226390.1156005412 1024055.9497316293 0 1024055.9497316293 544260.44989191997 0 0 0 0 -6545293.1024494171 -1523747.8003214784 0 -1523747.8003214784 -1014166.9573827679 0 0 0 0 -1418251.0916137695 -429734.76190122962 0 -429734.76190122962 541635.09491631389 0 0 0 0 -5482115.0333371013 73318.237480122596 0 73318.237480122596 -689246.05643645825 0 0 0 0 -11547014.261672974 5856320.7031770851 0 5856320.7031770851 3288014.6909520552 0 0 0 0 -6751213.1434326172 -4182881.4640084337 0 -4182881.4640084337 -500896.46176173724 0 0 0 0 -292891.04919153079 182254.03765713796 0 182254.03765713796 215709.66278031655 0 0 0 0 -3885871.6504040658 -986012.65839683264 0 -986012.65839683264 63099.944387891614 0 0 0 0 -7283894.1820526123 -96065.398402014747 0 -96065.398402014747 508376.76935823262 0 0 0 0 -9933348.1593933105 -1911757.5525673414 0 -1911757.5525673414 1121860.2879678546 0 0 0 0 -9227060.3093261719 -414273.14053810854 0 -414273.14053810854 581502.90296649165 0 0 0 0 -10114827.20275116 -2065160.3308331422 0 -2065160.3308331422 1022768.5509609915 0 0 0 0 -11279227.114456177 113810.2121170563 0 113810.2121170563 1836667.3446064726 0 0 0 0 -3763325.6259034891 242781.26824389026 0 242781.26824389026 216198.82439797409 0 0 0 0 -8039907.2774658203 -2103953.7825266807 0 -2103953.7825266807 2679.9585906584875 0 0 0 0 -3654638.6089019775 -596762.13465438504 0 -596762.13465438504 367206.54318544781 0 0 0 0 -10025715.703865051 -1864804.8131565927 0 -1864804.8131565927 1216396.9978012452 0 0 0 0 -1023036544.1293335 -31490746.192526516 0 -31490746.192526516 -313759.58953632182 0 0 0 0 -1572342252.2034397 168441506.92449662 0 168441506.92449662 244368346.89730242 0 0 0 0 -1482537636.0843964 167676715.08352751 0 167676715.08352751 -83799915.137550727 0 0 0 0 -1071654652.473671 -593457821.84310162 0 -593457821.84310162 -106188517.6799262 0 0 0 0 -697371.35283163935 -12863.397027146071 0 -12863.397027146071 9250.9073749668132 0 0 0 0 -4402754.6195392609 15136.011180818081 0 15136.011180818081 -721254.65988183022 0 0 0 0 -2829490.8427734375 -409205.58863069862 0 -409205.58863069862 -1781354.9205290899 0 0 0 0 -1722095.2823904194 -117751.5005183015 0 -117751.5005183015 44200.480079461035 0 0 0 0 -3163269.9442466274 148733.09543291293 0 148733.09543291293 -169410.81649517309 0 0 0 0 -397151504.97929001 125106760.84778804 0 125106760.84778804 -58711630.971977711 0 0 0 0 -116681767.99358368 -108635694.96832749 0 -108635694.96832749 -69781634.01787734 0 0 0 0 -329045686.74650574 -9724956.303481251 0 -9724956.303481251 38819101.229573041 0 0 0 0 -177177244.45950317 -1594053.4224370047 0 -1594053.4224370047 -113557761.53111009 0 0 0 0 -818625308.7746613 828652378.24954426 0 828652378.24954426 -419520854.10515285 0 0 0 0 -775945681.32591343 135885334.37413809 0 135885334.37413809 78056021.080768108 0 0 0 0 -3434212.9889298826 -754521.07702571154 0 -754521.07702571154 -596188.74099479557 0 0 0 0 -1103882.4098708993 290228.06046330184 0 290228.06046330184 1118853.6835948357 0 0 0 0 -74281223.103658676 130791337.01930097 0 130791337.01930097 -157049451.57784334 0 0 0 0 -258042785.2690506 -71408167.560699522 0 -71408167.560699522 -17242484.666937634 0 0 0 0 -5398092.0876579285 -370517050.82133615 0 -370517050.82133615 -763432198.29453933 0 0 0 0 -1518559.2738569602 -57400.304245022126 0 -57400.304245022126 -585339.48186678067 0 0 0 0 -1254603044.7202835 -753611112.63600767 0 -753611112.63600767 -246754796.87394166 0 0 0 0 -1572501348.5039933 -725451132.28832126 0 -725451132.28832126 106212917.26421301 0 0 0 0 -1188900961.190834 -407655927.05674112 0 -407655927.05674112 -111639659.81999131 0 0 0 0 -1189370907.2120857 -395611529.57841313 0 -395611529.57841313 84158594.750068724 0 0 0 0 -827328520.57321167 -492803909.00488091 0 -492803909.00488091 -132278097.42528248 0 0 0 0 175087061.47587967 -226649162.47397339 0 -226649162.47397339 -109411607.73023319 0 0 0 0 -777373481.64363098 84789196.600112796 0 84789196.600112796 173833309.06375271 0 0 0 0 -968222.81932982244 -388516.88799502887 0 -388516.88799502887 -718674.77173840231 0 0 0 0 -242455185.65155029 -388532457.75624549 0 -388532457.75624549 -169715717.71624941 0 0 0 0 -44818318.570655823 28745814.388467968 0 28745814.388467968 44334240.050858259 0 0 0 0 -115355437.42205811 -9149507.1736884713 0 -9149507.1736884713 32666340.390228063 0 0 0 0 -11623495.514856339 -1513667.2206821442 0 -1513667.2206821442 -97861476.355584383 0 0 0 0 -55525273.844078064 10780691.398886621 0 10780691.398886621 60221248.913570911 0 0 0 0 -58981491.927394867 54307728.290877491 0 54307728.290877491 -29215265.611197174 0 0 0 0 -41177775.482013702 36007334.57677798 0 36007334.57677798 -64939600.229424179 0 0 0 0 -92718578.874500275 -17102087.018838853 0 -17102087.018838853 -55203743.675494671 0 0 0 0 -145369866.12699127 23357263.67460297 0 23357263.67460297 -85132803.999222964 0 0 0 0 -99258249.728401184 -23465154.691826604 0 -23465154.691826604 -68370110.541890666 0 0 0 0 -220319687.33369064 -203161791.19524002 0 -203161791.19524002 -120659953.54543903 0 0 0 0 -262924104.68406677 -162547537.08133754 0 -162547537.08133754 -150871016.05461809 0 0 0 0 -688653818.55371094 -254070734.75617415 0 -254070734.75617415 -72913500.587108001 0 0 0 0 -271780070.01099396 -53347308.053094462 0 -53347308.053094462 -101550723.6119799 0 0 0 0 -247388030.64416504 -80461304.09253034 0 -80461304.09253034 -87794642.174862802 0 0 0 0 -98468686.05562973 11108607.742999211 0 11108607.742999211 -77540054.977710307 0 0 0 0 -84754439.724945068 -24341063.519081123 0 -24341063.519081123 -140811452.1759758 0 0 0 0 -261582872.96598053 37505423.448631436 0 37505423.448631436 7334587.6426906809 0 0 0 0 -67000885.638141632 -63474507.9379104 0 -63474507.9379104 -90004480.833868474 0 0 0 0 -477593701.49542236 -135958050.12396055 0 -135958050.12396055 -18883328.259230763 0 0 0 0 -646578978.04853439 90474226.610728085 0 90474226.610728085 54350788.849805489 0 0 0 0 -1165114056.1242981 -148309401.69317022 0 -148309401.69317022 272184711.13924611 0 0 0 0 -1575253737.0487354 -355634284.29690069 0 -355634284.29690069 232373293.11397251 0 0 0 0 -740443423.2379837 -218944744.09578192 0 -218944744.09578192 42231176.903558731 0 0 0 0 -1126222193.6285667 -233591503.09893423 0 -233591503.09893423 124065500.65274239 0 0 0 0 -7718478.6921424866 -2997895.8813202381 0 -2997895.8813202381 -21316584.088251352 0 0 0 0 -2909384.9340951554 2962182.6173829529 0 2962182.6173829529 -1958796.2966555334 0 0 0 0 -44814611.981285095 -29319767.557611942 0 -29319767.557611942 8767476.198636055 0 0 0 0 -21195929.948883057 26438784.210393429 0 26438784.210393429 -6629588.3409231901 0 0 0 0 -93769041.016921997 -2049279.2459045053 0 -2049279.2459045053 -17810251.084264994 0 0 0 0 -103894396.64319611 -14412671.216462672 0 -14412671.216462672 -2462862.4469802976 0 0 0 0 -102567191.02682495 -47033103.669151068 0 -47033103.669151068 -43128913.927444279 0 0 0 0 104677327.58691788 117948708.90789855 0 117948708.90789855 56562838.345783234 0 0 0 0 85554298.463516235 -10947041.451638937 0 -10947041.451638937 -13871889.366973877 0 0 0 0 -621475.92308013886 543601.97097714804 0 543601.97097714804 203682.98919596698 0 0 0 0 135115939.97768784 73756992.758452654 0 73756992.758452654 -65831454.003019214 0 0 0 0 -1827016.8169708252 -9386084.4809513092 0 -9386084.4809513092 1709855.6342794895 0 0 0 0 -2192560.4775543213 -283482.19151544571 0 -283482.19151544571 -94510869.239314556 0 0 0 0 -156969371.46097326 -34339057.218755156 0 -34339057.218755156 -93647609.133389473 0 0 0 0 -151117462.96825409 -3206359.7333652973 0 -3206359.7333652973 -21357412.53950572 0 0 0 0 -134575757.94126892 55733983.348183393 0 55733983.348183393 108534054.22299135 0 0 0 0 -98275223.401463509 -41884551.954901636 0 -41884551.954901636 65651985.394226551 0 0 0 0 -95542981.922330856 -28539489.992853343 0 -28539489.992853343 -85929479.304889679 0 0 0 0 -129656789.0260849 77129802.200772285 0 77129802.200772285 -28355955.366850376 0 0 0 0 90410331.688610077 -20855990.98428452 0 -20855990.98428452 -69710779.640793324 0 0 0 0 -11103114.733931541 33574970.520188376 0 33574970.520188376 59909974.625738859 0 0 0 0 -3883871.192429591 3140699.9531958383 0 3140699.9531958383 -1468805.9847641555 0 0 0 0 -16877143.32315731 -1771691.742233783 0 -1771691.742233783 33786601.637135029 0 0 0 0 118927392.05407715 196743769.25257063 0 196743769.25257063 -13735036.143220544 0 0 0 0 81250401.539169312 -125967232.06734204 0 -125967232.06734204 -38431022.234428883 0 0 0 0 -47100433.690963745 17814624.849053144 0 17814624.849053144 71645537.065733433 0 0 0 0 -54545435.248790741 -13630780.121937901 0 -13630780.121937901 58343752.464178562 0 0 0 0 -49918123.901260376 -130778956.52103996 0 -130778956.52103996 45781279.973089874 0 0 0 0 -45911802.20463562 -18304222.535480738 0 -18304222.535480738 57060946.478057384 0 0 0 0 43401299.662384033 74518835.890666008 0 74518835.890666008 34261472.064418316 0 0 0 0 -1403990.714242693 -10501.654987004586 0 -10501.654987004586 238193.93120654149 0 0 0 0 -49110279.773391724 -13647827.553090334 0 -13647827.553090334 58085046.591904998 0 0 0 0 -32401550.125938416 -21402435.296163559 0 -21402435.296163559 56587220.247435808 0 0 0 0 -56192596.084833145 1254993.9103468955 0 1254993.9103468955 30745368.025266171 0 0 0 0 -49112736.464828491 -13283393.942652464 0 -13283393.942652464 53039803.934994221 0 0 0 0 -25448152.814147949 -12851195.797630548 0 -12851195.797630548 34758210.947894335 0 0 0 0 15939567.674797058 2795309.1080880165 0 2795309.1080880165 8411118.3073146343 0 0 0 0 -371981458.25160599 -225161767.82108104 0 -225161767.82108104 -56250091.295854688 0 0 0 0 -10949742.044418335 -26186840.032734036 0 -26186840.032734036 44204209.437072754 0 0 0 0 379654334.88970184 -199789471.19538999 0 -199789471.19538999 -717445732.94839048 0 0 0 0 -19641898.808456421 -110106185.08565211 0 -110106185.08565211 -53063999.037662983 0 0 0 0 -420026593.28814697 -302517467.8903718 0 -302517467.8903718 -133304178.64910889 0 0 0 0 -206455529.99996948 -238975985.11733484 0 -238975985.11733484 -119667211.71119714 0 0 0 0 -445095050.58200836 -71699471.846952319 0 -71699471.846952319 -25330705.172754288 0 0 0 0 -307551204.35238647 -12823154.657806873 0 -12823154.657806873 -2818716.8867526054 0 0 0 0 -227727271.06564713 56085490.326593518 0 56085490.326593518 -22378556.911267042 0 0 0 0 -248826704.97463989 -295467390.57323492 0 -295467390.57323492 -16606616.356094182 0 0 0 0 -977183.85133187473 -560715.2761725029 0 -560715.2761725029 -132344.72914360487 0 0 0 0 -10760954.927146912 97186630.324628472 0 97186630.324628472 103914289.93028164 0 0 0 0 34213014.851154327 98727231.118237019 0 98727231.118237019 -86716615.192034721 0 0 0 0 21713199.169498444 -119742571.54347318 0 -119742571.54347318 -217719561.82251438 0 0 0 0 -958941.32737999782 -125089.46723354887 0 -125089.46723354887 233954.27880098158 0 0 0 0 -40570441.177259445 77245192.617952526 0 77245192.617952526 23397307.114036798 0 0 0 0 19918823.876937866 -5108758.5889511108 0 -5108758.5889511108 69164454.444254041 0 0 0 0 13179995.24438858 11194600.795855641 0 11194600.795855641 92841008.054414272 0 0 0 0 16046288.465881348 -22533232.644551754 0 -22533232.644551754 46899736.073903799 0 0 0 0 -36162450.660892487 -1315590.624730587 0 -1315590.624730587 203146577.52894759 0 0 0 0 -2622110.702907078 -1021130.7950906483 0 -1021130.7950906483 -66693.476616593893 0 0 0 0 -7866173.7941169739 -65214105.338986158 0 -65214105.338986158 -27619798.967980087 0 0 0 0 35849379.977935791 -6936762.2521871328 0 -6936762.2521871328 -80131938.795118809 0 0 0 0 20743814.462245941 4598276.2089104652 0 4598276.2089104652 63823054.989957333 0 0 0 0 14183128.901063919 -33361465.115860343 0 -33361465.115860343 54117882.364395618 0 0 0 0 22945559.377593994 -44031983.864733696 0 -44031983.864733696 -17215322.445566893 0 0 0 0 4490565.0455245972 -83229163.40883109 0 -83229163.40883109 -38403068.806564979 0 0 0 0 14957050.428836823 -38233617.722053111 0 -38233617.722053111 -21266949.412505925 0 0 0 0 -39303794.15845871 -56684124.815918297 0 -56684124.815918297 22279128.722351253 0 0 0 0 -76174179.409034729 39125356.000701666 0 39125356.000701666 42417980.008185208 0 0 0 0 -118540251.65322113 68770976.01000452 0 68770976.01000452 35372849.119859517 0 0 0 0 -169644854.71896744 -130997791.753323 0 -130997791.753323 -13912942.429248393 0 0 0 0 -126540186.09695435 -31843672.147067338 0 -31843672.147067338 68594687.05984205 0 0 0 0 -137958567.98406982 -70011815.833686054 0 -70011815.833686054 24727053.413851589 0 0 0 0 -23969169.074100494 47525557.782446839 0 47525557.782446839 -14690325.521884795 0 0 0 0 -394081.42049919069 -158163.80851981789 0 -158163.80851981789 330009.85128168052 0 0 0 0 37297823.515012741 21035028.290071361 0 21035028.290071361 -20366398.893690228 0 0 0 0 -32781998.19921875 -50474645.573082298 0 -50474645.573082298 -29226475.637063976 0 0 0 0 -133095448.18778229 -25909707.375806034 0 -25909707.375806034 -1946960.4265280366 0 0 0 0 -36487806.354266167 -57535039.612149537 0 -57535039.612149537 -41553610.237118691 0 0 0 0 -960426.44355301932 -740972.07800302468 0 -740972.07800302468 671985.2380070776 0 0 0 0 2155660.3122406006 -22774158.884794116 0 -22774158.884794116 -35900037.411707506 0 0 0 0 3226689.9763832092 -17444078.632170498 0 -17444078.632170498 -20753968.906445742 0 0 0 0 -2244479.3448809776 -1698306.124807857 0 -1698306.124807857 1119225.1979918727 0 0 0 0 -7439403.3503417969 31764905.936204433 0 31764905.936204433 -23395852.955926418 0 0 0 0 15479879.764686823 -12350718.844576288 0 -12350718.844576288 -12482882.480093956 0 0 0 0 -15789973.67224884 -22804714.154576659 0 -22804714.154576659 -5489136.3337009847 0 0 0 0 16402860.526375055 1345037.8750095814 0 1345037.8750095814 -5978904.9837867022 0 0 0 0 480460.21501159668 6299406.7321858406 0 6299406.7321858406 13072057.481359482 0 0 0 0 -769270.70961942896 -111003.69717139751 0 -111003.69717139751 691586.22133737942 0 0 0 0 -142797757.19019699 3334721.2603731006 0 3334721.2603731006 11978141.04556483 0 0 0 0 -92375167.556488037 -43772900.313048393 0 -43772900.313048393 -2176434.6724148551 0 0 0 0 -25136640.956245422 -16403179.229531318 0 -16403179.229531318 680159.34698945284 0 0 0 0 -28034823.593811035 -9091425.1922031641 0 -9091425.1922031641 -15809157.135399401 0 0 0 0 -27160633.208602905 -21643276.337652773 0 -21643276.337652773 -20764522.572273731 0 0 0 0 -23185062.060333252 -13340842.670925707 0 -13340842.670925707 -3430390.2501312494 0 0 0 0 -58606051.889526367 -17361871.345803082 0 -17361871.345803082 -4450387.8123935908 0 0 0 0 -76702318.202941895 -15646291.583150089 0 -15646291.583150089 -6475867.0988547206 0 0 0 0 -84899964.859321594 4077563.4869312793 0 4077563.4869312793 -3307453.3013460636 0 0 0 0 -98064469.401916504 -4394407.2571910024 0 -4394407.2571910024 2601040.4269025326 0 0 0 0 -136917506.92167664 30286073.096419334 0 30286073.096419334 -10523569.441656977 0 0 0 0 -50662996.416978836 8319674.0083017796 0 8319674.0083017796 -86337286.413155556 0 0 0 0 -100270497.53805542 -102560653.70520234 0 -102560653.70520234 -16826474.815536499 0 0 0 0 -50564234.986297607 98660910.346328259 0 98660910.346328259 -114104322.80064964 0 0 0 0 -153564.51211177185 534363.58698082529 0 534363.58698082529 21298.932065920199 0 0 0 0 -116168333.30843353 -48513286.32507053 0 -48513286.32507053 -6121133.457120657 0 0 0 0 1667511.5631967112 2287782.1912972294 0 2287782.1912972294 -168316.92358228413 0 0 0 0 -18329242.150760651 9950253.8135166466 0 9950253.8135166466 7647713.17395854 0 0 0 0 -1280291.0695114136 252922.55170053244 0 252922.55170053244 317151.83357554488 0 0 0 0 -1722506.9643096924 -583216.98660051823 0 -583216.98660051823 5548427.1713991165 0 0 0 0 -2407706.6615542267 516524.9001969751 0 516524.9001969751 -762971.45429316908 0 0 0 0 -35221267.26852417 -6911801.6709191501 0 -6911801.6709191501 -15453194.386394024 0 0 0 0 -672391.75049970206 445431.57842580974 0 445431.57842580974 -649337.59350997955 0 0 0 0 8529492.3505859375 -7496377.255638957 0 -7496377.255638957 6827653.5954356194 0 0 0 0 -1068255.2975843027 860053.38106446667 0 860053.38106446667 216937.97160085279 0 0 0 0 9791093.7537918091 -32467669.744282722 0 -32467669.744282722 28366210.530633926 0 0 0 0 13768925.065555573 -29798754.069420815 0 -29798754.069420815 3105985.2531766891 0 0 0 0 26713877.419433594 -9197447.7043852806 0 -9197447.7043852806 4339290.8065097928 0 0 0 0 35046399.220321655 -27244598.65067625 0 -27244598.65067625 3401075.5609732866 0 0 0 0 -9185231.1854171753 -2596307.9418033957 0 -2596307.9418033957 -9416793.2224611938 0 0 0 0 49155550.525966644 -14919787.349338055 0 -14919787.349338055 -6642960.1737861633 0 0 0 0 -803270.23660140298 140762.82973153889 0 140762.82973153889 -33731.457134958939 0 0 0 0 -1594254.7293261494 1788965.2781454679 0 1788965.2781454679 -2071772.8268911049 0 0 0 0 -138697622.86464643 10865881.067808148 0 10865881.067808148 28274906.584314674 0 0 0 0 39858547.42357254 -28006726.621423006 0 -28006726.621423006 -9670638.2520341873 0 0 0 0 21963020.695632935 -50961988.347168922 0 -50961988.347168922 -20118729.480464935 0 0 0 0 55072466.511032104 -12432719.419795752 0 -12432719.419795752 -38862735.234321594 0 0 0 0 48501496.88331604 4252895.3104212284 0 4252895.3104212284 16718127.865181923 0 0 0 0 124933919.53046417 22023357.163292646 0 22023357.163292646 -42822555.720342636 0 0 0 0 -2131280.0502249785 2487182.4076756295 0 2487182.4076756295 -2066789.3287288372 0 0 0 0 7061235.2617797852 2311800.4038816914 0 2311800.4038816914 -13739006.675491124 0 0 0 0 627191.74352467433 139812.27043822594 0 139812.27043822594 -717903.12621529785 0 0 0 0 -129411968.34754181 -93921226.630842149 0 -93921226.630842149 -11877135.902872175 0 0 0 0 -163456838.29338074 16192914.167673588 0 16192914.167673588 -50356818.10440731 0 0 0 0 -180528938.74324989 -17527788.367195129 0 -17527788.367195129 -90734994.914396286 0 0 0 0 -88042102.020111084 -56092558.231431961 0 -56092558.231431961 -50514180.714008331 0 0 0 0 17678735.337600708 -34507215.149735451 0 -34507215.149735451 -32488812.30478406 0 0 0 0 13436986.869102478 -19512769.864253759 0 -19512769.864253759 -79453711.525006771 0 0 0 0 80181200.150871277 6103918.4619874954 0 6103918.4619874954 -65178781.896611214 0 0 0 0 -59295697.456336975 -31544370.971665859 0 -31544370.971665859 -26870402.279449463 0 0 0 0 -4555322.2800140381 -57498023.739909172 0 -57498023.739909172 -39195793.593079805 0 0 0 0 -53801551.284416199 -23858755.97650528 0 -23858755.97650528 -88308182.466292381 0 0 0 0 -122913086.21812439 -43299087.336968422 0 -43299087.336968422 -26369906.243721962 0 0 0 0 -52054994.529636383 -48055312.159923017 0 -48055312.159923017 15328078.989659309 0 0 0 0 -58828373.140174866 -8801799.4441003799 0 -8801799.4441003799 -9864867.7435355186 0 0 0 0 14040440.023300171 -3982039.9395723343 0 -3982039.9395723343 42714032.779001236 0 0 0 0 3205493.8207321167 -45930934.616678238 0 -45930934.616678238 4548895.4898099303 0 0 0 0 2021804.452129364 -39204325.596883774 0 -39204325.596883774 4428723.5392594337 0 0 0 0 -16877905.95475769 -56107704.82858777 0 -56107704.82858777 54291718.151121616 0 0 0 0 -3111507.1127396375 -989692.88721754111 0 -989692.88721754111 -467518.67821766238 0 0 0 0 11989341.164634705 -10647812.247701406 0 -10647812.247701406 377689.69777917862 0 0 0 0 -8505259.2863845825 -7473284.0077266693 0 -7473284.0077266693 21960945.733884037 0 0 0 0 -8513054.8383298814 -360056.88065533875 0 -360056.88065533875 83300696.275464058 0 0 0 0 -41947.386534936726 -347585.71030008234 0 -347585.71030008234 -498375.71749157459 0 0 0 0 -2997194.2468869872 -951933.17797508091 0 -951933.17797508091 -578412.97901918332 0 0 0 0 -15440059.848922729 424810.27543783188 0 424810.27543783188 20831826.069492817 0 0 0 0 -63732743.880340576 -4473621.0692105293 0 -4473621.0692105293 90171069.655498505 0 0 0 0 -13470006.271751404 -24534107.351650715 0 -24534107.351650715 80064747.265878916 0 0 0 0 -36513055.718730927 28973861.190390587 0 28973861.190390587 74481152.314914703 0 0 0 0 19450975.263103485 36046575.09970808 0 36046575.09970808 57197826.17283392 0 0 0 0 -877098.35383505188 -798280.60456541739 0 -798280.60456541739 -1160932.1105771733 0 0 0 0 -552655725.16851807 56190267.888260365 0 56190267.888260365 -57362108.729007721 0 0 0 0 -713261181.43054199 19934684.310956955 0 19934684.310956955 48811312.214567542 0 0 0 0 -42114.066088434309 -102535.5553998379 0 -102535.5553998379 -250104.39318589796 0 0 0 0 -362904.25230272207 -156695.06806310639 0 -156695.06806310639 -382037.33514872612 0 0 0 0 87196682.277908325 265897737.11434197 0 265897737.11434197 -59427495.831859589 0 0 0 0 -83642713.564414978 25212772.110575378 0 25212772.110575378 74441632.704758644 0 0 0 0 -72934970.357467651 -8351191.4715266228 0 -8351191.4715266228 7977961.988535881 0 0 0 0 -827838852.86235809 -9674768.4876179695 0 -9674768.4876179695 -5459977.2029619217 0 0 0 0 -1219742320.7409286 79885142.798057318 0 79885142.798057318 -3559831.9739675522 0 0 0 0 -630233959.95550537 -27492734.881317616 0 -27492734.881317616 -63864012.84643364 0 0 0 0 -647040015.41165161 -20687620.121747017 0 -20687620.121747017 -114322982.83686841 0 0 0 0 -764478921.75724792 79717251.711987495 0 79717251.711987495 -152610799.46541572 0 0 0 0 -728321690.07868576 -22835883.671593904 0 -22835883.671593904 -52543252.48429966 0 0 0 0 -835296758.10656738 207991452.05080152 0 207991452.05080152 -359260249.60434175 0 0 0 0 -789782489.67889404 91011676.519113779 0 91011676.519113779 -73952019.842671394 0 0 0 0 -1139265279.1479111 392317799.07751179 0 392317799.07751179 -348533648.11195469 0 0 0 0 -990956482.50737 172065077.16706347 0 172065077.16706347 -21681170.849112034 0 0 0 0 -864522229.03211975 78584495.954487324 0 78584495.954487324 46303233.692711353 0 0 0 0 -909831713.4312191 137329424.79799819 0 137329424.79799819 -21884613.219487667 0 0 0 0 -868113261.21111679 152399615.51784459 0 152399615.51784459 -109767779.16874647 0 0 0 0 -886011214.90760422 177919534.20335913 0 177919534.20335913 -75831876.575221777 0 0 0 0 -838203879.25993347 70064955.31610322 0 70064955.31610322 33627370.703895569 0 0 0 0 -888439517.06176567 95818088.193017602 0 95818088.193017602 76520237.670782089 0 0 0 0 -941411701.05578613 24574574.980543613 0 24574574.980543613 106796469.245718 0 0 0 0 -733444360.35112762 8652248.1443457603 0 8652248.1443457603 95159544.282422185 0 0 0 0 -940595962.63839722 76658383.669690847 0 76658383.669690847 75648828.027812958 0 0 0 0 -882029323.55637932 118916862.9502399 0 118916862.9502399 150604417.61148167 0 0 0 0 -790036856.99554062 -7313315.6249566078 0 -7313315.6249566078 133311344.16699362 0 0 0 0 -698619168.51578903 24821775.97439599 0 24821775.97439599 120830216.19589806 0 0 0 0 -572106340.7930603 242927432.77356386 0 242927432.77356386 262613083.56159496 0 0 0 0 -680654125.20274162 1193950.9655573368 0 1193950.9655573368 149850274.85835266 0 0 0 0 -1364221134.8691635 116351156.22106957 0 116351156.22106957 274997126.06340992 0 0 0 0 -803264006.69361115 -43502932.112790823 0 -43502932.112790823 55438454.81566906 0 0 0 0 -922321591.26547241 67668241.440663338 0 67668241.440663338 202567143.62934065 0 0 0 0 -743403289.07441711 97396503.922430933 0 97396503.922430933 47327429.946927071 0 0 0 0 -696129631.18819427 98240640.133842945 0 98240640.133842945 17935959.425979376 0 0 0 0 -894792456.15060425 136584724.52665949 0 136584724.52665949 68743880.52468729 0 0 0 0 -438223244.66326141 50134837.893302202 0 50134837.893302202 -47769943.468379974 0 0 0 0 -432310452.90563965 -23822650.455119133 0 -23822650.455119133 -27345943.668906689 0 0 0 0 -703995511.23561859 58473080.493391991 0 58473080.493391991 23040664.961382389 0 0 0 0 -390025965.3367157 27634529.305315256 0 27634529.305315256 -3665174.1216864586 0 0 0 0 -391618741.82032388 108936588.21114996 0 108936588.21114996 -30979709.92825985 0 0 0 0 -134246312.087111 81187222.758636504 0 81187222.758636504 -74873548.633961678 0 0 0 0 -750567569.46602631 232344677.63670588 0 232344677.63670588 8234479.3557567596 0 0 0 0 -874992788.49274635 170594023.48235935 0 170594023.48235935 -71936784.862383842 0 0 0 0 -721597286.20882416 52449839.102477551 0 52449839.102477551 9982313.015683651 0 0 0 0 22219938.517988205 -87726743.986352026 0 -87726743.986352026 148784442.64886403 0 0 0 0 -12264475.083175659 2350320.8801600933 0 2350320.8801600933 5989698.4695372581 0 0 0 0 -3660936.1605687849 595868.18654738367 0 595868.18654738367 3428264.6887486326 0 0 0 0 -4528820.8428478241 1789764.3284974992 0 1789764.3284974992 4931613.4182617664 0 0 0 0 -6587893.1042098999 -858171.32954931259 0 -858171.32954931259 1935990.8450753689 0 0 0 0 -4475967.3526323847 -1247577.8456126899 0 -1247577.8456126899 2246654.6906903395 0 0 0 0 -2759459.6441015638 -790273.71313957567 0 -790273.71313957567 1327192.8320651697 0 0 0 0 -1967595.2092921641 -384789.8461330086 0 -384789.8461330086 301263.87982454081 0 0 0 0 188768.3323802948 -6622034.8135524988 0 -6622034.8135524988 4492746.4153418541 0 0 0 0 -11911273.183258057 -4995408.7085502148 0 -4995408.7085502148 10981464.662842274 0 0 0 0 -125406449.51995468 -110309795.50215459 0 -110309795.50215459 -93748303.565582275 0 0 0 0 -495776604.38781357 14863512.202210665 0 14863512.202210665 64215435.557538509 0 0 0 0 -662585789.30150604 -414360134.30238986 0 -414360134.30238986 -259741402.56520653 0 0 0 0 -5346306.5582733154 2112492.1587457657 0 2112492.1587457657 -6387673.5955982208 0 0 0 0 -847473.33305473626 101710.20807865262 0 101710.20807865262 641896.71580362786 0 0 0 0 -1344393974.8547983 7772152.5130239725 0 7772152.5130239725 109911519.46626282 0 0 0 0 -764327618.87750244 -160979698.93135548 0 -160979698.93135548 111897129.15432325 0 0 0 0 -772554794.98018646 -72860297.291864395 0 -72860297.291864395 119729981.83918619 0 0 0 0 -1066342403.7518101 -12343842.551974893 0 -12343842.551974893 119754404.38104343 0 0 0 0 -719957790.68405151 -58735834.097932339 0 -58735834.097932339 86386323.170097351 0 0 0 0 -743713912.21277618 -46308688.826700211 0 -46308688.826700211 83215227.981220007 0 0 0 0 -742055826.54557037 10991725.410640001 0 10991725.410640001 161723269.76009989 0 0 0 0 -731371827.6215992 18062861.330837965 0 18062861.330837965 43490011.742949963 0 0 0 0 -742192181.61129761 -46601103.693137884 0 -46601103.693137884 79564534.336791992 0 0 0 0 -559380.7787853051 -65070.73601097241 0 -65070.73601097241 -65821.226847691927 0 0 0 0 -2758077.8893814087 -38087177.248343945 0 -38087177.248343945 11124445.97822094 0 0 0 0 -735666537.83041382 -33239554.432140827 0 -33239554.432140827 77900377.39896065 0 0 0 0 -756732295.15642548 -33617164.283179045 0 -33617164.283179045 85993710.993732691 0 0 0 0 -2684210.5213965736 -486599.66937664896 0 -486599.66937664896 2082028.2668543623 0 0 0 0 -19408840.472688675 11721221.916430175 0 11721221.916430175 2383688.0107884407 0 0 0 0 188744100.73802185 -306124160.94693935 0 -306124160.94693935 117428539.12496319 0 0 0 0 -14495972.622543335 -74604157.653740168 0 -74604157.653740168 187719125.51578826 0 0 0 0 -104729884.98187256 -29685702.628762722 0 -29685702.628762722 171124109.93972731 0 0 0 0 -510869313.53210449 185631751.75378036 0 185631751.75378036 26891568.00824663 0 0 0 0 -234519822.97311783 261161529.70019901 0 261161529.70019901 -128851429.16023397 0 0 0 0 -337305625.0124054 34458463.437881708 0 34458463.437881708 -50755827.997009218 0 0 0 0 -162584204.10881805 -18611373.551880479 0 -18611373.551880479 -376108515.69502449 0 0 0 0 -147518636.43025303 -232492054.09535259 0 -232492054.09535259 318666.24714541435 0 0 0 0 -72968417.067764282 128810065.73273504 0 128810065.73273504 -155116213.42451096 0 0 0 0 -19917502.484205246 -90905665.04559961 0 -90905665.04559961 129178407.23371744 0 0 0 0 345350290.3099823 -52729473.060377955 0 -52729473.060377955 -55734190.144858122 0 0 0 0 70776367.4429245 86647383.981303573 0 86647383.981303573 -56061879.345715165 0 0 0 0 -171102344.5879612 69919361.149317861 0 69919361.149317861 83828612.296386242 0 0 0 0 59063709.280418396 -111711405.71990728 0 -111711405.71990728 322911854.42349148 0 0 0 0 121809586.28362274 77449462.230881214 0 77449462.230881214 79990513.276011586 0 0 0 0 387891052.57434464 -532677543.43452215 0 -532677543.43452215 224466132.13427329 0 0 0 0 459922181.19213963 -383602909.65124261 0 -383602909.65124261 121685115.62995267 0 0 0 0 -609749863.47664261 58919708.652329087 0 58919708.652329087 34526060.90211463 0 0 0 0 -609531432.48166656 64181236.840067625 0 64181236.840067625 -4522013.7978578806 0 0 0 0 -1795509.1224663183 -750437.72398569621 0 -750437.72398569621 843455.76510603901 0 0 0 0 -886246932.99414825 298602711.80314398 0 298602711.80314398 -105805921.39094377 0 0 0 0 -679946647.35942841 123269600.40987921 0 123269600.40987921 23922361.362231255 0 0 0 0 -823645082.62723541 84997722.97097826 0 84997722.97097826 135125155.21386611 0 0 0 0 -1487952421.3275452 461366165.66956842 0 461366165.66956842 23207392.541365027 0 0 0 0 -607719.01522856578 -282737.95617961884 0 -282737.95617961884 99747.373954040231 0 0 0 0 -1102683836.1507721 -254153314.96414214 0 -254153314.96414214 -49964041.380996704 0 0 0 0 -587177175.50097656 -233365341.09420705 0 -233365341.09420705 227051298.83577085 0 0 0 0 -902389168.41692162 -84636798.266209647 0 -84636798.266209647 189964566.99838686 0 0 0 0 -879028705.45342159 -193385069.37748647 0 -193385069.37748647 -38707816.811953783 0 0 0 0 -1178607789.222641 -279974490.52008289 0 -279974490.52008289 131980109.36078751 0 0 0 0 -991023033.8883934 -13298460.94660132 0 -13298460.94660132 21711108.246929407 0 0 0 0 -419549484.74961853 -99511861.588882685 0 -99511861.588882685 9969731.5631946325 0 0 0 0 -486582110.92487335 -28794384.377639174 0 -28794384.377639174 -26356024.763145804 0 0 0 0 -204726521.08141327 60355817.770872414 0 60355817.770872414 -101028075.47824937 0 0 0 0 14340878.941314697 -80528846.293520689 0 -80528846.293520689 -22948890.396195233 0 0 0 0 -181915986.04418182 223867436.32901943 0 223867436.32901943 6301932.3789166808 0 0 0 0 -250033367.07242966 143942942.27523422 0 143942942.27523422 33103607.870238066 0 0 0 0 -54359557.988815308 -10258009.9372558 0 -10258009.9372558 101668416.86086023 0 0 0 0 -291405643.61631012 86187100.00754559 0 86187100.00754559 -19876578.044546425 0 0 0 0 -272566975.15675259 186666172.75950772 0 186666172.75950772 -19299313.564347744 0 0 0 0 -302308348.89418793 142717280.8037467 0 142717280.8037467 -63082327.955476105 0 0 0 0 -309980489.89723206 151858882.72842002 0 151858882.72842002 814696.69890415668 0 0 0 0 -336212835.48408508 144875586.91450131 0 144875586.91450131 13943746.403989553 0 0 0 0 -341666215.46747589 174416838.25413382 0 174416838.25413382 35135656.938137412 0 0 0 0 -357002544.71508789 173220560.41183639 0 173220560.41183639 62251098.194468737 0 0 0 0 -328697079.64339447 193514345.33450127 0 193514345.33450127 36120698.909511566 0 0 0 0 -275906131.94345093 159880857.24782163 0 159880857.24782163 27022713.892018795 0 0 0 0 -343481332.14191437 246284125.25820601 0 246284125.25820601 10064467.191878736 0 0 0 0 -512578342.6228981 158381770.0414629 0 158381770.0414629 61502936.596976042 0 0 0 0 -800846200.50425148 -210928251.82907414 0 -210928251.82907414 -106632089.64248991 0 0 0 0 -808659913.04698181 27801375.420883894 0 27801375.420883894 -101905470.08771616 0 0 0 0 -716598571.40937424 -128563625.18420088 0 -128563625.18420088 4948340.3304615021 0 0 0 0 -499216557.540802 30463714.674921751 0 30463714.674921751 -50066837.812247217 0 0 0 0 -351175271.67399216 -141793432.67626834 0 -141793432.67626834 -22516668.458679199 0 0 0 0 -452108813.53666687 -141255461.05575442 0 -141255461.05575442 -65704496.748667002 0 0 0 0 -410922616.23539734 4499342.9170427322 0 4499342.9170427322 -29113252.087219 0 0 0 0 -726534521.33501434 -92683027.079681158 0 -92683027.079681158 -1598414.9347991943 0 0 0 0 -1147778794.2085609 -92199557.364981174 0 -92199557.364981174 120186628.27511024 0 0 0 0 -706520568.4959259 11818962.201942444 0 11818962.201942444 -9805652.1538963318 0 0 0 0 -667940.70925053116 394006.69066608138 0 394006.69066608138 419842.5385875185 0 0 0 0 -741956551.28287506 -156693295.25491643 0 -156693295.25491643 -108811490.92327356 0 0 0 0 -685597.32082024962 539507.95233709924 0 539507.95233709924 113488.57290520705 0 0 0 0 -197374469.89359665 202847986.7418797 0 202847986.7418797 14117727.788203001 0 0 0 0 -285974410.34642029 -83524004.154654622 0 -83524004.154654622 -24562093.883769512 0 0 0 0 -669888877.54125214 -214838813.83656645 0 -214838813.83656645 80868654.739106655 0 0 0 0 -579063770.67215729 90419342.675430298 0 90419342.675430298 164317932.14082956 0 0 0 0 -697118574.21938324 -61316468.738239765 0 -61316468.738239765 160348309.90110397 0 0 0 0 -950007314.40891457 30159232.511360347 0 30159232.511360347 162695422.97789288 0 0 0 0 -722949570.52178574 -16873731.873164028 0 -16873731.873164028 14835392.526823997 0 0 0 0 -886970799.24949265 34427613.903028905 0 34427613.903028905 -55538497.525301188 0 0 0 0 -1321967.5313127413 1081088.2563669886 0 1081088.2563669886 217348.59417144954 0 0 0 0 -721598915.88903046 -17998067.455703974 0 -17998067.455703974 -14881815.092653871 0 0 0 0 -732505270.37143326 -28248748.784293711 0 -28248748.784293711 19590194.345464945 0 0 0 0 -734862367.77952957 -25842473.797068119 0 -25842473.797068119 43370704.050863445 0 0 0 0 -1422003.7986984462 973022.04915179312 0 973022.04915179312 889304.86849349295 0 0 0 0 -298766126.65503883 70167860.392366335 0 70167860.392366335 -100191886.59957039 0 0 0 0 -731508.1002972126 579796.69426931068 0 579796.69426931068 131725.41768001273 0 0 0 0 -467873624.73182869 -151360847.9672246 0 -151360847.9672246 -63700451.638392448 0 0 0 0 -785132797.08488464 35043799.61285007 0 35043799.61285007 -10355096.792017177 0 0 0 0 -756403254.71773911 -196113195.06990284 0 -196113195.06990284 -61590435.203352451 0 0 0 0 -509940328.01826859 14625324.964766145 0 14625324.964766145 -46067000.311126977 0 0 0 0 -1055235711.2124424 -86311562.851656109 0 -86311562.851656109 102071735.14378929 0 0 0 0 -510495469.01854324 12638032.068571091 0 12638032.068571091 80381811.72529161 0 0 0 0 -169899038.75608635 -177951441.82291967 0 -177951441.82291967 89673283.003030539 0 0 0 0 -362242334.47953415 109070258.61683762 0 109070258.61683762 30108305.110263057 0 0 0 0 -3547362.351379104 2588924.7962763049 0 2588924.7962763049 -1045341.9312371993 0 0 0 0 -78781182.03352356 325313125.7103045 0 325313125.7103045 62942191.008210659 0 0 0 0 -106758630.71669006 -51147711.608889103 0 -51147711.608889103 291764871.6467948 0 0 0 0 157355672.62379456 -104743057.01268101 0 -104743057.01268101 45500603.589122295 0 0 0 0 -39477626.96761322 21298123.967917204 0 21298123.967917204 -25417846.622248888 0 0 0 0 -1546820.6882368028 1009569.4252904411 0 1009569.4252904411 -395199.88469457452 0 0 0 0 168387653.24441433 317464168.75985426 0 317464168.75985426 -52687069.919571638 0 0 0 0 -1475441391.5053406 -492126394.59760392 0 -492126394.59760392 213493116.42579985 0 0 0 0 -376055663.78534389 -107744888.43719769 0 -107744888.43719769 -76085257.86564827 0 0 0 0 -819147392.41699982 -174314127.62416422 0 -174314127.62416422 -1678771.2742558718 0 0 0 0 -1583648.2880216762 1145092.8810749333 0 1145092.8810749333 242307.06949706579 0 0 0 0 -1042101892.3502579 -98176361.595321417 0 -98176361.595321417 122545480.61198509 0 0 0 0 -850581917.29265213 -89245441.387524545 0 -89245441.387524545 89650722.602427542 0 0 0 0 -625750538.37101746 103026068.21253809 0 103026068.21253809 54169209.290457152 0 0 0 0 -822845897.7206459 -54363318.277412787 0 -54363318.277412787 -22674941.84724246 0 0 0 0 -545518942.70689297 97531823.521722376 0 97531823.521722376 -765087941.06743479 0 0 0 0 -891205473.78629303 -44605064.962150156 0 -44605064.962150156 13222295.340749979 0 0 0 0 -1223295160.2545929 183342956.87913942 0 183342956.87913942 222579959.00486422 0 0 0 0 -1239307.6867555534 690141.33063725382 0 690141.33063725382 -617562.45478172787 0 0 0 0 -870370833.6828537 -55402950.015415937 0 -55402950.015415937 -40807103.794679165 0 0 0 0 -870984368.2419908 9281189.7366480697 0 9281189.7366480697 2384403.2403725386 0 0 0 0 -1094204401.8475075 -67592857.628007412 0 -67592857.628007412 28775410.455899194 0 0 0 0 -819478273.75700378 -23661408.274087369 0 -23661408.274087369 -55418770.88268441 0 0 0 0 -533680.60943258507 124241.61890235171 0 124241.61890235171 -389041.73444921884 0 0 0 0 -554777869.40854263 -33774264.012531817 0 -33774264.012531817 162542837.62798357 0 0 0 0 -547499516.18952179 -53517374.104223371 0 -53517374.104223371 75858948.975604296 0 0 0 0 -486954799.44313812 29817320.839360058 0 29817320.839360058 48182333.281893849 0 0 0 0 -267566588.37509155 78021769.580525875 0 78021769.580525875 12929819.58728224 0 0 0 0 -472325321.09244537 60632800.372666717 0 60632800.372666717 15506031.838594645 0 0 0 0 -265011135.7228241 64628785.516284525 0 64628785.516284525 -43543702.843176365 0 0 0 0 -121067630.95339203 17758314.238825321 0 17758314.238825321 -45314764.520710371 0 0 0 0 -152308770.92309952 24941145.518082261 0 24941145.518082261 -20517465.162788391 0 0 0 0 -67062114.002532959 202230450.06163949 0 202230450.06163949 -73598548.927054644 0 0 0 0 -645471851.59049225 66548683.783734918 0 66548683.783734918 239559761.6911602 0 0 0 0 -443889479.71882629 403671780.94066203 0 403671780.94066203 -64795503.217381716 0 0 0 0 -596152650.53100586 240428455.23482835 0 240428455.23482835 -23966233.825605869 0 0 0 0 -283346330.01303101 141540769.1188724 0 141540769.1188724 -54516681.785117447 0 0 0 0 -261792992.32666016 93032377.969668359 0 93032377.969668359 -72762828.08017078 0 0 0 0 -297621376.33789062 106153769.78551069 0 106153769.78551069 -28839727.680761814 0 0 0 0 -304525601.42146301 122560808.39734536 0 122560808.39734536 -25108528.253944039 0 0 0 0 -319929096.48197937 110326877.70692477 0 110326877.70692477 -48490525.007112488 0 0 0 0 -313466972.49804688 131785070.72436804 0 131785070.72436804 -34621233.25451237 0 0 0 0 -294209227.23795319 107544899.45641468 0 107544899.45641468 -65968709.470557094 0 0 0 0 -299302440.7528801 114436599.30183464 0 114436599.30183464 -73263683.981023386 0 0 0 0 -359517409.72891998 131417280.28587586 0 131417280.28587586 -52057575.979218617 0 0 0 0 -344683233.41779423 69000156.370102987 0 69000156.370102987 -94126409.801925883 0 0 0 0 -486082464.32224274 42999928.229398452 0 42999928.229398452 -64961778.119041607 0 0 0 0 -373955825.75775909 84199772.700434983 0 84199772.700434983 -83566202.119855762 0 0 0 0 -377014911.39061737 95673131.392880291 0 95673131.392880291 -58823591.841979347 0 0 0 0 -514804127.73833466 80664566.452117443 0 80664566.452117443 -29080883.943981439 0 0 0 0 -595784884.71500397 39279722.590616778 0 39279722.590616778 -38145406.972254097 0 0 0 0 -546310345.55312347 10640999.387307346 0 10640999.387307346 -63481543.063187808 0 0 0 0 -511913597.96674347 70946176.998608381 0 70946176.998608381 -71128748.060452491 0 0 0 0 -524370250.41298676 15431118.875160068 0 15431118.875160068 -67799691.708109677 0 0 0 0 -544985541.95446777 60656298.618410945 0 60656298.618410945 -106029248.9391349 0 0 0 0 -598258335.74723244 -19352584.452214163 0 -19352584.452214163 -112066606.86619076 0 0 0 0 -760937410.66325378 -27640589.086556852 0 -27640589.086556852 -38622156.641804636 0 0 0 0 -782265094.66979599 -121064.70929315686 0 -121064.70929315686 -12847139.538587391 0 0 0 0 -741779883.1644249 57894657.024924643 0 57894657.024924643 -24446777.778262258 0 0 0 0 -780357844.00429535 -37562561.476806104 0 -37562561.476806104 -16714742.782979038 0 0 0 0 -811549554.16940308 14928086.666778445 0 14928086.666778445 3122494.8788967133 0 0 0 0 -705964397.50625873 28383874.627281506 0 28383874.627281506 -42201641.876427293 0 0 0 0 -707739013.98329926 48034500.176471561 0 48034500.176471561 7866250.7976255715 0 0 0 0 -558123583.7556839 83612522.684148729 0 83612522.684148729 -48559876.157279313 0 0 0 0 -678806950.85947037 4018599.4457377642 0 4018599.4457377642 -13986530.002107441 0 0 0 0 -551514375.14219666 65358779.32707727 0 65358779.32707727 -13038487.665031403 0 0 0 0 -419052118.40447235 76249906.494265556 0 76249906.494265556 -59482453.590555757 0 0 0 0 -591520350.43199158 117684835.20287292 0 117684835.20287292 9631750.9573426545 0 0 0 0 -397135487.91210938 157223419.73047239 0 157223419.73047239 -46903397.087161779 0 0 0 0 -423176108.68220139 155522218.71655235 0 155522218.71655235 -42870285.243211254 0 0 0 0 -910420.92093527317 -235864.50834181719 0 -235864.50834181719 -241166.88684016163 0 0 0 0 -326872123.93946266 60279301.195689179 0 60279301.195689179 -65564054.54852888 0 0 0 0 -410439289.87679672 101637811.90001978 0 101637811.90001978 -21079666.987877741 0 0 0 0 -418336736.47960663 89594881.819199443 0 89594881.819199443 -3474977.1587184072 0 0 0 0 -5856707.726020813 286983.33471491537 0 286983.33471491537 -786162.57424551179 0 0 0 0 -7423.8749573705718 139.78250494413078 0 139.78250494413078 -1843.7813003384849 0 0 0 0 -1453828.8305701911 -130510.14934315905 0 -130510.14934315905 52243.009160203648 0 0 0 0 -5487261.66173172 2248734.9981585643 0 2248734.9981585643 -52276.699134431197 0 0 0 0 -424718765.63991547 147088946.72190011 0 147088946.72190011 -49726974.706178203 0 0 0 0 -1961921.1927003991 -162552.83085524105 0 -162552.83085524105 -149117.6700120965 0 0 0 0 -999705.49181406572 -362244.51854490303 0 -362244.51854490303 -245139.80943038294 0 0 0 0 -551591131.03231049 76962477.258411735 0 76962477.258411735 -55893611.164758414 0 0 0 0 -424563052.46449852 150002399.97964475 0 150002399.97964475 -84695808.791462898 0 0 0 0 -596972588.50533295 141651851.94242769 0 141651851.94242769 -54498788.87737456 0 0 0 0 -487413198.08029175 187903008.04086605 0 187903008.04086605 3441788.0705350637 0 0 0 0 -873792121.42697906 174401647.89460871 0 174401647.89460871 -41975639.872653544 0 0 0 0 -858738313.35028839 -14885979.412326064 0 -14885979.412326064 -27334251.412051849 0 0 0 0 -764898691.95615387 65003003.778198957 0 65003003.778198957 -16076972.718844473 0 0 0 0 -593209456.90155888 73527604.724473089 0 73527604.724473089 -38592048.120451927 0 0 0 0 -748612942.56305885 11388061.510664772 0 11388061.510664772 -36158420.363280594 0 0 0 0 -830979922.66059113 -8567966.754429847 0 -8567966.754429847 -20353443.262983531 0 0 0 0 -839414058.15213776 2045105.9107823297 0 2045105.9107823297 -12547304.873817652 0 0 0 0 -836086412.18207645 -5336480.53295926 0 -5336480.53295926 -48458512.354814678 0 0 0 0 -877710116.41082668 -18149452.59889251 0 -18149452.59889251 -9628200.8451561816 0 0 0 0 -893728207.02537918 36168796.008108526 0 36168796.008108526 -59079285.553448662 0 0 0 0 -870082201.98714066 49293840.604169905 0 49293840.604169905 -39692096.513253838 0 0 0 0 -889092907.32102776 13367201.87471861 0 13367201.87471861 -93261545.011879593 0 0 0 0 -1021671035.3899231 98158148.848623157 0 98158148.848623157 -80056.284641688806 0 0 0 0 -998423777.60903168 -13814507.914571505 0 -13814507.914571505 -50363798.502818406 0 0 0 0 -1111908442.2627411 140521460.12329704 0 140521460.12329704 5878834.400597468 0 0 0 0 -542752.70763897896 -177600.8339149151 0 -177600.8339149151 -89231.089660909201 0 0 0 0 -459904330.20679474 165767771.38748187 0 165767771.38748187 -150675256.64189482 0 0 0 0 -5599612.2314338684 -110617.87921573617 0 -110617.87921573617 -3411.5833727133154 0 0 0 0 -930853409.95162964 9206610.4018790144 0 9206610.4018790144 5828120.7188235009 0 0 0 0 -1171639.1993633881 34077.055428940803 0 34077.055428940803 80847.411448110783 0 0 0 0 -9010.1493901768699 438.92537561431527 0 438.92537561431527 -602.58646868274081 0 0 0 0 -4549598.610458374 770606.20160116861 0 770606.20160116861 -160309.24819558614 0 0 0 0 -6739007.7917671204 1420972.5097963864 0 1420972.5097963864 -61622.664330494765 0 0 0 0 -6497995.1440925598 1473794.230852979 0 1473794.230852979 -55071.086774640426 0 0 0 0 -633692193.2447052 101114348.64502689 0 101114348.64502689 -8589416.8802470211 0 0 0 0 -311325924.61856461 22101387.811961263 0 22101387.811961263 -48532407.857819051 0 0 0 0 -462492862.3779192 4346037.2016644515 0 4346037.2016644515 8683596.8535897136 0 0 0 0 -286829847.43619537 19930963.065980047 0 19930963.065980047 -6043956.9192956686 0 0 0 0 -454695109.99917483 53014123.543183237 0 53014123.543183237 -65882965.584350973 0 0 0 0 -494023223.60850525 -43941026.621108979 0 -43941026.621108979 -13645794.230206817 0 0 0 0 -993234178.32372665 40346279.811585858 0 40346279.811585858 222215.40899065137 0 0 0 0 -862273690.91221619 37457640.943287067 0 37457640.943287067 -52007088.988250941 0 0 0 0 -782018912.81032181 -26344552.832392085 0 -26344552.832392085 -44302283.768883318 0 0 0 0 -788938623.98051643 -21970584.247560956 0 -21970584.247560956 9505293.4761409685 0 0 0 0 -786881464.4086647 -20022788.235021442 0 -20022788.235021442 -22830.005917644008 0 0 0 0 -694782595.07462311 69338226.554402262 0 69338226.554402262 -439405.42797645181 0 0 0 0 -583485332.43011856 -20181190.865016706 0 -20181190.865016706 30063.924769922181 0 0 0 0 -455135599.72565842 -20593549.141748708 0 -20593549.141748708 -9974346.8688111231 0 0 0 0 -331819822.67544556 -33025171.374660317 0 -33025171.374660317 -50320.257550153961 0 0 0 0 -467917578.0042305 72465115.436854497 0 72465115.436854497 -20117296.580361217 0 0 0 0 -270566469.90363693 36671969.16960007 0 36671969.16960007 -2000483.2030535266 0 0 0 0 -154848436.19290161 -34314833.896280751 0 -34314833.896280751 -3152.2326990621186 0 0 0 0 -161429728.27917862 -9303646.0434624404 0 -9303646.0434624404 25867539.540256441 0 0 0 0 -164165981.16284943 -23463620.283275336 0 -23463620.283275336 -32492302.837280914 0 0 0 0 -28381045.121261597 -32716033.033648308 0 -32716033.033648308 -12775.838577314526 0 0 0 0 -101051861.43875885 8602182.3964200057 0 8602182.3964200057 2149609.1444316059 0 0 0 0 -79020330.686988831 -37754395.463164359 0 -37754395.463164359 -3211898.3250778839 0 0 0 0 -24995927.571075439 5049414.866519466 0 5049414.866519466 16062287.51927647 0 0 0 0 -122123.30179551244 -108027.16842113249 0 -108027.16842113249 -27810.970994960924 0 0 0 0 -77815046.177192688 -37327168.246781915 0 -37327168.246781915 30127900.362624213 0 0 0 0 -84704637.93608284 -21398879.206867438 0 -21398879.206867438 13091222.104593903 0 0 0 0 33893800.151100159 1955069.4284819365 0 1955069.4284819365 -52589072.957430065 0 0 0 0 -94171228.915290833 -16652281.227861285 0 -16652281.227861285 33338325.295733511 0 0 0 0 -8518070.8323364258 -52767115.369550586 0 -52767115.369550586 -62645254.02033478 0 0 0 0 58928658.988273621 -80786183.614495292 0 -80786183.614495292 -59297759.947945356 0 0 0 0 -308556515.29224777 -2433377.509331286 0 -2433377.509331286 29338977.883113921 0 0 0 0 5909.3245373368263 -131080.45137980953 0 -131080.45137980953 -75201.487349386851 0 0 0 0 -196081405.25110435 -11543283.929280579 0 -11543283.929280579 -30785769.634828329 0 0 0 0 -179551624.11095047 -51796034.90334335 0 -51796034.90334335 -12563929.124371767 0 0 0 0 -293838349.48265648 1342847.7066817284 0 1342847.7066817284 -11324251.003907442 0 0 0 0 -204287604.26634216 -31279129.78800106 0 -31279129.78800106 -39933875.035292685 0 0 0 0 -199446061.40266418 -5024513.1192109585 0 -5024513.1192109585 -29033146.118568182 0 0 0 0 -205079371.84828949 -24192488.830965877 0 -24192488.830965877 -8932202.6791064739 0 0 0 0 -167026874.62992096 -28306771.149275184 0 -28306771.149275184 -30692182.94813633 0 0 0 0 -157239877.33198547 -51822962.991324425 0 -51822962.991324425 -4384494.9551708698 0 0 0 0 -175296727.22441101 -63333840.011923075 0 -63333840.011923075 5608822.2171003819 0 0 0 0 -173676566.92314911 -14223028.859812737 0 -14223028.859812737 24568705.333596945 0 0 0 0 -165205478.02596664 -54251322.921903282 0 -54251322.921903282 12536045.499532938 0 0 0 0 -135645330.25471306 -33247533.763718992 0 -33247533.763718992 -522942.98535346985 0 0 0 0 -134541206.34890747 -40884003.340012908 0 -40884003.340012908 -14701236.520797372 0 0 0 0 -200524819.80465496 -48887026.943265133 0 -48887026.943265133 7472831.8643212318 0 0 0 0 -31873811.373585224 7622190.4668439664 0 7622190.4668439664 -17463490.206195831 0 0 0 0 -56771.819733139127 -490346.90346268006 0 -490346.90346268006 34456.640370605164 0 0 0 0 -37432328.812034607 -65718301.167724133 0 -65718301.167724133 -34369368.676303804 0 0 0 0 -1468441.1672744751 -19419043.864977509 0 -19419043.864977509 -9376172.7467778921 0 0 0 0 -2666850.190071106 15860813.296291798 0 15860813.296291798 15996014.009405687 0 0 0 0 -69208992.295623779 -4674329.8942434788 0 -4674329.8942434788 6468239.3013348579 0 0 0 0 -40585384.269195557 -28013146.250433922 0 -28013146.250433922 3908233.6772125363 0 0 0 0 -67545383.164993286 -23957225.499644041 0 -23957225.499644041 -4608917.7473928928 0 0 0 0 -86195981.73859787 20473263.556861877 0 20473263.556861877 17541698.340243816 0 0 0 0 -290580587.54101562 38071303.155207038 0 38071303.155207038 16325586.289927006 0 0 0 0 -314762.58055681735 -211959.82166145928 0 -211959.82166145928 37932.235545690637 0 0 0 0 637154.69544172287 46689845.596584365 0 46689845.596584365 165849748.66090298 0 0 0 0 9148.7854279205203 -268012.09955889545 0 -268012.09955889545 37363.709727849811 0 0 0 0 -798847.0717639327 -573236.08509118669 0 -573236.08509118669 136637.05246233707 0 0 0 0 -7413898.1327514648 -23361716.731718779 0 -23361716.731718779 97454896.673228741 0 0 0 0 -40061173.065895081 -64731575.122841358 0 -64731575.122841358 119565730.68747735 0 0 0 0 -123333559.76344299 -87602959.857736826 0 -87602959.857736826 171249291.59526062 0 0 0 0 -35980663.332382202 -83846268.380137503 0 -83846268.380137503 -4390205.8297863007 0 0 0 0 -31702881.395820618 -163724647.02426708 0 -163724647.02426708 -44945896.389916897 0 0 0 0 -169333945.77423096 -44183290.412716866 0 -44183290.412716866 2862418.884547472 0 0 0 0 -164554435.82382965 -52435366.281760931 0 -52435366.281760931 -11859672.176440239 0 0 0 0 32577248.69821167 -162310540.21756637 0 -162310540.21756637 -65403726.22886467 0 0 0 0 52851481.642627716 -114620234.38823116 0 -114620234.38823116 -33603961.649840832 0 0 0 0 -85913233.259155273 -205287272.05621052 0 -205287272.05621052 -14563609.58360815 0 0 0 0 -22966428.806182861 -157224095.90941238 0 -157224095.90941238 -45077006.797891736 0 0 0 0 -41402077.438545227 -164379974.24095654 0 -164379974.24095654 16634197.432053566 0 0 0 0 -530283.18743038177 19796.730936815031 0 19796.730936815031 78213.4391302109 0 0 0 0 -29737735.839531898 99777202.136893213 0 99777202.136893213 -89734795.773421764 0 0 0 0 -117849532.38709259 105918133.60892725 0 105918133.60892725 113781838.84363461 0 0 0 0 -140475551.99795532 43095460.593947411 0 43095460.593947411 38779546.885693431 0 0 0 0 -150492358.42483521 -44933738.430472374 0 -44933738.430472374 91712009.486713886 0 0 0 0 -80314470.094839096 -87974207.415812492 0 -87974207.415812492 40530077.308334351 0 0 0 0 -132559534.32617188 -40484701.063333035 0 -40484701.063333035 656586.06155157089 0 0 0 0 -153855645.59215736 -77147083.438663542 0 -77147083.438663542 13656368.710792065 0 0 0 0 -221787937.72080231 -112960904.30696964 0 -112960904.30696964 -45222444.218974382 0 0 0 0 -145901955.49256516 -36025670.694705009 0 -36025670.694705009 26909506.664851189 0 0 0 0 -31557891.537769318 -11662459.85030663 0 -11662459.85030663 39669311.617076874 0 0 0 0 -27501952.324552536 4427100.3075985909 0 4427100.3075985909 42540972.71061039 0 0 0 0 -41259952.802368164 -6991354.2498574257 0 -6991354.2498574257 33683968.476431131 0 0 0 0 -16607596.698265076 -9550213.4687640667 0 -9550213.4687640667 28187563.664881945 0 0 0 0 -16748622.253952026 -22873865.473379612 0 -22873865.473379612 21001479.309626102 0 0 0 0 -3201004.3215818405 -22566632.473507926 0 -22566632.473507926 5707543.3106293678 0 0 0 0 -2681149.7866368294 -17649508.292205304 0 -17649508.292205304 6896659.1355838776 0 0 0 0 -4606439.9340028763 -19728509.840579808 0 -19728509.840579808 28109280.196193695 0 0 0 0 -5920493.1220550537 -9007963.7852761745 0 -9007963.7852761745 32963038.501642704 0 0 0 0 -5234154.3454728313 -674469.07016589632 0 -674469.07016589632 258230.15796000895 0 0 0 0 -9978142.944732666 -17519008.047734976 0 -17519008.047734976 61136748.461325169 0 0 0 0 -955117.03828525543 -18962137.812638611 0 -18962137.812638611 41721005.633268356 0 0 0 0 -25261537.398910522 663048.98761057854 0 663048.98761057854 70057405.006676912 0 0 0 0 -938270.37542871758 -1392178.7928344505 0 -1392178.7928344505 115812.99870551744 0 0 0 0 -4301376.0122375488 -13234271.253252029 0 -13234271.253252029 7132095.0830776691 0 0 0 0 -4001731.9007415771 2734389.4725747108 0 2734389.4725747108 46281378.933494091 0 0 0 0 19341405.778347015 11824321.573655009 0 11824321.573655009 -4003118.5619542599 0 0 0 0 -8287054.085357666 -3533491.9307498932 0 -3533491.9307498932 45006005.059768677 0 0 0 0 -5527725.1962585449 19868167.695010662 0 19868167.695010662 17011986.063477039 0 0 0 0 -23905157.014190674 124976951.70202971 0 124976951.70202971 -20218510.962230206 0 0 0 0 -155887204.07104492 81633672.652135372 0 81633672.652135372 -26818223.813133299 0 0 0 0 1031949.7930297852 60888176.853192091 0 60888176.853192091 -63554308.834910631 0 0 0 0 -254405.64057601988 -133667.89818838006 0 -133667.89818838006 -17314.134398430528 0 0 0 0 -64804499.122816086 147318022.31811917 0 147318022.31811917 47850516.475180626 0 0 0 0 -9585827.9475898743 -27098426.460436225 0 -27098426.460436225 15296584.992137671 0 0 0 0 -84560493.384780884 95799759.049996376 0 95799759.049996376 141604659.21617365 0 0 0 0 -58575161.903076172 -22582014.353357077 0 -22582014.353357077 142927265.77636561 0 0 0 0 -31409077.940643311 23783483.500488043 0 23783483.500488043 60626177.204394817 0 0 0 0 -41315617.956390381 9461060.470746994 0 9461060.470746994 46070713.300648659 0 0 0 0 -47910221.495910645 44183973.669945717 0 44183973.669945717 38727314.609745026 0 0 0 0 -46659089.587158203 49999339.823848724 0 49999339.823848724 48693412.651803255 0 0 0 0 -58078234.041419983 3585347.2601239681 0 3585347.2601239681 47053042.101111889 0 0 0 0 -54935202.152130127 9767538.7619349957 0 9767538.7619349957 57561355.31561929 0 0 0 0 -49810314.800762177 -13142315.58800739 0 -13142315.58800739 22653022.170216799 0 0 0 0 -110433987.08057785 -18590644.168653488 0 -18590644.168653488 24185212.13415885 0 0 0 0 -70582023.155853271 1240409.1311945915 0 1240409.1311945915 48450526.674035072 0 0 0 0 -35572652.380989075 13530783.7304492 0 13530783.7304492 4226625.7202757895 0 0 0 0 -26243838.95778656 -7708260.150623858 0 -7708260.150623858 6813234.2609531879 0 0 0 0 -674806.10062798113 -625859.3382936772 0 -625859.3382936772 -76430.808047824306 0 0 0 0 23955930.551063538 -13846266.842476189 0 -13846266.842476189 -16518129.210481137 0 0 0 0 -44912351.213768005 10630814.023747206 0 10630814.023747206 -10196534.979327559 0 0 0 0 -180201445.4991684 9153584.7066983581 0 9153584.7066983581 -10210948.38057356 0 0 0 0 -279077.69908196852 -205718.25414102338 0 -205718.25414102338 -7069.2439106577076 0 0 0 0 -87537346.791618347 -86301401.449733019 0 -86301401.449733019 -83918720.024559498 0 0 0 0 -40059991.379760742 -48797085.235745549 0 -48797085.235745549 -24581969.33526206 0 0 0 0 -1729618.8081512451 -23560337.75084424 0 -23560337.75084424 -88608867.939048409 0 0 0 0 -43996270.285308838 -35273489.737081528 0 -35273489.737081528 -26051456.628010988 0 0 0 0 -22448746.062103271 -29850156.445560336 0 -29850156.445560336 -4371572.3007860482 0 0 0 0 -16049266.304458618 -27740685.541213036 0 -27740685.541213036 -4085883.8218996525 0 0 0 0 -47097319.06322813 -28804679.014608055 0 -28804679.014608055 18089330.724440098 0 0 0 0 -45901004.195007324 -5033413.3640344143 0 -5033413.3640344143 32933553.9164114 0 0 0 0 -17243154.495254517 -29835606.08554697 0 -29835606.08554697 -1360.8772206306458 0 0 0 0 -12661006.857467651 -42327269.98310411 0 -42327269.98310411 -25184112.63240099 0 0 0 0 4993212.2670898438 -28042709.272648215 0 -28042709.272648215 -14395538.918288469 0 0 0 0 17465144.079948425 -24342986.129904687 0 -24342986.129904687 -39369039.408775985 0 0 0 0 -2307132.0101470947 -23254207.108648002 0 -23254207.108648002 -27311517.063774228 0 0 0 0 30572490.004753113 -8826517.6797933578 0 -8826517.6797933578 -44311234.17367667 0 0 0 0 -10567604.671958923 10237384.502810001 0 10237384.502810001 -17364607.724863887 0 0 0 0 -25004478.527412415 -17309537.359322846 0 -17309537.359322846 -37289664.630635023 0 0 0 0 -24946103.077190399 228738.69640335441 0 228738.69640335441 -174864719.05835092 0 0 0 0 -8469793.3898773193 9755257.5045924783 0 9755257.5045924783 -68634773.71834743 0 0 0 0 -71183714.844551086 31744361.214223415 0 31744361.214223415 -5856778.537114203 0 0 0 0 -23408717.280281067 -6143799.0146403015 0 -6143799.0146403015 23845835.79944706 0 0 0 0 -13119942.753456116 24875177.81966123 0 24875177.81966123 -4665105.0808126032 0 0 0 0 35973583.29777813 36960454.306473985 0 36960454.306473985 -2348429.1904108524 0 0 0 0 31908512.548649788 -5366738.0668666139 0 -5366738.0668666139 9481910.8963603973 0 0 0 0 12914912.584068298 17886911.121826798 0 17886911.121826798 17278912.766039252 0 0 0 0 23807961.354263306 7310100.2724664807 0 7310100.2724664807 -22931923.41611445 0 0 0 0 14765417.449554443 14725987.032256916 0 14725987.032256916 -105227900.80664706 0 0 0 0 -72553511.929786682 -96665144.055498302 0 -96665144.055498302 -85236950.489923626 0 0 0 0 -143802540.76329041 49070217.327097178 0 49070217.327097178 -15561794.952880859 0 0 0 0 -76345718.618867874 -10795968.552817404 0 -10795968.552817404 33246088.592880726 0 0 0 0 -59433464.221054077 -9876043.2671512663 0 -9876043.2671512663 32405555.855803818 0 0 0 0 30128873.749743462 3716836.4367123991 0 3716836.4367123991 12759236.416612446 0 0 0 0 22566959.981609344 -47871584.973033212 0 -47871584.973033212 12360824.20662237 0 0 0 0 -8847052.2542495728 -86378678.70893538 0 -86378678.70893538 38265256.614655241 0 0 0 0 -250376.40753979981 -202614.95251567662 0 -202614.95251567662 -15796.199171905493 0 0 0 0 -45137491.575929642 6871937.9210304916 0 6871937.9210304916 43974300.300446749 0 0 0 0 -210674.94003210962 -115313.71389034949 0 -115313.71389034949 107195.77912354242 0 0 0 0 39990000.887908936 -27063136.755203441 0 -27063136.755203441 18830.749201781211 0 0 0 0 -103258300.06789017 22785476.771947145 0 22785476.771947145 41313414.786488056 0 0 0 0 8084358.0993804932 -4724287.285420672 0 -4724287.285420672 8335078.6943399096 0 0 0 0 54369912.044589996 25568696.744546428 0 25568696.744546428 979964.53210544586 0 0 0 0 45108319.918792725 -14733223.431211174 0 -14733223.431211174 33265995.112862974 0 0 0 0 83538850.277191162 -1055432.808058247 0 -1055432.808058247 11406992.49938507 0 0 0 0 40134610.71244812 11721956.208593592 0 11721956.208593592 34334414.405948192 0 0 0 0 58243238.474243164 39479180.200289488 0 39479180.200289488 38943639.476165175 0 0 0 0 17262.716154914349 -7177.1838211403228 0 -7177.1838211403228 1653.5103771938957 0 0 0 0 18865120.875839233 9924941.3144141734 0 9924941.3144141734 13144278.362986922 0 0 0 0 -46327856.91619873 -4335138.0342743993 0 -4335138.0342743993 31972578.658085018 0 0 0 0 -55090893.448310852 -19358834.19741632 0 -19358834.19741632 50315397.660479903 0 0 0 0 -3986873.2600708008 -34961766.230673283 0 -34961766.230673283 28568506.802728713 0 0 0 0 40845210.373825073 -18803550.41253227 0 -18803550.41253227 27602623.47628697 0 0 0 0 44360282.238983154 -70965810.836760104 0 -70965810.836760104 -71588.735372781099 0 0 0 0 -115222415.58159447 -16931772.468139231 0 -16931772.468139231 60945835.86421603 0 0 0 0 -66842122.393299103 -65960738.796349257 0 -65960738.796349257 35179485.956949517 0 0 0 0 120353274.62971115 6493344.2921532989 0 6493344.2921532989 -13037833.130453676 0 0 0 0 148421.59537426755 -100750.7342336718 0 -100750.7342336718 -12839.176473524303 0 0 0 0 131356.0017490387 -77751.289732816891 0 -77751.289732816891 -1.5294396269349022 0 0 0 0 107851.46929931641 -66105.770341279043 0 -66105.770341279043 47899.659312611468 0 0 0 0 34656.647119347006 -30706.071765684988 0 -30706.071765684988 63910.051728975384 0 0 0 0 -547087.81665039062 -603325.89821014809 0 -603325.89821014809 1040974.3937651181 0 0 0 0 -843751.76638031006 556099.94329771725 0 556099.94329771725 -54589.991347579722 0 0 0 0 -1126997.0225257874 -126327.81059560808 0 -126327.81059560808 2532894.5031406074 0 0 0 0 91961.989219665527 -37846.034001973312 0 -37846.034001973312 66.111841478429795 0 0 0 0 1561447.5309143066 788126.73051810544 0 788126.73051810544 -536228.75625861774 0 0 0 0 23351.786217875779 -10080.294443546329 0 -10080.294443546329 27423.043748269836 0 0 0 0 -105441.70471954346 -89691.673428189883 0 -89691.673428189883 43665.332574215849 0 0 0 0 -357833.60926055908 25817.899402195577 0 25817.899402195577 -202.95535920206734 0 0 0 0 573960.26116943359 -2541082.032688139 0 -2541082.032688139 2697654.6393722538 0 0 0 0 -599476.42367553711 -1073601.478289525 0 -1073601.478289525 4593186.3099094452 0 0 0 0 48376.272787701339 149037.40792129887 0 149037.40792129887 -64427.663476479043 0 0 0 0 1531583.4882049561 -1419479.9192163562 0 -1419479.9192163562 3270484.953158007 0 0 0 0 4874308.9532012939 -1905007.7620939827 0 -1905007.7620939827 679532.91103736171 0 0 0 0 1522489.5760917664 -2222282.6734787575 0 -2222282.6734787575 1571463.8929768249 0 0 0 0 1680330.0769882202 722014.78700954339 0 722014.78700954339 -316966.48649967671 0 0 0 0 780210.32795310393 18073.257738217711 0 18073.257738217711 -136827.72803760695 0 0 0 0 3414383.3486785889 1041976.0232869983 0 1041976.0232869983 -3110752.1952682734 0 0 0 0 2456160.3754348755 -1715175.2853069901 0 -1715175.2853069901 749573.72379016876 0 0 0 0 39586.564418792725 -755302.93890158739 0 -755302.93890158739 149654.41502226429 0 0 0 0 351572.66805225238 -103908.97651735321 0 -103908.97651735321 -228622.78290913545 0 0 0 0 309526.66574859619 -1026212.9484845088 0 -1026212.9484845088 238805.68707794618 0 0 0 0 285148.38555447944 -518347.23031170107 0 -518347.23031170107 399292.2529995552 0 0 0 0 28992637.270343781 -15771209.134943902 0 -15771209.134943902 -8353665.43407619 0 0 0 0 44779678.282413483 2776130.9257517457 0 2776130.9257517457 -21017205.093732953 0 0 0 0 236752.54246539064 -283827.85313479602 0 -283827.85313479602 112610.21577250012 0 0 0 0 -19529974.465393066 11134612.403535446 0 11134612.403535446 12360826.200375665 0 0 0 0 -45580179.384559631 -9685896.401972048 0 -9685896.401972048 4747980.7078832975 0 0 0 0 -18320255.010887146 -3321205.4846265446 0 -3321205.4846265446 6107871.8846066035 0 0 0 0 -16921034.069057465 -2202440.4209356103 0 -2202440.4209356103 9320.5509690147064 0 0 0 0 -18884080.309028625 -1094535.9590977638 0 -1094535.9590977638 1849426.0330958462 0 0 0 0 -16112075.800767899 -4643091.2710720608 0 -4643091.2710720608 2220321.7519305819 0 0 0 0 -20403986.310333252 -6232123.6918158671 0 -6232123.6918158671 2046831.8246123702 0 0 0 0 -10589685.895347595 -3765541.330736089 0 -3765541.330736089 4895.2449219355785 0 0 0 0 -2226172.9620361328 -2402813.1920531541 0 -2402813.1920531541 -1293450.1356455102 0 0 0 0 -10161709.362213135 -9459275.969059445 0 -9459275.969059445 -3432576.8806694224 0 0 0 0 -8833267.7978363037 -13714277.962647719 0 -13714277.962647719 -14250425.762120618 0 0 0 0 -3885367.1961288452 -1441508.3600474135 0 -1441508.3600474135 -1545797.2602130184 0 0 0 0 -2196797.9508895874 -837009.89975963207 0 -837009.89975963207 412525.4388400428 0 0 0 0 464528.40601348877 -605473.54526825994 0 -605473.54526825994 -626152.27810206031 0 0 0 0 -27705.841908531263 -60128.634966995567 0 -60128.634966995567 72763.50192646854 0 0 0 0 6201468.6864929199 -2538761.7778309099 0 -2538761.7778309099 -3395.9199876121293 0 0 0 0 -9476773.4698562622 -4575639.0480417628 0 -4575639.0480417628 -493998.09713038243 0 0 0 0 169716.10610481352 -137057.77200480364 0 -137057.77200480364 92692.415344090434 0 0 0 0 5113124.9911422729 2363423.4154126025 0 2363423.4154126025 1486683.2247647438 0 0 0 0 9430.965943980962 -4054.8394596795551 0 -4054.8394596795551 7197.2339589590802 0 0 0 0 1588541.9020690918 -4505918.2870060001 0 -4505918.2870060001 1309710.6227089777 0 0 0 0 946868.92176818848 -3328740.8769677286 0 -3328740.8769677286 3780276.2904257067 0 0 0 0 966032.93673706055 -150488.20649621717 0 -150488.20649621717 -547071.81610280753 0 0 0 0 295433.76762696728 -194924.50788525678 0 -194924.50788525678 60052.124673127342 0 0 0 0 346616.09189987183 -690574.65211516409 0 -690574.65211516409 -4578.3447570186108 0 0 0 0 1523961.1043891907 -1535595.7177658763 0 -1535595.7177658763 1895148.7915081237 0 0 0 0 1259229.3646612391 -499721.26717125811 0 -499721.26717125811 -274784.79827865819 0 0 0 0 3806258.3546047211 -2172581.9555552453 0 -2172581.9555552453 -644266.92339295149 0 0 0 0 2496292.6836853027 -1297249.1394879967 0 -1297249.1394879967 1333316.7724952698 0 0 0 0 4491661.7176246643 -7757317.3487671912 0 -7757317.3487671912 -10478124.780638844 0 0 0 0 -2698777.1286087036 5015913.1459828019 0 5015913.1459828019 -1341397.6976179481 0 0 0 0 -1236724.1311589107 -745679.53008185327 0 -745679.53008185327 472212.88451962097 0 0 0 0 -5264743.5627670288 -1719158.1428109109 0 -1719158.1428109109 16060002.167947821 0 0 0 0 -452496.48783669621 -157842.47571487259 0 -157842.47571487259 230481.88981867518 0 0 0 0 -11714590.876617432 -16382429.868863165 0 -16382429.868863165 -14730018.758388937 0 0 0 0 -5961982.3587875366 15852362.961352408 0 15852362.961352408 -35687445.971396387 0 0 0 0 -7224843.205947876 7462835.3948504925 0 7462835.3948504925 -16344721.043977499 0 0 0 0 -8131965.8167572021 -19946274.959486604 0 -19946274.959486604 -25716111.592855632 0 0 0 0 -1996208.2263031006 -42437.38956785202 0 -42437.38956785202 -26676646.887658775 0 0 0 0 -100518054.14549255 -24713044.88407252 0 -24713044.88407252 -3152711.6530871838 0 0 0 0 -153667.60452012718 -7208.8326858561486 0 -7208.8326858561486 59516.12682168551 0 0 0 0 -46171425.172851562 29912027.384588901 0 29912027.384588901 10896132.930114854 0 0 0 0 -122758.29479958117 -67413.295000437647 0 -67413.295000437647 9735.5925123968627 0 0 0 0 -52460904.168838501 -39219956.420485511 0 -39219956.420485511 -29141544.404140376 0 0 0 0 -56364223.720832825 119091015.56308572 0 119091015.56308572 13167025.071785823 0 0 0 0 -109489191.98580933 -4003844.3078513034 0 -4003844.3078513034 13200965.380648509 0 0 0 0 -52022001.977958679 536893.64288014174 0 536893.64288014174 8862049.669316411 0 0 0 0 -6568414.8404526711 3943668.2787250988 0 3943668.2787250988 9057904.7869365811 0 0 0 0 -6920228.125909809 -905644.07892772043 0 -905644.07892772043 463620.44813917222 0 0 0 0 -14415804.211608887 -5945259.2868707776 0 -5945259.2868707776 31214157.651087284 0 0 0 0 -8928997.4198226929 10416407.121817946 0 10416407.121817946 4120794.731626749 0 0 0 0 -6574318.729347229 1027722.4619468451 0 1027722.4619468451 18671833.183395147 0 0 0 0 -1117430.6579437256 5743418.1840800047 0 5743418.1840800047 -2655525.1809703708 0 0 0 0 -1917615.1483534686 -640500.05122802779 0 -640500.05122802779 637675.66499664797 0 0 0 0 9806455.2306289673 -5899099.6230694056 0 -5899099.6230694056 -246097.55409580469 0 0 0 0 -1301960.5005531311 5643282.5504084378 0 5643282.5504084378 476886.90241122246 0 0 0 0 -3734675.5717086792 330934.84481865168 0 330934.84481865168 92563.801301240921 0 0 0 0 46783259.516578674 -122241543.04817569 0 -122241543.04817569 155110265.44409275 0 0 0 0 62790956.770355225 -75663193.347611427 0 -75663193.347611427 43729574.064785242 0 0 0 0 62589562.254034042 -174774281.48058212 0 -174774281.48058212 298908948.00186229 0 0 0 0 -6339879.3511147127 -1525965.5374905868 0 -1525965.5374905868 145189.36263761873 0 0 0 0 -74487159.863334656 -26035455.69201827 0 -26035455.69201827 340875541.82681489 0 0 0 0 138416034.47460556 -47913077.38425678 0 -47913077.38425678 3124340.0948448181 0 0 0 0 14405945.270072937 -92178663.0152843 0 -92178663.0152843 -2521955.8800754547 0 0 0 0 40093597.528377533 -7297553.2951620221 0 -7297553.2951620221 -181520541.41433239 0 0 0 0 -419175635.12255096 216701752.67121315 0 216701752.67121315 -248141122.45881677 0 0 0 0 130745849.62182617 -269014449.17544985 0 -269014449.17544985 -231187207.36955142 0 0 0 0 87796036.840426445 145313821.57865602 0 145313821.57865602 352151940.49419975 0 0 0 0 -74846099.53502655 -462661136.97935939 0 -462661136.97935939 634176690.771824 0 0 0 0 -29783077.888809204 -11808517.592083693 0 -11808517.592083693 -8670007.3919873238 0 0 0 0 -4457508.5303649902 3520225.5100266933 0 3520225.5100266933 -49184165.41354847 0 0 0 0 9038734.1671600342 -22484443.665583372 0 -22484443.665583372 -56370970.503407836 0 0 0 0 1546243.6079330444 -6390761.0215229988 0 -6390761.0215229988 -44065001.489351273 0 0 0 0 -4429809.1288986206 -9665516.2051482201 0 -9665516.2051482201 6875131.7606606483 0 0 0 0 -5613205.0395050049 -18200213.680537224 0 -18200213.680537224 -9483970.6961826384 0 0 0 0 -10403266.957550049 -6550720.5508499146 0 -6550720.5508499146 377087.04472017288 0 0 0 0 3342855.498916626 -9608514.621658802 0 -9608514.621658802 -16649369.750749588 0 0 0 0 3543749.1111450195 -10682602.731196642 0 -10682602.731196642 -19033417.628658772 0 0 0 0 5306042.8437194824 -15507384.379060745 0 -15507384.379060745 -8369518.4893205166 0 0 0 0 5010952.4773864746 -18875142.898116589 0 -18875142.898116589 -3381179.040769577 0 0 0 0 6047826.4353504181 -25050946.503044784 0 -25050946.503044784 -14074343.366262913 0 0 0 0 12412332.935012817 -23231862.415492535 0 -23231862.415492535 -28882219.708825111 0 0 0 0 860951.16973876953 -9162076.8789353371 0 -9162076.8789353371 -19610312.012818813 0 0 0 0 14120091.251495361 -19595895.501698017 0 -19595895.501698017 -21679337.290198684 0 0 0 0 10014187.570983887 -11249144.692047358 0 -11249144.692047358 -38204568.901175499 0 0 0 0 11644832.396484375 -37673679.620974541 0 -37673679.620974541 -666318.05558633804 0 0 0 0 10778221.612991333 -10538022.666412711 0 -10538022.666412711 3837843.3480014801 0 0 0 0 9255763.2044830322 -25311938.743515015 0 -25311938.743515015 -30666561.377079844 0 0 0 0 21217774.645233154 -12454088.60532254 0 -12454088.60532254 -16867583.230476856 0 0 0 0 16117983.849456787 -15187387.550740719 0 -15187387.550740719 -19980557.425879478 0 0 0 0 17595221.863922119 -23398133.688443184 0 -23398133.688443184 -28926205.993415713 0 0 0 0 -2012537.9247360229 956674.44703912735 0 956674.44703912735 -3244408.0627775192 0 0 0 0 -8512685.6044998169 11055061.569878876 0 11055061.569878876 -5930885.9616167545 0 0 0 0 -18494074.921463013 -26894968.214808226 0 -26894968.214808226 -35171516.321035385 0 0 0 0 162067.43042334542 -117848.317427231 0 -117848.317427231 -157678.05288579548 0 0 0 0 19570.969275780022 -24132.98031452857 0 -24132.98031452857 29382.767973637325 0 0 0 0 1241335.9863243103 3630027.0411589742 0 3630027.0411589742 -9153636.2231245041 0 0 0 0 1316996.8601694107 -4966260.8725997806 0 -4966260.8725997806 -4748835.4802165031 0 0 0 0 6895040.3141784668 -402567.8889465332 0 -402567.8889465332 -2633012.7909498215 0 0 0 0 8267542.7880249023 -13052113.900590301 0 -13052113.900590301 2421366.7119133472 0 0 0 0 5808156.6607208252 -11507904.706771374 0 -11507904.706771374 4649896.5353116989 0 0 0 0 6171164.7877883911 -10320997.13325429 0 -10320997.13325429 -14924022.470297575 0 0 0 0 4777238.8063049316 -9738480.1642804742 0 -9738480.1642804742 2519365.1468882561 0 0 0 0 -3325959.8086166382 -21189284.590246439 0 -21189284.590246439 3015869.5541110039 0 0 0 0 8099208.793296814 -11784154.961677909 0 -11784154.961677909 1049545.4218313694 0 0 0 0 -1013947.2100067139 -12313121.000304699 0 -12313121.000304699 17269179.103093624 0 0 0 0 -6897040.6045015305 -939076.07731180778 0 -939076.07731180778 534209.59408668778 0 0 0 0 -1886942.1352233887 -18824285.807204723 0 -18824285.807204723 21768398.309506059 0 0 0 0 22761712.461395264 -102775636.08789873 0 -102775636.08789873 206800125.74027538 0 0 0 0 -3462925.3543065432 -584394.44685100392 0 -584394.44685100392 1109030.6246809559 0 0 0 0 -5174050.1869133636 -2327794.0759011712 0 -2327794.0759011712 -276695.57007988327 0 0 0 0 -6441396.0530204773 1052077.3088208139 0 1052077.3088208139 5406958.3264003992 0 0 0 0 -696626.22205248848 -153734.52811246924 0 -153734.52811246924 358514.03360258043 0 0 0 0 59233350.168651581 -105238141.07338786 0 -105238141.07338786 89981538.831468105 0 0 0 0 37110431.419929504 -93238157.864065886 0 -93238157.864065886 153726920.31647635 0 0 0 0 54386959.42024231 -80513455.030007362 0 -80513455.030007362 147778417.72165489 0 0 0 0 -10298080.397079468 -3592063.7718331814 0 -3592063.7718331814 70784155.743555069 0 0 0 0 32667528.572296143 -63428927.491837025 0 -63428927.491837025 68898394.819772243 0 0 0 0 25268566.627700806 -62281096.216792583 0 -62281096.216792583 73143872.352389574 0 0 0 0 60332636.082611084 -109228156.87019825 0 -109228156.87019825 103996652.91697741 0 0 0 0 -6042799.3080146499 -924993.67588742031 0 -924993.67588742031 282714.02401201508 0 0 0 0 43423431.67111969 -60167424.920073271 0 -60167424.920073271 -38347191.218010187 0 0 0 0 1642890.4038543701 965150.53610897064 0 965150.53610897064 5048543.4242002964 0 0 0 0 -38839847.487792969 -1806913.8918647766 0 -1806913.8918647766 32193740.866672993 0 0 0 0 -7980883.3960723877 -21212356.464693785 0 -21212356.464693785 47027509.420399666 0 0 0 0 -168334.71344089508 -5572546.4219294637 0 -5572546.4219294637 26655590.024261951 0 0 0 0 -9813887.2711486816 -20384697.510815144 0 -20384697.510815144 19501005.748874664 0 0 0 0 846905.24325561523 -16207139.296272039 0 -16207139.296272039 6141777.0770273209 0 0 0 0 -446470.94802856445 -10801076.957492352 0 -10801076.957492352 15419817.220037699 0 0 0 0 -1691080.4505157471 -8717034.5505182743 0 -8717034.5505182743 7283909.6079542637 0 0 0 0 -1923889.9306793213 -18870448.241691828 0 -18870448.241691828 24923598.866820335 0 0 0 0 5243098.1078109741 -13466035.682436943 0 -13466035.682436943 26152526.420171022 0 0 0 0 -1149559.0406417847 -5836976.5923113823 0 -5836976.5923113823 44512858.106536627 0 0 0 0 12771.04918462038 -2375988.1941790478 0 -2375988.1941790478 178767.46291085318 0 0 0 0 11211530.156906128 -16197554.173753738 0 -16197554.173753738 -6494421.1320248842 0 0 0 0 12377995.126190186 -16594094.890061378 0 -16594094.890061378 96028345.574505091 0 0 0 0 -2922082.4288330078 -2765188.0936832428 0 -2765188.0936832428 126198636.62720448 0 0 0 0 13142811.313466072 -14291457.94233188 0 -14291457.94233188 92570062.233163834 0 0 0 0 42359.131010793149 -656319.19524051645 0 -656319.19524051645 69249.797665047954 0 0 0 0 12580890.744735718 -2989542.889205575 0 -2989542.889205575 146015795.02436399 0 0 0 0 -1875184.3269996643 -49259478.738715529 0 -49259478.738715529 246676933.84382129 0 0 0 0 28389779.489303589 -27956763.335721374 0 -27956763.335721374 38762987.064842701 0 0 0 0 40876216.166766405 -63248715.808675215 0 -63248715.808675215 88283227.850651741 0 0 0 0 38129415.820155382 -29653586.584407546 0 -29653586.584407546 91404698.684754372 0 0 0 0 22620333.621086121 -30537408.241420031 0 -30537408.241420031 14357180.783054113 0 0 0 0 20699598.587295532 -49172907.854501963 0 -49172907.854501963 70896170.662963033 0 0 0 0 28492237.518795013 -63834608.969949752 0 -63834608.969949752 -16071510.809859216 0 0 0 0 4476103.8863957999 -48537392.951782241 0 -48537392.951782241 -25483002.438071728 0 0 0 0 10236765.307704926 -51506188.989761829 0 -51506188.989761829 28546230.854625851 0 0 0 0 40863600.533069611 -13561849.785698861 0 -13561849.785698861 -10205102.068297386 0 0 0 0 106372438.62259674 -20218918.347805142 0 -20218918.347805142 -90272864.839349985 0 0 0 0 170915.95186874643 -726705.71881008986 0 -726705.71881008986 -1306980.487018463 0 0 0 0 22805269.48819834 9558784.3494054247 0 9558784.3494054247 -29993529.945675492 0 0 0 0 22227212.188179016 -21696730.172055721 0 -21696730.172055721 -13737187.120154798 0 0 0 0 50744204.571578979 -1346410.9198261499 0 -1346410.9198261499 -15145640.371962547 0 0 0 0 6059378.0272979736 -13541027.748932421 0 -13541027.748932421 -16233531.136992574 0 0 0 0 49578825.026760101 -24897944.420063555 0 -24897944.420063555 12019298.578781128 0 0 0 0 3165478.6783981323 -19566320.445554018 0 -19566320.445554018 21028187.5787642 0 0 0 0 30767991.047481537 -42094795.965411186 0 -42094795.965411186 79977823.851997137 0 0 0 0 29172382.843963623 -31744335.448497534 0 -31744335.448497534 25195104.485023022 0 0 0 0 79567233.421485901 -40960961.298727274 0 -40960961.298727274 21883029.652877629 0 0 0 0 77588306.398414612 -105397327.38191485 0 -105397327.38191485 134395266.45897758 0 0 0 0 90786566.020758629 -43864086.303712189 0 -43864086.303712189 70855368.562505722 0 0 0 0 37872443.561377525 -57243286.853627652 0 -57243286.853627652 59990914.203031063 0 0 0 0 43995544.766769409 -79515123.482067585 0 -79515123.482067585 137086247.53629827 0 0 0 0 25841813.331130981 -54685364.131209254 0 -54685364.131209254 65312445.400537133 0 0 0 0 36150972.985244751 -17378219.232977748 0 -17378219.232977748 -7053254.6487073898 0 0 0 0 1168529.6611404419 -52134474.171049833 0 -52134474.171049833 59920631.416226983 0 0 0 0 60065282.750579834 -18769197.437090099 0 -18769197.437090099 -63125099.742311001 0 0 0 0 -508736.64715682715 -480480.7479009321 0 -480480.7479009321 -558046.53677122225 0 0 0 0 -23572585.688995361 69421118.184042752 0 69421118.184042752 -74257951.787972689 0 0 0 0 30713202.375617981 2274279.1515052319 0 2274279.1515052319 -48182204.263196379 0 0 0 0 -10542608.053702354 -20114439.325066492 0 -20114439.325066492 -1852777.3392505646 0 0 0 0 -477099241.03539515 225167785.12536463 0 225167785.12536463 -28785757.763429403 0 0 0 0 -27588542.220169067 114677449.64119792 0 114677449.64119792 -170615720.51645762 0 0 0 0 -238608.56983865052 -105385.19670625497 0 -105385.19670625497 -138635.89554701024 0 0 0 0 -58350479.711486816 34725183.32967639 0 34725183.32967639 -23037774.577021241 0 0 0 0 -133881697.61336136 30633958.077797413 0 30633958.077797413 104682793.37956882 0 0 0 0 -124620846.51745987 61884580.192314982 0 61884580.192314982 -36079099.994821072 0 0 0 0 -285522.09954818431 -189790.51615717821 0 -189790.51615717821 -2148379.7587846247 0 0 0 0 -213186716.05299377 83422709.71777463 0 83422709.71777463 -7624715.1105184555 0 0 0 0 -165637643.38752747 91430524.17436409 0 91430524.17436409 -46135394.784261942 0 0 0 0 -180499774.44307709 58540245.565030813 0 58540245.565030813 -2584066.3569197655 0 0 0 0 -81425089.286064148 72885011.580040455 0 72885011.580040455 -9665804.4438685775 0 0 0 0 -79950941.212966084 55888894.871368147 0 55888894.871368147 -253984991.54848146 0 0 0 0 -66648138.029525757 32707429.55950582 0 32707429.55950582 -81819630.892103672 0 0 0 0 -224664.08118128963 -43787.286093452945 0 -43787.286093452945 -1447637.1760584554 0 0 0 0 -206191312.41446686 -344683595.87841034 0 -344683595.87841034 49868702.538322926 0 0 0 0 -340440.12424674258 -819651.67483444232 0 -819651.67483444232 -1111955.2814496791 0 0 0 0 -14032574.488052368 46337267.403830469 0 46337267.403830469 -39455292.195117936 0 0 0 0 -73010438.067741394 212051907.4413712 0 212051907.4413712 -26743684.598171949 0 0 0 0 -156559290.8108902 -111288747.15653229 0 -111288747.15653229 -161577030.22472167 0 0 0 0 -28396.278254173696 -88394.246252704412 0 -88394.246252704412 -954537.20438327198 0 0 0 0 -226075917.5640583 -76614529.710437477 0 -76614529.710437477 -52371513.03364563 0 0 0 0 163827012.84000778 159519284.23399252 0 159519284.23399252 -235582217.48170093 0 0 0 0 -137011261.20730686 148465520.76835859 0 148465520.76835859 -95507201.435054421 0 0 0 0 53543884.434925079 43383865.203510523 0 43383865.203510523 -37613623.909349144 0 0 0 0 -155976040.66734171 -73816986.970873296 0 -73816986.970873296 -47534027.942774773 0 0 0 0 -167700260.74091339 -6919832.1900725365 0 -6919832.1900725365 18656423.76921463 0 0 0 0 -80335840.922828674 39398606.439571142 0 39398606.439571142 -19474956.634217262 0 0 0 0 -52355655.390937805 26206251.000677586 0 26206251.000677586 -52338383.401043892 0 0 0 0 42541552.471853256 18968909.163250566 0 18968909.163250566 -64867916.515113354 0 0 0 0 -209986.19253860693 -677632.96090573259 0 -677632.96090573259 -2504153.3470319393 0 0 0 0 -38876255.20160675 -10044808.174039006 0 -10044808.174039006 -6043899.3461313248 0 0 0 0 -102891870.05988312 54861143.144089222 0 54861143.144089222 -23522578.583697319 0 0 0 0 251915.77859467268 26869.679120067507 0 26869.679120067507 -389910.40075597586 0 0 0 0 34379547.781486511 -6286014.0253690779 0 -6286014.0253690779 15401061.122916508 0 0 0 0 -129800085.11940765 -20175274.586354017 0 -20175274.586354017 -3790900.9661519527 0 0 0 0 -148224735.61185455 -64893180.658718348 0 -64893180.658718348 -31053430.644579172 0 0 0 0 -131054693.61219025 -47682891.409395218 0 -47682891.409395218 -91246918.779787779 0 0 0 0 -55008111.71635437 29826938.058856249 0 29826938.058856249 -291541031.27224779 0 0 0 0 -80446796.51235199 3261897.0428593159 0 3261897.0428593159 -125007270.05180383 0 0 0 0 -143803303.36502075 -73348373.088995457 0 -73348373.088995457 -53995977.271311283 0 0 0 0 -98383.212598867249 -25192.829177720472 0 -25192.829177720472 -576629.2081779819 0 0 0 0 -187794023.18103027 -124481488.71609855 0 -124481488.71609855 -118857209.98397207 0 0 0 0 -132259980.96406841 -78770475.588686168 0 -78770475.588686168 -276919245.49333286 0 0 0 0 110123055.89812469 -106389680.17819381 0 -106389680.17819381 -327427145.34757137 0 0 0 0 -142192554.08044624 205666836.3482573 0 205666836.3482573 44033197.906687737 0 0 0 0 -66450227.123374939 -31825677.101111889 0 -31825677.101111889 172144815.77958322 0 0 0 0 -59952664.200422287 63541440.885966659 0 63541440.885966659 -41080789.816278458 0 0 0 0 -132853000.9589386 57281361.41725111 0 57281361.41725111 -30322961.703928232 0 0 0 0 28518617.094467163 -24122488.269398928 0 -24122488.269398928 25333908.55143702 0 0 0 0 -115216657.18045044 81947945.154020309 0 81947945.154020309 -1568397.568778038 0 0 0 0 -47387868.309570312 13459569.170161247 0 13459569.170161247 -9490958.9944777489 0 0 0 0 -128006692.955513 49168694.740576267 0 49168694.740576267 50396526.451251507 0 0 0 0 -137804646.93657303 64105092.274344683 0 64105092.274344683 78759974.339886665 0 0 0 0 25333481.756916046 62161133.653083086 0 62161133.653083086 139059787.90192199 0 0 0 0 -597461.78583325632 -172552.58144849353 0 -172552.58144849353 892642.37296825345 0 0 0 0 64174957.920848846 -81374979.417084932 0 -81374979.417084932 55998400.684799194 0 0 0 0 -3592806.248796463 -5053394.0943573117 0 -5053394.0943573117 4190277.7849225998 0 0 0 0 -803420.8595481962 -937340.84979093261 0 -937340.84979093261 260141.27423899621 0 0 0 0 -86633568.724201202 29421381.4895401 0 29421381.4895401 -6420501.6914925575 0 0 0 0 -84493166.124275208 30787674.914162636 0 30787674.914162636 -17060306.602996826 0 0 0 0 -92371115.711221695 16518549.761946082 0 16518549.761946082 6397142.5288658142 0 0 0 0 -69146072.511684418 13838420.060214996 0 13838420.060214996 -7653058.5393309593 0 0 0 0 -102793512.66307575 36902191.521353662 0 36902191.521353662 3538086.7005367279 0 0 0 0 -149001243.90328407 94912000.782862425 0 94912000.782862425 -797595.02715492249 0 0 0 0 -209688.7044643499 -102532.60165072791 0 -102532.60165072791 193766.25111682992 0 0 0 0 -110476701.3167038 83057731.66388166 0 83057731.66388166 -39285331.712051392 0 0 0 0 -92546798.89414978 25450223.785888672 0 25450223.785888672 -48983631.492872119 0 0 0 0 -72033442.22777319 32278308.857954443 0 32278308.857954443 -14852667.580554962 0 0 0 0 1215608.2210998535 487768.32881259918 0 487768.32881259918 -1127783.815605402 0 0 0 0 221237.62476658821 -13223976.054989383 0 -13223976.054989383 7083909.7217869759 0 0 0 0 45183273.575073242 -70702789.926072121 0 -70702789.926072121 10273234.374507666 0 0 0 0 -694270.21260680631 -1853664.9415880265 0 -1853664.9415880265 -3274459.1356203165 0 0 0 0 59425005.763134003 -28597011.392353207 0 -28597011.392353207 -15487355.114300728 0 0 0 0 5516359.7911453247 -26810131.101846695 0 -26810131.101846695 -3037555.2443351746 0 0 0 0 -17307530.124450684 -20644554.42154932 0 -20644554.42154932 56201866.377829075 0 0 0 0 -67785528.122177124 -25843997.554656029 0 -25843997.554656029 2119713.770492807 0 0 0 0 -1976120.7912483215 -29551602.238967419 0 -29551602.238967419 1210552.6778345108 0 0 0 0 16224454.389328003 -38999450.292421043 0 -38999450.292421043 -90860585.051564455 0 0 0 0 6035324.0578765869 -22281878.888153076 0 -22281878.888153076 34389975.759824038 0 0 0 0 -1774485.0562467035 -2826054.4851266686 0 -2826054.4851266686 -3260712.6403658795 0 0 0 0 2268045.4929275513 -61294642.507941723 0 -61294642.507941723 55313389.485636562 0 0 0 0 -17228050.475906372 -12550265.975984573 0 -12550265.975984573 35406281.03707695 0 0 0 0 -15920502.569122314 282746.35719919205 0 282746.35719919205 50721353.317250013 0 0 0 0 -45501246.939163208 -24570656.902169228 0 -24570656.902169228 36608733.112907887 0 0 0 0 -19956000.990592957 -41598909.221945763 0 -41598909.221945763 45377711.363473535 0 0 0 0 -43003281.47644043 29044802.296687603 0 29044802.296687603 66356427.629710197 0 0 0 0 -47917192.856445312 47316314.028555393 0 47316314.028555393 -1491020.3475632668 0 0 0 0 5427471.7189865112 -15628396.596073389 0 -15628396.596073389 36740432.225134373 0 0 0 0 -37441610.624557495 -1775079.6056447029 0 -1775079.6056447029 32866745.461161375 0 0 0 0 7118538.2672355175 37061529.082533151 0 37061529.082533151 33573608.210431099 0 0 0 0 -8733127.537902832 13394981.914981365 0 13394981.914981365 13341231.904678702 0 0 0 0 145565.6900062561 15686809.399919033 0 15686809.399919033 -16811293.423909187 0 0 0 0 -46763069.139778137 37199066.114283085 0 37199066.114283085 -26676575.522333026 0 0 0 0 -27489238.910518646 -4241394.5673108697 0 -4241394.5673108697 -62088784.573932409 0 0 0 0 -20001175.672382355 -3738835.1672379971 0 -3738835.1672379971 -2018399.560482502 0 0 0 0 -56887444.145385742 -18636257.777690291 0 -18636257.777690291 -3081775.7653673291 0 0 0 0 -140541825.2062645 -39131956.317147315 0 -39131956.317147315 -62990096.627725244 0 0 0 0 -12578827.353614807 26434176.565875888 0 26434176.565875888 -150428455.96218044 0 0 0 0 3417891.9034767151 -8429631.7589986324 0 -8429631.7589986324 -97777752.99855876 0 0 0 0 416115.29523849487 -90835302.222169936 0 -90835302.222169936 -98481020.050635904 0 0 0 0 -21425768.991241455 -30607992.834263146 0 -30607992.834263146 4416277.0048625469 0 0 0 0 -16745224.924407959 115777475.6729022 0 115777475.6729022 -241003205.75123847 0 0 0 0 283696.04916810989 -282535.23711525742 0 -282535.23711525742 -678855.63398728613 0 0 0 0 1754743.7170686722 35680929.949234873 0 35680929.949234873 -107297033.60349751 0 0 0 0 53507247.688392639 45341153.40800634 0 45341153.40800634 -131293446.38712764 0 0 0 0 22126381.241859436 -23151293.428597331 0 -23151293.428597331 -85877664.795665145 0 0 0 0 42666121.564109802 -13608475.616818964 0 -13608475.616818964 -82104560.099873543 0 0 0 0 -5794687.3534812927 15452200.740096718 0 15452200.740096718 -88683761.368519068 0 0 0 0 4091071.1565704346 -48846839.742280364 0 -48846839.742280364 -235333583.15015063 0 0 0 0 -8670305.7062835693 -3443060.0693142414 0 -3443060.0693142414 8966935.4346879721 0 0 0 0 5762545.9444084167 -1652470.2814054489 0 -1652470.2814054489 -2600065.9272117615 0 0 0 0 3149518.4818720818 7057277.6425127983 0 7057277.6425127983 57043282.775111198 0 0 0 0 9807390.4646453857 5901135.77209723 0 5901135.77209723 -28089362.478243351 0 0 0 0 -2088929.3136839904 -662581.9192570243 0 -662581.9192570243 -163152.44714895636 0 0 0 0 -3696612.2393798828 5329791.600965023 0 5329791.600965023 -14262455.696313381 0 0 0 0 -4030063.843788147 -1490049.9377864599 0 -1490049.9377864599 -11114100.498018742 0 0 0 0 7482474.6024284363 -33913913.610162258 0 -33913913.610162258 13035577.298555374 0 0 0 0 -7838864.180223465 1573578.2808799744 0 1573578.2808799744 7541575.9794046879 0 0 0 0 -2161564.060266085 -369279.25489690574 0 -369279.25489690574 69068.692706623813 0 0 0 0 -1811444.6291684881 -38031.867250874639 0 -38031.867250874639 110908.70991574228 0 0 0 0 -36190101.042812347 -28999334.184632778 0 -28999334.184632778 17358495.58902359 0 0 0 0 19113102.379202843 857913.19193047285 0 857913.19193047285 -36358229.238398552 0 0 0 0 -4045237.84075737 8395334.1848092079 0 8395334.1848092079 -5402958.705873251 0 0 0 0 26412861.079907417 -21946800.780859292 0 -21946800.780859292 -12946148.342431068 0 0 0 0 -479101.2843112573 -94653.761242197827 0 -94653.761242197827 -643458.89294479182 0 0 0 0 7520143.6678714752 2321720.9180833101 0 2321720.9180833101 -11360924.276945114 0 0 0 0 14933084.47454834 3821500.8499586582 0 3821500.8499586582 -17267593.082071781 0 0 0 0 -29246030.398910522 16127089.428979874 0 16127089.428979874 -19525434.196049452 0 0 0 0 6331705.2553873062 -575551.5201407671 0 -575551.5201407671 -16287172.315302849 0 0 0 0 7167016.6380844116 -511214.05218911171 0 -511214.05218911171 -16284422.263111115 0 0 0 0 22646938.18183136 -8298827.1496272087 0 -8298827.1496272087 -19361555.972261906 0 0 0 0 9563661.3253231049 -1538703.3924629688 0 -1538703.3924629688 -22350677.811155319 0 0 0 0 10603401.809844971 15303988.251106501 0 15303988.251106501 -32070063.157124519 0 0 0 0 26929212.05872345 3944885.0559542179 0 3944885.0559542179 -30155742.412734151 0 0 0 0 -84404.648942917585 -121256.10977618024 0 -121256.10977618024 -695474.24155824492 0 0 0 0 26727391.768291473 31864568.476863861 0 31864568.476863861 1285406.9527927637 0 0 0 0 38628179.229077339 16510621.925882101 0 16510621.925882101 -63135663.381228924 0 0 0 0 30322158.783615112 -49320493.062235355 0 -49320493.062235355 -16683140.348853469 0 0 0 0 30682054.516441345 -46699072.736386538 0 -46699072.736386538 -78952622.306098461 0 0 0 0 -136496039.7654686 -115046447.08539724 0 -115046447.08539724 -99710913.411897182 0 0 0 0 -148191665.11264181 -200415279.35901752 0 -200415279.35901752 -61614372.511055946 0 0 0 0 339479072.94749451 204893216.0163579 0 204893216.0163579 -14772014.624815941 0 0 0 0 173407753.48193359 -560479037.27666092 0 -560479037.27666092 -351836444.14588499 0 0 0 0 105905219.52775574 -15465533.683114052 0 -15465533.683114052 -182324787.48627138 0 0 0 0 108513188.43976593 98810529.093481064 0 98810529.093481064 18719417.393339634 0 0 0 0 -134664564.04167557 8947263.3169205189 0 8947263.3169205189 -3537726.7554650307 0 0 0 0 -1462172.3020553682 -1628364.2629109668 0 -1628364.2629109668 -784982.81849914882 0 0 0 0 -627019366.22489929 -99917685.104719639 0 -99917685.104719639 57759475.356534004 0 0 0 0 -317214730.61499786 147394038.59536648 0 147394038.59536648 -66917419.38004601 0 0 0 0 -978885178.5772438 -388599031.13786602 0 -388599031.13786602 -18494349.522146702 0 0 0 0 -944396.80310623348 -585491.31625111122 0 -585491.31625111122 -282669.56781447004 0 0 0 0 -172010871.80353546 -430282232.91274071 0 -430282232.91274071 17295769.363015175 0 0 0 0 -1071528264.9942017 -259313995.5652771 0 -259313995.5652771 169976106.58082199 0 0 0 0 -950790179.35443115 266516310.31030798 0 266516310.31030798 -34311550.685837626 0 0 0 0 -474898.41419136338 -582119.98218958732 0 -582119.98218958732 -472705.6047816081 0 0 0 0 -134044439.75126648 -410279297.66729355 0 -410279297.66729355 -374136790.96700478 0 0 0 0 96755433.256240845 98950486.506982327 0 98950486.506982327 81069593.052090645 0 0 0 0 -660889506.97877121 -99649700.456897974 0 -99649700.456897974 -72908556.435842514 0 0 0 0 -264682991.41148376 7520179.8636546135 0 7520179.8636546135 -54506672.370448112 0 0 0 0 -396964459.67746353 75953947.679402113 0 75953947.679402113 1378359.420771122 0 0 0 0 -348246768.31933212 139279868.46167302 0 139279868.46167302 -98932796.14315176 0 0 0 0 -195944167.37582016 66653239.896756172 0 66653239.896756172 1736947.6473107338 0 0 0 0 -121931005.01013184 30745640.014694691 0 30745640.014694691 -16765022.217126846 0 0 0 0 -307763814.30495071 23524905.737879992 0 23524905.737879992 36108812.964344025 0 0 0 0 -287130666.42259979 14014058.395634651 0 14014058.395634651 11627586.886964798 0 0 0 0 -290750289.16940308 -16030158.703063965 0 -16030158.703063965 44655025.198358536 0 0 0 0 15249856.564193726 58944530.406857967 0 58944530.406857967 168157765.101408 0 0 0 0 -2099458.4330153018 -828710.98671134817 0 -828710.98671134817 -276282.46212655213 0 0 0 0 3171877.0718612671 -25600031.942873478 0 -25600031.942873478 -853932.661693573 0 0 0 0 -76958495.645530701 120263167.03246593 0 120263167.03246593 -99881591.331310987 0 0 0 0 53452338.535850525 3306383.6674034595 0 3306383.6674034595 -71997785.524922371 0 0 0 0 -119068594.17890167 39227276.261700153 0 39227276.261700153 -19359111.328915119 0 0 0 0 11390457.299598694 43201376.713745594 0 43201376.713745594 -72307016.096329689 0 0 0 0 104477.03744779527 -31620.246903128922 0 -31620.246903128922 -124534.59044591314 0 0 0 0 -25936046.586750031 9903549.0736446381 0 9903549.0736446381 -7251249.6144890785 0 0 0 0 -19558417.153303146 1751918.2682244778 0 1751918.2682244778 -30871282.699648857 0 0 0 0 237812.30663257465 -62602.784696890973 0 -62602.784696890973 -247615.64652206562 0 0 0 0 -102809512.28120804 -2464458.2251530886 0 -2464458.2251530886 -1375087.8972682953 0 0 0 0 -69016024.938388824 47568549.296898842 0 47568549.296898842 -23940100.276734114 0 0 0 0 -68685466.278278351 -35027737.652334929 0 -35027737.652334929 -5292547.1995120049 0 0 0 0 -19558350.225500107 31774034.05414021 0 31774034.05414021 -8188801.0065698624 0 0 0 0 -300798349.91689253 -14296990.47176528 0 -14296990.47176528 52779867.025647163 0 0 0 0 -204315161.51741028 1346498.7715864182 0 1346498.7715864182 18091238.485183239 0 0 0 0 -183340508.30020905 40491172.601825237 0 40491172.601825237 -6159236.5101561546 0 0 0 0 -184965699.84924316 -10691846.652119398 0 -10691846.652119398 14188989.279668808 0 0 0 0 -191260415.93232727 10856933.501551628 0 10856933.501551628 21053214.87771976 0 0 0 0 -248041620.38600731 -35949872.810166955 0 -35949872.810166955 13144910.927751064 0 0 0 0 -199490361.09761429 219853340.05942947 0 219853340.05942947 253642501.95169544 0 0 0 0 -388428923.88411713 13023250.148805618 0 13023250.148805618 50147348.930543661 0 0 0 0 -115124092.79543304 -114041353.14024734 0 -114041353.14024734 43970468.772414207 0 0 0 0 -462698695.94213486 -359708331.27893198 0 -359708331.27893198 -126415199.34090948 0 0 0 0 -2302555.9972421154 322474.21666096093 0 322474.21666096093 160562.33034409105 0 0 0 0 -199137966.46798706 290111075.7354064 0 290111075.7354064 -135339945.61699766 0 0 0 0 -543562044.02098942 118001372.91087323 0 118001372.91087323 -155064360.71663952 0 0 0 0 -769595053.66249084 -829655051.93163347 0 -829655051.93163347 -1076443818.000823 0 0 0 0 -1327275430.6427002 62660122.745679855 0 62660122.745679855 893603831.17245483 0 0 0 0 10759642.71878624 17286086.517944336 0 17286086.517944336 33551925.955370903 0 0 0 0 -18452873.390899658 6934603.8452396393 0 6934603.8452396393 30743404.197775841 0 0 0 0 -23653871.301143646 23629150.288465023 0 23629150.288465023 28610187.296092272 0 0 0 0 -6033065.4683092982 192959.9636865363 0 192959.9636865363 461041.67776448542 0 0 0 0 -46684784.661460876 -9230759.0900700092 0 -9230759.0900700092 118007668.89301538 0 0 0 0 -214669081.54475403 179832405.62487507 0 179832405.62487507 424664669.5673753 0 0 0 0 -78931021.629364014 -38734288.081251144 0 -38734288.081251144 459942604.61622882 0 0 0 0 -8257578.0001866519 -391509.23957414483 0 -391509.23957414483 690752.63403258473 0 0 0 0 -21174338.344985962 13843649.803724766 0 13843649.803724766 82557980.189385891 0 0 0 0 -1302174.8783187866 3047258.8052625656 0 3047258.8052625656 32546701.202786446 0 0 0 0 -16044871.030399323 8373501.3415961266 0 8373501.3415961266 32641253.435063884 0 0 0 0 3979042.4105415344 15556811.865096331 0 15556811.865096331 -11517287.267944813 0 0 0 0 -12928815.426116943 20338904.380484104 0 20338904.380484104 -12531685.78508091 0 0 0 0 264833.00883694738 -56672.227411769331 0 -56672.227411769331 -240554.59143176116 0 0 0 0 -4179374.4758462906 11336907.848089099 0 11336907.848089099 -21025509.886870384 0 0 0 0 1077419.9209289551 4808943.2066493034 0 4808943.2066493034 -18884391.633631706 0 0 0 0 -7566167.9137382507 17472774.832065821 0 17472774.832065821 -27123196.746961594 0 0 0 0 -8782081.4989700317 17242235.835378647 0 17242235.835378647 -28189819.226833638 0 0 0 0 -4447497.0188560486 5824672.2752494812 0 5824672.2752494812 -12426056.244944572 0 0 0 0 -259226.49233055115 5788206.7915786505 0 5788206.7915786505 -13412127.171702862 0 0 0 0 -1774947.4172267914 3870814.3798551559 0 3870814.3798551559 -14558765.220314026 0 0 0 0 -5112994.1262106895 7165701.8162013292 0 7165701.8162013292 -12312325.033761978 0 0 0 0 3391469.9702377319 6639806.3000946045 0 6639806.3000946045 -15138428.10919857 0 0 0 0 140735.87713367864 -30893.263717810623 0 -30893.263717810623 -122416.21500454959 0 0 0 0 5384432.9866333008 16203693.818259716 0 16203693.818259716 -3425995.3397459984 0 0 0 0 -8321630.5739402771 12922462.69479537 0 12922462.69479537 17134727.96980238 0 0 0 0 -5546056.0380630493 5103817.2223997116 0 5103817.2223997116 14534859.383797646 0 0 0 0 834788.47630310059 12075655.600879669 0 12075655.600879669 21404699.801751137 0 0 0 0 -939041.80525970459 13474854.082755566 0 13474854.082755566 27517349.044754982 0 0 0 0 -13568185.273177624 23032660.546573877 0 23032660.546573877 21610955.867913246 0 0 0 0 -6292022.5696086884 14132821.633792281 0 14132821.633792281 30000178.021021843 0 0 0 0 -154111285.63079834 -127905917.47430801 0 -127905917.47430801 105003160.85646439 0 0 0 0 -9416254.1634044088 -819387.74774044205 0 -819387.74774044205 1096133.5323092474 0 0 0 0 -7693849.5417098999 7824018.9630756378 0 7824018.9630756378 38282159.522727489 0 0 0 0 -8394143.0282440186 -967467.24106687307 0 -967467.24106687307 13865701.100188255 0 0 0 0 -8938406.5867843628 668503.80215454102 0 668503.80215454102 25279117.163879633 0 0 0 0 32000819.545593262 -23420847.478669405 0 -23420847.478669405 -118924.35534572601 0 0 0 0 140600873.60112762 -144540515.82786524 0 -144540515.82786524 34705660.473874092 0 0 0 0 -111638.08559091389 -652015.70726086944 0 -652015.70726086944 79503.436539795483 0 0 0 0 14519946.466278076 -3644906.9825406075 0 -3644906.9825406075 -12635521.633681774 0 0 0 0 4396567.1755523682 3397606.5946707726 0 3397606.5946707726 -9272541.5901279449 0 0 0 0 52969628.480964661 -102638456.43582889 0 -102638456.43582889 -23443176.664414883 0 0 0 0 49894009.89383316 -118511792.6373761 0 -118511792.6373761 20932728.704985619 0 0 0 0 118664858.84429169 -54108627.987495184 0 -54108627.987495184 77964550.254002243 0 0 0 0 -2254011.3391208649 30981472.83910346 0 30981472.83910346 91066031.007707596 0 0 0 0 -18151896.114352465 -172104571.6423167 0 -172104571.6423167 110894828.28347111 0 0 0 0 -169498.07800514996 -255289.1802485995 0 -255289.1802485995 129859.14453601954 0 0 0 0 -16879426.984947205 -121887214.01619959 0 -121887214.01619959 89422365.674378872 0 0 0 0 106403289.79598999 -198326810.54548693 0 -198326810.54548693 42140443.053351164 0 0 0 0 177125510.48423767 -21354434.11068058 0 -21354434.11068058 149295519.85269165 0 0 0 0 79152252.841369629 -128739123.1975112 0 -128739123.1975112 7496565.3620619774 0 0 0 0 14561034.773513794 -120980345.72504663 0 -120980345.72504663 122783707.75906599 0 0 0 0 44746368.462631226 -153543321.47857618 0 -153543321.47857618 34444421.790692329 0 0 0 0 -92962174.753677368 -162605038.18799615 0 -162605038.18799615 327509373.23439384 0 0 0 0 -171053033.70184326 93601167.579019189 0 93601167.579019189 -59123676.950053692 0 0 0 0 -75272011.209251404 -79995634.813492179 0 -79995634.813492179 4369696.2731752396 0 0 0 0 -47263339.673019409 -51918296.739383221 0 -51918296.739383221 -91280760.016143799 0 0 0 0 -36183443.474227905 -61812302.451780796 0 -61812302.451780796 10426065.17187044 0 0 0 0 39082452.422157288 -75764815.980411291 0 -75764815.980411291 -40515847.613276482 0 0 0 0 22461163.628410339 -117118202.42736053 0 -117118202.42736053 58131149.55689311 0 0 0 0 -7176226.4363021851 -100870365.33019257 0 -100870365.33019257 -51391831.619706154 0 0 0 0 7377647.7842102051 -79223715.153265774 0 -79223715.153265774 -52263107.121858597 0 0 0 0 -50194173.95677948 -16876626.750015259 0 -16876626.750015259 -50438892.024032183 0 0 0 0 -17087375.854820251 -671851.27118468285 0 -671851.27118468285 -62798398.96336937 0 0 0 0 -226703210.86222839 -10362275.722488999 0 -10362275.722488999 -114165514.6818738 0 0 0 0 -80925598.168388367 -59009769.372007608 0 -59009769.372007608 -106249197.05049086 0 0 0 0 -141466781.86335754 54132981.34563899 0 54132981.34563899 -101341188.85918292 0 0 0 0 -164306747.40222931 14951820.279776454 0 14951820.279776454 -71598886.465352356 0 0 0 0 -166651776.17601013 36199651.431491852 0 36199651.431491852 -140789185.91259766 0 0 0 0 -351131060.08557892 27772274.435994387 0 27772274.435994387 -78298866.275555134 0 0 0 0 -256730158.27946472 63958064.287728548 0 63958064.287728548 -111238646.5056839 0 0 0 0 -205161209.46634674 9172888.2063939869 0 9172888.2063939869 -68723127.488740802 0 0 0 0 -250904829.93245697 -2336350.8202095032 0 -2336350.8202095032 -104550432.70869923 0 0 0 0 -322864971.31413269 78608161.026027799 0 78608161.026027799 -81884863.544975549 0 0 0 0 -158010913.15449524 59947611.822075844 0 59947611.822075844 -71959995.150253594 0 0 0 0 -72510219.28288269 -7840383.1159771681 0 -7840383.1159771681 -43436875.610116243 0 0 0 0 -18217265.538902283 -35510840.049966455 0 -35510840.049966455 -56508186.260980129 0 0 0 0 -69127254.57270813 -6852675.317663312 0 -6852675.317663312 -104461626.45474124 0 0 0 0 -40895357.196716309 21135357.994584441 0 21135357.994584441 -58111118.050554462 0 0 0 0 36066677.741615295 -23851498.479561806 0 -23851498.479561806 -77443006.2781353 0 0 0 0 97364211.407913208 -37951064.837587714 0 -37951064.837587714 -51821461.315347672 0 0 0 0 32179661.011222839 -44615332.783896685 0 -44615332.783896685 -8047049.3612189293 0 0 0 0 29657821.981147766 -8739608.1614836454 0 -8739608.1614836454 -26308886.81512928 0 0 0 0 124079803.18304443 -41909234.612705946 0 -41909234.612705946 -30772216.781943083 0 0 0 0 91264492.986961365 -43337144.091354609 0 -43337144.091354609 368110.93549847603 0 0 0 0 131342825.86907196 -45932172.851630926 0 -45932172.851630926 -8786502.690613389 0 0 0 0 92600102.352584839 -77200303.267638206 0 -77200303.267638206 68408723.721908808 0 0 0 0 24728774.293228149 -71066342.11746335 0 -71066342.11746335 38870990.967666328 0 0 0 0 23869144.232025146 -52305044.412330151 0 -52305044.412330151 -9971609.1435363889 0 0 0 0 99583254.846931458 -57955727.943898857 0 -57955727.943898857 -32368246.729745865 0 0 0 0 -781197844.68080139 -118889887.65408587 0 -118889887.65408587 273099219.57303357 0 0 0 0 -173659288.9030571 376514838.65980554 0 376514838.65980554 -233556264.84638023 0 0 0 0 -418834567.51701927 5563006.1120886803 0 5563006.1120886803 -292087301.08160496 0 0 0 0 -460344691.29805183 166317252.11779004 0 166317252.11779004 -208480674.58974361 0 0 0 0 -325682708.4897747 -125689405.09708464 0 -125689405.09708464 -385168538.46138382 0 0 0 0 -217691.85726311151 -377451.04838199355 0 -377451.04838199355 -1237784.6501907576 0 0 0 0 -154006768.2678299 245278544.06943226 0 245278544.06943226 -140849424.12953949 0 0 0 0 73347168.162719727 264237763.70441031 0 264237763.70441031 -229650613.74981594 0 0 0 0 -146061372.26658249 234941839.93072784 0 234941839.93072784 -176648851.28812408 0 0 0 0 77575440.583190918 94450581.043619335 0 94450581.043619335 189392632.37882137 0 0 0 0 -183259756.95116425 314254119.61316097 0 314254119.61316097 89862025.565525055 0 0 0 0 95452754.203994751 227765893.60958302 0 227765893.60958302 -203555486.28207076 0 0 0 0 339055820.83383179 157365450.64596379 0 157365450.64596379 -51368882.905266553 0 0 0 0 -172973.96629427513 -274147.91356392764 0 -274147.91356392764 -541744.4450907947 0 0 0 0 56923737.815832138 314335706.22784024 0 314335706.22784024 -130769321.96217823 0 0 0 0 -1067538680.551857 123737106.53708148 0 123737106.53708148 38652153.050322056 0 0 0 0 82085377.927785873 242328178.25412863 0 242328178.25412863 -186304177.54640961 0 0 0 0 -273546011.31520081 -25607044.315976858 0 -25607044.315976858 175589212.80498266 0 0 0 0 -13228231.673866272 201458588.56708527 0 201458588.56708527 -260151088.21175122 0 0 0 0 -267112216.59576416 -71560919.67485714 0 -71560919.67485714 63313024.801449537 0 0 0 0 106796886.48559952 -86902551.721554041 0 -86902551.721554041 -17291862.228786469 0 0 0 0 -598179212.86424255 356961276.39087701 0 356961276.39087701 -139187984.62328398 0 0 0 0 -254237208.7165451 18449571.239317179 0 18449571.239317179 -109724768.2952776 0 0 0 0 -353006638.65332031 140676249.27685237 0 140676249.27685237 -106736955.27524465 0 0 0 0 -530733434.90258026 56714244.18730557 0 56714244.18730557 -34366122.35152626 0 0 0 0 -579332931.32353973 139140851.07227045 0 139140851.07227045 8550710.7412948608 0 0 0 0 -773527065.87558556 244542992.391251 0 244542992.391251 -55271668.204751968 0 0 0 0 -684000836.89560699 -58882582.967944026 0 -58882582.967944026 -53795144.931943893 0 0 0 0 -529512462.93490601 51267922.137799263 0 51267922.137799263 -34110229.121002674 0 0 0 0 -351204586.72227478 30478812.149344444 0 30478812.149344444 -173941484.57012057 0 0 0 0 -556993995.17382812 45440281.304951191 0 45440281.304951191 -9969749.3677258492 0 0 0 0 -449101389.59749603 58872489.148264647 0 58872489.148264647 -71337508.015347123 0 0 0 0 -324189285.44202423 31288313.866452873 0 31288313.866452873 -134326770.84453237 0 0 0 0 -443958695.83494568 2709604.8639360592 0 2709604.8639360592 -263037621.21567106 0 0 0 0 -374490701.13754654 -157687164.62076497 0 -157687164.62076497 -67638135.228095338 0 0 0 0 4810639.2543869019 -5190431.0592775941 0 -5190431.0592775941 1897838.7008049488 0 0 0 0 -1631942.445319846 -510978.91486499086 0 -510978.91486499086 -202191.26076411054 0 0 0 0 -284455.17672719806 70927.673158343416 0 70927.673158343416 -44968.547605962609 0 0 0 0 30067735.821569443 81714119.331802219 0 81714119.331802219 189777939.23489326 0 0 0 0 -544642909.87276459 132864839.74555969 0 132864839.74555969 -30084315.664696455 0 0 0 0 -549337.3716838921 -247786.74463777803 0 -247786.74463777803 -1544913.9761076604 0 0 0 0 -4591106.6973456144 754125.78304909309 0 754125.78304909309 542910.98150577547 0 0 0 0 5617983.2273635864 208188811.37092924 0 208188811.37092924 89191962.393074781 0 0 0 0 3124497.3052253723 -10302979.52307868 0 -10302979.52307868 531073.44944775105 0 0 0 0 2359375.3597335815 -9004212.7747583389 0 -9004212.7747583389 8160268.6091536582 0 0 0 0 -542341.2713470459 -5928828.0533269644 0 -5928828.0533269644 5898376.410951674 0 0 0 0 -6557088.341091156 -13345973.30167383 0 -13345973.30167383 -468911.01886916161 0 0 0 0 -10168169.479614735 -22076070.648212194 0 -22076070.648212194 25756701.53244406 0 0 0 0 -343638065.48254395 -76241100.612270355 0 -76241100.612270355 779490914.05020738 0 0 0 0 -6399380.2167263106 10703.600873591844 0 10703.600873591844 698511.93402649357 0 0 0 0 -5523781.1175537109 2646248.7920619249 0 2646248.7920619249 -935304.91885657609 0 0 0 0 -2137876.3801422119 2395277.4739305377 0 2395277.4739305377 -4478513.9237627983 0 0 0 0 -3183040.8214111328 -378841.83431280777 0 -378841.83431280777 2328804.2794057131 0 0 0 0 -7159932.5636138916 4816459.6790257692 0 4816459.6790257692 -3219718.5276933312 0 0 0 0 -3514085.5444335938 4685276.4282725453 0 4685276.4282725453 -8268985.9092432261 0 0 0 0 -2004763.9098020196 -1976186.7019211464 0 -1976186.7019211464 -8783560.2198129892 0 0 0 0 1916883.5948410034 -2995316.9141871929 0 -2995316.9141871929 -14788574.399381936 0 0 0 0 2331768.6185503006 -6020787.9036949761 0 -6020787.9036949761 -2651879.0075466633 0 0 0 0 5454451.9057559967 -6125264.6102069765 0 -6125264.6102069765 -1135091.3645460606 0 0 0 0 5528438.5779258013 -2383782.2942856206 0 -2383782.2942856206 -297368.6396817565 0 0 0 0 4795812.1344299316 -4930663.8047264218 0 -4930663.8047264218 -2568662.6479122639 0 0 0 0 5504939.1190414429 -3306739.5164335966 0 -3306739.5164335966 -6109323.4798116088 0 0 0 0 16738694.943222046 -4379632.3166090921 0 -4379632.3166090921 -3067067.5255373716 0 0 0 0 -448148779.19424438 -46923403.99604176 0 -46923403.99604176 19715810.001123399 0 0 0 0 -1007485.7936177517 -539042.00436006859 0 -539042.00436006859 -91436.307665572618 0 0 0 0 -508538475.23445892 10418011.191313505 0 10418011.191313505 8765172.7956256866 0 0 0 0 -370020488.33358002 -20905763.429184675 0 -20905763.429184675 7847792.2368385792 0 0 0 0 -371791494.24391937 4764832.1891591996 0 4764832.1891591996 20007816.609665811 0 0 0 0 -341508067.11458731 -14952560.631729409 0 -14952560.631729409 -19171964.496003121 0 0 0 0 -341671796.53260827 -14155034.818457376 0 -14155034.818457376 24527838.424887806 0 0 0 0 -347232811.89770508 -38538070.515401423 0 -38538070.515401423 -13230.059244993707 0 0 0 0 38533282.554089546 -50691174.552978143 0 -50691174.552978143 -316133.44865135167 0 0 0 0 -440085355.43027115 -10157372.295392446 0 -10157372.295392446 26583885.431076288 0 0 0 0 -786263.01441810816 -370464.19119315036 0 -370464.19119315036 -30306.272438066113 0 0 0 0 -998959.05875396729 -5183418.6968375295 0 -5183418.6968375295 7189859.9144553095 0 0 0 0 -6155476.5317382812 3440703.474186644 0 3440703.474186644 720695.54929121956 0 0 0 0 -92163.6289181225 -36801.173653194681 0 -36801.173653194681 33108.091235174827 0 0 0 0 -2951429.5239944458 -360330.29487589921 0 -360330.29487589921 -8001.743600514561 0 0 0 0 741019.0830039978 8333941.7567331549 0 8333941.7567331549 -1077174.8238849342 0 0 0 0 -8460137.6917610168 7252730.9335670182 0 7252730.9335670182 1560330.0289515429 0 0 0 0 -154922.3249213472 -93862.615812934935 0 -93862.615812934935 -10644.39921627231 0 0 0 0 -5584403.5221252441 4667193.9681883454 0 4667193.9681883454 -480015.22294120118 0 0 0 0 -18550049.631543636 4320758.1603896655 0 4320758.1603896655 1433093.4426884393 0 0 0 0 24521562.439462662 4159058.5914757368 0 4159058.5914757368 -12488362.449119383 0 0 0 0 -49829921.709960938 -16913404.611319482 0 -16913404.611319482 -28812168.849489093 0 0 0 0 9339886.4583282471 28494253.355459906 0 28494253.355459906 -33253018.255857758 0 0 0 0 143967542.08499146 -25806523.997778736 0 -25806523.997778736 -39849105.847599238 0 0 0 0 37724934.393936157 8710115.4691793919 0 8710115.4691793919 -11823369.127544403 0 0 0 0 108743115.91880035 -13774851.371049345 0 -13774851.371049345 -17712315.595230818 0 0 0 0 99317779.644195557 -33356067.67693001 0 -33356067.67693001 -44082598.542886376 0 0 0 0 36408972.888216972 -461169.80355829 0 -461169.80355829 -57829655.11838448 0 0 0 0 -50865918.709655762 5061776.2274488211 0 5061776.2274488211 -28931458.392770767 0 0 0 0 22781467.72883606 -23977699.702014476 0 -23977699.702014476 -56576918.009081125 0 0 0 0 -134936399.40973663 34125067.616702318 0 34125067.616702318 -26285361.198051661 0 0 0 0 -86940972.341346741 -16327594.577891558 0 -16327594.577891558 -50278984.22642827 0 0 0 0 -46884782.792947769 13211841.61590375 0 13211841.61590375 -69579400.20841682 0 0 0 0 -319959271.54155731 66413226.87875402 0 66413226.87875402 -27488224.836074382 0 0 0 0 -275004244.42937469 -32496579.085402347 0 -32496579.085402347 -12704357.349000715 0 0 0 0 -159312658.86198425 -2579646.8521004468 0 -2579646.8521004468 -25321215.974673092 0 0 0 0 -237546346.13143158 34854861.614806958 0 34854861.614806958 6238477.5909730531 0 0 0 0 -117036295.00778198 -38119632.940094262 0 -38119632.940094262 -11823397.159674279 0 0 0 0 -251451388.40316772 21611164.80986052 0 21611164.80986052 -5381833.2993860869 0 0 0 0 -208371260.4630909 -41567889.359913431 0 -41567889.359913431 1479.8770329792096 0 0 0 0 -49379835.823482513 34882414.895696588 0 34882414.895696588 -6010459.511080116 0 0 0 0 -1880343.5898656845 -45297949.062220834 0 -45297949.062220834 80722.161261593836 0 0 0 0 30890098.417253494 -16280862.702299858 0 -16280862.702299858 8363970.2496273071 0 0 0 0 215362273.84461594 40424901.726581901 0 40424901.726581901 -19865042.426898092 0 0 0 0 -3701006.2154922485 -5633578.4960567905 0 -5633578.4960567905 -11963.540214437597 0 0 0 0 -6265418.5564575195 -6836235.7170845335 0 -6836235.7170845335 6682266.4241822846 0 0 0 0 -38263.093700136058 -257871.23044609651 0 -257871.23044609651 -26156.312167465334 0 0 0 0 -8156316.727645874 -2076289.8766890969 0 -2076289.8766890969 1879254.1292344909 0 0 0 0 -7257327.2697143555 -3554163.5613543075 0 -3554163.5613543075 3288551.9245822681 0 0 0 0 -7204648.8950030804 -2489800.7370245173 0 -2489800.7370245173 996876.87408172432 0 0 0 0 -7248659.5334701538 -2140844.4345464027 0 -2140844.4345464027 1360409.5269881706 0 0 0 0 -7364528.7193450928 -2349046.7191465246 0 -2349046.7191465246 1541993.5376136061 0 0 0 0 -7234500.0870437622 -2549142.7536940016 0 -2549142.7536940016 507666.00165541656 0 0 0 0 -6215981.3533477783 -2629684.0491191298 0 -2629684.0491191298 384177.77766343206 0 0 0 0 -7567413.6035499573 -2011271.9027573355 0 -2011271.9027573355 1313442.3778554145 0 0 0 0 -40969.160230041016 -75452.814443016425 0 -75452.814443016425 -8044.9214431522623 0 0 0 0 -5028931.8935222626 2084568.2450234992 0 2084568.2450234992 -8570647.786683321 0 0 0 0 -8344173.9965515137 -1834996.8731311262 0 -1834996.8731311262 1610537.862561509 0 0 0 0 -7915272.1263046265 -1600357.0965527017 0 -1600357.0965527017 598959.45803938806 0 0 0 0 -6611151.6715393066 -1629677.1044980865 0 -1629677.1044980865 113505.61005074903 0 0 0 0 -2898726.9990768433 -1945528.1290020975 0 -1945528.1290020975 -1058770.4586638566 0 0 0 0 194843695.63901901 36340484.895242333 0 36340484.895242333 -21807177.361520529 0 0 0 0 -177442.4085555058 -499876.81158733182 0 -499876.81158733182 162345.89613165992 0 0 0 0 -115352.99434333574 -356628.43193539791 0 -356628.43193539791 -47771.903901136197 0 0 0 0 -5574925.5249328613 -2970393.0878131911 0 -2970393.0878131911 4500535.1632758528 0 0 0 0 -10100562.81577301 -2347010.3244189736 0 -2347010.3244189736 1399942.9768085051 0 0 0 0 -8506600.764213562 -3934027.0899381088 0 -3934027.0899381088 542630.39613012597 0 0 0 0 -5138865.6611175537 -4152200.9896841254 0 -4152200.9896841254 -741026.99716716073 0 0 0 0 -405920.30652913079 -180267.92950326577 0 -180267.92950326577 482026.82348671724 0 0 0 0 -11945801.095779419 2094047.5758328252 0 2094047.5758328252 1258491.5765128732 0 0 0 0 -566438.86391448975 -2003405.9479615502 0 -2003405.9479615502 121854.94111504266 0 0 0 0 -218565.23365447577 -1021527.0942209363 0 -1021527.0942209363 -89408.850478681386 0 0 0 0 129204542.18814087 -29564409.983938932 0 -29564409.983938932 -15297920.975281134 0 0 0 0 145216494.58555412 -19828244.218076274 0 -19828244.218076274 -14245556.010380268 0 0 0 0 -464572.14642683696 -436582.94237076119 0 -436582.94237076119 412913.52390159981 0 0 0 0 -5674731.3535003662 -3011585.5540871844 0 -3011585.5540871844 -447388.37112180702 0 0 0 0 -6275856.636932373 -1298531.923370976 0 -1298531.923370976 -269071.00778825954 0 0 0 0 -11897098.387237549 -1342226.907672748 0 -1342226.907672748 909624.11642091349 0 0 0 0 -8680123.1936416626 -2829547.7974010785 0 -2829547.7974010785 -966195.50372558925 0 0 0 0 -9158554.5753250122 -153076.50926413992 0 -153076.50926413992 466702.52062367834 0 0 0 0 -7579997.6008377075 -1216959.3814206878 0 -1216959.3814206878 -1939526.9890352092 0 0 0 0 -6320.9038356840611 -4032.1980762435123 0 -4032.1980762435123 4993.1538904065619 0 0 0 0 -6613990.4260444641 -3838019.9411246842 0 -3838019.9411246842 -2376961.5014465842 0 0 0 0 -3977085.2009410858 2511778.6287211832 0 2511778.6287211832 5206611.3314770134 0 0 0 0 -6670749.1401367188 -1371357.055958756 0 -1371357.055958756 1025597.457724669 0 0 0 0 -7467203.3011856079 -1153297.4220809571 0 -1153297.4220809571 1358140.8368254243 0 0 0 0 -5335147.4803085327 -721577.05506789288 0 -721577.05506789288 1000893.7335188515 0 0 0 0 -6876416.5237579346 -2016526.2837132586 0 -2016526.2837132586 8108.9605505811942 0 0 0 0 -3990208.3437461853 -1155053.3965406548 0 -1155053.3965406548 -6047.9817419249939 0 0 0 0 -3548605.5814094543 -820257.00141963491 0 -820257.00141963491 -159040.4880961529 0 0 0 0 -3232.8907492272556 -2522.3428103281185 0 -2522.3428103281185 447.31772018875552 0 0 0 0 -803114.37406158447 -1914236.7724655403 0 -1914236.7724655403 -2802839.0077040223 0 0 0 0 221171.14337158203 321395.69203864323 0 321395.69203864323 1343.6509477920356 0 0 0 0 -238733.44973754883 -362735.58095371118 0 -362735.58095371118 -1763265.9820140838 0 0 0 0 -1076760.2676391602 -1369034.3592565628 0 -1369034.3592565628 -117008.40789315803 0 0 0 0 -795696.75883865356 -83241.876201305713 0 -83241.876201305713 964441.90335219912 0 0 0 0 -1213549.575668335 432602.73273190507 0 432602.73273190507 167879.45609043149 0 0 0 0 113514.27851867676 -153562.95073883003 0 -153562.95073883003 425661.35451245634 0 0 0 0 -5839734.4037857056 -3925732.8953510798 0 -3925732.8953510798 -605232.29904099135 0 0 0 0 -73019.641988754272 276820.98910913523 0 276820.98910913523 745680.94505876978 0 0 0 0 -662642.29891586304 -1121671.0724296002 0 -1121671.0724296002 -352531.94840934803 0 0 0 0 -544202.14553833008 878358.71148805798 0 878358.71148805798 -2685.9527599904122 0 0 0 0 -6492.2916756160557 -2407.0483633736148 0 -2407.0483633736148 1574.74833052023 0 0 0 0 64484.166469573975 -1075321.9813824806 0 -1075321.9813824806 -349862.12478446006 0 0 0 0 -256526.03243255615 -168921.26157189766 0 -168921.26157189766 978850.01878347318 0 0 0 0 -4924.8306695744395 -1816.5080608977005 0 -1816.5080608977005 1591.2039893420156 0 0 0 0 -1158915.5494232178 -692936.18299141433 0 -692936.18299141433 2229437.0373960081 0 0 0 0 -9488266.2778778076 -4257863.5309843514 0 -4257863.5309843514 -604667.73790288414 0 0 0 0 -354686.80866241455 -648748.36295676976 0 -648748.36295676976 1062194.1258285991 0 0 0 0 -175673.06589508057 -465789.37487308681 0 -465789.37487308681 1595834.4967680611 0 0 0 0 612005.68337869644 -164631.99333089832 0 -164631.99333089832 1285556.711337782 0 0 0 0 -427800.45069122314 -648039.25580752827 0 -648039.25580752827 1383335.2753664437 0 0 0 0 3550.3528518676758 -307771.3018842414 0 -307771.3018842414 322640.64711585362 0 0 0 0 -66777.945004813373 -90140.157650176436 0 -90140.157650176436 81656.28739619405 0 0 0 0 -276455.00074863434 -238318.80720366357 0 -238318.80720366357 1816238.392868665 0 0 0 0 -7582124.7359275818 17045561.391673416 0 17045561.391673416 5178923.3603583425 0 0 0 0 -8046329.087677002 530943.29950460419 0 530943.29950460419 -37458.207017712295 0 0 0 0 15280.791115060449 32787.218617361039 0 32787.218617361039 -45863.958578641221 0 0 0 0 -22124989.920166016 -454004.15406907722 0 -454004.15406907722 194570.95474407077 0 0 0 0 -100012.96920801327 9689.9900205601007 0 9689.9900205601007 -34296.241119076483 0 0 0 0 -594721.39966583252 690232.2920876136 0 690232.2920876136 4064345.8113845736 0 0 0 0 -21058.262292072177 -23408.133906034753 0 -23408.133906034753 23701.336885058365 0 0 0 0 -939277.74114227295 -1257759.9846808191 0 -1257759.9846808191 2222138.5720770773 0 0 0 0 -25730.153171539307 -192967.35804777127 0 -192967.35804777127 4905.6863706856966 0 0 0 0 -425735.32715606689 -890715.3860124778 0 -890715.3860124778 -780486.51623043232 0 0 0 0 -1171594.0424194336 -553533.55062691867 0 -553533.55062691867 -341113.46936255135 0 0 0 0 -1148757.2542762756 -503099.82274240442 0 -503099.82274240442 -715300.50476130471 0 0 0 0 -2378537.7395401001 -2023308.3926576395 0 -2023308.3926576395 -1284746.0195784625 0 0 0 0 -1991684.9981613159 -2072606.6170451492 0 -2072606.6170451492 -1981044.4866661113 0 0 0 0 -3353963.7175598145 -1340759.3627324915 0 -1340759.3627324915 92444.081321362406 0 0 0 0 -2908635.1621551514 -1167031.3032906316 0 -1167031.3032906316 640418.49315164983 0 0 0 0 -3838199.3066101074 -2058875.5798672792 0 -2058875.5798672792 134524.41617161036 0 0 0 0 -2894449.4046859741 -1275936.9975087829 0 -1275936.9975087829 1001393.2294802219 0 0 0 0 -1710215.3323974609 -782953.18548817467 0 -782953.18548817467 308606.16086152941 0 0 0 0 -1215700.6599693298 -551613.43370799534 0 -551613.43370799534 1166364.9550903365 0 0 0 0 159521.90235137939 -578655.22816129774 0 -578655.22816129774 -264426.53507552296 0 0 0 0 -1704889.1661376953 -1457349.9168610536 0 -1457349.9168610536 -183112.72891611606 0 0 0 0 15498633.751533508 -8550016.3757512979 0 -8550016.3757512979 -4529274.1056111604 0 0 0 0 -1610809.9852864742 -1420740.3276578365 0 -1420740.3276578365 700138.14101754501 0 0 0 0 -942225.2671466507 353883.51727093384 0 353883.51727093384 -6941.7315693901146 0 0 0 0 -1533584.5733156204 -194189.67247704184 0 -194189.67247704184 1975713.7704894245 0 0 0 0 -122576.591082111 -141657.65158681851 0 -141657.65158681851 103470.12994454574 0 0 0 0 -1948270.8294067383 -2244380.4487678707 0 -2244380.4487678707 1143034.6495267227 0 0 0 0 -2667343.6169891357 -895213.02466257662 0 -895213.02466257662 1381003.3611206785 0 0 0 0 -3680607.6769714355 -1298949.7076821849 0 -1298949.7076821849 2244636.6896533519 0 0 0 0 -4204774.6897354126 -1232505.4203088693 0 -1232505.4203088693 1588726.1026448607 0 0 0 0 -3637478.8426380157 -1379907.4938980769 0 -1379907.4938980769 1376499.2163481712 0 0 0 0 -3464181.9376907349 -1644491.7494455874 0 -1644491.7494455874 879001.92420634627 0 0 0 0 -2328381.0830612183 -1427559.0641173385 0 -1427559.0641173385 778742.62916335464 0 0 0 0 4092110.2635116577 8715567.9907425568 0 8715567.9907425568 -4511630.3574259281 0 0 0 0 -20207673.086063385 13359353.257409707 0 13359353.257409707 4292839.2581762671 0 0 0 0 -8978655.3743476868 1667174.5778888799 0 1667174.5778888799 -6931301.0694367588 0 0 0 0 -453120.62567097694 184695.16203139909 0 184695.16203139909 -134638.67759268568 0 0 0 0 149515.575050354 -583446.47406101599 0 -583446.47406101599 145033.17316437326 0 0 0 0 -2835134.4673089981 -17829485.625657916 0 -17829485.625657916 6713876.4895792902 0 0 0 0 -38797796.25239563 4549395.9175480083 0 4549395.9175480083 14548507.878330356 0 0 0 0 14579571.643106461 -14483647.033732612 0 -14483647.033732612 -29858602.61995855 0 0 0 0 15762680.671066284 14094059.187916625 0 14094059.187916625 -29216373.790930256 0 0 0 0 -27913661.617713928 27723770.96989949 0 27723770.96989949 -17293971.497280717 0 0 0 0 2597664.151763916 39577.664069063962 0 39577.664069063962 -14055629.891534962 0 0 0 0 -16887.086224675179 -59202.995064850897 0 -59202.995064850897 -72659.763578692917 0 0 0 0 -3631849.4681167603 4811258.5346323252 0 4811258.5346323252 4038644.6209773198 0 0 0 0 -4703809.5639343262 -18385800.763574988 0 -18385800.763574988 -4670406.2422102056 0 0 0 0 -5651280.7868881226 -6173829.970516704 0 -6173829.970516704 29841735.343506753 0 0 0 0 -154556.13972883299 455043.3660360449 0 455043.3660360449 45358.448311001965 0 0 0 0 -1193139.363243103 140348.18400835991 0 140348.18400835991 2549288.4997540414 0 0 0 0 -1958947.0942991897 956610.53604594711 0 956610.53604594711 282194.52139677375 0 0 0 0 -1679062.0458246469 -103014.7157711396 0 -103014.7157711396 391131.15223644383 0 0 0 0 -34089960.787483215 22821159.881867614 0 22821159.881867614 33845903.549460113 0 0 0 0 1003877.9603042603 14044072.695666671 0 14044072.695666671 -32274828.082946748 0 0 0 0 -2720556.4259243794 928204.32600324135 0 928204.32600324135 23411.407025533204 0 0 0 0 6470158.3647041321 9443347.0419604778 0 9443347.0419604778 -66246943.129543602 0 0 0 0 -4210911.2522315979 11812482.198644638 0 11812482.198644638 -25539800.973189831 0 0 0 0 -3255564.6101989746 -1475199.5662895665 0 -1475199.5662895665 1235048.4939884404 0 0 0 0 -1351883.5416717529 224172.81315826625 0 224172.81315826625 1597867.3671097457 0 0 0 0 -2621125.5185598806 157689.12702927738 0 157689.12702927738 267744.39559945383 0 0 0 0 -3668584.1222610474 -1537502.7562927902 0 -1537502.7562927902 1268355.7611571848 0 0 0 0 -4000110.7762527466 -1649753.2255174965 0 -1649753.2255174965 1690472.8158177733 0 0 0 0 -821522.76573181152 -283840.12738114595 0 -283840.12738114595 1076513.1940899789 0 0 0 0 -1520676.9512312002 318438.92020179797 0 318438.92020179797 105387.87350501437 0 0 0 0 14659902.447021484 16305616.846574465 0 16305616.846574465 9797288.0992904902 0 0 0 0 -7610968.9869995117 11184992.585529745 0 11184992.585529745 -11451479.884079456 0 0 0 0 -7740693.5843887329 11390328.305062056 0 11390328.305062056 -9819663.2705678642 0 0 0 0 -1796103.5198232383 212689.15409657545 0 212689.15409657545 567305.62091882201 0 0 0 0 -2849714.9850006104 1133691.1939480901 0 1133691.1939480901 2695043.1321157664 0 0 0 0 -2936804.1760855988 -351007.07228267379 0 -351007.07228267379 1224903.0196348454 0 0 0 0 -2769366.4487504587 1081207.2171995845 0 1081207.2171995845 1160911.963944688 0 0 0 0 -4852397.7394790649 -695799.47134561092 0 -695799.47134561092 1585350.6206690893 0 0 0 0 -5117885.2441864014 -773802.58307315782 0 -773802.58307315782 1438234.8704908118 0 0 0 0 -3579622.9901638031 -879933.38977920217 0 -879933.38977920217 1383293.9034069255 0 0 0 0 -4041277.5264434814 -1187111.535353072 0 -1187111.535353072 1474902.189208582 0 0 0 0 -6003321.31980896 100081.84851213172 0 100081.84851213172 1675951.7301879786 0 0 0 0 -5541170.6960220337 -892749.26677591354 0 -892749.26677591354 1742018.3681557998 0 0 0 0 -3624618.1710974686 415764.31134068966 0 415764.31134068966 1633136.2376099725 0 0 0 0 -4917741.9112434387 359688.54392916011 0 359688.54392916011 1145400.7358577251 0 0 0 0 -3650952.1767883301 402256.28128528595 0 402256.28128528595 5317820.4453738928 0 0 0 0 -1337490.5071601868 -272317.96318268776 0 -272317.96318268776 1298574.1808083057 0 0 0 0 -2399497.514213562 -1129061.2696439773 0 -1129061.2696439773 3593413.2389881611 0 0 0 0 213309.82403564453 -101721.31063866615 0 -101721.31063866615 5371299.499972403 0 0 0 0 -1348289.678894043 1274633.1164708138 0 1274633.1164708138 993493.87606656551 0 0 0 0 -1345130.9190673828 1264593.449010849 0 1264593.449010849 325376.57778011262 0 0 0 0 -17308439.232192993 -7053500.8917126656 0 -7053500.8917126656 11878359.456904411 0 0 0 0 -2815960.4840394743 -1059919.8167997785 0 -1059919.8167997785 1901656.8795758488 0 0 0 0 11066.029303807765 -82085.341205084114 0 -82085.341205084114 81384.392861792861 0 0 0 0 -6408781.5855514091 -290104.68930581585 0 -290104.68930581585 1327954.1724511958 0 0 0 0 -11012173.60887146 4536183.3599877357 0 4536183.3599877357 2844183.7247362137 0 0 0 0 -8877565.3124357183 -2142675.8235208169 0 -2142675.8235208169 2779883.2933628219 0 0 0 0 -7597396.9557495117 3020267.2443246841 0 3020267.2443246841 2191095.2541077137 0 0 0 0 -8498752.1029663086 4680548.8206481934 0 4680548.8206481934 2607484.0550518036 0 0 0 0 -4844952.3289986104 2831727.8984795148 0 2831727.8984795148 1656441.0872168858 0 0 0 0 -393309.37317669019 2344.7483856342733 0 2344.7483856342733 286154.07192815794 0 0 0 0 -10199072.456054688 -9172929.1236314774 0 -9172929.1236314774 9984955.5462226868 0 0 0 0 -7603098.4093322754 -12805624.331475258 0 -12805624.331475258 41403452.355507255 0 0 0 0 -10155246.089493036 -631354.83844627358 0 -631354.83844627358 2259216.5258197533 0 0 0 0 5416912.2598419189 -24740920.832766056 0 -24740920.832766056 31693722.971121788 0 0 0 0 -9309282.3798217773 -3210845.6767282486 0 -3210845.6767282486 29546356.894779205 0 0 0 0 -3562550.2238464355 9390243.2077569962 0 9390243.2077569962 20737915.361738205 0 0 0 0 -3483618.7698974609 -11480069.968781471 0 -11480069.968781471 23775195.10710144 0 0 0 0 -7291524.7106018066 -4474338.106262207 0 -4474338.106262207 12592975.964980602 0 0 0 0 -1476318.8139648438 -7980270.1341724396 0 -7980270.1341724396 7791293.6173353195 0 0 0 0 -829339.68420410156 -9348613.6621685028 0 -9348613.6621685028 8994041.7461948395 0 0 0 0 40065.48265838623 -8363353.8446147442 0 -8363353.8446147442 6471252.0565128326 0 0 0 0 1502060.2903747559 -11426813.561776161 0 -11426813.561776161 12540682.627582788 0 0 0 0 56425.930740356445 -10855962.088779211 0 -10855962.088779211 12448101.708721161 0 0 0 0 -4087657.3725509644 -7360684.2891941071 0 -7360684.2891941071 1057605.4385499954 0 0 0 0 385872.71543362737 -319583.38918906264 0 -319583.38918906264 -60300.667049945798 0 0 0 0 15353710.269269466 -16461067.459295407 0 -16461067.459295407 2712941.6926622391 0 0 0 0 7099198.6653747559 -8558789.6179256439 0 -8558789.6179256439 -4316552.1954900026 0 0 0 0 5243827.3899345398 -12545827.2088871 0 -12545827.2088871 1516117.4990234375 0 0 0 0 -372566.48681640625 -7148849.7999200821 0 -7148849.7999200821 5555385.2640686035 0 0 0 0 3787301.1474304199 -10689237.545032501 0 -10689237.545032501 -690623.31824874878 0 0 0 0 844753.57035064697 -10386900.968948364 0 -10386900.968948364 -684769.1576423645 0 0 0 0 1553897.7850036621 -6428141.6774330139 0 -6428141.6774330139 -1777176.9293265343 0 0 0 0 3536373.6791915894 -6089176.321387291 0 -6089176.321387291 -1725534.8916454315 0 0 0 0 4264261.5376281738 -6117690.5881414413 0 -6117690.5881414413 -3954553.1157556772 0 0 0 0 6509529.5333404541 -4488074.9492218494 0 -4488074.9492218494 -3126658.3502216339 0 0 0 0 -17575930.231163025 -900566.19859428704 0 -900566.19859428704 -576121.90343761444 0 0 0 0 -18046491.245651245 -6383055.2017271519 0 -6383055.2017271519 52149.146099090576 0 0 0 0 6658140.4426651001 -12992886.851925373 0 -12992886.851925373 -3819624.38803792 0 0 0 0 -2883947.8669297993 89820.978084981441 0 89820.978084981441 817568.79573910183 0 0 0 0 -1759909.1728478689 -1293824.6070726849 0 -1293824.6070726849 1118786.2731515444 0 0 0 0 -6389343.4430084229 16562.657654870301 0 16562.657654870301 1811426.6137814075 0 0 0 0 -9018862.6702575684 2263098.5350735188 0 2263098.5350735188 1727945.0901384354 0 0 0 0 14984590.018295288 1300261.1449890137 0 1300261.1449890137 -9294167.932466507 0 0 0 0 -12761825.932533264 -4553280.0427886248 0 -4553280.0427886248 37285.857328891754 0 0 0 0 -2158719.2585855452 293751.25789514184 0 293751.25789514184 1145730.733213271 0 0 0 0 -6955287.5488777161 169709.16854185984 0 169709.16854185984 1831699.637350738 0 0 0 0 -5308555.2322311401 1362004.2667923896 0 1362004.2667923896 1070754.8029206581 0 0 0 0 2326886.7550048828 -3144971.4531478882 0 -3144971.4531478882 2972484.4182939529 0 0 0 0 326949.74948387221 -990479.2219120767 0 -990479.2219120767 -51775.010214317823 0 0 0 0 3001343.686630249 -3636285.6388702393 0 -3636285.6388702393 -756533.98670768738 0 0 0 0 3778299.5683288574 -5119183.4546837807 0 -5119183.4546837807 -485231.57243466377 0 0 0 0 -1883329.4697036743 -2780999.1777765751 0 -2780999.1777765751 -143341.67076873779 0 0 0 0 2131916.3402252197 -5028423.28977108 0 -5028423.28977108 3267292.281255722 0 0 0 0 6534011.9963989258 -1195301.9558725357 0 -1195301.9558725357 -1635919.8345727921 0 0 0 0 -577684.1832940965 -2121779.4392428808 0 -2121779.4392428808 504516.39688632754 0 0 0 0 -213147.86120502278 115219.86934866942 0 115219.86934866942 96591.773097765399 0 0 0 0 134694178.21045208 -68872961.235388875 0 -68872961.235388875 9388669.9254572392 0 0 0 0 -1201312.603767395 -683304.22283816338 0 -683304.22283816338 -72976.50039100647 0 0 0 0 -12724246.073928833 -2005495.8728814125 0 -2005495.8728814125 -307565.74310112 0 0 0 0 -213491.7385677509 -1862433.9755060766 0 -1862433.9755060766 1175292.8140499308 0 0 0 0 124526357.28477478 -33264116.265699029 0 -33264116.265699029 19278712.493613243 0 0 0 0 -8015152.2698287964 2213917.579467319 0 2213917.579467319 1020135.1329973023 0 0 0 0 -8888316.9334564209 -502286.97580497712 0 -502286.97580497712 1754603.4922295213 0 0 0 0 -7603990.9983978271 -700983.20626776293 0 -700983.20626776293 937751.75127563067 0 0 0 0 -7609097.1731929481 -1883473.2298542287 0 -1883473.2298542287 967130.62530877441 0 0 0 0 -5437897.627532959 -1300273.5269129314 0 -1300273.5269129314 1280863.7881378457 0 0 0 0 -5423777.5413131714 -1297651.7163652331 0 -1297651.7163652331 1040208.0271042325 0 0 0 0 -4274340.899520874 -1425105.6237791702 0 -1425105.6237791702 1184324.0780680049 0 0 0 0 -5505353.8135051727 -1170912.8139045211 0 -1170912.8139045211 1673795.749599725 0 0 0 0 -5442450.0589962006 -795778.65177016566 0 -795778.65177016566 1623768.8038996682 0 0 0 0 -6494079.1497497559 -69128.076891802251 0 -69128.076891802251 1819612.365025619 0 0 0 0 -7006398.3290328979 -1004556.4817255549 0 -1004556.4817255549 1710961.2326769009 0 0 0 0 -1267223446.0517731 -102645077.4435982 0 -102645077.4435982 241464338.40707901 0 0 0 0 -1572819530.9433348 -724138145.15474212 0 -724138145.15474212 47979384.733113423 0 0 0 0 -1050356661.2644615 -548773165.90299082 0 -548773165.90299082 168943827.63823497 0 0 0 0 -2151255.8921784535 -317023.96914961748 0 -317023.96914961748 803274.04973223363 0 0 0 0 -981884369.91106224 -109048461.94356664 0 -109048461.94356664 -984714.95092771319 0 0 0 0 -962379373.41925049 -182466581.23548818 0 -182466581.23548818 154027186.67152607 0 0 0 0 -1247220037.1307297 -46039399.569253653 0 -46039399.569253653 116255390.93247086 0 0 0 0 -1509235.5046190321 -359280.0319675114 0 -359280.0319675114 302837.61220179911 0 0 0 0 -1368317410.2076406 359001446.18730319 0 359001446.18730319 9121222.0226588249 0 0 0 0 -891451335.37274361 241191785.66620877 0 241191785.66620877 -758580.25123500824 0 0 0 0 -885222524.67004299 137443795.83520406 0 137443795.83520406 116709226.11676121 0 0 0 0 -971621.34928382561 -125672.38160736486 0 -125672.38160736486 366475.34778715612 0 0 0 0 -659266920.80953979 258423950.14311022 0 258423950.14311022 524478742.92493892 0 0 0 0 -565845539.41253662 -262341457.35499603 0 -262341457.35499603 -132312574.3597011 0 0 0 0 -1127708966.6662979 -818307145.43233085 0 -818307145.43233085 -306181241.74359739 0 0 0 0 -535892498.70156097 -29451169.592847705 0 -29451169.592847705 107766795.60509096 0 0 0 0 -172033682.63234711 372909803.08049566 0 372909803.08049566 146083243.02121887 0 0 0 0 -221098644.54093933 144960227.2778205 0 144960227.2778205 56965146.406296253 0 0 0 0 -1165285.6434591301 -1271484.413575314 0 -1271484.413575314 -808297.53188919893 0 0 0 0 35471684.788791656 -126453127.04574111 0 -126453127.04574111 -122707515.74389493 0 0 0 0 5840585.8668498993 -5293190.5614861809 0 -5293190.5614861809 -6249608.6615786962 0 0 0 0 -10055772.360443115 4346055.7793715559 0 4346055.7793715559 4971790.6065310165 0 0 0 0 -465097307.55628967 50612426.291223228 0 50612426.291223228 -5600762.0869874954 0 0 0 0 -456178506.10346222 -8078052.3022495508 0 -8078052.3022495508 52005444.982439771 0 0 0 0 -1642176.5639228486 -1008490.104380995 0 -1008490.104380995 -308685.13274205261 0 0 0 0 2153100.0974884033 -2745214.2315478767 0 -2745214.2315478767 1963.8475433428464 0 0 0 0 -4448697.3692817688 -3096623.8935891753 0 -3096623.8935891753 -1227.1113658637901 0 0 0 0 -578255.68370437622 263525.02668600786 0 263525.02668600786 684943.02546014916 0 0 0 0 -4216602.0284729004 -2456126.9886634769 0 -2456126.9886634769 2535181.6843017284 0 0 0 0 -4200028.8411922455 -2307944.5940215546 0 -2307944.5940215546 -311060.60160643607 0 0 0 0 -13905239.847427368 -278658.2665530743 0 -278658.2665530743 4232460.4911535215 0 0 0 0 -8215143.3538002968 2532813.722867169 0 2532813.722867169 1112083.5629758784 0 0 0 0 -9124310.0455360413 -1476770.6662238711 0 -1476770.6662238711 2017730.1705288282 0 0 0 0 -290831.88022687845 -38161.313723914325 0 -38161.313723914325 -8486.3144916896199 0 0 0 0 -9564770.8954772949 1243577.4208758473 0 1243577.4208758473 4608.8757480747036 0 0 0 0 -7658623.5793704987 -163713.634441328 0 -163713.634441328 1042351.2179500642 0 0 0 0 -15386183.122924805 -1075178.1942146851 0 -1075178.1942146851 2335473.6939813285 0 0 0 0 -12905802.804367065 -325388.77741400152 0 -325388.77741400152 1244661.6496421855 0 0 0 0 -11051870.121047974 3392319.3091802662 0 3392319.3091802662 2314694.3432869213 0 0 0 0 -13097069.45475769 -395351.80153972411 0 -395351.80153972411 -3010361.0949752759 0 0 0 0 -28930696.183692932 9950576.9885045849 0 9950576.9885045849 -9724088.2391643394 0 0 0 0 -16213030.514678955 -7099378.4294720171 0 -7099378.4294720171 684976.80158280605 0 0 0 0 245385.70731878281 -3547938.9008430718 0 -3547938.9008430718 1446563.513439368 0 0 0 0 -34922.461294289678 1907.0049979314208 0 1907.0049979314208 -9661.6478591260602 0 0 0 0 -15104907.816635132 4847115.4995424822 0 4847115.4995424822 -465469.37611568766 0 0 0 0 -24657047.698509216 10576281.822023842 0 10576281.822023842 -849144.33225075155 0 0 0 0 -18185990.49471283 -7283267.8900468163 0 -7283267.8900468163 -3469727.9369249544 0 0 0 0 -3040306.7275924683 -2074679.4985170756 0 -2074679.4985170756 -1785401.5927718915 0 0 0 0 -417671.94444863126 -91174.143417550251 0 -91174.143417550251 -14638.923040710946 0 0 0 0 393704.07936859131 -552238.33395530377 0 -552238.33395530377 -8291317.7039050404 0 0 0 0 -176420.31388371065 22059.441663490608 0 22059.441663490608 115911.00202979344 0 0 0 0 -11960545.769079208 5174589.1213636147 0 5174589.1213636147 174761.19491594285 0 0 0 0 -1239241.1484527588 -2534329.5105542019 0 -2534329.5105542019 1442292.4266284034 0 0 0 0 -1022910.8366593949 -174643.35953687131 0 -174643.35953687131 262922.1825673955 0 0 0 0 -324567.15492248535 -979476.74434038997 0 -979476.74434038997 522868.72819519043 0 0 0 0 -184391.1630853042 -335718.86790846288 0 -335718.86790846288 -228503.12233664998 0 0 0 0 -7755176.8414945602 9297630.1435642466 0 9297630.1435642466 -2319077.6754143536 0 0 0 0 -8896266.3689651489 -1942376.6423070282 0 -1942376.6423070282 2938111.5879591499 0 0 0 0 -13657160.286117554 14867069.676202845 0 14867069.676202845 -3938508.2851759307 0 0 0 0 -1858911.1309585571 250168.51159141958 0 250168.51159141958 -36947.98961276561 0 0 0 0 312429.03091430664 -2287624.9869645536 0 -2287624.9869645536 -187451.29616391659 0 0 0 0 -22401761.057693481 8727783.8618994355 0 8727783.8618994355 -5413544.0861677229 0 0 0 0 -93224.189476631582 -190690.24165800028 0 -190690.24165800028 -171789.64254693623 0 0 0 0 357264.90532946587 566237.70100035192 0 566237.70100035192 -257786.1399102211 0 0 0 0 222056.0827806741 46974.207680732012 0 46974.207680732012 -193666.66200620274 0 0 0 0 -889444.13400859898 -692694.28539897315 0 -692694.28539897315 -417556.13934304571 0 0 0 0 651490.63252782822 -256014.00012595812 0 -256014.00012595812 -2039445.1921075583 0 0 0 0 -2243884.965675354 -2323889.6878983751 0 -2323889.6878983751 -96768.180450912565 0 0 0 0 2696993.2506639957 -2217410.577341524 0 -2217410.577341524 -5102755.2391487658 0 0 0 0 -5231120.6240110397 -7606158.233474642 0 -7606158.233474642 4388833.1706072837 0 0 0 0 -2176378.7762756348 -3279377.2548002526 0 -3279377.2548002526 -83590.887546688318 0 0 0 0 -2381003.473739624 -1577197.6305427328 0 -1577197.6305427328 -3903538.3978601247 0 0 0 0 -2855899.3903961182 1929491.7503913641 0 1929491.7503913641 8783029.5036567152 0 0 0 0 -3568266.4524927139 -595984.42695299909 0 -595984.42695299909 3072622.2090686262 0 0 0 0 -2300952.3718941621 878536.16173250694 0 878536.16173250694 -47200.837914776988 0 0 0 0 11440496.228515625 18214719.093250871 0 18214719.093250871 -180507933.95175517 0 0 0 0 -245253.78376912326 -118004.56000878755 0 -118004.56000878755 91448.252363057109 0 0 0 0 -61419533.651004791 185413555.20973152 0 185413555.20973152 -590583462.87441921 0 0 0 0 -73319.514057050459 29338.353024665266 0 29338.353024665266 -28441.599133122712 0 0 0 0 -2273817.4807853699 -877842.98618875444 0 -877842.98618875444 2106354.7829128206 0 0 0 0 -575432.35924055427 -377620.68207181618 0 -377620.68207181618 172129.30180064286 0 0 0 0 -133600025.92923355 62521824.1279324 0 62521824.1279324 5001961.8278560638 0 0 0 0 -113557559.75159454 65068136.418463066 0 65068136.418463066 -35104232.356396079 0 0 0 0 -75743802.236953735 80261555.953863502 0 80261555.953863502 -58952706.524302006 0 0 0 0 -76523868.951332092 68650252.634985805 0 68650252.634985805 -227498855.66855597 0 0 0 0 -398675299.2897644 103862763.18355417 0 103862763.18355417 77494542.577136993 0 0 0 0 13335006.357421875 14631205.553007007 0 14631205.553007007 -66847911.676117718 0 0 0 0 -150821773.64787292 28678488.916285709 0 28678488.916285709 -60842612.359184861 0 0 0 0 -161812322.62973976 -71316519.697159439 0 -71316519.697159439 -118133775.04902101 0 0 0 0 45132895.837439775 50228583.794324957 0 50228583.794324957 -87048123.082393527 0 0 0 0 -228681460.14544678 -35849662.168394029 0 -35849662.168394029 12971737.223811857 0 0 0 0 -349808148.0868988 57602791.423619986 0 57602791.423619986 68798089.425443411 0 0 0 0 -773340.74093093351 -55219.357646385208 0 -55219.357646385208 340189.55660458631 0 0 0 0 -442066606.8599968 -308036587.54750359 0 -308036587.54750359 -173625475.65261447 0 0 0 0 -435293132.48785496 -410384732.49085402 0 -410384732.49085402 25104873.983633041 0 0 0 0 -650205352.78463364 -304472296.78790396 0 -304472296.78790396 78770621.038583338 0 0 0 0 -1476845.1088341512 -320293.93178782985 0 -320293.93178782985 845778.42569732887 0 0 0 0 -149832697.27799988 -179511367.08020461 0 -179511367.08020461 -209434269.3704567 0 0 0 0 -186953803.00627899 -80768016.127263784 0 -80768016.127263784 -96121309.830177039 0 0 0 0 -60090293.407310486 -27552892.400600582 0 -27552892.400600582 -109022933.69860879 0 0 0 0 -120243876.06827164 -78956223.331772894 0 -78956223.331772894 -75407035.081893146 0 0 0 0 -67407250.743076324 -39399285.41822201 0 -39399285.41822201 31061512.076483727 0 0 0 0 29118187.786270142 -60810850.995764256 0 -60810850.995764256 -75412387.188841552 0 0 0 0 -95207691.402942657 -100362073.30662513 0 -100362073.30662513 81870817.829603791 0 0 0 0 -72212616.450843811 -76585829.724235684 0 -76585829.724235684 -145857174.39955425 0 0 0 0 -785303.75213159248 -298942.02793623041 0 -298942.02793623041 551811.3468477868 0 0 0 0 -113413426.65726089 -187970883.33359513 0 -187970883.33359513 -124279402.52160783 0 0 0 0 -41672397.504959106 -87725905.627054095 0 -87725905.627054095 -87049102.945144266 0 0 0 0 -594239608.76701927 -918505973.31832206 0 -918505973.31832206 -815511873.64133799 0 0 0 0 -1572427886.2100985 -759757189.75764072 0 -759757189.75764072 136741216.18258008 0 0 0 0 -1570684978.4647942 -761364691.70380127 0 -761364691.70380127 135835118.58868137 0 0 0 0 -284347502.3551712 8773362.9945925474 0 8773362.9945925474 88415788.313285351 0 0 0 0 -1268303524.4480095 -588072492.08548605 0 -588072492.08548605 -121404007.12484682 0 0 0 0 -661630618.06999254 -241281331.72457343 0 -241281331.72457343 39813418.781741023 0 0 0 0 -570591337.22962952 -257894876.34416664 0 -257894876.34416664 35567244.436730027 0 0 0 0 -2213224.8620015383 -561142.51936444454 0 -561142.51936444454 929129.57399287983 0 0 0 0 -1006352943.0040131 355734949.98175222 0 355734949.98175222 207978474.50270662 0 0 0 0 -931746956.0039711 215501396.91360784 0 215501396.91360784 135167367.13907394 0 0 0 0 -1575383344.5299149 617519614.76993716 0 617519614.76993716 98429741.216840774 0 0 0 0 -1571729440.7182491 1149613474.5591593 0 1149613474.5591593 -702596155.85194802 0 0 0 0 -2764640.5953913182 -227949.6929975925 0 -227949.6929975925 -706632.90510128485 0 0 0 0 -603296387.48391342 468952139.33799648 0 468952139.33799648 -226329553.01487121 0 0 0 0 -604947311.58027446 306733190.29875374 0 306733190.29875374 -85527387.732327282 0 0 0 0 -6516722.9947572798 -1462220.2886138419 0 -1462220.2886138419 -576640.00668466138 0 0 0 0 27631382.053367615 -191898764.60248172 0 -191898764.60248172 126759942.71669412 0 0 0 0 61349674.660925865 -8640237.5827091411 0 -8640237.5827091411 38273462.139568329 0 0 0 0 -187206059.14462191 -36715693.321536809 0 -36715693.321536809 96239541.925984457 0 0 0 0 -195746492.44962311 179004024.43417925 0 179004024.43417925 -111762032.12116493 0 0 0 0 -642262661.66807175 348632666.37742805 0 348632666.37742805 -78607999.288013846 0 0 0 0 -264167409.77169037 64266047.702814549 0 64266047.702814549 -3667650.8048599064 0 0 0 0 -427458238.12277985 148800536.08447754 0 148800536.08447754 -17027126.932859853 0 0 0 0 -96090966.459674835 40716779.792970419 0 40716779.792970419 -23718077.777768247 0 0 0 0 -17279353.648258209 -56910786.164710194 0 -56910786.164710194 67999011.54551661 0 0 0 0 -9531111.0342507325 -2401702.5291732005 0 -2401702.5291732005 -170889.93822491536 0 0 0 0 -149088811.86605453 108425523.53251216 0 108425523.53251216 -24738545.774840832 0 0 0 0 9081564.8742675781 -58894307.002351247 0 -58894307.002351247 -39938140.472726837 0 0 0 0 -12754658.302078247 -158994648.77149045 0 -158994648.77149045 276440426.99569356 0 0 0 0 -8564431.4998552464 -2154588.0440506819 0 -2154588.0440506819 -342181.14803672465 0 0 0 0 -126725617.64457703 -73862199.449164987 0 -73862199.449164987 32922962.432183981 0 0 0 0 -50178988.083847046 -69284250.704884529 0 -69284250.704884529 -139392244.11640859 0 0 0 0 -273893352.82458973 -38296880.128632635 0 -38296880.128632635 -105000900.49706936 0 0 0 0 -315872068.55140686 271237086.77575183 0 271237086.77575183 -512006605.05621243 0 0 0 0 -170424665.07096863 128117169.77694082 0 128117169.77694082 -99796213.538223267 0 0 0 0 -150785018.3336792 36125424.564726114 0 36125424.564726114 217988091.66238546 0 0 0 0 69029717.783729553 -37967775.889620215 0 -37967775.889620215 31664357.472640753 0 0 0 0 -37630777.949310303 -124209724.23181868 0 -124209724.23181868 298739784.35904747 0 0 0 0 15036655.741882324 8962250.3680462837 0 8962250.3680462837 89711496.665931106 0 0 0 0 -66257863.330005646 66505597.346710682 0 66505597.346710682 77479465.411200047 0 0 0 0 -202638700.00247192 122423932.61369944 0 122423932.61369944 -47379378.138118267 0 0 0 0 -19970676.225570679 -4969620.8204712868 0 -4969620.8204712868 26211536.374701738 0 0 0 0 -204895959.45574951 58760795.267319918 0 58760795.267319918 -55841611.695155621 0 0 0 0 60699294.770038605 -55591015.707241714 0 -55591015.707241714 -433097788.1253767 0 0 0 0 -198969824.87559509 42859408.16606617 0 42859408.16606617 -148421361.77257824 0 0 0 0 -10581574.876296997 -6857509.7890555859 0 -6857509.7890555859 -70182855.017534256 0 0 0 0 -10144124.764972687 81459448.181635618 0 81459448.181635618 -76030772.81546998 0 0 0 0 -35082461.096733093 55604564.450588167 0 55604564.450588167 94212993.138972282 0 0 0 0 -4892114.8164749146 20237376.439411938 0 20237376.439411938 43538777.53266871 0 0 0 0 -9858271.420804549 -2345495.9459788976 0 -2345495.9459788976 3871.6205422794883 0 0 0 0 -13045895.964385986 -31396518.553747118 0 -31396518.553747118 154801591.05630702 0 0 0 0 38767983.066734314 -62550356.518619046 0 -62550356.518619046 -18376753.410910249 0 0 0 0 70799346.765738487 -1990985.1412589401 0 -1990985.1412589401 -20165600.857116818 0 0 0 0 -14269309.576812744 18647631.420714885 0 18647631.420714885 43441269.187396765 0 0 0 0 -3690028.0456619263 -19126019.14342919 0 -19126019.14342919 43035380.553452134 0 0 0 0 -24622451.251232147 -51790208.569542259 0 -51790208.569542259 27167454.005049199 0 0 0 0 52826038.219450951 51682327.423279598 0 51682327.423279598 -18979816.624706686 0 0 0 0 48406142.472630024 52046656.276058972 0 52046656.276058972 -38275761.844935656 0 0 0 0 46096540.098342896 8585101.6306889057 0 8585101.6306889057 -4205144.2538873255 0 0 0 0 135535037.68710327 -44214839.036168948 0 -44214839.036168948 -11946360.752298832 0 0 0 0 -1619776.353013739 296401.64918227866 0 296401.64918227866 792379.23361717188 0 0 0 0 50970677.989801407 10331266.6528797 0 10331266.6528797 -10005418.131491184 0 0 0 0 43980150.928604126 14590200.740970373 0 14590200.740970373 -3612546.9724712372 0 0 0 0 37986675.495429993 23919577.551872134 0 23919577.551872134 -11692067.392183423 0 0 0 0 28748999.741199493 30390831.27124086 0 30390831.27124086 -89105.312370568514 0 0 0 0 29775773.17131424 26091836.623229444 0 26091836.623229444 5610491.3186076283 0 0 0 0 7187674.2074553967 51683310.121490747 0 51683310.121490747 -9856141.315374583 0 0 0 0 -792398.23502349854 44583871.84592773 0 44583871.84592773 23598937.603088193 0 0 0 0 6704677.0837020874 55398359.502710968 0 55398359.502710968 10105591.512827128 0 0 0 0 26254660.806361198 42137329.713225648 0 42137329.713225648 -17200919.915248394 0 0 0 0 25027073.217093468 52339072.543580741 0 52339072.543580741 -38259657.049265862 0 0 0 0 27815227.337257385 39084997.21761781 0 39084997.21761781 -14601332.197645366 0 0 0 0 57971251.67124939 8931504.6277017593 0 8931504.6277017593 -17821365.022784591 0 0 0 0 43307391.47541976 28076536.57635184 0 28076536.57635184 -30489764.17572999 0 0 0 0 -21213294.147720337 39634375.034399331 0 39634375.034399331 -23787081.016854286 0 0 0 0 -20859203.570129395 64430804.464865476 0 64430804.464865476 -54155149.802454948 0 0 0 0 -21322555.657470703 15101816.995096147 0 15101816.995096147 -76259063.243607253 0 0 0 0 -21622166.963077545 59151070.210750237 0 59151070.210750237 -9953172.0568375885 0 0 0 0 13680278.887123108 89027022.009913862 0 89027022.009913862 15471211.855699472 0 0 0 0 11654544.122612 50886506.529668733 0 50886506.529668733 -29953616.425292343 0 0 0 0 -115418555.53067398 -4322423.2542107701 0 -4322423.2542107701 -23572928.23135015 0 0 0 0 -98108162.252859116 -15219626.428183198 0 -15219626.428183198 -83452981.919388533 0 0 0 0 -114798087.87780094 11463466.472658858 0 11463466.472658858 -50930293.374397635 0 0 0 0 -377789839.96164703 52389666.50875783 0 52389666.50875783 -11582048.841278687 0 0 0 0 -57763742.163150787 39130323.076832503 0 39130323.076832503 -6678104.9009320736 0 0 0 0 -104526892.64987564 -10801286.252871156 0 -10801286.252871156 -18680227.772923112 0 0 0 0 -168373105.49732399 -16494188.483397275 0 -16494188.483397275 -45833478.012840211 0 0 0 0 -752836790.16474915 46009218.872874767 0 46009218.872874767 84735752.349017322 0 0 0 0 -417695089.05393982 -43631018.780252248 0 -43631018.780252248 5311383.0252042413 0 0 0 0 -405090248.77786255 -64171525.54578656 0 -64171525.54578656 -25209539.291541487 0 0 0 0 -447754785.28467178 -121713.61323177814 0 -121713.61323177814 18364809.251875684 0 0 0 0 -337617823.17489624 -59599843.670436226 0 -59599843.670436226 7030526.9292985322 0 0 0 0 -310102199.84423065 -161856847.08580548 0 -161856847.08580548 -72978370.461245731 0 0 0 0 -804738023.65246201 -194506567.48508883 0 -194506567.48508883 58779566.498844445 0 0 0 0 -809072983.5963583 -139040623.93948716 0 -139040623.93948716 107014997.77597833 0 0 0 0 -1269643430.3624802 -340384055.2802608 0 -340384055.2802608 153062407.62115413 0 0 0 0 -1091453394.4796791 -265630158.51410621 0 -265630158.51410621 79380500.374086291 0 0 0 0 -1575157847.7914066 -248706584.0597924 0 -248706584.0597924 198353628.27801383 0 0 0 0 -1376134832.275732 -85408090.94231379 0 -85408090.94231379 325162936.99792427 0 0 0 0 -1574574010.5392685 -127678333.89158526 0 -127678333.89158526 351389646.8730911 0 0 0 0 -1264518722.8818932 31187641.120365072 0 31187641.120365072 289352056.80041796 0 0 0 0 -1085738830.5341797 86911697.52725251 0 86911697.52725251 303964325.85365409 0 0 0 0 -805631709.89904213 213733283.76886696 0 213733283.76886696 111551341.01363528 0 0 0 0 -1574759005.2043195 265389411.67116055 0 265389411.67116055 324555083.4579857 0 0 0 0 -1279355.3060493469 8865546.3464522362 0 8865546.3464522362 17155636.084071558 0 0 0 0 -11633009.369609833 8021885.6635811925 0 8021885.6635811925 27228770.606171846 0 0 0 0 -5604116.641028733 269554.04957851768 0 269554.04957851768 2454260.1150770471 0 0 0 0 -993983.5558558479 1158633.6968708234 0 1158633.6968708234 1111819.6371993157 0 0 0 0 21494066.871643066 39278563.045948386 0 39278563.045948386 -5265017.1949944496 0 0 0 0 -5324445.2030792236 13095111.267776251 0 13095111.267776251 -2232509.2120687962 0 0 0 0 -17476907.006150246 3353459.206500113 0 3353459.206500113 2657871.0851340294 0 0 0 0 30959505.194068909 -7203103.4655230045 0 -7203103.4655230045 224626.2574712038 0 0 0 0 -45201048.155029297 7070638.8959274292 0 7070638.8959274292 17111210.26813522 0 0 0 0 21578843.87953186 11497336.165166736 0 11497336.165166736 1246619.159162581 0 0 0 0 19049649.010601044 21684213.765372008 0 21684213.765372008 -1076260.3582254648 0 0 0 0 27876429.597636223 21664319.527290963 0 21664319.527290963 -4527734.3371926546 0 0 0 0 -5328352.2386556417 11162969.549310066 0 11162969.549310066 1919316.791369915 0 0 0 0 3515874.1648101807 14362754.917186618 0 14362754.917186618 6193626.3939365745 0 0 0 0 -6044774.7295608521 15702098.139717937 0 15702098.139717937 8172855.7768301964 0 0 0 0 -10355011.595909119 -349104.06371927261 0 -349104.06371927261 7712167.3301210403 0 0 0 0 -14287983.294837952 8178772.6232966781 0 8178772.6232966781 6615960.2823439837 0 0 0 0 -6161986.1884802151 1869002.4488619808 0 1869002.4488619808 4104501.3309693271 0 0 0 0 -6124764.2011181712 26286.241120008286 0 26286.241120008286 2755400.844045924 0 0 0 0 -10191691.27255249 1124302.3760211468 0 1124302.3760211468 12542743.980477333 0 0 0 0 -8784808.1825408936 4200444.3581519127 0 4200444.3581519127 8572058.3438806534 0 0 0 0 -5935790.6152076721 -1889176.6059143543 0 -1889176.6059143543 16553387.655236244 0 0 0 0 -3948704.9648136199 -664968.60040951567 0 -664968.60040951567 1356018.9353219969 0 0 0 0 -12857665.116775513 -5120363.4841871262 0 -5120363.4841871262 30454246.820576668 0 0 0 0 -5518999.7228546143 2669858.5087938309 0 2669858.5087938309 3170407.8806633949 0 0 0 0 -2335954.4425521754 1438663.4056411032 0 1438663.4056411032 1511367.2592587196 0 0 0 0 -8424067.9145889282 8939470.6627984047 0 8939470.6627984047 -1651923.8217981458 0 0 0 0 -7878207.6959457397 14709512.490527213 0 14709512.490527213 -2389757.147023201 0 0 0 0 -4023159.8154602051 -687746.72109079361 0 -687746.72109079361 3009756.1248779297 0 0 0 0 -3322380.288729582 2261946.0645415038 0 2261946.0645415038 3948509.5322669651 0 0 0 0 -5603179.651763916 1994591.6908669472 0 1994591.6908669472 1800851.441871196 0 0 0 0 -12618685.652078629 10636095.229609191 0 10636095.229609191 5086598.5489768982 0 0 0 0 -8378450.163898468 5773194.2335371971 0 5773194.2335371971 4810325.089550972 0 0 0 0 -5118190.3525885092 1366995.0589729603 0 1366995.0589729603 3114559.5196477072 0 0 0 0 -13268816.622416496 8756203.2391840816 0 8756203.2391840816 9436080.8513832092 0 0 0 0 -11313163.985687256 4466030.3647723198 0 4466030.3647723198 9586500.5527423769 0 0 0 0 -10104396.818489075 866936.12206459045 0 866936.12206459045 12178048.713574052 0 0 0 0 -11751211.969329834 4584660.4797878265 0 4584660.4797878265 18930270.906290054 0 0 0 0 -11719674.158979177 5126419.3557848334 0 5126419.3557848334 11361540.209765434 0 0 0 0 -11675549.244949341 380158.04923725128 0 380158.04923725128 12388014.076049805 0 0 0 0 -5799224.1084136963 -995482.12901541591 0 -995482.12901541591 -7690.4883140325546 0 0 0 0 -3612198.9277038574 -392307.12789416313 0 -392307.12789416313 117265.34983348846 0 0 0 0 -683892.18654556572 900721.60139954649 0 900721.60139954649 1620144.2090374485 0 0 0 0 -11440731.718578339 4972134.6853098869 0 4972134.6853098869 7744697.3528795242 0 0 0 0 -11477476.475639343 470837.79622173309 0 470837.79622173309 7574567.8695859909 0 0 0 0 -3512267.329867986 -219510.94182479754 0 -219510.94182479754 401589.43330713105 0 0 0 0 -888384.17295837402 994104.6361246109 0 994104.6361246109 1156597.9927120209 0 0 0 0 -4798544.216046704 1363511.5007629488 0 1363511.5007629488 2748725.8044698844 0 0 0 0 -2981851.3762101028 25179.403194310144 0 25179.403194310144 421228.29665452696 0 0 0 0 -3724283.366355896 950478.80279821157 0 950478.80279821157 1337239.5570478439 0 0 0 0 -5386441.4986038208 -2319789.4959162474 0 -2319789.4959162474 2238752.0850999728 0 0 0 0 -2930110.458240509 891190.31498268247 0 891190.31498268247 1267645.1645257473 0 0 0 0 -3504642.453994751 383727.14789533615 0 383727.14789533615 2522199.3764843941 0 0 0 0 -1747354.0076675415 769145.87404370308 0 769145.87404370308 317777.1837130785 0 0 0 0 -3406424.0319256783 1429757.2963110786 0 1429757.2963110786 525244.6236089468 0 0 0 0 -2782293.0799374059 1046877.3043014053 0 1046877.3043014053 1707035.3062972643 0 0 0 0 -3452118.0042800903 319830.59081745148 0 319830.59081745148 642321.52231287956 0 0 0 0 -1384153.9177241363 1273262.2655705679 0 1273262.2655705679 1227260.6236866554 0 0 0 0 -2744742.7669972749 -24863.335624728352 0 -24863.335624728352 421616.70391536917 0 0 0 0 -89913.600717777386 709142.72554019652 0 709142.72554019652 507382.82774867839 0 0 0 0 221721.17207336426 1099475.0390515327 0 1099475.0390515327 -3294311.1477203369 0 0 0 0 -5839914.4261932373 -869681.20724764466 0 -869681.20724764466 325208.11906504631 0 0 0 0 28087.347366791219 848881.02278912067 0 848881.02278912067 502974.86674907629 0 0 0 0 -2571679.5054397583 -111750.43699871004 0 -111750.43699871004 845750.51764851809 0 0 0 0 1656205.1248703003 905712.81941843033 0 905712.81941843033 3727762.1114196777 0 0 0 0 -4066173.4844534844 1457212.752013823 0 1457212.752013823 2990869.3294099825 0 0 0 0 -7984007.9657680653 1305922.6437778845 0 1305922.6437778845 6139225.3105595727 0 0 0 0 -19923341.913970947 4969105.3404610157 0 4969105.3404610157 4038801.1075820923 0 0 0 0 -15261395.560913086 455890.06223011017 0 455890.06223011017 2127533.8871741295 0 0 0 0 -16658338.722000122 474293.09926450253 0 474293.09926450253 2463939.3878769875 0 0 0 0 -14399972.996632576 3395835.4384602308 0 3395835.4384602308 2496041.629093647 0 0 0 0 -9392730.425037384 4396848.2241436839 0 4396848.2241436839 2994761.33532691 0 0 0 0 -11469123.639907837 6507103.0552932024 0 6507103.0552932024 1454195.9221456051 0 0 0 0 -10423940.144229889 9021116.5134631395 0 9021116.5134631395 -2608549.1859896183 0 0 0 0 -16390204.241279602 14028571.257429957 0 14028571.257429957 2527691.2554814816 0 0 0 0 -15178261.516052246 18445143.691665888 0 18445143.691665888 7954986.7775230408 0 0 0 0 -7234250.0510292053 22218046.367989182 0 22218046.367989182 -7141328.3488782644 0 0 0 0 -14906823.609340668 26564946.21568197 0 26564946.21568197 24832963.994976044 0 0 0 0 -20569897.575080872 16738692.69004035 0 16738692.69004035 7785397.0988450497 0 0 0 0 -19886398.529949188 15235333.997900486 0 15235333.997900486 11091040.658095598 0 0 0 0 -21897491.827571869 12544824.695131451 0 12544824.695131451 7625920.2956080437 0 0 0 0 5706296.520690918 24808165.282401562 0 24808165.282401562 -31133960.853017628 0 0 0 0 -6581639.9757957458 26101910.256174147 0 26101910.256174147 6616789.2444348335 0 0 0 0 -6314879.2220687866 23715145.445044041 0 23715145.445044041 6275839.6773600131 0 0 0 0 -14254240.270061493 21243690.21903199 0 21243690.21903199 52855910.16330719 0 0 0 0 -4232573.075881958 44764863.285623491 0 44764863.285623491 5069228.9262497425 0 0 0 0 -8965745.6327514648 8556232.2339699268 0 8556232.2339699268 44720279.722756565 0 0 0 0 -32600245.493438721 20009480.313925326 0 20009480.313925326 43426442.790192842 0 0 0 0 -10026264.380520163 -2293456.2901096763 0 -2293456.2901096763 224767.68283770722 0 0 0 0 -4650806.7512655258 -15970706.179740176 0 -15970706.179740176 72668421.719773531 0 0 0 0 -14275575.234902918 20559205.340627555 0 20559205.340627555 14994687.97013402 0 0 0 0 -41402090.836597443 6405914.8029240966 0 6405914.8029240966 18225387.383192062 0 0 0 0 -26211784.10508728 -6321253.2516708374 0 -6321253.2516708374 -7704863.6566141844 0 0 0 0 -21518294.487190247 6749388.0511270761 0 6749388.0511270761 30276905.284290522 0 0 0 0 -23686917.314529419 13596452.868281484 0 13596452.868281484 16129909.246698141 0 0 0 0 -35408057.41015625 17985824.43881011 0 17985824.43881011 42604640.490793526 0 0 0 0 8073574.2136306763 8346042.8862624764 0 8346042.8862624764 18128135.092891693 0 0 0 0 -67850992.044967651 -4530628.4488381743 0 -4530628.4488381743 34285882.460427284 0 0 0 0 170821.8844986856 219339.2184216287 0 219339.2184216287 -79423.765318550169 0 0 0 0 27315846.812011719 28640190.818569899 0 28640190.818569899 -4826882.6111235619 0 0 0 0 -64561827.423217773 -34036834.429649115 0 -34036834.429649115 5197769.9754743576 0 0 0 0 35530630.759807587 48994211.96465373 0 48994211.96465373 4113433.1235945225 0 0 0 0 13115920.15184021 41922016.262083411 0 41922016.262083411 31728836.31747973 0 0 0 0 -26786051.894775391 -76489969.026513875 0 -76489969.026513875 22021291.65498203 0 0 0 0 4523037.6660933495 18748924.436101854 0 18748924.436101854 5821557.4118003845 0 0 0 0 -50354810.432830811 -76938529.81082356 0 -76938529.81082356 23878147.016708091 0 0 0 0 -636528.24512559734 -279512.60582182556 0 -279512.60582182556 527537.45586318977 0 0 0 0 -10093458.944581453 -2138688.9506017831 0 -2138688.9506017831 749647.27243107697 0 0 0 0 -13177758.904022217 54504937.469871402 0 54504937.469871402 -43804231.145102859 0 0 0 0 -62128794.958976746 108491815.48229468 0 108491815.48229468 55754287.685399622 0 0 0 0 -22534062.003593445 -14376856.773935556 0 -14376856.773935556 17646346.64426434 0 0 0 0 -17976546.714515686 -36112009.642702341 0 -36112009.642702341 73782425.220506191 0 0 0 0 -19080702.730857849 -13473908.878248692 0 -13473908.878248692 14983959.564826012 0 0 0 0 -23794996.84236908 -434592.28364276886 0 -434592.28364276886 429434.20570921898 0 0 0 0 -11279332.738967896 -4157196.6758608818 0 -4157196.6758608818 -140433.03969430923 0 0 0 0 -11542160.46912384 -8765656.0257148743 0 -8765656.0257148743 -2837865.000058651 0 0 0 0 -14800426.262680054 -2307534.9486699104 0 -2307534.9486699104 -7598127.3109440804 0 0 0 0 -12538269.783279419 -6133212.6773481369 0 -6133212.6773481369 -9054101.2936873436 0 0 0 0 -14404006.80480957 -4106988.9617557526 0 -4106988.9617557526 151247.27010798454 0 0 0 0 -10680049.760925293 1131970.434424758 0 1131970.434424758 25918643.57442987 0 0 0 0 -15938317.887481689 -15320025.944239497 0 -15320025.944239497 11987027.284518838 0 0 0 0 25117241.855361938 -33921101.804954588 0 -33921101.804954588 -170485607.69294024 0 0 0 0 -74734371.563934326 -39411351.733216524 0 -39411351.733216524 148070518.85359919 0 0 0 0 -2278138.0547866821 -10725337.445429325 0 -10725337.445429325 -13443295.849676326 0 0 0 0 -39842092.229568481 -54708731.112228632 0 -54708731.112228632 -7100518.3633168042 0 0 0 0 -40217398.973518372 95768689.353869855 0 95768689.353869855 -31218957.28435868 0 0 0 0 -96878978.886489868 -262732705.16953063 0 -262732705.16953063 -13777233.217525244 0 0 0 0 -111961033.06321716 140616497.99859142 0 140616497.99859142 305740042.41534996 0 0 0 0 -10503705.306526184 30162701.399834156 0 30162701.399834156 70658951.499512672 0 0 0 0 1433455.1359291077 -22987433.317968726 0 -22987433.317968726 9045884.6061754227 0 0 0 0 -5093681.5685043335 -9645845.6771702766 0 -9645845.6771702766 -2643498.9349517822 0 0 0 0 -2517161.3057408463 -719154.7853879733 0 -719154.7853879733 638648.63845929573 0 0 0 0 -8980137.7306213379 -8739028.9892939329 0 -8739028.9892939329 -972194.54042577744 0 0 0 0 -1708454.825932717 -128256.47914989851 0 -128256.47914989851 1124304.0459349225 0 0 0 0 -8732017.5268630981 -5946384.606118679 0 -5946384.606118679 13792713.303211689 0 0 0 0 -19040771.147251129 -5605255.4498803616 0 -5605255.4498803616 7701477.1903761327 0 0 0 0 -35838592.689769745 1543808.3466943502 0 1543808.3466943502 33727701.963868618 0 0 0 0 -26203251.381026268 -18851880.839961082 0 -18851880.839961082 24784468.557827473 0 0 0 0 -25029024.03237915 -26214978.802324176 0 -26214978.802324176 46507793.066546917 0 0 0 0 -36543595.970359802 -3505789.2067785263 0 -3505789.2067785263 47631746.71985589 0 0 0 0 -19705479.649353027 1593509.2785077095 0 1593509.2785077095 8707566.4753397107 0 0 0 0 -7060902.0355150644 519994.0789238438 0 519994.0789238438 4137212.765192986 0 0 0 0 53902487.970851898 -1505771.535317719 0 -1505771.535317719 1626488.614826262 0 0 0 0 -22405686.775346756 5534018.8850390315 0 5534018.8850390315 3500679.8423361778 0 0 0 0 39719804.842798471 10405295.150246164 0 10405295.150246164 9500613.3152324557 0 0 0 0 -7985156.0023204247 3083347.0810919814 0 3083347.0810919814 3260831.4629857861 0 0 0 0 -8790114.4373476971 -7392402.9526056899 0 -7392402.9526056899 -1549597.6507451681 0 0 0 0 -11672054.547874928 -13249806.333926678 0 -13249806.333926678 7125563.8100652695 0 0 0 0 -10634432.893226624 -6576097.8115289211 0 -6576097.8115289211 -2099967.105786562 0 0 0 0 -7868184.5407588035 -1033480.7870336891 0 -1033480.7870336891 3132933.0557165472 0 0 0 0 -72385170.647295952 5509424.2800283432 0 5509424.2800283432 34838521.294044495 0 0 0 0 -21815187.81730938 -10476689.264241219 0 -10476689.264241219 16487373.820947647 0 0 0 0 27062951.468772888 18965034.47162208 0 18965034.47162208 4694226.0647520274 0 0 0 0 -21493825.37508896 -6526547.535689652 0 -6526547.535689652 19966911.980522156 0 0 0 0 -8714742.5760310739 4553381.7624034332 0 4553381.7624034332 5994726.1082882704 0 0 0 0 -15476507.404789925 -5812428.9669563174 0 -5812428.9669563174 3904073.6614780426 0 0 0 0 -14138172.027134895 -2058335.2488474548 0 -2058335.2488474548 2564174.7599234581 0 0 0 0 -11126188.12853241 -5978115.6432025433 0 -5978115.6432025433 334487.81723737717 0 0 0 0 -7642339.3807207476 -6306042.3742617238 0 -6306042.3742617238 -1809902.6495315516 0 0 0 0 -10930453.124851227 -3703942.8267047405 0 -3703942.8267047405 -817923.79875457287 0 0 0 0 41576996.850967884 -48099042.293505192 0 -48099042.293505192 -13604992.535390854 0 0 0 0 -11247320.884504318 -2899151.9117176533 0 -2899151.9117176533 -1325474.3862581253 0 0 0 0 -3813772.4336399552 -2812974.6421544421 0 -2812974.6421544421 263150.52192631131 0 0 0 0 -13091239.768093109 -9720091.5514080524 0 -9720091.5514080524 -2087511.6502017975 0 0 0 0 -12751814.62480545 -3089214.4381537437 0 -3089214.4381537437 1226537.6868274808 0 0 0 0 -12821236.596242905 -9800008.7272753716 0 -9800008.7272753716 -2814331.9046726227 0 0 0 0 -12506350.622268677 -10321100.176188469 0 -10321100.176188469 -1995246.5465888977 0 0 0 0 -6841300.4044561386 -4199498.6664292812 0 -4199498.6664292812 -800077.03632354736 0 0 0 0 -4895473.2880020142 -3450339.5013494492 0 -3450339.5013494492 -2611856.6897530556 0 0 0 0 -9386262.3531646729 -11617840.274755239 0 -11617840.274755239 -9689836.8640918732 0 0 0 0 -10995434.939476013 -4140400.1234526634 0 -4140400.1234526634 1454804.4617214203 0 0 0 0 -7257577.1563186646 -1741724.0222648978 0 -1741724.0222648978 2029397.1151072979 0 0 0 0 -4197433.1676973812 -3009974.6048389859 0 -3009974.6048389859 1956713.7064526116 0 0 0 0 -1301789.1175303496 -2445157.887573184 0 -2445157.887573184 1291058.3496309987 0 0 0 0 -10923770.114229202 -2474188.9152167737 0 -2474188.9152167737 4996740.2437790632 0 0 0 0 -12147260.693241119 -6660550.3535808325 0 -6660550.3535808325 6008301.0159856081 0 0 0 0 3402808.9998474121 -6057542.1148531437 0 -6057542.1148531437 21499857.702613115 0 0 0 0 -5327808.5620756149 -1823511.7570444345 0 -1823511.7570444345 3594546.75623703 0 0 0 0 -3054907.4857444763 -6515046.8613097668 0 -6515046.8613097668 -1424167.9002819061 0 0 0 0 -110780.27881895751 1601707.3362011418 0 1601707.3362011418 1124928.0336266931 0 0 0 0 -2579287.1897735596 3488358.1207551956 0 3488358.1207551956 2196901.6329755783 0 0 0 0 -891519.28939819336 383196.64462852478 0 383196.64462852478 1436185.9056167603 0 0 0 0 -1392682.9603191502 -560627.94630451826 0 -560627.94630451826 1076820.7165515395 0 0 0 0 -10233749.728283105 -1876752.3930831775 0 -1876752.3930831775 2867804.0131229861 0 0 0 0 -6966565.324351605 1977766.8092965744 0 1977766.8092965744 3679134.4377724836 0 0 0 0 -4883792.0841598511 3883991.1978049278 0 3883991.1978049278 2763740.76130867 0 0 0 0 -22027354.035606384 -6465347.1151384562 0 -6465347.1151384562 18988404.874621391 0 0 0 0 -6493050.9966011047 3592565.5988790989 0 3592565.5988790989 4227291.1856613159 0 0 0 0 -10219016.788696289 11213429.133140922 0 11213429.133140922 44748709.595367134 0 0 0 0 11594849.310651541 -31843447.287790217 0 -31843447.287790217 16127801.856212318 0 0 0 0 -10756637.940429118 -852420.66197333205 0 -852420.66197333205 2756246.19664098 0 0 0 0 4921972.061416626 22233733.07770884 0 22233733.07770884 20199412.277415872 0 0 0 0 -12478702.460624695 -1874401.0912027359 0 -1874401.0912027359 14155379.20556736 0 0 0 0 -6912876.4128456116 3624107.0705450773 0 3624107.0705450773 19586802.310308456 0 0 0 0 -18616945.74479866 11202704.745317936 0 11202704.745317936 10757477.034210205 0 0 0 0 -7218552.7075386047 4767383.1398866177 0 4767383.1398866177 7230192.647480011 0 0 0 0 -2608747.0529960394 6324220.444109641 0 6324220.444109641 -1365468.4763774872 0 0 0 0 -6522280.7553939819 8324723.2271871567 0 8324723.2271871567 4301666.267077446 0 0 0 0 -7555099.9486083984 11186470.745215893 0 11186470.745215893 -2881553.8993816376 0 0 0 0 -4966609.9105529785 6696715.3417749405 0 6696715.3417749405 -2408685.1155623198 0 0 0 0 -534356.03048432991 524939.94049277832 0 524939.94049277832 1017638.2575247574 0 0 0 0 -4797914.0770874023 7599725.6800222397 0 7599725.6800222397 -1699325.6164665222 0 0 0 0 -187182.55975500867 131533.81904717628 0 131533.81904717628 368637.92901913903 0 0 0 0 -15266520.60364151 23391089.55659461 0 23391089.55659461 -25047440.811591148 0 0 0 0 -44616548.861347198 15865047.119647503 0 15865047.119647503 7186376.1989243031 0 0 0 0 -19382124.446807861 -26242333.867294788 0 -26242333.867294788 -31121240.986726046 0 0 0 0 -41448523.418502808 -16637062.960732937 0 -16637062.960732937 -2822654.3457679749 0 0 0 0 -29562881.832481384 -13909648.853489399 0 -13909648.853489399 -3444466.7198958397 0 0 0 0 -9544334.7294006348 -13909456.988646507 0 -13909456.988646507 -4893034.8835515976 0 0 0 0 -4599884.6563453674 -9883879.7678656578 0 -9883879.7678656578 -13638447.023345947 0 0 0 0 -4476854.6911125183 -4325046.4369239807 0 -4325046.4369239807 -4366261.8496522903 0 0 0 0 -16959500.725563049 -23077229.198667526 0 -23077229.198667526 -16063360.360587239 0 0 0 0 -17856879.592735291 -17214703.717046738 0 -17214703.717046738 -5617008.384077549 0 0 0 0 -19560012.901023865 -18773593.810327291 0 -18773593.810327291 1052277.9718399048 0 0 0 0 -15351474.738843918 -14118005.238892555 0 -14118005.238892555 -4639515.6159725189 0 0 0 0 -14987148.703384399 -14734268.673724174 0 -14734268.673724174 -3780277.9363584518 0 0 0 0 -5439224.60389328 -13311002.162498474 0 -13311002.162498474 -5373285.1872643232 0 0 0 0 -10788989.316793442 -7704078.8815952539 0 -7704078.8815952539 15163981.656497002 0 0 0 0 -7474387.3783454895 -15163364.504421234 0 -15163364.504421234 -20013089.595240116 0 0 0 0 -29537134.566055298 -21947835.3438344 0 -21947835.3438344 100457.70167422295 0 0 0 0 -25942466.972317696 -8783686.7711391449 0 -8783686.7711391449 8582305.3377380371 0 0 0 0 -36040347.420257568 -12760814.398034334 0 -12760814.398034334 49888554.26158762 0 0 0 0 -35369955.981554031 -4595736.497579813 0 -4595736.497579813 13241961.7594347 0 0 0 0 12670653.410850525 -15646542.481831551 0 -15646542.481831551 15672592.513773441 0 0 0 0 -22179692.365203857 898511.33812570572 0 898511.33812570572 9486419.8423266411 0 0 0 0 3265759.9161529541 17154050.593500137 0 17154050.593500137 18022319.751587629 0 0 0 0 -13798477.397266388 22003446.78849411 0 22003446.78849411 -49544606.456473112 0 0 0 0 -873726.52070323378 -873428.33727440634 0 -873428.33727440634 -125534.69327742938 0 0 0 0 -33139811.288402557 17068465.253886223 0 17068465.253886223 33132210.072082043 0 0 0 0 751706.13501739502 3498986.3133745193 0 3498986.3133745193 -84001594.372057915 0 0 0 0 224762301.9699707 -120640123.81937408 0 -120640123.81937408 -117488063.56306076 0 0 0 0 -23903021.488037109 12573530.533174276 0 12573530.533174276 -12159520.27857399 0 0 0 0 -3793452.7161441967 -4505439.8930235775 0 -4505439.8930235775 2123360.2927562324 0 0 0 0 -2650358.6069706939 -2308144.9719935106 0 -2308144.9719935106 -356368.5671389692 0 0 0 0 -7213342.256072998 -17349261.7633214 0 -17349261.7633214 -22401360.617716312 0 0 0 0 -12008688.782485962 -23216779.52374649 0 -23216779.52374649 -16407304.712392092 0 0 0 0 -21245359.665699005 -22996656.733514428 0 -22996656.733514428 -5132296.2895638943 0 0 0 0 -4633777.0502224732 -6968186.3954591136 0 -6968186.3954591136 4100904.1082812669 0 0 0 0 -2873333.3114280701 -7648622.1065578461 0 -7648622.1065578461 9426744.4435968399 0 0 0 0 -12737329.794021606 -8795438.5360721052 0 -8795438.5360721052 232195.61380654573 0 0 0 0 137867.0391960144 -8834526.2589492798 0 -8834526.2589492798 1634502.6387424469 0 0 0 0 -3157903.274143219 -6705395.5614624023 0 -6705395.5614624023 6932510.2686729431 0 0 0 0 -2086937.7590293884 -6491825.7384939194 0 -6491825.7384939194 3949765.3802947998 0 0 0 0 -1365782.8980407715 -8490773.0520877838 0 -8490773.0520877838 6363032.327703476 0 0 0 0 -13645041.056297302 4971253.4917612076 0 4971253.4917612076 2633795.6740112305 0 0 0 0 -9094729.4464588165 -144537.51686048508 0 -144537.51686048508 2727013.2878398895 0 0 0 0 -12297632.62310791 4907873.4019441605 0 4907873.4019441605 2368709.6150038242 0 0 0 0 -12403530.46195507 2382060.9025096744 0 2382060.9025096744 -1745206.9065999985 0 0 0 0 -10590103.054679394 8811203.4946511984 0 8811203.4946511984 3955998.4606952667 0 0 0 0 -12163802.983527184 4755391.3545897007 0 4755391.3545897007 2087678.6874389648 0 0 0 0 -18853389.873119354 8460085.7694425583 0 8460085.7694425583 1075858.8745326996 0 0 0 0 -24712482.971313477 -1196437.032459259 0 -1196437.032459259 2697993.5424537659 0 0 0 0 -22547010.996013641 -370611.21723270416 0 -370611.21723270416 3286261.9685554504 0 0 0 0 -22714602.657850266 -207026.06263494492 0 -207026.06263494492 3133160.7522087097 0 0 0 0 -6218050.9570004204 -4304249.5293044392 0 -4304249.5293044392 -558177.39844050119 0 0 0 0 -15256418.993691444 -11278226.988887072 0 -11278226.988887072 2497017.1566104889 0 0 0 0 -20002287.122761726 -13072727.701591253 0 -13072727.701591253 2407624.1897087097 0 0 0 0 -31733468.866119385 -15263985.02217865 0 -15263985.02217865 2465104.0687513351 0 0 0 0 -1928138.5304164719 -409964.01206011139 0 -409964.01206011139 1676741.1723253471 0 0 0 0 -5172288.8542790413 -12678973.112499438 0 -12678973.112499438 -26863285.96932888 0 0 0 0 4647791.9674072266 5400149.7584728003 0 5400149.7584728003 8336627.6151185036 0 0 0 0 -13719893.473589309 -2605774.1877349056 0 -2605774.1877349056 6310603.8304452701 0 0 0 0 -5096156.7361450195 -10455101.070002317 0 -10455101.070002317 -18699395.669384956 0 0 0 0 -21893589.249526978 -30499291.422925949 0 -30499291.422925949 -14595191.809078217 0 0 0 0 -9891307.9325819016 -22360470.330300987 0 -22360470.330300987 -28398766.150561333 0 0 0 0 -9277016.6295776367 -18053517.117724419 0 -18053517.117724419 -9358159.8637037277 0 0 0 0 -18445954.714530945 -25751419.347505927 0 -25751419.347505927 -18252754.29599148 0 0 0 0 -35071558.447814941 -5998923.94460392 0 -5998923.94460392 18901455.653532505 0 0 0 0 3737391.3502044678 4555519.3302907944 0 4555519.3302907944 2758601.3923330307 0 0 0 0 -10441770.739459991 2134695.6672940254 0 2134695.6672940254 6376119.6473808289 0 0 0 0 9264274.501750946 907574.15050172806 0 907574.15050172806 186077.22353363037 0 0 0 0 -3250187.8347015381 -9782176.3544101715 0 -9782176.3544101715 -9511945.5266432762 0 0 0 0 -15686222.879920959 -20929474.443898678 0 -20929474.443898678 -2103291.857749939 0 0 0 0 -11843435.266227722 -21603650.504682064 0 -21603650.504682064 -9890879.0644636154 0 0 0 0 -2704480.6378936768 -1133942.8785681725 0 -1133942.8785681725 4413118.5085430145 0 0 0 0 -4249462.3835849315 -5044241.386492935 0 -5044241.386492935 -773936.4040752236 0 0 0 0 3274158.7670173645 -2330992.8392629623 0 -2330992.8392629623 4471310.934615612 0 0 0 0 9133084.9899522662 -3552952.8839229494 0 -3552952.8839229494 2058168.3981227875 0 0 0 0 -5690587.2042114427 -2089515.0287946514 0 -2089515.0287946514 182607.65644359123 0 0 0 0 -14463107.297880173 1831815.469260931 0 1831815.469260931 144928.18523311615 0 0 0 0 -13652153.443525314 2695983.6047296524 0 2695983.6047296524 402847.81642436981 0 0 0 0 -13747913.792571068 2026523.7349170446 0 2026523.7349170446 -4103839.5570297241 0 0 0 0 -4979939.0010079751 -4948529.5094502363 0 -4948529.5094502363 224863.62822479027 0 0 0 0 535993.5637512207 -1577497.1874828339 0 -1577497.1874828339 -66690.357121944427 0 0 0 0 -6305528.8705127258 -2242463.9394324273 0 -2242463.9394324273 -1124835.5946463989 0 0 0 0 1953998.3183250427 -13269371.74709487 0 -13269371.74709487 -11273067.775550842 0 0 0 0 -4672969.646255454 -4613177.1753260801 0 -4613177.1753260801 1553527.8133048078 0 0 0 0 -18304114.193912506 -8866888.6197469234 0 -8866888.6197469234 2246080.3462641239 0 0 0 0 -11879868.634421902 -1231652.6653797813 0 -1231652.6653797813 2041906.7770770425 0 0 0 0 -3374783.5515841553 -2307308.256599315 0 -2307308.256599315 -2977454.4384416621 0 0 0 0 -1148732.8995743915 -1159280.7698197057 0 -1159280.7698197057 211648.43611308723 0 0 0 0 18063088.648841858 5975372.4947032928 0 5975372.4947032928 -12851282.22730875 0 0 0 0 -21109336.330549717 -49789131.558318436 0 -49789131.558318436 -34236678.611505508 0 0 0 0 -20455872.673782349 -24708689.189260483 0 -24708689.189260483 13255931.771324158 0 0 0 0 -16803361.804969788 -140330.18262910843 0 -140330.18262910843 13402831.846057892 0 0 0 0 -13178262.680323601 -9792702.0344040394 0 -9792702.0344040394 -1986683.8059024811 0 0 0 0 -9772661.5008106232 -4347499.0646377802 0 -4347499.0646377802 84293.768947124481 0 0 0 0 -13250713.054229736 -10008794.464822769 0 -10008794.464822769 -1850973.5331783295 0 0 0 0 -11665446.841609955 -792745.88479202986 0 -792745.88479202986 -2093675.4127073288 0 0 0 0 -1540681.787037747 -91974.957665663678 0 -91974.957665663678 107884.83165981248 0 0 0 0 -211279426.60073566 12684303.282991409 0 12684303.282991409 96320161.094373703 0 0 0 0 146649683.76727295 4274121.7564997673 0 4274121.7564997673 -247026686.3173027 0 0 0 0 -33805717.423457146 -91499342.949714661 0 -91499342.949714661 -82863775.057859421 0 0 0 0 -142643318.19610596 -65872919.918615341 0 -65872919.918615341 13887542.277894974 0 0 0 0 -19201838.340034485 -4056974.3396835327 0 -4056974.3396835327 34305243.732283115 0 0 0 0 46948589.927747726 -812557.21852684021 0 -812557.21852684021 38372549.500950813 0 0 0 0 -159798486.66382802 85998430.744211137 0 85998430.744211137 2132235.5273151398 0 0 0 0 132787893.30240154 -57120300.174612045 0 -57120300.174612045 -33272412.530609131 0 0 0 0 -5687652.2117197961 -4986491.74534069 0 -4986491.74534069 -2214891.5295931902 0 0 0 0 47163012.958600998 59784306.302774429 0 59784306.302774429 80719522.684553146 0 0 0 0 29261401.186336517 24198099.30222702 0 24198099.30222702 35991177.85185051 0 0 0 0 -504619.36014022119 -6658529.9074029913 0 -6658529.9074029913 -318378.09054976469 0 0 0 0 -15709874.803305626 -26856460.305734634 0 -26856460.305734634 5773657.2304344177 0 0 0 0 -8834744.2243614197 -17160950.086688995 0 -17160950.086688995 -19515622.594167709 0 0 0 0 -1997913.840098381 -7282172.4093446732 0 -7282172.4093446732 -72729742.470809937 0 0 0 0 -11813268.51025486 -26328136.190192223 0 -26328136.190192223 -40586381.12697506 0 0 0 0 -5891017.2672538757 5852915.3496541977 0 5852915.3496541977 -466059.27261829376 0 0 0 0 -479119.45743560791 -49267209.486743927 0 -49267209.486743927 -104653867.41006374 0 0 0 0 17350028.942756653 -65312376.035360336 0 -65312376.035360336 -16309877.563289642 0 0 0 0 -15485852.586760521 -55591372.242019653 0 -55591372.242019653 -18355971.356285095 0 0 0 0 -34606582.001958847 -38598170.44716835 0 -38598170.44716835 -16803585.205929756 0 0 0 0 -12600032.161740303 -50337648.406217575 0 -50337648.406217575 -23947655.859836578 0 0 0 0 -4289906.5556840897 -53699301.679861069 0 -53699301.679861069 -54227741.107656479 0 0 0 0 5462984.071023941 -30218123.544165134 0 -30218123.544165134 -44055835.312822342 0 0 0 0 -27881436.069758415 -33505699.260462284 0 -33505699.260462284 -28821711.348417282 0 0 0 0 -64949502.483784676 -30385577.052810669 0 -30385577.052810669 -17788832.104949951 0 0 0 0 -65240032.518148661 -27401769.518528461 0 -27401769.518528461 -13162980.581632614 0 0 0 0 -27913217.604257822 -8116905.2349685431 0 -8116905.2349685431 -29609451.922504425 0 0 0 0 -29466866.447330475 -32543426.45035553 0 -32543426.45035553 -29321428.374400139 0 0 0 0 -66021993.894365788 -43561027.321578026 0 -43561027.321578026 -20641700.552955627 0 0 0 0 -36164529.692464828 -41335719.660987854 0 -41335719.660987854 -19482952.950033188 0 0 0 0 -40613428.505200863 -37567180.128903866 0 -37567180.128903866 -1374495.3115005493 0 0 0 0 -47015789.624032974 -27052761.874264717 0 -27052761.874264717 -17980834.850097179 0 0 0 0 -4889481.0237876168 -401252.87777002831 0 -401252.87777002831 -375741.10571425501 0 0 0 0 -10988136.893137455 -6632332.5092294216 0 -6632332.5092294216 -1203832.9412755966 0 0 0 0 -5329427.2925662994 -12271162.063962936 0 -12271162.063962936 -21844735.0910182 0 0 0 0 -23734422.967466354 -42495194.47023201 0 -42495194.47023201 -15896878.748670578 0 0 0 0 -5629933.0342826843 5615257.3896884918 0 5615257.3896884918 3685430.8310613632 0 0 0 0 -23964569.556320667 -42379674.696216702 0 -42379674.696216702 50039409.755233765 0 0 0 0 -948317.39214575291 -30262416.379452229 0 -30262416.379452229 39167777.346737862 0 0 0 0 -19792015.415021122 -25566962.139785767 0 -25566962.139785767 98485884.699103355 0 0 0 0 -30016043.570855379 -1189216.7718367577 0 -1189216.7718367577 51142622.360460281 0 0 0 0 -62608903.981297493 -26354077.33288002 0 -26354077.33288002 -24247356.597224832 0 0 0 0 -17660373.274286449 29203787.832922459 0 29203787.832922459 125439575.54978848 0 0 0 0 -2727701.9519932605 74657.743123633321 0 74657.743123633321 -353903.82006387599 0 0 0 0 -45743764.580914497 -36730150.419669151 0 -36730150.419669151 -34141797.607500553 0 0 0 0 -2606712.8352485206 -4772461.877723909 0 -4772461.877723909 -1464215.5907610243 0 0 0 0 -6429587.7152729034 -3366721.5061583519 0 -3366721.5061583519 421884.96169137955 0 0 0 0 33386149.990270615 27077974.028893471 0 27077974.028893471 40677000.034334779 0 0 0 0 -10153448.841122225 -172295.14080463909 0 -172295.14080463909 -926069.48972346028 0 0 0 0 -6441075.7801303864 -3435086.783768177 0 -3435086.783768177 1055197.8448809683 0 0 0 0 -4142180.8723763619 -5216116.2232129164 0 -5216116.2232129164 -1090299.9007489334 0 0 0 0 -3625874.6742916107 -4641155.1849856377 0 -4641155.1849856377 2632483.7417106628 0 0 0 0 189406.84505144041 -1711402.6036955735 0 -1711402.6036955735 -465793.57312792569 0 0 0 0 -50020956.247537613 45272246.608662605 0 45272246.608662605 62853116.037834883 0 0 0 0 -14603232.924030304 -46729640.95788002 0 -46729640.95788002 87588141.179175377 0 0 0 0 348429.60363270808 114505.43023832655 0 114505.43023832655 -482150.38277794328 0 0 0 0 -1452792.7533021569 -35002696.888623714 0 -35002696.888623714 55593844.788528442 0 0 0 0 -4209527.9381263927 -3397170.6154152425 0 -3397170.6154152425 -944398.09775399556 0 0 0 0 2554125.2844223529 -1598458.9908393323 0 -1598458.9908393323 12807950.045915604 0 0 0 0 -3896645.0482215881 -3336781.2379508018 0 -3336781.2379508018 319870.1661632061 0 0 0 0 -8941793.2030943595 -1324700.7786434283 0 -1324700.7786434283 -1037992.5407827403 0 0 0 0 -2901293.5349388123 7230201.4913084507 0 7230201.4913084507 270302.03689050674 0 0 0 0 137451998.42868257 -121324199.18998575 0 -121324199.18998575 75618639.970584869 0 0 0 0 -18041340.913382173 19955113.439164162 0 19955113.439164162 240903561.73835564 0 0 0 0 -1951453.8897836145 -603714.38556284306 0 -603714.38556284306 352684.496714551 0 0 0 0 89880503.92814374 -59745441.905968666 0 -59745441.905968666 8922144.2837066054 0 0 0 0 29194351.780070543 -160538628.75705814 0 -160538628.75705814 225764027.82488728 0 0 0 0 -56267064.265072048 -40778779.772536755 0 -40778779.772536755 100193095.40640205 0 0 0 0 -38898467.394878149 -85118121.988314629 0 -85118121.988314629 157297530.36194611 0 0 0 0 -101825426.46239635 -21413257.146460533 0 -21413257.146460533 163309244.91746616 0 0 0 0 -89491862.461828709 52804122.548294067 0 52804122.548294067 327955671.14276791 0 0 0 0 143175473.89106894 -190024394.92157006 0 -190024394.92157006 158039422.47009277 0 0 0 0 -23951402.821661472 -116439381.39331913 0 -116439381.39331913 344911824.85968637 0 0 0 0 -53092015.601163268 -1246025.8648200035 0 -1246025.8648200035 117917729.30032253 0 0 0 0 -20084585.692389131 9323608.1954786777 0 9323608.1954786777 112950706.50550365 0 0 0 0 14643065.276968956 55488632.650490522 0 55488632.650490522 66985028.391223907 0 0 0 0 -43832288.800647452 -16797721.025754452 0 -16797721.025754452 143836341.94274712 0 0 0 0 -91275136.552470535 18382204.979600906 0 18382204.979600906 166455075.45351267 0 0 0 0 -132909889.37187588 80281118.123299122 0 80281118.123299122 103038758.12607098 0 0 0 0 -74207619.767678916 54134495.917349219 0 54134495.917349219 79180124.420061111 0 0 0 0 -53721066.13450253 51676334.236904144 0 51676334.236904144 69737261.803338051 0 0 0 0 -52163081.906615682 74329582.988986135 0 74329582.988986135 42724412.145269394 0 0 0 0 -17210836.842675328 72958567.84260273 0 72958567.84260273 -57744472.294800758 0 0 0 0 -85415293.401303738 99165267.749851227 0 99165267.749851227 34325704.350275517 0 0 0 0 -8003301.4965497255 56945505.333251238 0 56945505.333251238 -30654940.120880127 0 0 0 0 -34417438.398083776 85828679.998709038 0 85828679.998709038 -7920315.6877784729 0 0 0 0 -34010910.032497399 97377537.922691524 0 97377537.922691524 -45463502.356273651 0 0 0 0 -133824064.18916988 147058179.8557148 0 147058179.8557148 -26971730.763336182 0 0 0 0 -82203278.460827887 72635092.247564793 0 72635092.247564793 67475575.846297264 0 0 0 0 6394007.0909500122 20619527.26177597 0 20619527.26177597 -93376322.984833717 0 0 0 0 -151952093.49043524 127871165.9091363 0 127871165.9091363 -27434343.636086464 0 0 0 0 -17447326.682342052 111156602.71845579 0 111156602.71845579 -166025302.19381618 0 0 0 0 -49525227.553399324 137385176.31351376 0 137385176.31351376 -314122834.60410976 0 0 0 0 11281494.616617918 51823556.166532516 0 51823556.166532516 -44546260.846242905 0 0 0 0 -7606623.7639913559 45249963.513994217 0 45249963.513994217 -43955846.651561737 0 0 0 0 -32109594.276237726 -89607693.53961277 0 -89607693.53961277 115458973.31304646 0 0 0 0 -52924404.645050526 -86306531.276806831 0 -86306531.276806831 19225037.759316444 0 0 0 0 -148287765.60559416 -143841760.94770336 0 -143841760.94770336 90686993.700550079 0 0 0 0 -266072993.1674943 58513198.532652855 0 58513198.532652855 152932958.4257431 0 0 0 0 -42698332.680009544 -31543259.832579374 0 -31543259.832579374 -10119812.318116188 0 0 0 0 -252205605.87453175 53824992.356816292 0 53824992.356816292 -30332769.500713348 0 0 0 0 -392196049.43646574 -117945624.19402164 0 -117945624.19402164 -215814119.34442711 0 0 0 0 -338978858.23186731 285318044.1333313 0 285318044.1333313 -159891882.31402016 0 0 0 0 -509364631.74804258 292123432.36835575 0 292123432.36835575 -328496560.17530274 0 0 0 0 -197146354.18626726 -157674638.96256506 0 -157674638.96256506 -15150683.424072266 0 0 0 0 -255176428.4873147 33599762.932609558 0 33599762.932609558 -64040708.803613663 0 0 0 0 -66884117.390299559 -48989758.848669052 0 -48989758.848669052 -177197177.62199497 0 0 0 0 12894333.307975054 -44710007.534510612 0 -44710007.534510612 -58649611.74883461 0 0 0 0 18520241.536460161 -113360060.47390842 0 -113360060.47390842 101561862.58452034 0 0 0 0 -76494437.780332595 -106898972.29631531 0 -106898972.29631531 38107391.98859787 0 0 0 0 33985326.395123243 -148312959.99557495 0 -148312959.99557495 -16039994.698926926 0 0 0 0 -68677285.868094295 -153799012.80138958 0 -153799012.80138958 88679888.185628891 0 0 0 0 81719287.227672935 -197316052.5438714 0 -197316052.5438714 57939774.599105835 0 0 0 0 30414642.072295874 -135293214.36148381 0 -135293214.36148381 114209043.87906647 0 0 0 0 9381997.448987484 -190916522.25332499 0 -190916522.25332499 145118858.86691666 0 0 0 0 18507259.680349112 -203451071.21025276 0 -203451071.21025276 74180374.747047186 0 0 0 0 105095569.94209182 -147603278.69183254 0 -147603278.69183254 157874973.9879787 0 0 0 0 239092166.28726193 -133504797.82527828 0 -133504797.82527828 78209170.955352783 0 0 0 0 100686637.36308327 -183941669.44142342 0 -183941669.44142342 83176903.884881973 0 0 0 0 113667392.87234735 -94439796.546480179 0 -94439796.546480179 43944898.010531425 0 0 0 0 189461596.09404281 -191456663.29799891 0 -191456663.29799891 118389929.30481339 0 0 0 0 275220091.72462523 -206202044.18524671 0 -206202044.18524671 81189618.616235733 0 0 0 0 -40522083.04170537 -8925346.1820745468 0 -8925346.1820745468 30850058.040821075 0 0 0 0 225226907.41612536 -134894528.05247593 0 -134894528.05247593 142761378.91912508 0 0 0 0 35578944.241713762 -28395710.110580921 0 -28395710.110580921 -9087359.2719964981 0 0 0 0 -27353977.14786911 127360798.00138474 0 127360798.00138474 -51353239.798855782 0 0 0 0 -1303223.2024183345 -1380703.6762402141 0 -1380703.6762402141 -1218871.0221344372 0 0 0 0 -44202366.845369339 49562797.453289986 0 49562797.453289986 -106980728.27017403 0 0 0 0 -62361059.298332691 64494942.469417572 0 64494942.469417572 45342215.08855629 0 0 0 0 -7710161.3632488148 -4142556.0013533863 0 -4142556.0013533863 1916946.3044724362 0 0 0 0 -21157318.366037369 -37820239.752553463 0 -37820239.752553463 8688216.9410772324 0 0 0 0 -5740199.2302932739 -6186403.0535869598 0 -6186403.0535869598 7791409.7912769318 0 0 0 0 -77585737.942998886 -25403884.732872009 0 -25403884.732872009 49337638.730008543 0 0 0 0 -56782394.108006477 -7685185.922504425 0 -7685185.922504425 10753082.274337769 0 0 0 0 -78428887.531024933 44519898.227938652 0 44519898.227938652 -17318405.032650948 0 0 0 0 -6081643.8769645691 15139472.033602715 0 15139472.033602715 -18864876.658891439 0 0 0 0 -1932436.3595254389 220923.10769416625 0 220923.10769416625 2273845.9163301298 0 0 0 0 -2967742.4117973531 -2524874.7888300065 0 -2524874.7888300065 -1484367.2496427903 0 0 0 0 -63553450.908611298 11613444.523103237 0 11613444.523103237 12971073.395979881 0 0 0 0 -56178392.379667282 11803953.429287434 0 11803953.429287434 -3146688.0161705017 0 0 0 0 9756359.0397109985 51389175.182068825 0 51389175.182068825 15763675.785943031 0 0 0 0 23805981.1784935 29429661.268561363 0 29429661.268561363 -19454334.365663528 0 0 0 0 -89382596.917053223 36675230.317937851 0 36675230.317937851 57379385.995276451 0 0 0 0 -71678230.423492432 -8818681.0101017952 0 -8818681.0101017952 -4218521.8411693573 0 0 0 0 -45313171.349452972 -4424328.4924850464 0 -4424328.4924850464 -10280990.618811131 0 0 0 0 -2843141.7822189331 -7131479.0555534363 0 -7131479.0555534363 6751340.4702453613 0 0 0 0 -1525568.354927063 -8124154.9597549438 0 -8124154.9597549438 7405607.1286821365 0 0 0 0 -4209878.1700439453 -7403458.7335271835 0 -7403458.7335271835 8359403.1326217651 0 0 0 0 -2056486.9186782837 -9114209.0240898132 0 -9114209.0240898132 8354712.2088544369 0 0 0 0 -3210914.8227767944 -8446501.813495636 0 -8446501.813495636 8422071.3295288086 0 0 0 0 -2929981.6797103882 -8330740.2211513519 0 -8330740.2211513519 8336072.4490625262 0 0 0 0 -2926358.2836341858 -8302582.8807892799 0 -8302582.8807892799 8038697.9333000183 0 0 0 0 -2310399.9292907715 -8230310.8856639862 0 -8230310.8856639862 8030288.1832427979 0 0 0 0 -2862234.6939918995 -8516822.8615702391 0 -8516822.8615702391 7944108.0958023071 0 0 0 0 -2836193.4697885513 -8019984.4274075627 0 -8019984.4274075627 6966519.3393096924 0 0 0 0 -2226194.5646972656 -9056866.8537254333 0 -9056866.8537254333 8781214.5913085938 0 0 0 0 -8098189.0648262259 -3381941.4086666228 0 -3381941.4086666228 4369633.816264133 0 0 0 0 -1394425.3880691528 -9250327.9948253632 0 -9250327.9948253632 8123907.9535560608 0 0 0 0 -12050414.099609375 -9128338.1330413818 0 -9128338.1330413818 -23515368.794286728 0 0 0 0 -57176829.795928955 -12462579.383159637 0 -12462579.383159637 -12279108.470977783 0 0 0 0 -3251414.4682153747 393302.29540249961 0 393302.29540249961 1118899.1854597838 0 0 0 0 -36736764.641571045 -10303402.544534683 0 -10303402.544534683 -13420152.519757748 0 0 0 0 3658170.0029401779 14284060.880093575 0 14284060.880093575 -28011217.415180206 0 0 0 0 -20329849.595302582 19836096.908116341 0 19836096.908116341 -8874165.5294685364 0 0 0 0 -5552098.3355541229 33474485.024281502 0 33474485.024281502 1786100.6786346436 0 0 0 0 -36826319.17427063 25372519.595056534 0 25372519.595056534 -33790814.984125137 0 0 0 0 -9897743.7669677734 5152643.8483314514 0 5152643.8483314514 -33410023.524311066 0 0 0 0 -34335433.157463074 14044189.108732224 0 14044189.108732224 -30570090.01014185 0 0 0 0 -22984703.754776001 4889446.0493907928 0 4889446.0493907928 -25695486.523025513 0 0 0 0 -15746281.313499451 20787648.642943382 0 20787648.642943382 -47467125.581735611 0 0 0 0 -16321704.656845093 10021788.682933807 0 10021788.682933807 -53732730.664447784 0 0 0 0 -10456629.47118783 19157058.539460659 0 19157058.539460659 -41635491.985557556 0 0 0 0 -32752821.223220825 -6712188.5474319458 0 -6712188.5474319458 -49913600.235686779 0 0 0 0 -34984507.874950409 -14458661.069992065 0 -14458661.069992065 2441027.4039770961 0 0 0 0 -45367792.774185181 38706948.342213631 0 38706948.342213631 35115513.043663025 0 0 0 0 -67501177.077661514 23221927.301261425 0 23221927.301261425 36506175.129013062 0 0 0 0 -103008970.27607727 -11529852.473317146 0 -11529852.473317146 17495554.744562149 0 0 0 0 -1653553.7411660869 -1503535.0342700169 0 -1503535.0342700169 1309387.485715827 0 0 0 0 -30965885.873764038 8151791.1643753052 0 8151791.1643753052 -22696984.624019623 0 0 0 0 -24514168.504203796 8474622.6340351105 0 8474622.6340351105 -22709448.635860443 0 0 0 0 -60386.991708755493 -14230038.233632088 0 -14230038.233632088 -10974113.13792038 0 0 0 0 -46246636.628616333 -1589922.01608181 0 -1589922.01608181 3410811.9516580105 0 0 0 0 -12922153.461242676 2052385.1673374176 0 2052385.1673374176 -3770833.2663264275 0 0 0 0 -10004343.240860224 21766866.694314003 0 21766866.694314003 167735915.25417137 0 0 0 0 -24024594.175867081 12767947.541050434 0 12767947.541050434 -12564554.369569778 0 0 0 0 -6750235.8458450995 -2473253.1480847048 0 -2473253.1480847048 -122558.44982840307 0 0 0 0 -29126424.027877808 36910487.956400871 0 36910487.956400871 -63213790.358932495 0 0 0 0 -13605973.788383484 8315533.6219768524 0 8315533.6219768524 -11972051.690344334 0 0 0 0 -12956264.563379288 3116971.1705121994 0 3116971.1705121994 6008124.9800152779 0 0 0 0 9263164.9245452881 -8514276.3463897705 0 -8514276.3463897705 -47179771.388341904 0 0 0 0 7827031.7412528992 -572309.26922607422 0 -572309.26922607422 -58532815.813411951 0 0 0 0 -21266357.026184559 -117775413.02688217 0 -117775413.02688217 133719238.77230334 0 0 0 0 75801304.790393621 -168404238.83707583 0 -168404238.83707583 152075749.64310646 0 0 0 0 -19796375.234132767 2727593.1634955406 0 2727593.1634955406 13484668.829996109 0 0 0 0 -4484454.057216038 -2121292.5674114786 0 -2121292.5674114786 -240268.25339072663 0 0 0 0 69995589.31566155 -198485961.67641783 0 -198485961.67641783 143148122.9082346 0 0 0 0 -1725412.5214387053 -678804.575339003 0 -678804.575339003 858246.8348361142 0 0 0 0 -61367610.025873184 23532608.084296227 0 23532608.084296227 -10632618.113830566 0 0 0 0 -52950195.593559265 8751714.3564319611 0 8751714.3564319611 -16858643.931135178 0 0 0 0 -1575378329.3766022 -61300314.370040268 0 -61300314.370040268 150865918.46829551 0 0 0 0 -1127530235.5999124 -383262308.39451087 0 -383262308.39451087 302538675.37005746 0 0 0 0 -846239006.2544632 228910359.72308421 0 228910359.72308421 356085605.85215384 0 0 0 0 -1120061648.396698 531794698.16673505 0 531794698.16673505 32641427.731980205 0 0 0 0 -1845465640.6218338 750022010.21818042 0 750022010.21818042 71845814.313434839 0 0 0 0 -643105356.09772587 215703577.41755316 0 215703577.41755316 -26778291.780999243 0 0 0 0 -1739876554.2445297 -557772309.87800896 0 -557772309.87800896 -403461294.87678945 0 0 0 0 -1574790472.7381554 -211928409.68492019 0 -211928409.68492019 -327768293.2181775 0 0 0 0 -1671874052.0393181 105154079.44498706 0 105154079.44498706 -1126670717.1796775 0 0 0 0 -1640055602.150188 8754181.3350846656 0 8754181.3350846656 -146787121.33939129 0 0 0 0 -1491495170.785368 -495764969.40524703 0 -495764969.40524703 144882077.20080593 0 0 0 0 -1080282477.7856998 -861144318.81827164 0 -861144318.81827164 -390874184.65577877 0 0 0 0 -509001691.66051483 419595448.48717427 0 419595448.48717427 -440434996.79997826 0 0 0 0 -1915793040.1490746 -281744736.1055997 0 -281744736.1055997 65277821.218599319 0 0 0 0 -2682881.4580114521 421614.04421066353 0 421614.04421066353 146835.82928751412 0 0 0 0 185534606.06552696 -86801400.877172768 0 -86801400.877172768 -72289689.828858256 0 0 0 0 -787681783.45459557 -622790788.55522776 0 -622790788.55522776 -174032385.34200388 0 0 0 0 -48717757.372447968 -7358470.1501532625 0 -7358470.1501532625 -185362364.24431419 0 0 0 0 -609997049.99178886 -236564494.97964412 0 -236564494.97964412 22313870.6357392 0 0 0 0 -142689612.96419907 -325038997.6923759 0 -325038997.6923759 -259991286.25499758 0 0 0 0 45952209.617500305 25378988.569558315 0 25378988.569558315 -6305220.6534845233 0 0 0 0 -69972388.031570435 -93722591.272198722 0 -93722591.272198722 -42764498.298143521 0 0 0 0 -6900640.1112146303 1147738.8945621063 0 1147738.8945621063 757869.33317442192 0 0 0 0 10613809.438409805 2856246.9429271221 0 2856246.9429271221 31400089.704280496 0 0 0 0 -58490879.06054306 -1077112.7552177906 0 -1077112.7552177906 88230977.507709265 0 0 0 0 -175879184.55348969 10985041.822949693 0 10985041.822949693 268660634.87545729 0 0 0 0 -10332938.733659267 -38443788.763332017 0 -38443788.763332017 2297327.7989460826 0 0 0 0 -134950.06671814434 715049.11997422343 0 715049.11997422343 786233.95662087889 0 0 0 0 21399761.338970184 56776249.541306794 0 56776249.541306794 -84008795.801814854 0 0 0 0 -646179188.53745365 186013727.17763585 0 186013727.17763585 3970360.2650471032 0 0 0 0 -669970783.42207336 206740283.43482643 0 206740283.43482643 2746808.7756281309 0 0 0 0 15234046.600708008 -112593115.15357494 0 -112593115.15357494 -65063493.854096651 0 0 0 0 65616138.584486008 -18608714.719446987 0 -18608714.719446987 -220817714.81668532 0 0 0 0 -90457527.119579315 197301489.10193318 0 197301489.10193318 -186073612.8798061 0 0 0 0 10771501.919269562 34266.193779945374 0 34266.193779945374 -34466626.290846586 0 0 0 0 1723654.0998617066 1104465.7501818682 0 1104465.7501818682 963869.17538899044 0 0 0 0 12810699.490978241 -63461913.321446478 0 -63461913.321446478 67292067.590963006 0 0 0 0 -20502.226045608521 -1651053.0839163065 0 -1651053.0839163065 -14660688.190756321 0 0 0 0 -9092631.2035254762 6252904.7689157594 0 6252904.7689157594 5147912.0104817599 0 0 0 0 -2292141.6008551996 -5670536.0722117424 0 -5670536.0722117424 -1551441.3190437169 0 0 0 0 -28114628.62253952 -7680468.2241640091 0 -7680468.2241640091 -533877.59316757321 0 0 0 0 -26961583.750516415 -1458944.8716787845 0 -1458944.8716787845 4032478.1821807623 0 0 0 0 -9532613.1911164932 -1891920.879599038 0 -1891920.879599038 5788037.8655457553 0 0 0 0 -33108764.48657608 -14870140.526192218 0 -14870140.526192218 639299.43363279104 0 0 0 0 3647465.7218933105 -15734691.209905416 0 -15734691.209905416 -1235011.0597224385 0 0 0 0 -1664346.7724685669 -11385214.229441166 0 -11385214.229441166 -306053.35382989049 0 0 0 0 12281362.360031128 -14348989.771743372 0 -14348989.771743372 -33943390.839967653 0 0 0 0 -1964915.1488647461 -19653067.575484157 0 -19653067.575484157 15485304.936188221 0 0 0 0 -46785833.176849365 95306140.168254912 0 95306140.168254912 243133666.26749998 0 0 0 0 -9815832.8293018565 1038166.0909895091 0 1038166.0909895091 1927700.9375731167 0 0 0 0 -11390791.476371765 -12975392.718664408 0 -12975392.718664408 28794053.200829506 0 0 0 0 -14269946.630197525 132463797.72350535 0 132463797.72350535 178811868.77948403 0 0 0 0 -991014.37954711914 44334450.079830721 0 44334450.079830721 59084850.765722334 0 0 0 0 -79801881.946134806 59411862.838955715 0 59411862.838955715 57225908.090467028 0 0 0 0 -27830908.614276886 49716785.815966174 0 49716785.815966174 55746127.880751394 0 0 0 0 58497305.832252502 31015032.119053066 0 31015032.119053066 58132192.095205463 0 0 0 0 91076407.748931885 69596629.331329882 0 69596629.331329882 186892265.34194213 0 0 0 0 -23781837.412410736 68571549.542216599 0 68571549.542216599 187126003.74857137 0 0 0 0 31816568.097888947 105984016.77305515 0 105984016.77305515 74272186.264761537 0 0 0 0 -2085900.3038133834 -4957686.8902122192 0 -4957686.8902122192 743783.49906894518 0 0 0 0 578631.67817687988 -21524726.457295008 0 -21524726.457295008 28249524.4660905 0 0 0 0 -44217840.626556396 -34768610.77025988 0 -34768610.77025988 -23414354.774719596 0 0 0 0 -368897.90668790787 -1403265.3660252397 0 -1403265.3660252397 14798.898333938923 0 0 0 0 -29304546.165797234 -16237905.119084831 0 -16237905.119084831 -422678.8336366415 0 0 0 0 -9261930.0401906967 -7696431.6335020065 0 -7696431.6335020065 16401665.490595341 0 0 0 0 -500915.55479245819 -209897.30568640865 0 -209897.30568640865 14351.402640072105 0 0 0 0 -15248916.218292236 13546851.267977148 0 13546851.267977148 3786436.0782153606 0 0 0 0 -57537752.491015434 11324881.123806631 0 11324881.123806631 15392361.476439103 0 0 0 0 -9115250.6995950025 5832581.7068674676 0 5832581.7068674676 5519022.4739461765 0 0 0 0 -73848584.924842834 6273043.278247511 0 6273043.278247511 63710063.121900015 0 0 0 0 -87703920.052970886 63997716.465313785 0 63997716.465313785 171508376.35009682 0 0 0 0 -8682441.9956474304 -1502811.2879624814 0 -1502811.2879624814 10804999.889500111 0 0 0 0 -26023303.334197998 64994303.788665488 0 64994303.788665488 46828054.340403758 0 0 0 0 -17693959.344909668 50152954.786841437 0 50152954.786841437 55902111.626728751 0 0 0 0 -9050166.2795492131 5336514.5241168775 0 5336514.5241168775 5899956.1658671182 0 0 0 0 7299844.339012146 27542996.834949046 0 27542996.834949046 23021420.954736166 0 0 0 0 -47833570.664653778 88862238.737258911 0 88862238.737258911 26581878.083042145 0 0 0 0 6060310.5027141571 32302177.56258684 0 32302177.56258684 19336893.669120073 0 0 0 0 13136855.974482059 8308876.8780646324 0 8308876.8780646324 -17180002.357408524 0 0 0 0 -129204304.93931818 6843074.8841485977 0 6843074.8841485977 2249865.2077503204 0 0 0 0 -135061126.95566437 -38491870.207599759 0 -38491870.207599759 5585053.0537586212 0 0 0 0 99186965.421789169 27394825.564939499 0 27394825.564939499 38363056.982931137 0 0 0 0 -72955588.047243118 19727004.922225952 0 19727004.922225952 -18243587.746058464 0 0 0 0 717351.71637749276 906993.75156897563 0 906993.75156897563 600027.82029758487 0 0 0 0 -97807488.374175072 -17440177.599096298 0 -17440177.599096298 -14481156.534197807 0 0 0 0 -109458848.95408154 -35556383.761720657 0 -35556383.761720657 -7674166.4057579041 0 0 0 0 -72731176.085185051 -35838641.76944828 0 -35838641.76944828 -18131189.567378998 0 0 0 0 -106173491.90498924 -55310366.201781273 0 -55310366.201781273 -24534351.592136383 0 0 0 0 -126402600.17368221 -39433213.237259865 0 -39433213.237259865 -10126861.926624775 0 0 0 0 -107974061.99153143 -43180683.084981799 0 -43180683.084981799 -9461517.2092876434 0 0 0 0 83884498.252445698 61394002.03212738 0 61394002.03212738 12346101.24539566 0 0 0 0 3794635.1298191519 2459149.5361590674 0 2459149.5361590674 1138354.0018132548 0 0 0 0 -45963250.085008383 -3115266.0143165588 0 -3115266.0143165588 -16283254.970912933 0 0 0 0 30584202.246688843 19696964.645856857 0 19696964.645856857 11636769.288261414 0 0 0 0 -142672207.78682232 15062022.410737038 0 15062022.410737038 6019301.377466917 0 0 0 0 -53472140.443033695 1043029.3467817307 0 1043029.3467817307 16112775.477928162 0 0 0 0 31268796.685671329 15028116.996066093 0 15028116.996066093 20644100.468738556 0 0 0 0 -315527601.2912426 -71970584.549819946 0 -71970584.549819946 14059118.513638496 0 0 0 0 85652524.687774181 -34499098.428064346 0 -34499098.428064346 -40918253.603839874 0 0 0 0 -320731713.41330814 -135123283.92633533 0 -135123283.92633533 90212934.839672089 0 0 0 0 -158709998.46102381 -195073550.53124905 0 -195073550.53124905 -143851084.9783864 0 0 0 0 -63582059.740908653 -41554772.496623516 0 -41554772.496623516 -38749364.685970306 0 0 0 0 -104298491.17286205 -97419081.713109016 0 -97419081.713109016 -111243462.84576321 0 0 0 0 -13614366.228985786 104617637.68233776 0 104617637.68233776 101032210.61766815 0 0 0 0 -925673.28958618245 54092.505983586656 0 54092.505983586656 -116919.14405514603 0 0 0 0 -82915982.207550049 135152618.46779346 0 135152618.46779346 120927090.48582077 0 0 0 0 -97765023.882113218 39009850.005037785 0 39009850.005037785 153929714.61558354 0 0 0 0 -103057952.33412743 60687136.052752495 0 60687136.052752495 82399102.576010704 0 0 0 0 -415242406.24812031 68556519.78884697 0 68556519.78884697 163442591.26406288 0 0 0 0 -78292858.375688553 -28029090.930186749 0 -28029090.930186749 -7881342.5360274315 0 0 0 0 -359508482.26306903 175621930.11701655 0 175621930.11701655 -35432272.95552063 0 0 0 0 -44146482.767103195 -491824973.06034279 0 -491824973.06034279 47314037.652685642 0 0 0 0 -950808.53373099142 833539.98424133053 0 833539.98424133053 1025261.5144758837 0 0 0 0 839118.18962822389 622770.9284464292 0 622770.9284464292 234680.25380267296 0 0 0 0 -8417619.0400209427 -16142521.908640862 0 -16142521.908640862 -20667914.884981155 0 0 0 0 4347119.3185884478 8616099.002809681 0 8616099.002809681 1655409.7975711327 0 0 0 0 -113463686.95701408 -1940343.9663202763 0 -1940343.9663202763 48048332.165840149 0 0 0 0 -2444132.3865982862 4245216.5817595292 0 4245216.5817595292 4126765.9822792658 0 0 0 0 -36006678.24078083 27299113.099432945 0 27299113.099432945 9965906.5908441544 0 0 0 0 -47803382.586389303 56477791.299237251 0 56477791.299237251 34992886.498758316 0 0 0 0 -50471728.812298059 55679576.989124298 0 55679576.989124298 72860986.420625687 0 0 0 0 -39050257.878427267 62210123.086166382 0 62210123.086166382 20557030.060405731 0 0 0 0 -39517401.495360136 61038856.068580627 0 61038856.068580627 36058406.383799314 0 0 0 0 -46582862.159940362 45253664.02796793 0 45253664.02796793 1913206.1458158493 0 0 0 0 -14076445.842796803 44511599.031526566 0 44511599.031526566 958839.84954071045 0 0 0 0 -16666876.532677889 51878776.313240051 0 51878776.313240051 -19867928.458351135 0 0 0 0 -1641065.9336266518 33134750.99429512 0 33134750.99429512 -27830833.978281975 0 0 0 0 -3295050.871810019 23646976.768141091 0 23646976.768141091 -3854910.6452865601 0 0 0 0 -9098368.7135767341 10082013.605867267 0 10082013.605867267 16863232.335144043 0 0 0 0 2418820.8641777039 6092316.9718122482 0 6092316.9718122482 6033936.7209815979 0 0 0 0 -11612952.795213223 20313279.537247658 0 20313279.537247658 -3808943.697499454 0 0 0 0 -21147709.030342579 36587396.173169136 0 36587396.173169136 -7776031.2632045746 0 0 0 0 -17082209.15042907 18035859.597991347 0 18035859.597991347 -4997715.2028274536 0 0 0 0 311900.52879697038 1093258.7670197659 0 1093258.7670197659 500159.79969425406 0 0 0 0 -35150714.875170946 23712842.74903965 0 23712842.74903965 1144753.8155145645 0 0 0 0 -3607026.0235037226 4386996.4569025449 0 4386996.4569025449 5003724.0671596155 0 0 0 0 4059192.4329299927 7674467.3610596657 0 7674467.3610596657 1267772.5626618862 0 0 0 0 -8434616.511138916 8235554.6630730927 0 8235554.6630730927 23983671.596798539 0 0 0 0 5030329.674697876 21271794.610689819 0 21271794.610689819 21423846.332837671 0 0 0 0 47024206.621704102 -38447680.900408208 0 -38447680.900408208 -68877191.078131199 0 0 0 0 33665346.496696472 33929976.449517667 0 33929976.449517667 -1115442.3667123318 0 0 0 0 29835443.724357605 39983787.005071953 0 39983787.005071953 34262834.766756445 0 0 0 0 4545659.6743049622 11974683.773834646 0 11974683.773834646 -6845750.0506826639 0 0 0 0 -1623917.4514713287 6710643.0668002665 0 6710643.0668002665 42439463.201008439 0 0 0 0 -6561485.626770772 2892622.1308528855 0 2892622.1308528855 4515926.3273377195 0 0 0 0 2510196.5224845409 -11513158.675314903 0 -11513158.675314903 22295604.688487291 0 0 0 0 -7633452.702866897 3300814.6945039858 0 3300814.6945039858 4209016.1889689565 0 0 0 0 -2621651.0182819366 2880196.8363139629 0 2880196.8363139629 2723259.062533617 0 0 0 0 -4879412.8430387741 1476726.1072942715 0 1476726.1072942715 4256713.7862178702 0 0 0 0 -32582792.940069199 -12578393.476857267 0 -12578393.476857267 72360388.179439664 0 0 0 0 -9370665.7498272248 2539405.0718025649 0 2539405.0718025649 1913257.8573831138 0 0 0 0 -46026814.492539406 7526410.8383538723 0 7526410.8383538723 31071038.136953294 0 0 0 0 -3017668.2463307064 1830878.9847507845 0 1830878.9847507845 2487877.2910670675 0 0 0 0 10308273.605958939 28825418.657436162 0 28825418.657436162 17249925.339241683 0 0 0 0 98084232.705123901 28443068.434112638 0 28443068.434112638 -25461657.48586458 0 0 0 0 122969.79011446005 223315.33288385812 0 223315.33288385812 54933.834857538168 0 0 0 0 -77094959.364286423 60424119.286284216 0 60424119.286284216 98044735.803532064 0 0 0 0 -73630924.129863739 40986648.444089413 0 40986648.444089413 32981091.698305607 0 0 0 0 -13691801.238512993 71704188.999752194 0 71704188.999752194 -12872907.44359386 0 0 0 0 71508535.402761459 255555.98497837782 0 255555.98497837782 1917199.4485116005 0 0 0 0 -2519882.9510707855 50413024.005655408 0 50413024.005655408 -613320.76030004025 0 0 0 0 394674.50913747214 691556.31855898257 0 691556.31855898257 245504.4785830878 0 0 0 0 -19096512.357275963 18602339.898152813 0 18602339.898152813 -21281628.583816528 0 0 0 0 7800876.944849968 62304417.03009975 0 62304417.03009975 -26860349.887219548 0 0 0 0 56798.372299194336 58022428.575520337 0 58022428.575520337 25123747.568775535 0 0 0 0 74196221.231201172 56191175.26970917 0 56191175.26970917 -19322845.666857719 0 0 0 0 18115613.55212307 36601498.723211586 0 36601498.723211586 -4857816.9960093498 0 0 0 0 26009238.777065277 17811379.736861825 0 17811379.736861825 -8708364.2902021408 0 0 0 0 10096192.189492702 7525315.1461947933 0 7525315.1461947933 7910171.2799786329 0 0 0 0 -30788291.888900757 9398800.1234512329 0 9398800.1234512329 50512647.538887322 0 0 0 0 830053.17345574033 467511.82127865124 0 467511.82127865124 168727.83082773571 0 0 0 0 29806486.382759094 10650390.6806705 0 10650390.6806705 -5314155.9035608768 0 0 0 0 20282561.171905518 21011322.420506775 0 21011322.420506775 -10169419.804204643 0 0 0 0 22852698.287948608 14533612.217860997 0 14533612.217860997 -7816747.0231593251 0 0 0 0 26074966.728252411 14597592.123669863 0 14597592.123669863 -8435437.0332559347 0 0 0 0 -2738065.5630493164 11707110.47903657 0 11707110.47903657 9379157.0582547188 0 0 0 0 2770935.7211427661 1404388.9509949121 0 1404388.9509949121 430362.79405573732 0 0 0 0 16405280.159343719 7472044.8400602639 0 7472044.8400602639 1247581.8170465529 0 0 0 0 -3814840.977016449 4834088.9460401535 0 4834088.9460401535 7918285.5986833572 0 0 0 0 1091631.8507791329 10892621.190594064 0 10892621.190594064 4688344.9499027226 0 0 0 0 5227422.1451377869 5246480.8260504007 0 5246480.8260504007 4069344.6585836411 0 0 0 0 1637484.0138870524 1304279.6046096105 0 1304279.6046096105 493464.56717022462 0 0 0 0 -1120980.6418427324 -133649.7014316665 0 -133649.7014316665 1121622.5041615176 0 0 0 0 5825916.6300735474 12808491.094449282 0 12808491.094449282 6362517.8898005486 0 0 0 0 -1492712.7815189362 246530.78031170368 0 246530.78031170368 1144254.3557790518 0 0 0 0 111162818.29662752 9556992.4757880718 0 9556992.4757880718 -46220919.578597665 0 0 0 0 -5609381.1423301697 66532162.62968576 0 66532162.62968576 -29835060.91249311 0 0 0 0 45995247.823963165 -20340514.600183338 0 -20340514.600183338 -4773257.755988121 0 0 0 0 101752073.91235352 16443089.665888309 0 16443089.665888309 -26126803.315696001 0 0 0 0 68891436.75528717 15359723.863004923 0 15359723.863004923 7334280.582034111 0 0 0 0 156032624.91424179 73617063.309118807 0 73617063.309118807 16403409.603450298 0 0 0 0 42318.1432808768 55385.012473681942 0 55385.012473681942 85989.366165375512 0 0 0 0 -198717782.6306839 7766416.477153182 0 7766416.477153182 -34267965.565913171 0 0 0 0 -90210791.536811829 5314304.2818056345 0 5314304.2818056345 -36975100.593843162 0 0 0 0 -154553211.17461777 84984065.131495059 0 84984065.131495059 3342470.6673497856 0 0 0 0 -222645962.08028603 136865711.64356178 0 136865711.64356178 -76457103.145049095 0 0 0 0 -381252933.45440578 -21546498.106311113 0 -21546498.106311113 -4727626.1428859234 0 0 0 0 -795996158.909132 300158091.84162474 0 300158091.84162474 -16072492.254390329 0 0 0 0 -977158866.47495461 -413178574.46571082 0 -413178574.46571082 6205446.7935782671 0 0 0 0 -491585759.06955338 -152460540.80147472 0 -152460540.80147472 54164981.548226357 0 0 0 0 -274480281.44045639 54633843.191177636 0 54633843.191177636 20038783.048279881 0 0 0 0 -125455380.20097351 -7529425.7369144708 0 -7529425.7369144708 -8655622.758216083 0 0 0 0 59479617.607162476 36265593.240832686 0 36265593.240832686 -3325148.3422038145 0 0 0 0 -236264345.33230782 -50542023.744786538 0 -50542023.744786538 97954555.676513284 0 0 0 0 6166014.1344051361 34912017.487392955 0 34912017.487392955 23965319.264413714 0 0 0 0 -6452985.3729437673 1773901.5052317749 0 1773901.5052317749 427677.4706255804 0 0 0 0 -189299970.29179382 -126761714.02020743 0 -126761714.02020743 -52110987.383371949 0 0 0 0 -351614741.9290514 -106916259.20086136 0 -106916259.20086136 76200718.088678569 0 0 0 0 -222816105.51838684 -57961476.091719925 0 -57961476.091719925 33368682.068622004 0 0 0 0 -343312817.06936646 -118759893.49543071 0 -118759893.49543071 -48961171.194628373 0 0 0 0 -545132414.66048813 -363747146.74061173 0 -363747146.74061173 -113405011.10715094 0 0 0 0 -1569973309.5071888 -928557556.66577375 0 -928557556.66577375 -421479549.33722556 0 0 0 0 -1573749279.5078449 -279728599.30321437 0 -279728599.30321437 225068041.3847104 0 0 0 0 -1555914.3482876476 -61363.071609557141 0 -61363.071609557141 547477.76106692199 0 0 0 0 -530915261.80777073 166801609.65366828 0 166801609.65366828 359695483.81400061 0 0 0 0 -421802714.5914259 -245474609.85104173 0 -245474609.85104173 46205895.820717037 0 0 0 0 -424448455.73622704 -257906968.14020452 0 -257906968.14020452 11313980.751761332 0 0 0 0 -853626.23345353641 132640.00328137632 0 132640.00328137632 126618.68682393912 0 0 0 0 -311698273.56822968 511261788.17967987 0 511261788.17967987 278230672.23130941 0 0 0 0 -1572920677.7308216 -627006401.8972646 0 -627006401.8972646 168180331.27787742 0 0 0 0 -661850250.95427465 -309881651.77359366 0 -309881651.77359366 237916104.76326251 0 0 0 0 -1098541337.4695721 60980448.925885193 0 60980448.925885193 658740432.13617992 0 0 0 0 -824874183.70500946 480405645.7360031 0 480405645.7360031 35325816.528954059 0 0 0 0 -908511063.23457909 -216790001.8436842 0 -216790001.8436842 810071037.56778288 0 0 0 0 -1077499095.0886402 59637282.837308228 0 59637282.837308228 658377313.83321762 0 0 0 0 122991147.6697464 591810880.26635027 0 591810880.26635027 -167390082.01261514 0 0 0 0 81275803.717475891 279514606.41509342 0 279514606.41509342 907579488.23153543 0 0 0 0 -217406109.57790375 153615717.31424701 0 153615717.31424701 349708509.04333472 0 0 0 0 570949385.84512329 -135866881.13964868 0 -135866881.13964868 549571495.697119 0 0 0 0 -79881444.483398438 -19219563.484123468 0 -19219563.484123468 537111935.14982688 0 0 0 0 854752473.94663239 475193064.2535696 0 475193064.2535696 269627685.08211565 0 0 0 0 320957621.93997192 562395490.18026876 0 562395490.18026876 264605910.87549281 0 0 0 0 221703557.01272297 457725799.09450537 0 457725799.09450537 192315266.41992998 0 0 0 0 -279158634.99186707 649812863.52688599 0 649812863.52688599 122669769.59898391 0 0 0 0 -327526281.98737526 86201436.646133363 0 86201436.646133363 330315471.37424988 0 0 0 0 -2957886.0782040274 1467008.4444658477 0 1467008.4444658477 1536383.9209776649 0 0 0 0 -203228486.81598186 329196366.2616713 0 329196366.2616713 -311034573.49383426 0 0 0 0 -637280894.2454195 223394671.79607934 0 223394671.79607934 -134791597.1691789 0 0 0 0 -516080113.51053959 695273706.85315192 0 695273706.85315192 -182250061.25410867 0 0 0 0 -733832221.34503651 384509018.04721409 0 384509018.04721409 -403623210.09958839 0 0 0 0 -1576051642.4339881 519536390.14244121 0 519536390.14244121 261041497.39983517 0 0 0 0 -307301627.95131683 140656765.14580691 0 140656765.14580691 -210342778.00911865 0 0 0 0 -1572256793.575145 965763625.77148318 0 965763625.77148318 -689196659.40269351 0 0 0 0 -2929428.1465113787 1469568.3744609694 0 1469568.3744609694 1199975.4295125999 0 0 0 0 -1557409859.8546665 966882347.50477087 0 966882347.50477087 -222181654.94257358 0 0 0 0 -130930199.24933243 431974242.61566222 0 431974242.61566222 -1111477680.0890939 0 0 0 0 -2357618.5611709226 894825.78494151798 0 894825.78494151798 -287679.62460190977 0 0 0 0 56840381.45069313 57560156.634980693 0 57560156.634980693 -510722784.09003645 0 0 0 0 -123230048.95880985 277178118.77074659 0 277178118.77074659 -321176020.32521671 0 0 0 0 -211474960.45865536 351662294.06098467 0 351662294.06098467 -380431600.26091337 0 0 0 0 -107177762.40314996 162946809.8405492 0 162946809.8405492 -248551059.07054353 0 0 0 0 -90272634.624680519 77653287.759552702 0 77653287.759552702 -88463642.1066356 0 0 0 0 -30162079.02263844 -14134234.479823112 0 -14134234.479823112 -28956216.281029224 0 0 0 0 4044903.3861508369 65238795.83169923 0 65238795.83169923 -200205538.97726899 0 0 0 0 -125704306.07704449 182954343.51186669 0 182954343.51186669 -184633328.59727669 0 0 0 0 -77348472.886223793 114812301.38693234 0 114812301.38693234 -113192099.35633934 0 0 0 0 -51393582.130324364 141801110.98096448 0 141801110.98096448 -238843905.13779521 0 0 0 0 -132735838.6283617 208757352.24273491 0 208757352.24273491 -199014528.28412902 0 0 0 0 -127584750.60177612 187813668.18630749 0 187813668.18630749 -326732811.43316746 0 0 0 0 -68649258.355006218 196909826.25586319 0 196909826.25586319 -290253058.31573057 0 0 0 0 -241786821.64362526 224811893.67126727 0 224811893.67126727 -244270270.33707839 0 0 0 0 -1644932416.9945216 176218281.13229787 0 176218281.13229787 238117500.95947975 0 0 0 0 -1867106.654477898 601589.46877937717 0 601589.46877937717 265339.02955686871 0 0 0 0 182071886.81738663 869018809.85883617 0 869018809.85883617 538339811.45789993 0 0 0 0 -1013825375.1214497 -745878312.2556479 0 -745878312.2556479 39715828.1902318 0 0 0 0 -224780705.97380924 536604729.28591061 0 536604729.28591061 303977710.10678375 0 0 0 0 -86203529.738681078 821879375.70839226 0 821879375.70839226 536161555.85473561 0 0 0 0 -2501001.3262061016 1404611.3313188322 0 1404611.3313188322 1297967.5883201251 0 0 0 0 -143065817.00961542 287592571.99979281 0 287592571.99979281 -339451220.45214015 0 0 0 0 -167966176.97929406 225854131.46653628 0 225854131.46653628 -256124366.41559124 0 0 0 0 -41010126.07000947 190835457.09264302 0 190835457.09264302 -314198240.35877156 0 0 0 0 -68413653.316652775 169638366.59416723 0 169638366.59416723 -291519331.42498374 0 0 0 0 -4838839.4726710916 144100727.93845606 0 144100727.93845606 -427673261.87557888 0 0 0 0 1976830.5619952977 170923681.53098202 0 170923681.53098202 -322600574.16992998 0 0 0 0 -33172294.974243283 261570411.66664636 0 261570411.66664636 -363050068.22382569 0 0 0 0 -41847306.087510824 198295275.85430104 0 198295275.85430104 -167484375.32299376 0 0 0 0 28046285.485371292 211458108.8508276 0 211458108.8508276 -106533774.02676129 0 0 0 0 44740408.693371058 191950853.51211226 0 191950853.51211226 -171680020.87918782 0 0 0 0 -56962558.226469025 131837775.98847046 0 131837775.98847046 -43844640.825612783 0 0 0 0 -13022747.439912677 213985511.18246353 0 213985511.18246353 -302587191.43718719 0 0 0 0 -78738555.836540222 205208437.01194406 0 205208437.01194406 -172003500.62446237 0 0 0 0 -40777551.164469242 139471833.4836821 0 139471833.4836821 -204977472.54870275 0 0 0 0 -37615233.19633913 79316527.774411738 0 79316527.774411738 -108998236.98048739 0 0 0 0 -63524774.220556259 164049096.78119397 0 164049096.78119397 -92421940.698613405 0 0 0 0 -19371852.758927941 13215950.074171871 0 13215950.074171871 -36871723.693349838 0 0 0 0 -51763987.523669839 103169596.42352149 0 103169596.42352149 -5456179.9870027304 0 0 0 0 -61209816.959065437 120344530.16220969 0 120344530.16220969 -114666313.66433382 0 0 0 0 -50682378.241970539 20547301.272879481 0 20547301.272879481 -12571268.379007339 0 0 0 0 -1443609.6019539833 2296221.9391181469 0 2296221.9391181469 -12445015.982787132 0 0 0 0 -20719091.594714165 24756652.103832006 0 24756652.103832006 -125775698.76073274 0 0 0 0 -24997206.320792675 20098714.627235413 0 20098714.627235413 -18874211.42187047 0 0 0 0 -8594510.4652706385 -3189839.2404078841 0 -3189839.2404078841 -10648787.873927593 0 0 0 0 12221779.679780066 -3310854.4319012165 0 -3310854.4319012165 -7754334.0757094622 0 0 0 0 -4267251.794131428 -467614.28303706029 0 -467614.28303706029 3342588.3631496658 0 0 0 0 4022443.3739341721 -13226492.610011697 0 -13226492.610011697 -4550985.0134453773 0 0 0 0 8684297.2127106786 -5961030.0247576833 0 -5961030.0247576833 -4962380.8680067062 0 0 0 0 -3418455.5309724808 3868288.8600707054 0 3868288.8600707054 -1301226.0840143561 0 0 0 0 -15468910.093616247 22896951.566152215 0 22896951.566152215 -17207601.983847491 0 0 0 0 -6148762.3679411411 10675711.295681715 0 10675711.295681715 9430866.8358284235 0 0 0 0 1412386.0494262576 11439635.41073364 0 11439635.41073364 5075438.8495236635 0 0 0 0 -474523.38196936576 432210.31892150914 0 432210.31892150914 270183.56409416714 0 0 0 0 129556391.08800158 85560230.461188957 0 85560230.461188957 114744290.4726679 0 0 0 0 -9774938.3053785563 6555935.9072197676 0 6555935.9072197676 8092076.8110089302 0 0 0 0 -1544999.8922071457 8262456.369266808 0 8262456.369266808 4899568.3315747976 0 0 0 0 -40448679.822864532 133782688.01225981 0 133782688.01225981 181677979.88585222 0 0 0 0 -36144809.403937578 108944141.55369973 0 108944141.55369973 -77322179.77845335 0 0 0 0 -18694645.481831253 39044161.151200026 0 39044161.151200026 56796907.609236836 0 0 0 0 -83607158.046910405 67350360.712931752 0 67350360.712931752 170052001.6759482 0 0 0 0 -14212709.602510452 126413651.44187967 0 126413651.44187967 107146401.72448821 0 0 0 0 -36302253.628839493 65956191.846319437 0 65956191.846319437 158810484.94868591 0 0 0 0 -2324963.9287110232 4368358.8416361138 0 4368358.8416361138 2106833.9693553019 0 0 0 0 -2634821.1392301442 2824561.9446377973 0 2824561.9446377973 1660191.11698049 0 0 0 0 -2553833.0099541843 2454388.5011923313 0 2454388.5011923313 1388291.3625321388 0 0 0 0 -4951884.8702158928 3422391.1150836945 0 3422391.1150836945 6766089.0859425068 0 0 0 0 -4680203.1026298776 12101282.232759356 0 12101282.232759356 -3498387.4796743393 0 0 0 0 -2159130.9467200506 3965903.3564836672 0 3965903.3564836672 1009626.1341175373 0 0 0 0 230318.64246249199 4694645.502363205 0 4694645.502363205 -4669942.9057093859 0 0 0 0 -695893.16550296429 957675.88264530431 0 957675.88264530431 -122062.69699092075 0 0 0 0 -82604438.943843842 -137955106.33557087 0 -137955106.33557087 214792683.50388515 0 0 0 0 -314771.01105833054 33899866.094878137 0 33899866.094878137 76999129.413932562 0 0 0 0 -254127044.23819399 149993819.18367374 0 149993819.18367374 -55814091.892767787 0 0 0 0 -154656363.48401272 -96234372.2840029 0 -96234372.2840029 -112475181.18701935 0 0 0 0 -129644189.75013041 -1512447.3751840591 0 -1512447.3751840591 68921358.182271123 0 0 0 0 -175401401.36429894 142507759.02525759 0 142507759.02525759 -114392768.8874507 0 0 0 0 -74133626.702298403 168168845.45696211 0 168168845.45696211 -107891102.35834551 0 0 0 0 -540335320.17182827 396939443.53175378 0 396939443.53175378 -354504362.56434196 0 0 0 0 -106957969.9924264 120460951.12760317 0 120460951.12760317 -266523134.3710103 0 0 0 0 -347045441.65740061 -108675801.60598338 0 -108675801.60598338 -372718129.37416983 0 0 0 0 -131896195.93643808 100590099.90292263 0 100590099.90292263 -190392107.85642743 0 0 0 0 -210701642.65850997 159556286.7449109 0 159556286.7449109 54941144.360904455 0 0 0 0 -351106667.49110508 427878349.78884804 0 427878349.78884804 -454735023.55436158 0 0 0 0 -338175528.18645525 12667872.693378687 0 12667872.693378687 444143754.67728686 0 0 0 0 129276.79459178448 186054276.45387316 0 186054276.45387316 -1047569767.7629833 0 0 0 0 -677533.27863766789 698254.41213053279 0 698254.41213053279 -101636.37404887564 0 0 0 0 18879964.754888535 25515996.633678436 0 25515996.633678436 235051034.26861191 0 0 0 0 -535485774.10901117 213378123.55700731 0 213378123.55700731 322842741.9039886 0 0 0 0 -233587749.95847863 27516582.220098659 0 27516582.220098659 183440273.08835793 0 0 0 0 -233406731.55673027 18848968.656694248 0 18848968.656694248 295574412.06342649 0 0 0 0 -318865076.15255785 55216337.313123941 0 55216337.313123941 206154485.83124208 0 0 0 0 -295851053.82369548 150868261.41417938 0 150868261.41417938 56706373.822461367 0 0 0 0 -219428981.0908072 27903174.989362359 0 27903174.989362359 30420758.368809581 0 0 0 0 -120618510.74849749 50651826.711727083 0 50651826.711727083 10464195.100415349 0 0 0 0 -191440282.98293507 43806955.563679621 0 43806955.563679621 149923219.58505332 0 0 0 0 -208212135.52724886 -4984466.1631584764 0 -4984466.1631584764 110935354.51739794 0 0 0 0 2602776.3553094864 30248476.98033452 0 30248476.98033452 -31404429.631919622 0 0 0 0 -75532042.344368696 -96718834.863591135 0 -96718834.863591135 158354648.45632589 0 0 0 0 -266063.38311622292 21961.220361884625 0 21961.220361884625 68936.779370760982 0 0 0 0 -736609.53480230551 177783.49337449053 0 177783.49337449053 177137.79922661214 0 0 0 0 -34188705.653380752 43920261.311307296 0 43920261.311307296 190824461.34142411 0 0 0 0 80688597.17036891 70313131.55077374 0 70313131.55077374 119386414.75644672 0 0 0 0 70712623.981421471 70069856.964208841 0 70069856.964208841 186633329.67781615 0 0 0 0 -9318011.1898443699 73271023.058979288 0 73271023.058979288 377804239.39621711 0 0 0 0 -3542707.9179506302 30189478.246216774 0 30189478.246216774 516428946.90394568 0 0 0 0 -9337211.9171543121 51221554.284684658 0 51221554.284684658 144247208.06536281 0 0 0 0 79882939.845629215 162934825.74609959 0 162934825.74609959 318795331.96003878 0 0 0 0 22062362.88532877 -15305744.336794913 0 -15305744.336794913 268279256.52332783 0 0 0 0 -1805761.9683139594 1962077.2053709875 0 1962077.2053709875 -147891.5061040459 0 0 0 0 131680555.92102432 206858340.56901407 0 206858340.56901407 305086964.10063148 0 0 0 0 -24100010.122746468 106314478.78305435 0 106314478.78305435 -377136930.5265789 0 0 0 0 -373324.55078713014 227819.40881518729 0 227819.40881518729 260379.35493443959 0 0 0 0 12812592.056840897 168373723.95006216 0 168373723.95006216 410530417.83201599 0 0 0 0 7923316.9289764762 109771473.26002747 0 109771473.26002747 -385261480.75578976 0 0 0 0 -3957917.5679368749 320292.23631352698 0 320292.23631352698 830997.55733413855 0 0 0 0 -1629173.9145509424 2239854.1248725345 0 2239854.1248725345 1249801.0724073213 0 0 0 0 -40604536.353392363 136896907.57041788 0 136896907.57041788 -291486556.51335669 0 0 0 0 -45083925.175055861 119050319.06331015 0 119050319.06331015 -362291173.29574299 0 0 0 0 186082662.73999166 73582033.242630333 0 73582033.242630333 29517566.565849304 0 0 0 0 155098277.1877172 155897142.55469486 0 155897142.55469486 -188495273.33706322 0 0 0 0 -939527117.79691291 -536920652.93029404 0 -536920652.93029404 -118695028.58002704 0 0 0 0 -921230198.71960509 -985526196.32918608 0 -985526196.32918608 -421111193.33183885 0 0 0 0 -851478955.67019188 -536375792.85156918 0 -536375792.85156918 -284395127.94053459 0 0 0 0 -1772305.1435758262 -472.55186793196481 0 -472.55186793196481 330927.86047996511 0 0 0 0 -908884550.0957458 -442615409.71691984 0 -442615409.71691984 -74495391.746564999 0 0 0 0 -142494907.35985851 207114429.58871251 0 207114429.58871251 345998124.46155894 0 0 0 0 15963559.865127563 41470079.07743606 0 41470079.07743606 364622082.57266194 0 0 0 0 107928626.25108171 25200663.505781025 0 25200663.505781025 192934991.52400792 0 0 0 0 32182332.132849932 56294069.906861484 0 56294069.906861484 199097161.748124 0 0 0 0 -65134892.144228935 -58042519.179379106 0 -58042519.179379106 234081665.31400731 0 0 0 0 -457150455.99105072 241577640.50850624 0 241577640.50850624 45793422.848973498 0 0 0 0 -279817833.12417364 269733215.39360029 0 269733215.39360029 12776013.179356098 0 0 0 0 -980310.53538131714 103719201.60483286 0 103719201.60483286 30542465.454991236 0 0 0 0 -473527.26894043246 172205.45534623973 0 172205.45534623973 118213.01748500741 0 0 0 0 -13623966.862935662 33490937.238046676 0 33490937.238046676 319350190.09831536 0 0 0 0 -697142723.23475027 -138891819.00493637 0 -138891819.00493637 328201787.85000336 0 0 0 0 -823849110.17611289 -163505268.67125893 0 -163505268.67125893 11844714.880339166 0 0 0 0 -2222069.83095591 1121714.9047577148 0 1121714.9047577148 -43221.771306806986 0 0 0 0 -818385660.7629137 -103958558.31462383 0 -103958558.31462383 522271860.51624525 0 0 0 0 -959007932.47068357 -83614143.914289415 0 -83614143.914289415 -26610460.035983086 0 0 0 0 -550557963.20591354 120388725.09979889 0 120388725.09979889 63518938.629389524 0 0 0 0 -531462124.0174799 87516280.241693377 0 87516280.241693377 117325461.35440317 0 0 0 0 -657107913.82345104 26884247.145009339 0 26884247.145009339 143629802.71449417 0 0 0 0 -1705351.7753238101 936742.34122645797 0 936742.34122645797 203039.3735284851 0 0 0 0 -1575357719.7213855 -171201290.29803699 0 -171201290.29803699 93951419.755096957 0 0 0 0 -1572265911.2598028 116259686.27649312 0 116259686.27649312 280341000.82810956 0 0 0 0 -871653075.08667707 213770325.20801267 0 213770325.20801267 10381265.270739079 0 0 0 0 -1006933955.7911448 20083902.235770792 0 20083902.235770792 158139194.17777312 0 0 0 0 -1287647459.8724091 388840826.75806731 0 388840826.75806731 219293506.23348042 0 0 0 0 -1036041718.0252252 57389032.304884352 0 57389032.304884352 358097597.80680227 0 0 0 0 -1418611488.3458104 -481908177.86556417 0 -481908177.86556417 491057026.78803462 0 0 0 0 -838736376.11142683 -421192848.8910253 0 -421192848.8910253 -187462714.1013062 0 0 0 0 -719001883.58403063 -167258988.76472735 0 -167258988.76472735 -319617657.03417778 0 0 0 0 -1291971718.6690464 389892527.91336012 0 389892527.91336012 -519032029.77938086 0 0 0 0 -750219421.30472517 -495488759.85817242 0 -495488759.85817242 -336506297.60381222 0 0 0 0 -652058139.64762902 -254311610.72172594 0 -254311610.72172594 -347154734.96230793 0 0 0 0 -2707734.14380618 898941.99356598163 0 898941.99356598163 872809.27364081307 0 0 0 0 -807743826.59745991 -462056249.18265319 0 -462056249.18265319 -170853258.31951797 0 0 0 0 -685406961.41350925 -438011643.06317186 0 -438011643.06317186 -286824330.71957779 0 0 0 0 -853473667.66820002 -390123410.09544116 0 -390123410.09544116 -283900263.45479155 0 0 0 0 -178887.77092054801 82067.630957938032 0 82067.630957938032 283665.80390286306 0 0 0 0 -4442384.2791442871 50714326.757387877 0 50714326.757387877 588376827.7112236 0 0 0 0 797897871.32704926 1002593535.7142344 0 1002593535.7142344 1715412269.2095499 0 0 0 0 -1571552510.3067684 66568333.756290786 0 66568333.756290786 852567894.07443523 0 0 0 0 -113325.45761968894 1638910.9446571772 0 1638910.9446571772 -308884.33167033736 0 0 0 0 -152119777.93921268 246491158.55047125 0 246491158.55047125 -392576727.78909016 0 0 0 0 -1026976216.8608131 -210060765.4183349 0 -210060765.4183349 526281917.75529194 0 0 0 0 -108596837.36456037 103486921.11051846 0 103486921.11051846 67752190.804735184 0 0 0 0 25381389.345300972 40575415.502744198 0 40575415.502744198 80675499.158080578 0 0 0 0 -118935767.7755338 100782474.85975718 0 100782474.85975718 88900720.05681324 0 0 0 0 -155431980.207587 161747758.79899526 0 161747758.79899526 50106979.135596871 0 0 0 0 -180328143.53105807 108172790.02695131 0 108172790.02695131 75726158.035463095 0 0 0 0 -171102212.18125767 150760502.79009891 0 150760502.79009891 43449526.864441633 0 0 0 0 -152772015.14746246 46072882.931541204 0 46072882.931541204 51345075.050310135 0 0 0 0 -116887007.01625431 4104317.7060786486 0 4104317.7060786486 100775685.47970867 0 0 0 0 -77715631.430585146 74476480.914782047 0 74476480.914782047 55371893.562671661 0 0 0 0 -43724247.37040925 -62525128.77994442 0 -62525128.77994442 67335161.026370049 0 0 0 0 -73538643.853561401 -84101582.201215029 0 -84101582.201215029 79565143.691255569 0 0 0 0 -111999212.09664583 -21600637.827820301 0 -21600637.827820301 45576942.372303486 0 0 0 0 -60084699.760757208 -87890203.26095295 0 -87890203.26095295 28747868.121180534 0 0 0 0 -71305059.047833204 -73935530.998726368 0 -73935530.998726368 127324762.48623753 0 0 0 0 -11456454.750264168 -96884281.579509258 0 -96884281.579509258 79716451.670073509 0 0 0 0 7810880.5776824951 -99503560.707641602 0 -99503560.707641602 124548205.91735387 0 0 0 0 51133434.874770164 -145688937.54255533 0 -145688937.54255533 171486985.39488506 0 0 0 0 -9528873.2846009731 47379441.56224823 0 47379441.56224823 61880390.954186916 0 0 0 0 -34694889.446994185 -32278775.13374424 0 -32278775.13374424 115301950.88216829 0 0 0 0 17536325.72088933 -20300005.491128445 0 -20300005.491128445 110508657.6333046 0 0 0 0 3546221.3400074989 44666184.263507366 0 44666184.263507366 165988759.2768116 0 0 0 0 103233778.28285909 -89981830.239215136 0 -89981830.239215136 155515533.87408924 0 0 0 0 97628701.476036072 -108438886.96224499 0 -108438886.96224499 396742310.27149963 0 0 0 0 159382074.10015908 -68202755.417741299 0 -68202755.417741299 162482887.00140572 0 0 0 0 25758991.883001797 -149834477.79091614 0 -149834477.79091614 172713461.58908272 0 0 0 0 174728582.14040351 -22584016.786786556 0 -22584016.786786556 213631736.78318405 0 0 0 0 201543332.70781708 -192938343.60230923 0 -192938343.60230923 175263190.07074118 0 0 0 0 66002303.501866817 -247984030.52505493 0 -247984030.52505493 254671540.46166611 0 0 0 0 -30993794.205955744 36095801.995579243 0 36095801.995579243 67956981.551782608 0 0 0 0 15161019.634043694 -107879370.70995808 0 -107879370.70995808 314446138.2677536 0 0 0 0 -175304.12983231555 320368.58684772532 0 320368.58684772532 380860.66533691902 0 0 0 0 448815609.6148898 -337422626.4095459 0 -337422626.4095459 197166692.63914108 0 0 0 0 305554207.62849426 -303668391.79327774 0 -303668391.79327774 339221540.77718163 0 0 0 0 157356809.98458347 -140485656.18255568 0 -140485656.18255568 223324877.72863197 0 0 0 0 424148273.17023313 -197791869.32506239 0 -197791869.32506239 112426886.68534088 0 0 0 0 72831378.665160209 -63539704.586222649 0 -63539704.586222649 142505011.67985511 0 0 0 0 83798303.283412158 -55066593.839149237 0 -55066593.839149237 34826432.154085159 0 0 0 0 -45208592.538815498 4466650.3458156586 0 4466650.3458156586 120282705.44488621 0 0 0 0 177949502.77413505 -130911116.18334198 0 -130911116.18334198 155811242.81957817 0 0 0 0 41480807.159434497 -2707945.8972253799 0 -2707945.8972253799 190528688.5835433 0 0 0 0 -88035156.761025667 75720276.215458393 0 75720276.215458393 127876027.58548069 0 0 0 0 56572190.947985977 -1468465.0649814606 0 -1468465.0649814606 67960398.333517075 0 0 0 0 -75086506.71818912 110437199.30356407 0 110437199.30356407 20004197.133095741 0 0 0 0 -160944084.39147615 77037083.308931351 0 77037083.308931351 72213998.71812439 0 0 0 0 -33656313.837083936 34786577.467136383 0 34786577.467136383 -25670804.745541573 0 0 0 0 -126312903.25489883 7598777.4648998976 0 7598777.4648998976 47883319.440706253 0 0 0 0 -116950784.36807853 35709696.602846384 0 35709696.602846384 -136596939.53818321 0 0 0 0 -283333827.26189661 123380678.77724552 0 123380678.77724552 -7847737.5748920441 0 0 0 0 -315623345.01950669 63973830.05428648 0 63973830.05428648 -24472163.821907043 0 0 0 0 -440939069.59140491 176062027.17355824 0 176062027.17355824 -98868300.603934288 0 0 0 0 -562107936.0180912 160149516.62161064 0 160149516.62161064 -73317444.013492584 0 0 0 0 -247003203.4111712 41261058.362997293 0 41261058.362997293 -222889876.24416351 0 0 0 0 -902053330.04305696 162734713.58913946 0 162734713.58913946 -24562204.883893967 0 0 0 0 -777948055.6069355 111328186.98507309 0 111328186.98507309 -38911970.611175537 0 0 0 0 -612668507.49297094 18691374.644374847 0 18691374.644374847 -99648480.900291443 0 0 0 0 -16487.120946836891 995817.09599033766 0 995817.09599033766 -443731.80518792849 0 0 0 0 24589443.501917124 -71351270.071069539 0 -71351270.071069539 -138974050.32203484 0 0 0 0 -21011.811986436136 56707.985235837288 0 56707.985235837288 65195.852676942595 0 0 0 0 -430740063.97131252 46662347.396345139 0 46662347.396345139 -109658768.90666723 0 0 0 0 -737318982.96110392 -82213467.607748985 0 -82213467.607748985 44052214.939220428 0 0 0 0 -1448135.3526483038 573375.46931852191 0 573375.46931852191 3932798.7163057071 0 0 0 0 -442669323.61755085 34196650.208073616 0 34196650.208073616 31379121.553470612 0 0 0 0 -423716805.78715181 15552164.507803202 0 15552164.507803202 34559560.367990494 0 0 0 0 -5551456.1345496178 -16676676.023715615 0 -16676676.023715615 47196767.715313196 0 0 0 0 -183264554.94609043 129783603.72132134 0 129783603.72132134 6780592.6341838837 0 0 0 0 -160756358.00702932 105907759.36827451 0 105907759.36827451 -31514353.072927475 0 0 0 0 -283718748.27155542 90953432.057238579 0 90953432.057238579 39860941.262455463 0 0 0 0 -312746474.37786889 136076790.02207708 0 136076790.02207708 -8748637.159362793 0 0 0 0 20174039.612822384 -7333844.3642110825 0 -7333844.3642110825 -35370433.68875885 0 0 0 0 -57454529.806531549 15555975.992189407 0 15555975.992189407 -6286584.4062261581 0 0 0 0 -1788726.1886360832 2963554.3661294268 0 2963554.3661294268 643513.16244645289 0 0 0 0 11748563.049954414 -711560.49809908867 0 -711560.49809908867 -4870273.6892075241 0 0 0 0 19338159.714163817 30571137.026895106 0 30571137.026895106 -88248500.129570007 0 0 0 0 -8158107.0541157722 8293551.3745814562 0 8293551.3745814562 -4108009.782798335 0 0 0 0 -11396772.011573315 17712340.952840686 0 17712340.952840686 51111496.768518567 0 0 0 0 -66624244.897594452 39338236.598840117 0 39338236.598840117 88016418.25191468 0 0 0 0 53682208.313951015 -113392759.36450571 0 -113392759.36450571 -29224280.988618851 0 0 0 0 19451008.246813774 -78660839.865790129 0 -78660839.865790129 122991564.11075372 0 0 0 0 101827187.1776371 -41732292.838716149 0 -41732292.838716149 -27093079.087949753 0 0 0 0 7886784.5777407885 -36329735.342082888 0 -36329735.342082888 6101985.9320709705 0 0 0 0 44175177.025033712 -46280776.128861189 0 -46280776.128861189 14549642.751131058 0 0 0 0 22643628.485809088 21216647.495084882 0 21216647.495084882 -119986249.03390646 0 0 0 0 -49854807.263859987 -60535268.543254286 0 -60535268.543254286 -205493380.14168334 0 0 0 0 -243387743.54536462 133265318.33304787 0 133265318.33304787 52128210.668720245 0 0 0 0 -235903320.19122106 75400539.250000656 0 75400539.250000656 35088164.168107986 0 0 0 0 -733336.01758212154 333734.90279236739 0 333734.90279236739 2524033.0247402992 0 0 0 0 -243902985.59140587 53591134.452526093 0 53591134.452526093 218727.97416067123 0 0 0 0 -150520988.29521608 63420152.69349575 0 63420152.69349575 20217161.448816061 0 0 0 0 -142993122.93680644 149186342.6159215 0 149186342.6159215 33858002.103267193 0 0 0 0 -176617628.04302168 131718584.90087056 0 131718584.90087056 25144719.375458717 0 0 0 0 -322047.34809996001 411004.18627441209 0 411004.18627441209 1217345.8218536708 0 0 0 0 -6620489.5780649185 107484524.67436445 0 107484524.67436445 -12489113.059169054 0 0 0 0 4841351.8950710297 41062113.916845679 0 41062113.916845679 47975056.179489136 0 0 0 0 253039505.27592182 73837892.382576883 0 73837892.382576883 -99452109.697446585 0 0 0 0 -84575.794630627031 251921.51631305774 0 251921.51631305774 320343.60726344213 0 0 0 0 -71813978.510614395 162797824.42055011 0 162797824.42055011 -50070195.339048862 0 0 0 0 -112973769.49761826 113197494.03905499 0 113197494.03905499 -19697365.88738203 0 0 0 0 -155309138.94034243 223690983.23118663 0 223690983.23118663 -135418967.60799167 0 0 0 0 164049194.39226165 35754779.478103831 0 35754779.478103831 -125649287.90103292 0 0 0 0 -4395931.264146328 91608528.275267482 0 91608528.275267482 -10665460.64215374 0 0 0 0 -52620191.312618732 83032510.377513289 0 83032510.377513289 36315032.454350471 0 0 0 0 -46091709.11750865 93347371.666075349 0 93347371.666075349 -2274541.8907711506 0 0 0 0 -186466922.0969696 83546462.250123441 0 83546462.250123441 79682497.350837469 0 0 0 0 -169647489.70693636 132805123.85246623 0 132805123.85246623 29967041.545352936 0 0 0 0 -83092793.018887997 69317988.040145338 0 69317988.040145338 37342816.379239082 0 0 0 0 -120527711.42287636 101062877.34478593 0 101062877.34478593 26257534.054724455 0 0 0 0 17891269.862858772 -8333437.256600976 0 -8333437.256600976 -61984343.671503812 0 0 0 0 -130424590.93874121 74142330.591105402 0 74142330.591105402 -41435472.992078692 0 0 0 0 -59885807.281046867 84774569.901591659 0 84774569.901591659 -185939867.011338 0 0 0 0 -34057143.863544464 18421720.648103237 0 18421720.648103237 -21076421.179702103 0 0 0 0 -89580745.663802862 -4579009.3861547709 0 -4579009.3861547709 -102340917.06239462 0 0 0 0 57817809.364653349 134927243.11068821 0 134927243.11068821 -11489198.195252895 0 0 0 0 -35137379.9736377 -68966277.741404474 0 -68966277.741404474 -44401359.251959801 0 0 0 0 -5049459.5855128765 -77236584.60530366 0 -77236584.60530366 -262538958.01387894 0 0 0 0 4650253.4465670101 -82000313.047301441 0 -82000313.047301441 -388542048.48104882 0 0 0 0 -161241958.63396776 -47183381.926855087 0 -47183381.926855087 -254834437.18558055 0 0 0 0 -219614880.81297445 87357947.794981062 0 87357947.794981062 -564151087.67281103 0 0 0 0 -273334787.01845932 -193961330.04450881 0 -193961330.04450881 -354854243.09113169 0 0 0 0 -407198157.05293208 2049433.2669023871 0 2049433.2669023871 -389488992.83963883 0 0 0 0 -303468999.23530376 82204469.850930452 0 82204469.850930452 -161249487.32681155 0 0 0 0 -344242185.25900036 194526276.37684003 0 194526276.37684003 -440770118.24344361 0 0 0 0 -119031360.11682367 87724652.786509037 0 87724652.786509037 -388338465.17602992 0 0 0 0 -198249172.72621036 172838301.16750956 0 172838301.16750956 -52530039.520626783 0 0 0 0 -204364391.75866461 108201125.1794225 0 108201125.1794225 -73211161.806136131 0 0 0 0 -291013341.44237185 197158234.89970946 0 197158234.89970946 -164498382.67468747 0 0 0 0 -354488314.7473762 50976770.241329134 0 50976770.241329134 -68307806.947439194 0 0 0 0 -306205646.15064901 105385289.53723526 0 105385289.53723526 -28038960.054394245 0 0 0 0 -241808295.19159552 57488062.220985413 0 57488062.220985413 7535311.1935977936 0 0 0 0 -243772705.03471532 175900777.09200063 0 175900777.09200063 -14470690.231019974 0 0 0 0 -178046297.9526906 129729812.96828818 0 129729812.96828818 17945941.393669128 0 0 0 0 -175887191.70949256 173078432.19441175 0 173078432.19441175 17269766.347871542 0 0 0 0 -134907458.2348671 -104563586.76455617 0 -104563586.76455617 -59155547.738438606 0 0 0 0 -194567790.654562 -48861894.29929924 0 -48861894.29929924 -10446895.928360566 0 0 0 0 -134833794.21213341 -93632711.494579077 0 -93632711.494579077 -21278745.474957466 0 0 0 0 -67827245.846117496 -101064305.37326026 0 -101064305.37326026 -22688926.952709198 0 0 0 0 -119022906.05953097 -60731215.486366272 0 -60731215.486366272 -9911149.8909358978 0 0 0 0 -130301791.45035028 -62857251.069898129 0 -62857251.069898129 24361458.991243362 0 0 0 0 -178335354.98063135 -38618879.629340172 0 -38618879.629340172 42870749.29613781 0 0 0 0 -229292710.03924531 82608972.661726475 0 82608972.661726475 36238369.223291874 0 0 0 0 -142530923.93479276 -261378.42282319069 0 -261378.42282319069 1899177.3692846298 0 0 0 0 -185831528.71426249 -55882158.129184961 0 -55882158.129184961 -62522948.509078979 0 0 0 0 -272095537.6298871 16084443.407372475 0 16084443.407372475 -157772.33052647114 0 0 0 0 -286495813.40202498 -37688081.717991829 0 -37688081.717991829 -62717576.276662827 0 0 0 0 -283634302.35792345 -4349491.4815359116 0 -4349491.4815359116 -32697981.403131485 0 0 0 0 -387889832.46804678 53625929.145589232 0 53625929.145589232 -60242988.523538828 0 0 0 0 -335344433.48853016 73483521.790311098 0 73483521.790311098 -155211219.61342001 0 0 0 0 -330116426.68234408 -95598908.456341386 0 -95598908.456341386 -135072136.79773641 0 0 0 0 -249312440.80832005 -150009020.03935099 0 -150009020.03935099 -136594825.04005861 0 0 0 0 -155485816.51679325 -149686916.57562017 0 -149686916.57562017 -208936189.27635717 0 0 0 0 -191712631.04816341 -80782910.506626844 0 -80782910.506626844 -64244451.863218307 0 0 0 0 -116607593.42815006 -111439556.24589252 0 -111439556.24589252 -97265539.964250565 0 0 0 0 -116276954.39909601 -117161811.81412274 0 -117161811.81412274 -182882621.99209738 0 0 0 0 -292336711.05223393 -242916520.10754761 0 -242916520.10754761 -384427241.93606693 0 0 0 0 -229838796.18955278 -118845759.67548785 0 -118845759.67548785 -202632327.61306953 0 0 0 0 -76423739.908546925 -106582399.53275728 0 -106582399.53275728 -384614122.97025496 0 0 0 0 -588842524.97722793 76596439.400177658 0 76596439.400177658 -155210370.8976419 0 0 0 0 -530032390.33458573 -60878947.034549296 0 -60878947.034549296 -140757613.72737771 0 0 0 0 -977893030.42266452 112427423.67280641 0 112427423.67280641 -260154099.91422313 0 0 0 0 -465969755.74582219 -10251902.937620401 0 -10251902.937620401 -243567183.82696664 0 0 0 0 -7456723.3364784718 4257647.4506090283 0 4257647.4506090283 -450934595.42513394 0 0 0 0 -444576511.74153346 172871614.36281708 0 172871614.36281708 -979392756.99455488 0 0 0 0 -429560100.2397911 -364582226.90326262 0 -364582226.90326262 -712401433.3545593 0 0 0 0 -940377668.89649153 -308305252.90851754 0 -308305252.90851754 -509448643.43391591 0 0 0 0 -54095999.140049458 -67802206.790503979 0 -67802206.790503979 -426690969.37694359 0 0 0 0 -185664096.68612158 -54742838.123733401 0 -54742838.123733401 -437850832.77302527 0 0 0 0 -183761186.01421094 -70514821.677729249 0 -70514821.677729249 -310675637.45165622 0 0 0 0 -22977310.456018448 97455849.328190804 0 97455849.328190804 -420472485.50472879 0 0 0 0 -34259856.412552834 52536787.713585138 0 52536787.713585138 -261397097.18309879 0 0 0 0 18691650.676426888 10587390.358804345 0 10587390.358804345 -309562818.29974961 0 0 0 0 -20427001.992606401 81542446.735712528 0 81542446.735712528 -250564754.64458752 0 0 0 0 -37155144.757020354 4336321.6413032115 0 4336321.6413032115 -277620066.605057 0 0 0 0 39919449.493927002 -39883930.75907293 0 -39883930.75907293 -236575156.64388293 0 0 0 0 15561135.705274582 9602040.7361844778 0 9602040.7361844778 -220696303.23427963 0 0 0 0 58370593.957975388 4677347.8549275398 0 4677347.8549275398 -175303247.78921008 0 0 0 0 56581331.603704453 139769.4982945919 0 139769.4982945919 -185125114.43497241 0 0 0 0 76719241.884625435 -35677307.298457742 0 -35677307.298457742 -177570763.50294471 0 0 0 0 43202744.957422256 24960063.880146861 0 24960063.880146861 -228048508.249053 0 0 0 0 57299542.116379261 -12592871.852498673 0 -12592871.852498673 -195366198.85144603 0 0 0 0 63102614.453732491 -71197901.255216002 0 -71197901.255216002 -180270746.67717624 0 0 0 0 48203496.2993927 -79838770.401895091 0 -79838770.401895091 -184165699.05288231 0 0 0 0 15762025.084723473 -62877540.826887906 0 -62877540.826887906 -164201265.00274563 0 0 0 0 640746.63986778259 -98425384.236599326 0 -98425384.236599326 -246978467.99550164 0 0 0 0 -29985429.806477547 -64447549.698012829 0 -64447549.698012829 -221732196.00892901 0 0 0 0 -76919515.108788073 -97908484.586338907 0 -97908484.586338907 -236228421.30358666 0 0 0 0 605779.44381427765 -62360586.717020541 0 -62360586.717020541 -340424045.45518744 0 0 0 0 12400483.934511185 -24874821.985282578 0 -24874821.985282578 -221698908.9223946 0 0 0 0 43445846.449944913 -51851280.659964785 0 -51851280.659964785 -171275221.33375406 0 0 0 0 116985261.28294754 -30349105.121331573 0 -30349105.121331573 -172207119.91569558 0 0 0 0 88679023.573849678 -18756223.244170785 0 -18756223.244170785 -156248515.70247287 0 0 0 0 93137622.781775475 -48996370.060374215 0 -48996370.060374215 -114276957.26859093 0 0 0 0 60079834.834710121 -78374906.05933702 0 -78374906.05933702 -91683133.058326006 0 0 0 0 78999332.283460617 -36383747.387930416 0 -36383747.387930416 -56328068.088134006 0 0 0 0 102268958.11419487 -10221674.131845519 0 -10221674.131845519 -115738683.56250311 0 0 0 0 105170988.68245405 -83180266.778330535 0 -83180266.778330535 -205962172.27791476 0 0 0 0 89861330.447553158 -141755842.96297842 0 -141755842.96297842 100269643.33874536 0 0 0 0 132306157.70363617 -72079134.73822701 0 -72079134.73822701 -71493567.141675651 0 0 0 0 96175600.173360825 -156504041.11685562 0 -156504041.11685562 -2890435.813252449 0 0 0 0 75320581.567983627 -74606531.18184042 0 -74606531.18184042 5078957.6075870991 0 0 0 0 89347579.386085987 -83163253.62152648 0 -83163253.62152648 -104822594.52333355 0 0 0 0 69462263.863387108 -123490330.4823091 0 -123490330.4823091 -6426331.9978237152 0 0 0 0 72330011.767713547 -164326535.00891018 0 -164326535.00891018 11928568.818077087 0 0 0 0 82815607.980523109 -147169481.44361401 0 -147169481.44361401 31476701.930328846 0 0 0 0 88233953.254325867 -153819517.1631012 0 -153819517.1631012 12689792.115372956 0 0 0 0 139403451.72686428 -97981322.372999847 0 -97981322.372999847 26920232.532326221 0 0 0 0 140550354.18028831 -126208785.57077765 0 -126208785.57077765 9233929.3435168266 0 0 0 0 -886084.84635829926 -129120642.94255114 0 -129120642.94255114 -112112598.71829057 0 0 0 0 -8117542.6630373001 -133948242.26228142 0 -133948242.26228142 -51925885.720527649 0 0 0 0 -46482543.069095135 -141633638.14657712 0 -141633638.14657712 -202525970.91447687 0 0 0 0 -29299550.448158264 -99064245.617594361 0 -99064245.617594361 -97110686.144816935 0 0 0 0 22221827.383973598 -113572168.8140015 0 -113572168.8140015 -196382629.10299945 0 0 0 0 26193851.828388214 -84029034.414658308 0 -84029034.414658308 -95088882.650986671 0 0 0 0 35675816.600609779 -109786098.42175603 0 -109786098.42175603 -48045921.151519537 0 0 0 0 53396516.358119965 -117807346.7454958 0 -117807346.7454958 -120481520.46450472 0 0 0 0 34991711.570417881 -118369730.45843402 0 -118369730.45843402 -50128481.75755024 0 0 0 0 32914646.295837402 -150959492.96963978 0 -150959492.96963978 -9805567.7257494926 0 0 0 0 74881285.181858063 -133382912.43562889 0 -133382912.43562889 -61422248.55556798 0 0 0 0 70150137.256303787 -164483960.94389915 0 -164483960.94389915 19359644.108336926 0 0 0 0 60266951.152784586 -133588967.86154711 0 -133588967.86154711 1195793.5465993881 0 0 0 0 4487583.6499853134 -147220357.63521528 0 -147220357.63521528 4156183.5399284363 0 0 0 0 -11447897.045669079 -108137060.14385438 0 -108137060.14385438 13843552.359460831 0 0 0 0 -55664153.253623962 -120643379.0501442 0 -120643379.0501442 -108421554.20224762 0 0 0 0 -56518015.718636513 -107314391.58746505 0 -107314391.58746505 -38190571.163772583 0 0 0 0 -75131168.663392067 -95026162.892029524 0 -95026162.892029524 23833663.857918739 0 0 0 0 -19360362.70126915 -131544942.04899359 0 -131544942.04899359 -40054125.101765275 0 0 0 0 -17209979.373257637 -108901723.19788074 0 -108901723.19788074 23008051.466241866 0 0 0 0 -27903317.394004822 -110943810.04606295 0 -110943810.04606295 74374656.358991623 0 0 0 0 18314086.211273193 -130431605.51929951 0 -130431605.51929951 18815302.22691226 0 0 0 0 11261414.71837759 -136552680.05452633 0 -136552680.05452633 59170634.523159027 0 0 0 0 10590785.107007027 -122836378.94473743 0 -122836378.94473743 124970422.28898811 0 0 0 0 -27240615.215077877 -111500974.43189955 0 -111500974.43189955 141361355.13642311 0 0 0 0 22693443.459803581 -114874998.13782406 0 -114874998.13782406 74163268.946349829 0 0 0 0 -3552885.7315784693 -156213304.14530492 0 -156213304.14530492 207595476.87825584 0 0 0 0 3592228.9956197739 -113881839.82618618 0 -113881839.82618618 138433736.07994127 0 0 0 0 -3182660.2044792175 -120817843.41235018 0 -120817843.41235018 203883292.12250137 0 0 0 0 68680055.269868851 -113610631.83927345 0 -113610631.83927345 126242473.55879879 0 0 0 0 -32480640.483456612 -143007335.82353306 0 -143007335.82353306 276573436.38288021 0 0 0 0 19571277.885076523 -102927815.14532471 0 -102927815.14532471 213517885.72268581 0 0 0 0 29457776.840064287 -69154994.648159504 0 -69154994.648159504 280847207.28129387 0 0 0 0 -22612534.879201889 -94685776.375837326 0 -94685776.375837326 281675602.83819813 0 0 0 0 -21725852.35940361 -105404553.8562851 0 -105404553.8562851 320115591.38510704 0 0 0 0 -33163566.50321579 -153810343.03462505 0 -153810343.03462505 219493512.6439209 0 0 0 0 119328593.85130858 -117393109.86193824 0 -117393109.86193824 238142111.72148895 0 0 0 0 136037790.80569649 -163835231.85252452 0 -163835231.85252452 192385008.11064529 0 0 0 0 61567420.328464508 -148740420.53658867 0 -148740420.53658867 283117301.26851273 0 0 0 0 76355800.37638855 -144743196.30270386 0 -144743196.30270386 283816621.89671659 0 0 0 0 285591552.97024536 -196101612.73508358 0 -196101612.73508358 263981996.53582191 0 0 0 0 101558308.25471306 -153603639.72766304 0 -153603639.72766304 205719480.79314613 0 0 0 0 55698521.80619812 -109097171.07826805 0 -109097171.07826805 169490281.33285755 0 0 0 0 154345339.00484562 -96471296.136502266 0 -96471296.136502266 170131910.97684097 0 0 0 0 116006563.85234833 -137889220.63034534 0 -137889220.63034534 109836346.78728676 0 0 0 0 81044778.583942413 -160995706.67659569 0 -160995706.67659569 145761848.69337654 0 0 0 0 127521552.11706161 -137592129.16607857 0 -137592129.16607857 154115559.0383625 0 0 0 0 81435791.329612732 -155783727.09073544 0 -155783727.09073544 191507593.38315201 0 0 0 0 89434415.439496994 -138694863.88769054 0 -138694863.88769054 109879560.21842098 0 0 0 0 68492231.033344507 -157496970.31008029 0 -157496970.31008029 77827926.030347824 0 0 0 0 85977709.299627304 -165195808.46714342 0 -165195808.46714342 80114817.271331787 0 0 0 0 60731649.655215263 -116342565.05385542 0 -116342565.05385542 67259984.068518639 0 0 0 0 57228402.275696754 -151156461.24404669 0 -151156461.24404669 82070187.669454575 0 0 0 0 78277045.548860788 -126510865.87671375 0 -126510865.87671375 107016656.3880558 0 0 0 0 47353882.557138443 -127581522.77078438 0 -127581522.77078438 13153543.082126617 0 0 0 0 37328130.032356739 -146436294.95804834 0 -146436294.95804834 40213694.170164108 0 0 0 0 74416556.336442947 -136994998.71364689 0 -136994998.71364689 42570327.525350571 0 0 0 0 76545600.531301498 -144497397.36808729 0 -144497397.36808729 37223558.700535774 0 0 0 0 76372369.582462311 -168907225.64496088 0 -168907225.64496088 51292583.387785435 0 0 0 0 61319680.260372162 -142073355.8589859 0 -142073355.8589859 78621508.590252876 0 0 0 0 61639317.122597694 -138608745.6864748 0 -138608745.6864748 95197849.082754135 0 0 0 0 119010181.16565895 -122008248.03989553 0 -122008248.03989553 44072904.096489906 0 0 0 0 50951120.750301361 -113899186.16002989 0 -113899186.16002989 46950463.702805877 0 0 0 0 5797898.6734049916 -16851482.198267043 0 -16851482.198267043 25189992.703725815 0 0 0 0 12062492.77050972 -75311148.046292305 0 -75311148.046292305 135370534.48727751 0 0 0 0 17940413.30911541 -64458622.324536324 0 -64458622.324536324 124434051.28947067 0 0 0 0 70002229.509690285 -163047648.55073452 0 -163047648.55073452 140973506.19217873 0 0 0 0 38495216.531621933 -132606579.54745674 0 -132606579.54745674 153935108.3190937 0 0 0 0 74119659.6317873 -162327690.65550613 0 -162327690.65550613 98577007.817943573 0 0 0 0 87384850.585514069 -154684888.66978645 0 -154684888.66978645 134427568.62908554 0 0 0 0 43234663.318626404 -119139171.69223309 0 -119139171.69223309 89021536.095075369 0 0 0 0 48023789.861299515 -151820124.8628273 0 -151820124.8628273 186053578.10954094 0 0 0 0 61625191.326438904 -143875815.49548912 0 -143875815.49548912 182735502.74953079 0 0 0 0 3432096.418006897 -72052616.607376099 0 -72052616.607376099 230531282.10991859 0 0 0 0 -26320043.321369171 -55505206.1587677 0 -55505206.1587677 274910659.17162704 0 0 0 0 35160253.870721817 -147769012.16239357 0 -147769012.16239357 384894669.28731918 0 0 0 0 7945592.7651519775 -84907936.317882538 0 -84907936.317882538 240945661.7801857 0 0 0 0 -30490978.802574158 -68853201.368989944 0 -68853201.368989944 386032472.41544342 0 0 0 0 -30243564.630954742 -68319774.721446991 0 -68319774.721446991 380440803.55447388 0 0 0 0 -12302359.305633664 -3206800.2586522363 0 -3206800.2586522363 1821914.1655016197 0 0 0 0 -14394202.911846161 -914066.27327775955 0 -914066.27327775955 -917120.28750610352 0 0 0 0 -11570411.825107574 -8508478.6706209183 0 -8508478.6706209183 5102129.4809474945 0 0 0 0 -12384546.717269897 -7140873.2627716064 0 -7140873.2627716064 7234813.2900600433 0 0 0 0 -30267152.172543526 -3541014.332549572 0 -3541014.332549572 46028277.721004486 0 0 0 0 -30264021.771751404 -1528379.2262125015 0 -1528379.2262125015 16122096.873966217 0 0 0 0 -12060189.495817184 -37663367.00822854 0 -37663367.00822854 14084600.796573639 0 0 0 0 -20973074.245018005 -15385785.590267181 0 -15385785.590267181 28762295.65801239 0 0 0 0 -24379515.054691315 -57800158.699655294 0 -57800158.699655294 -1572709.9538421631 0 0 0 0 -12299968.809158325 -10055959.885361195 0 -10055959.885361195 3031485.741191864 0 0 0 0 -14010877.375450134 -9170913.3714351654 0 -9170913.3714351654 6043173.5864396095 0 0 0 0 -5325196.030796051 -13466890.481898308 0 -13466890.481898308 4402939.4517364502 0 0 0 0 -3763838.7781562805 -7717831.6807518005 0 -7717831.6807518005 -1230956.4824738503 0 0 0 0 -9954038.6236448288 -5364382.4221758842 0 -5364382.4221758842 1839074.1481399536 0 0 0 0 -112516026.65814781 261915713.30156994 0 261915713.30156994 37373548.81537205 0 0 0 0 -165444191.03283954 -58132397.900126696 0 -58132397.900126696 550314.82625961304 0 0 0 0 14298592.519156456 -125899561.44463539 0 -125899561.44463539 140801034.46566772 0 0 0 0 -272716.72108619288 -416909.58714588382 0 -416909.58714588382 -503950.773640275 0 0 0 0 32550717.003078461 -202804222.78780603 0 -202804222.78780603 204596698.85935402 0 0 0 0 -35655337.331401825 -289536086.80292702 0 -289536086.80292702 94307245.041811466 0 0 0 0 -68783259.463733673 -257036164.62176991 0 -257036164.62176991 223705553.58760214 0 0 0 0 23571623.982758328 -205531479.18655682 0 -205531479.18655682 251591794.67728806 0 0 0 0 -222883035.20158195 -345673103.84020042 0 -345673103.84020042 240870665.84733582 0 0 0 0 -89697596.591134071 -205713633.08891153 0 -205713633.08891153 382120387.03183937 0 0 0 0 -320779124.99844742 -96322908.004905462 0 -96322908.004905462 564296624.30245209 0 0 0 0 225628849.09777641 72267333.116189003 0 72267333.116189003 369700825.31221771 0 0 0 0 -8276644.2460738737 -5128205.0762972897 0 -5128205.0762972897 -1016733.9264505738 0 0 0 0 27616460.540239811 -176105182.33948183 0 -176105182.33948183 -113842923.65719986 0 0 0 0 259451084.75263023 96031748.988325119 0 96031748.988325119 80356190.481554031 0 0 0 0 122187561.47065163 -226042061.69701767 0 -226042061.69701767 416690282.22621155 0 0 0 0 28947807.841915131 -173443612.56340027 0 -173443612.56340027 486391089.09374714 0 0 0 0 1019006.3805590603 -2974963.5668019503 0 -2974963.5668019503 -642361.64678064722 0 0 0 0 -338608643.77727509 194132600.53074646 0 194132600.53074646 -23558645.415697098 0 0 0 0 -200015309.43708801 105910941.0317955 0 105910941.0317955 27034927.479014397 0 0 0 0 -35166286.460212708 287745005.65438461 0 287745005.65438461 3855956.5634412766 0 0 0 0 -732913360.07966614 287912306.16847229 0 287912306.16847229 190100363.69295502 0 0 0 0 -824767889.68320465 96650828.705705643 0 96650828.705705643 261783282.73732251 0 0 0 0 -437376167.74119186 64358689.676969528 0 64358689.676969528 164532219.34144402 0 0 0 0 -522525437.27869415 50380213.494479179 0 50380213.494479179 263401031.80431756 0 0 0 0 -471964922.5223999 237396410.69927311 0 237396410.69927311 196721981.66838217 0 0 0 0 -384020334.11806488 185140766.84338236 0 185140766.84338236 112183679.91472626 0 0 0 0 -402930753.41245651 100636527.76475811 0 100636527.76475811 72799675.844608784 0 0 0 0 -397623054.44540024 119590872.1652832 0 119590872.1652832 95742003.823993683 0 0 0 0 -254533445.14473724 -22850984.244514942 0 -22850984.244514942 191820954.51409912 0 0 0 0 -456588206.17445755 163039177.01783133 0 163039177.01783133 281449.0784444809 0 0 0 0 -717249199.1913147 -43553403.402863503 0 -43553403.402863503 109932603.92855453 0 0 0 0 -435377471.84669471 47521395.163376451 0 47521395.163376451 116034813.94312286 0 0 0 0 -435027933.76984406 147137492.44373226 0 147137492.44373226 133501169.68950129 0 0 0 0 -61087560.986846924 -103323622.3314805 0 -103323622.3314805 -10102309.056083679 0 0 0 0 -344345722.28274536 24555153.445861816 0 24555153.445861816 109806957.21154404 0 0 0 0 -427287325.27398682 -210884415.40881157 0 -210884415.40881157 61897305.681190491 0 0 0 0 -475078961.81582642 -194385777.87903214 0 -194385777.87903214 57049897.002996445 0 0 0 0 -467693036.129776 -182069979.6819334 0 -182069979.6819334 77568823.264719009 0 0 0 0 -914981466.93281555 -255773672.74180889 0 -255773672.74180889 68019060.028292656 0 0 0 0 -617356.080896236 -377530.59308659658 0 -377530.59308659658 207264.12884967681 0 0 0 0 -169655435.27120972 -129895707.77246284 0 -129895707.77246284 -48735824.844180107 0 0 0 0 -95149979.142211914 206559909.00204849 0 206559909.00204849 558312788.72251129 0 0 0 0 -182174884.41604614 -312435241.69141436 0 -312435241.69141436 129085761.89020348 0 0 0 0 -158565107.6085968 -319846054.36836433 0 -319846054.36836433 9080169.749420166 0 0 0 0 -334593132.95578766 -272738902.1399107 0 -272738902.1399107 157725680.07295609 0 0 0 0 -388457167.14769745 -375361343.2185998 0 -375361343.2185998 -34390060.312015533 0 0 0 0 -112449214.13301086 30302301.230010986 0 30302301.230010986 382417007.19836044 0 0 0 0 -76025232.262214661 -87820863.025402069 0 -87820863.025402069 112303969.97332191 0 0 0 0 -70669674.379875183 -54661767.953214645 0 -54661767.953214645 304414389.97567892 0 0 0 0 17502570.890664577 -855861336.0298568 0 -855861336.0298568 -52384772.617492676 0 0 0 0 -23357112.051521301 24959680.558706284 0 24959680.558706284 200266964.87742805 0 0 0 0 -24192605.049720764 14111394.015984535 0 14111394.015984535 59411638.377950668 0 0 0 0 14390820.106819153 18642527.821528435 0 18642527.821528435 -21233828.657103539 0 0 0 0 -2759496.6292507686 -190892.81237826869 0 -190892.81237826869 1450616.6402644971 0 0 0 0 -11623649.13642082 -2513471.5441640415 0 -2513471.5441640415 2032289.2061430381 0 0 0 0 12307007.61322403 38315809.767869473 0 38315809.767869473 74769953.709875107 0 0 0 0 -152338261.09695435 -277798993.53638458 0 -277798993.53638458 227398921.97359085 0 0 0 0 185647886.85272026 -13057025.795712948 0 -13057025.795712948 -121208030.24544716 0 0 0 0 -99752587.98759079 -34517279.679161072 0 -34517279.679161072 -2895532.3941745758 0 0 0 0 -18698681.086936951 -20335301.437101364 0 -20335301.437101364 -50426543.418395996 0 0 0 0 -8225595.6380259059 -2543717.7275793389 0 -2543717.7275793389 1690676.9962320311 0 0 0 0 12650147.065073013 -36664419.842428207 0 -36664419.842428207 44697740.389156818 0 0 0 0 -5270518.8619005457 655172.77045134269 0 655172.77045134269 3654294.8798516984 0 0 0 0 173282554.75718498 -84115703.056047916 0 -84115703.056047916 9171013.9438265562 0 0 0 0 93615427.237131119 -63198945.237390637 0 -63198945.237390637 5956104.7513036728 0 0 0 0 -209731977.45563126 -84023823.242873192 0 -84023823.242873192 10442327.211080551 0 0 0 0 -118244356.61948204 -71661654.557320833 0 -71661654.557320833 -28611840.55964613 0 0 0 0 -192646009.96710205 -100796245.25388288 0 -100796245.25388288 6146937.8990592957 0 0 0 0 -329564482.06364441 -187571463.6908989 0 -187571463.6908989 109434103.83264828 0 0 0 0 -308770205.2154274 -126794079.43824196 0 -126794079.43824196 62179453.871753216 0 0 0 0 -330573836.00220871 -210679040.0159235 0 -210679040.0159235 47304004.765213013 0 0 0 0 -253300109.09661102 -199669557.64208937 0 -199669557.64208937 -17788570.341104507 0 0 0 0 -431607426.32705307 361602161.22354698 0 361602161.22354698 68938146.231598854 0 0 0 0 -4698846.0186920166 -90988384.69631958 0 -90988384.69631958 -330370292.61194801 0 0 0 0 -2996834.7485559359 -880203.0352486237 0 -880203.0352486237 431292.97546676523 0 0 0 0 -321136259.56729889 -316577867.43626976 0 -316577867.43626976 -73871093.693851471 0 0 0 0 -87745323.541210175 -453507753.44262981 0 -453507753.44262981 -1021590125.3262081 0 0 0 0 -346826829.43676949 -265910937.66407537 0 -265910937.66407537 111870535.56772995 0 0 0 0 230520735.37794876 -507745026.81482029 0 -507745026.81482029 -2197032200.6581001 0 0 0 0 -599705646.57855225 -906209514.94801521 0 -906209514.94801521 -538532701.1839962 0 0 0 0 -1484447933.2222748 -894833095.35696888 0 -894833095.35696888 1055236900.0073395 0 0 0 0 104117138.92853665 78214141.622081757 0 78214141.622081757 74784176.710727692 0 0 0 0 -9892792.0584163442 9802638.7657535505 0 9802638.7657535505 -6981493.492537437 0 0 0 0 -117816000.83600235 190397206.39704275 0 190397206.39704275 226755106.03477859 0 0 0 0 95801126.673649803 91730291.775719196 0 91730291.775719196 78363722.363143921 0 0 0 0 -681851877.37111664 131586336.57180452 0 131586336.57180452 666887128.13492966 0 0 0 0 129199475.07922816 90629505.821565628 0 90629505.821565628 70414717.319900513 0 0 0 0 269716877.53832722 208154845.76869059 0 208154845.76869059 157106937.00349426 0 0 0 0 -64199337.705803752 -120141885.53078651 0 -120141885.53078651 259951556.9617424 0 0 0 0 132431241.44185901 73407832.465052366 0 73407832.465052366 61800281.823942184 0 0 0 0 -241435265.60394478 -141741566.89286542 0 -141741566.89286542 -85437576.186389923 0 0 0 0 -282704059.98262596 -135934148.85219502 0 -135934148.85219502 -50100455.111326218 0 0 0 0 -362333534.2458992 -168681873.84937143 0 -168681873.84937143 -39245741.901473045 0 0 0 0 -374065392.42478848 -148397844.91262352 0 -148397844.91262352 -10096192.599727631 0 0 0 0 -346233196.17337418 -247333842.1401763 0 -247333842.1401763 -77662019.003080904 0 0 0 0 -445613449.59174347 -213884593.89187098 0 -213884593.89187098 -39149616.701498985 0 0 0 0 59252975.558681488 447537278.53746033 0 447537278.53746033 90798329.692749023 0 0 0 0 208921069.52517509 450841476.12820244 0 450841476.12820244 -30207887.603263855 0 0 0 0 -987821.56837862707 379966.61777000222 0 379966.61777000222 606551.49735548813 0 0 0 0 -9189360.5029785484 9161129.8428143729 0 9161129.8428143729 -5378152.0244594384 0 0 0 0 -492621419.63207626 -110446973.37422156 0 -110446973.37422156 -71017399.558738232 0 0 0 0 -472292196.40857697 -134495991.93941355 0 -134495991.93941355 -44089469.248861313 0 0 0 0 -458096914.07583237 -48723342.706574678 0 -48723342.706574678 -168686163.81362247 0 0 0 0 35210417.063592911 113526071.89134598 0 113526071.89134598 56423936.449020386 0 0 0 0 22953902.74213028 -239239699.56047058 0 -239239699.56047058 546280579.41623688 0 0 0 0 111053827.01097679 214359312.60639 0 214359312.60639 152958459.54088593 0 0 0 0 146434572.98882532 256960441.43037224 0 256960441.43037224 -21072505.937911987 0 0 0 0 256920259.81311655 456657620.90389252 0 456657620.90389252 -222582496.3615799 0 0 0 0 139445813.41902256 233692643.22367096 0 233692643.22367096 -59996515.698332787 0 0 0 0 137987969.97759867 336832715.00430393 0 336832715.00430393 -485081119.26566887 0 0 0 0 -204700603.58413422 451039631.98460722 0 451039631.98460722 -185731108.60190201 0 0 0 0 345291006.95108128 159135081.06868172 0 159135081.06868172 -46283023.041818619 0 0 0 0 -2668951.5086472533 1301424.939377239 0 1301424.939377239 2206729.6490192134 0 0 0 0 113538468.41613102 -110781864.71953654 0 -110781864.71953654 22178625.298718452 0 0 0 0 -219613434.00086403 -29023190.44723177 0 -29023190.44723177 -10976427.259152412 0 0 0 0 -312556974.62523651 -96104792.296911716 0 -96104792.296911716 -5750430.0567167699 0 0 0 0 -306763043.41805267 -122546465.78145885 0 -122546465.78145885 13195906.060937881 0 0 0 0 -390980482.95817471 -84364902.401145995 0 -84364902.401145995 -62446637.042655945 0 0 0 0 -322342842.18330383 -65053159.446674049 0 -65053159.446674049 -78178028.079034805 0 0 0 0 -378760910.03073883 -113100190.5539608 0 -113100190.5539608 -116778531.26252937 0 0 0 0 -347069234.48791504 -242121864.75006932 0 -242121864.75006932 -267023696.33391631 0 0 0 0 -323662607.19309616 -140914224.01258421 0 -140914224.01258421 -120953841.74102879 0 0 0 0 -371341575.59134674 -113411135.53813362 0 -113411135.53813362 -286107749.21690035 0 0 0 0 -372132074.68136597 -121012568.88247895 0 -121012568.88247895 -124129168.4253521 0 0 0 0 -354385783.21424866 -270480473.87820584 0 -270480473.87820584 -170074725.34662884 0 0 0 0 -304467779.55075645 -148023624.99992537 0 -148023624.99992537 98003800.97105813 0 0 0 0 -309188131.47629547 -113879301.5962472 0 -113879301.5962472 -71425816.857377291 0 0 0 0 -273620292.32785702 -86996667.993234456 0 -86996667.993234456 -33075936.260858893 0 0 0 0 428733534.36996841 -132456866.53128362 0 -132456866.53128362 -12203507.162639856 0 0 0 0 -846833.40288297599 816004.2796122334 0 816004.2796122334 755449.82033201121 0 0 0 0 98401962.160358429 23006035.335127473 0 23006035.335127473 -15168356.075011611 0 0 0 0 -134958848.9249115 -420843862.55003893 0 -420843862.55003893 168298169.91343641 0 0 0 0 -151835326.29933548 -46026123.749935627 0 -46026123.749935627 -225344555.92133474 0 0 0 0 202855874.2192421 -175340655.20994854 0 -175340655.20994854 -230192321.26338911 0 0 0 0 428648881.76626015 30581017.660110474 0 30581017.660110474 -52130812.58392334 0 0 0 0 -406762362.99364471 -347280443.90232325 0 -347280443.90232325 -100477693.07970071 0 0 0 0 -428309769.56857681 -299689449.89931846 0 -299689449.89931846 -101127384.71816254 0 0 0 0 -7899632.1569926552 7836036.1599007826 0 7836036.1599007826 -4074208.1432711594 0 0 0 0 -435889011.6221199 -296050796.72331405 0 -296050796.72331405 -23673585.903925419 0 0 0 0 -390999918.97929382 -229349795.83589107 0 -229349795.83589107 15195743.482363962 0 0 0 0 -253740424.46799088 -238668563.7095699 0 -238668563.7095699 -38000394.420733929 0 0 0 0 -404166274.52127838 -347633855.74539059 0 -347633855.74539059 -7599153.8525471687 0 0 0 0 -354514973.18053436 -278203876.39402795 0 -278203876.39402795 54751559.016470134 0 0 0 0 -295813708.38679314 -329971799.18660444 0 -329971799.18660444 -38178222.369384527 0 0 0 0 357511275.02886295 49840419.269981384 0 49840419.269981384 -15753793.806135178 0 0 0 0 312437150.38031626 -5715262.2169303894 0 -5715262.2169303894 52871357.485609055 0 0 0 0 -420843934.47849464 -253496011.63399076 0 -253496011.63399076 -571325807.7484417 0 0 0 0 -447336218.88788033 -153419267.62522864 0 -153419267.62522864 -3901531.1576037407 0 0 0 0 -404075.66285034735 156869.39324536687 0 156869.39324536687 -131747.52331534051 0 0 0 0 -2179538.1597070391 3939971.3077676343 0 3939971.3077676343 -5399391.1813063268 0 0 0 0 -145681780.59814262 -162463467.33237791 0 -162463467.33237791 -114602746.77886677 0 0 0 0 -76702202.570728302 -236426273.24470973 0 -236426273.24470973 -328140050.73406208 0 0 0 0 37300096.110305429 -100555618.25210842 0 -100555618.25210842 -176290829.0869503 0 0 0 0 -1613290.2335147858 -99789606.251764774 0 -99789606.251764774 -167592384.58627415 0 0 0 0 184997060.48990774 17064177.232336044 0 17064177.232336044 -135557111.9367013 0 0 0 0 -48895488.220829725 -52873756.929615974 0 -52873756.929615974 -223692461.09472466 0 0 0 0 96173188.996701241 88857086.347011566 0 88857086.347011566 -96842069.293834686 0 0 0 0 205062608.65761757 36690540.189453125 0 36690540.189453125 -96232009.767487526 0 0 0 0 112878287.33307612 20727570.770040989 0 20727570.770040989 -21920170.041950226 0 0 0 0 222368797.90411186 -26099814.65310955 0 -26099814.65310955 127355431.95142365 0 0 0 0 462817100.51357365 -143567833.34371376 0 -143567833.34371376 21922757.143951416 0 0 0 0 323292565.18051195 7167384.1290245056 0 7167384.1290245056 -73903826.413707733 0 0 0 0 256697283.282547 7541143.4807462692 0 7541143.4807462692 -38990321.89005661 0 0 0 0 351092409.15413952 -37166145.047687531 0 -37166145.047687531 -57860774.231964111 0 0 0 0 235150549.35265732 -45768172.858923912 0 -45768172.858923912 -87646345.719380379 0 0 0 0 265344283.47955132 -99868697.035693169 0 -99868697.035693169 -7446717.3689117432 0 0 0 0 274772085.56960678 -79301409.102825165 0 -79301409.102825165 21054477.009075165 0 0 0 0 248442707.67107058 -39112581.994503498 0 -39112581.994503498 -90783964.442829132 0 0 0 0 307520395.72256088 -44917720.45337677 0 -44917720.45337677 -92216795.041537285 0 0 0 0 103089633.2054882 -63246946.464094162 0 -63246946.464094162 -42419202.740339279 0 0 0 0 58623450.024023116 131786634.41320848 0 131786634.41320848 -225499734.31595612 0 0 0 0 -18799607.352953434 150223304.12260628 0 150223304.12260628 -116389534.2926693 0 0 0 0 -224940833.32454395 226017590.80245686 0 226017590.80245686 -140568391.60994339 0 0 0 0 -247084914.17692709 110147665.01906013 0 110147665.01906013 -228446516.80530739 0 0 0 0 -375877125.8894043 3902522.6943845749 0 3902522.6943845749 -215897424.580019 0 0 0 0 36336494.228472829 105550137.411412 0 105550137.411412 -371754626.28883934 0 0 0 0 -842761252.56857133 -575255786.13699627 0 -575255786.13699627 -563518328.28317738 0 0 0 0 -225911335.46444201 -138697511.74838781 0 -138697511.74838781 -255102471.67685509 0 0 0 0 -1426508982.8076329 -237716887.78397274 0 -237716887.78397274 21021241.878284812 0 0 0 0 -418534981.1381464 -52961395.31857872 0 -52961395.31857872 -4813437.9043292999 0 0 0 0 -141299.81731446905 -638146.96377062448 0 -638146.96377062448 -1692583.5542813754 0 0 0 0 55917015.714485168 134432747.22739124 0 134432747.22739124 -806443921.98664093 0 0 0 0 -43663823.138403654 -601028350.46102715 0 -601028350.46102715 -1039510745.3942168 0 0 0 0 -1329349368.557055 -137091204.53015184 0 -137091204.53015184 -89123842.109267235 0 0 0 0 86642925.327535152 -33672806.90656662 0 -33672806.90656662 -941973426.27860641 0 0 0 0 -532088055.75989175 297491087.82926941 0 297491087.82926941 629028827.8737793 0 0 0 0 -3636769.7382981973 -735987.88325622631 0 -735987.88325622631 1077962.4048223274 0 0 0 0 132951206.87784243 -115673435.41687584 0 -115673435.41687584 -129534488.2618084 0 0 0 0 -21686091.565441132 50727608.809441566 0 50727608.809441566 167662749.96303821 0 0 0 0 -57408911.25248313 3702402.338283062 0 3702402.338283062 134832533.6798389 0 0 0 0 -40926285.821499586 5717225.4605622292 0 5717225.4605622292 129095818.95024395 0 0 0 0 -45679463.044449449 -5815706.7474851608 0 -5815706.7474851608 106384259.75434303 0 0 0 0 -56739482.901766896 133631261.5928216 0 133631261.5928216 322254948.07563794 0 0 0 0 -12038367.804461241 20727964.745744705 0 20727964.745744705 100399771.95000696 0 0 0 0 -358299044.53379315 26084724.309224844 0 26084724.309224844 197154351.0073185 0 0 0 0 -124952216.53805006 -164811340.34472275 0 -164811340.34472275 -40204453.881808281 0 0 0 0 -22089444.32065177 374934455.9566741 0 374934455.9566741 -32149749.864266396 0 0 0 0 -1566696.9668082534 -270381.38224830292 0 -270381.38224830292 424875.3892161171 0 0 0 0 333100809.07503748 65861707.320122719 0 65861707.320122719 -254386961.76449347 0 0 0 0 -16038705.725165367 34309936.243228912 0 34309936.243228912 -85949403.99136734 0 0 0 0 88947165.483524323 -59867883.97605896 0 -59867883.97605896 -8123431.6153655052 0 0 0 0 -56504525.202926636 -26742656.572119713 0 -26742656.572119713 123517597.60387897 0 0 0 0 -945003.2262746701 -1497381.5588310705 0 -1497381.5588310705 436694.77145986818 0 0 0 0 44638184.003003597 35791476.10948801 0 35791476.10948801 16329845.619937897 0 0 0 0 -39023281.13906002 -186492197.53096771 0 -186492197.53096771 -101117830.28470564 0 0 0 0 -179441841.69583416 -277017100.92456627 0 -277017100.92456627 -129194682.21102285 0 0 0 0 13721118.116065979 -106217372.93487167 0 -106217372.93487167 -177656727.68498039 0 0 0 0 -17091274.246179581 -107713897.40611076 0 -107713897.40611076 -77655253.605098724 0 0 0 0 26948004.680185318 -77994957.413455009 0 -77994957.413455009 -19818335.321159363 0 0 0 0 -28476882.170809746 54029005.728006363 0 54029005.728006363 -61052115.12509203 0 0 0 0 -8740497.0329823494 -402486359.43759346 0 -402486359.43759346 -354594163.06802273 0 0 0 0 44279432.434889793 -53730480.56243515 0 -53730480.56243515 -550383600.19835663 0 0 0 0 -133795325.46578693 -363254537.67617655 0 -363254537.67617655 -256129870.49320984 0 0 0 0 -3666151.302287193 -1228774.3633308387 0 -1228774.3633308387 1298685.4963037523 0 0 0 0 -397266831.01733112 -201926247.90673018 0 -201926247.90673018 302071331.43196678 0 0 0 0 -1674569.2868475965 -876075.67485281476 0 -876075.67485281476 720781.07307033706 0 0 0 0 -213140306.90377426 -486982093.13132024 0 -486982093.13132024 -436014027.07886457 0 0 0 0 -69066291.0842309 -369196659.50281477 0 -369196659.50281477 -257643768.14355469 0 0 0 0 -60169348.057272434 -153363783.15670133 0 -153363783.15670133 -150295105.99846172 0 0 0 0 -467359095.82012367 -257786250.5060842 0 -257786250.5060842 -144216842.19418058 0 0 0 0 -134196193.14666557 -107206155.25464296 0 -107206155.25464296 -138033747.38261557 0 0 0 0 -173475031.87868071 -25699838.402434111 0 -25699838.402434111 -297401736.92967415 0 0 0 0 -346600724.44626379 -189940950.738657 0 -189940950.738657 -49599350.687106848 0 0 0 0 -128158795.62564468 -159714199.14494133 0 -159714199.14494133 -118387171.48495603 0 0 0 0 -99289372.254684448 -153427461.36770588 0 -153427461.36770588 -117027726.7665863 0 0 0 0 -162211338.13399601 -234451642.89077401 0 -234451642.89077401 -277833085.33495235 0 0 0 0 -288530431.3737793 62160683.211942554 0 62160683.211942554 97759959.378132582 0 0 0 0 -80225158.86323452 -18392150.420485228 0 -18392150.420485228 -10188732.42284584 0 0 0 0 -74296987.885855675 137900039.64175415 0 137900039.64175415 85226635.984595776 0 0 0 0 18690166.518409491 -5488804.8424494267 0 -5488804.8424494267 50955661.414598465 0 0 0 0 -4529098.0515170097 51016032.525305271 0 51016032.525305271 13952071.894048214 0 0 0 0 -69096752.316106796 25613369.741977692 0 25613369.741977692 9017863.5070884228 0 0 0 0 667752.53723526001 22285701.921044439 0 22285701.921044439 -4779610.0816326141 0 0 0 0 -1579039.4623594284 55414730.001118302 0 55414730.001118302 68644905.123563409 0 0 0 0 4507131.2257490158 17844797.777574182 0 17844797.777574182 23521428.734199911 0 0 0 0 -49709014.736658573 25702498.306072474 0 25702498.306072474 55561877.228978753 0 0 0 0 -67536199.386775017 -11502842.561760068 0 -11502842.561760068 37142866.96684742 0 0 0 0 -57857509.267354965 17178746.017157555 0 17178746.017157555 30643974.496115446 0 0 0 0 -58432642.69741869 25353339.257427096 0 25353339.257427096 -4624930.9319844246 0 0 0 0 -138364112.07286072 -38228067.641453177 0 -38228067.641453177 21756588.726569653 0 0 0 0 -157591219.48901749 -48383458.915285885 0 -48383458.915285885 51500790.386265099 0 0 0 0 -63529026.040782928 -9115967.4029611349 0 -9115967.4029611349 29293830.599971384 0 0 0 0 -54320714.350410938 -77408984.587294877 0 -77408984.587294877 -1013131.2086102962 0 0 0 0 -179128379.84675598 -153760589.10750103 0 -153760589.10750103 -50202852.15856266 0 0 0 0 -109987259.19613552 -89841280.229844421 0 -89841280.229844421 8412976.9640265703 0 0 0 0 84029036.981580913 64066086.332503796 0 64066086.332503796 24509576.286631584 0 0 0 0 -110268944.58138394 -28923232.695317268 0 -28923232.695317268 69618027.882739544 0 0 0 0 -1090611.0944122283 228278.52653529868 0 228278.52653529868 868633.73352815956 0 0 0 0 120127454.03644466 62047504.989944458 0 62047504.989944458 9228447.4936580658 0 0 0 0 97977370.062529564 86299158.5311203 0 86299158.5311203 29527086.377513409 0 0 0 0 101381413.21456596 59488998.074742317 0 59488998.074742317 16067863.398703575 0 0 0 0 84652726.819321871 60105574.719600677 0 60105574.719600677 46063281.503515244 0 0 0 0 111323633.50008899 107669727.60758591 0 107669727.60758591 86094657.781305313 0 0 0 0 -1878250.4235115408 586075.8922964572 0 586075.8922964572 1248693.254987733 0 0 0 0 80550982.360547304 100401413.94961166 0 100401413.94961166 98472029.831201553 0 0 0 0 82912985.668406367 76041000.459130287 0 76041000.459130287 90021162.844049454 0 0 0 0 96000473.917685255 98135926.40437305 0 98135926.40437305 67991308.666664124 0 0 0 0 -21007607.196568489 6885463.0488915443 0 6885463.0488915443 79243008.552952766 0 0 0 0 12552055.510919571 23874539.843648195 0 23874539.843648195 68276547.058572769 0 0 0 0 -31959139.764400482 21188295.005664587 0 21188295.005664587 69417868.963502228 0 0 0 0 15379890.064564705 28659669.453191161 0 28659669.453191161 -15829691.314957619 0 0 0 0 -64065837.007057071 70778631.992772818 0 70778631.992772818 -5130597.4059457779 0 0 0 0 -39878307.278098583 -6594134.9708600044 0 -6594134.9708600044 -39561085.4238199 0 0 0 0 -6003838.4062023163 33492673.310907602 0 33492673.310907602 7089033.5522015095 0 0 0 0 4005476.1012153625 15878222.067539573 0 15878222.067539573 8788272.6497489363 0 0 0 0 6391212.9245014191 19243790.61850667 0 19243790.61850667 -13405448.000228912 0 0 0 0 -1634412.9345650673 28483526.933875859 0 28483526.933875859 14624598.647287846 0 0 0 0 -21390210.335726738 25268641.835479558 0 25268641.835479558 119368382.55791533 0 0 0 0 7340196.3344488144 20234670.415820539 0 20234670.415820539 17998592.774156809 0 0 0 0 -3812943.9296834469 31642366.977159768 0 31642366.977159768 60092687.976111889 0 0 0 0 3111182.4650592804 14413662.598257899 0 14413662.598257899 65203436.3138372 0 0 0 0 -27360194.837145329 11033981.763916045 0 11033981.763916045 66407529.524748623 0 0 0 0 -6584404.5319920294 -2746382.1824197602 0 -2746382.1824197602 4290385.8468473563 0 0 0 0 -4452696.0880584717 41022396.012983382 0 41022396.012983382 82208052.263696253 0 0 0 0 153052900.99582577 -23961313.460772574 0 -23961313.460772574 -13865588.094802856 0 0 0 0 -10959766.641926941 5662706.5016378127 0 5662706.5016378127 -4161790.833892819 0 0 0 0 8175874.115506798 93777962.818582416 0 93777962.818582416 5914307.8983585835 0 0 0 0 -97999280.705343723 136652204.01937604 0 136652204.01937604 -30694410.224010348 0 0 0 0 14337579.677464485 -16343312.906793475 0 -16343312.906793475 -20191965.407359004 0 0 0 0 -2044957.6201930679 -835092.09057370317 0 -835092.09057370317 1313639.8650605623 0 0 0 0 -8471864.1183142662 95409330.406826496 0 95409330.406826496 14557408.495201826 0 0 0 0 -98651894.317853928 126489053.36865091 0 126489053.36865091 35937349.245596647 0 0 0 0 -164585863.07106572 -2458575.3751690388 0 -2458575.3751690388 174787785.03731823 0 0 0 0 92973873.152664661 27113337.9103508 0 27113337.9103508 17862708.997255325 0 0 0 0 -141150452.2464385 93179542.968437791 0 93179542.968437791 69887699.542738914 0 0 0 0 -9523906.8905996792 8417908.5101293623 0 8417908.5101293623 -7615676.0025788397 0 0 0 0 256592608.24566984 373979534.04894465 0 373979534.04894465 -373978699.60352325 0 0 0 0 133124103.01375204 57185371.263236046 0 57185371.263236046 6633474.7146868706 0 0 0 0 140691501.46570355 13419977.137483835 0 13419977.137483835 18703280.710468292 0 0 0 0 -281575035.777565 -170127660.80672932 0 -170127660.80672932 234443899.90813637 0 0 0 0 174064305.47159195 -157144556.98959446 0 -157144556.98959446 51866540.026909828 0 0 0 0 -46437177.960102081 -56101166.816054821 0 -56101166.816054821 7469620.3257837296 0 0 0 0 -72075814.886642456 -84622191.028226376 0 -84622191.028226376 39958888.921138644 0 0 0 0 -109827375.93795776 -4552151.5903263092 0 -4552151.5903263092 -8743590.6799049377 0 0 0 0 -107702043.43951416 -46820207.930279732 0 -46820207.930279732 46238979.842693329 0 0 0 0 66382331.489341736 -27181301.161873102 0 -27181301.161873102 42484854.939967632 0 0 0 0 -5865936.0002134442 3483476.7111596987 0 3483476.7111596987 -1034654.6379838331 0 0 0 0 45101405.686922073 2443195.5690310001 0 2443195.5690310001 -124676203.07703543 0 0 0 0 -26146124.508991241 30535410.676855087 0 30535410.676855087 -100198768.16435039 0 0 0 0 38450647.358695984 -34836329.042872429 0 -34836329.042872429 -47183594.345302582 0 0 0 0 -89750167.410682678 -47825915.747318745 0 -47825915.747318745 -39015868.312059402 0 0 0 0 -35534258.643859863 -76722987.523575783 0 -76722987.523575783 -70880651.295784235 0 0 0 0 270872455.54299545 -135479067.82238388 0 -135479067.82238388 -15645716.401977062 0 0 0 0 -164800.87294871081 107200.20412729122 0 107200.20412729122 209085.11016102601 0 0 0 0 -140460241.04273987 -65928413.653119087 0 -65928413.653119087 79422245.135966301 0 0 0 0 -45020967.846818924 91850029.985382557 0 91850029.985382557 -178034827.492908 0 0 0 0 -186869422.38802719 -991171.23871541023 0 -991171.23871541023 41461333.150807381 0 0 0 0 -16346438.874755859 -9293827.8327064514 0 -9293827.8327064514 5739203.5258327723 0 0 0 0 -13901483.572282791 -25695482.781898618 0 -25695482.781898618 35169138.626130104 0 0 0 0 -17808674.274768069 4231956.4186217971 0 4231956.4186217971 -676459.05337432807 0 0 0 0 -341433.26809016475 2827477.9815899543 0 2827477.9815899543 -193119.45788514524 0 0 0 0 12087837.357309341 33374816.626563787 0 33374816.626563787 451165.78577956557 0 0 0 0 -31620044.68357563 30554352.45833689 0 30554352.45833689 128932004.7933073 0 0 0 0 -17861219.891586613 3335613.5262763053 0 3335613.5262763053 1079537.0915104395 0 0 0 0 -83615116.058498383 -116635907.92638206 0 -116635907.92638206 153997031.20589924 0 0 0 0 -3427531.2801017761 -73297469.139554501 0 -73297469.139554501 -108969141.84230423 0 0 0 0 -4665566.5153571852 462783.06041475385 0 462783.06041475385 1355411.313214374 0 0 0 0 25670013.884796143 -262339339.60811329 0 -262339339.60811329 86713153.416091919 0 0 0 0 25864323.810649872 -136744672.92671466 0 -136744672.92671466 -247531699.02576256 0 0 0 0 -4666708.2478179932 -29503675.667664051 0 -29503675.667664051 25667331.296072006 0 0 0 0 -97269318.601840973 72150745.42342186 0 72150745.42342186 42173755.280296326 0 0 0 0 -199210200.75445747 -84054589.957377911 0 -84054589.957377911 17361993.249315262 0 0 0 0 8690365.2477035522 -13713576.673356056 0 -13713576.673356056 40604260.325007439 0 0 0 0 -35496750.465499878 -133030394.84950542 0 -133030394.84950542 -93326285.810721874 0 0 0 0 -61355104.324703217 -73568635.036869049 0 -73568635.036869049 25188174.977313995 0 0 0 0 43463789.220619202 -72795994.162905693 0 -72795994.162905693 -47686455.888238907 0 0 0 0 40338921.551166534 -114980617.72348857 0 -114980617.72348857 -315418998.92842197 0 0 0 0 -29630.204353772104 -1185168.3857840451 0 -1185168.3857840451 -413404.03972761799 0 0 0 0 -83032059.399683952 850318.67890048027 0 850318.67890048027 14729051.433241844 0 0 0 0 -165232187.80916595 40403856.314241886 0 40403856.314241886 7550290.9978114367 0 0 0 0 -1259583.2536793239 -127433.89267384261 0 -127433.89267384261 529474.92451645038 0 0 0 0 -122411703.51682091 119510270.55794275 0 119510270.55794275 -55686890.093582153 0 0 0 0 416968.96113204956 -1089163.9593075514 0 -1089163.9593075514 1597853.3440856934 0 0 0 0 -966299.33368843794 -1066698.3464924202 0 -1066698.3464924202 40079.715741789201 0 0 0 0 -25776591.514593124 17607723.013317347 0 17607723.013317347 48311012.256692886 0 0 0 0 -17470.339813232422 -1805291.6459178925 0 -1805291.6459178925 3327144.2768936157 0 0 0 0 -1035762.4302929044 -733035.7226434336 0 -733035.7226434336 375074.28040063824 0 0 0 0 10834.106674194336 -1266023.1381731033 0 -1266023.1381731033 1617357.9210171103 0 0 0 0 70831868.602043152 -55358518.652737617 0 -55358518.652737617 91750371.214691162 0 0 0 0 -1787590.4727247171 -351874.98507387936 0 -351874.98507387936 916472.52853530319 0 0 0 0 -15037768.81552887 -94161450.380764484 0 -94161450.380764484 132783189.24369693 0 0 0 0 174996.6124420166 -452931.41057538986 0 -452931.41057538986 5625252.2050681114 0 0 0 0 -736865.02451863512 -752990.73426063685 0 -752990.73426063685 225324.85210409912 0 0 0 0 32000920.536869049 -80074680.223831892 0 -80074680.223831892 63024404.090291977 0 0 0 0 -9590830.1831855774 -107187072.99375391 0 -107187072.99375391 58687610.992750168 0 0 0 0 34163853.321975708 -53498808.494053364 0 -53498808.494053364 18443684.728010178 0 0 0 0 -76686892.532993317 -18509515.578780055 0 -18509515.578780055 50709629.447179794 0 0 0 0 -65641126.837389946 -83839378.155000746 0 -83839378.155000746 -43954529.145454407 0 0 0 0 -63677851.513718605 -71827808.629490495 0 -71827808.629490495 20925963.597605705 0 0 0 0 -790884.42914900091 38356.259321555495 0 38356.259321555495 1075038.7671184409 0 0 0 0 52959519.120071411 42948641.902445316 0 42948641.902445316 17266236.676307678 0 0 0 0 38550868.618819177 -45366751.363047831 0 -45366751.363047831 41833116.939447403 0 0 0 0 56021306.818908691 -117758750.40762329 0 -117758750.40762329 64779372.839115381 0 0 0 0 145605341.0604229 -108867938.53459191 0 -108867938.53459191 40585198.612094879 0 0 0 0 -42168417.310203671 -22724719.729802758 0 -22724719.729802758 20768486.906450748 0 0 0 0 -39776592.419261932 -24294010.943359375 0 -24294010.943359375 17017727.969150424 0 0 0 0 -102640826.94182301 -42082511.2661466 0 -42082511.2661466 27748969.275481105 0 0 0 0 -54015962.124173641 578216.94136559963 0 578216.94136559963 34730317.170138359 0 0 0 0 -367561.86473274231 12344604.008773327 0 12344604.008773327 20724116.92854166 0 0 0 0 -16134474.703475952 37938623.718657494 0 37938623.718657494 46702167.710208356 0 0 0 0 -114205715.97747993 331979223.83442676 0 331979223.83442676 90815753.1022892 0 0 0 0 -15315754.936538635 3764523.2047545239 0 3764523.2047545239 620061.96876053326 0 0 0 0 -29656594.707624912 20206486.523577631 0 20206486.523577631 43167178.25158453 0 0 0 0 -25499300.228440285 16093712.123711884 0 16093712.123711884 37467383.893514037 0 0 0 0 11679453.950511932 44179131.333861113 0 44179131.333861113 45171617.588468432 0 0 0 0 183807144.08400726 -45915825.832895279 0 -45915825.832895279 -12397170.107115746 0 0 0 0 -471170174.14918518 -138992435.16383839 0 -138992435.16383839 -22978374.882790446 0 0 0 0 -168287868.28613663 315946390.70747423 0 315946390.70747423 79575624.333276749 0 0 0 0 -464024416.85819244 -275230821.49974895 0 -275230821.49974895 -253865974.98749924 0 0 0 0 -281268.35875247419 -424498.51770329662 0 -424498.51770329662 -115014.39675195492 0 0 0 0 -161260746.53056335 212544953.46282482 0 212544953.46282482 -109226160.85311317 0 0 0 0 -27556944.761978149 -28844446.792991638 0 -28844446.792991638 -162082590.42028141 0 0 0 0 -301895202.31305313 45492915.951264858 0 45492915.951264858 23594869.309293747 0 0 0 0 -129047710.26303101 27648188.177881241 0 27648188.177881241 21661604.376633108 0 0 0 0 -345070.43403521553 -306128.62721719779 0 -306128.62721719779 -155660.4524388779 0 0 0 0 27660756.84333992 70809901.12356925 0 70809901.12356925 -52627552.768437386 0 0 0 0 -141013842.10623169 278133713.1708622 0 278133713.1708622 121834505.70480156 0 0 0 0 -28588856.793426514 -207576781.4796195 0 -207576781.4796195 45705090.845368922 0 0 0 0 -13339962.047757126 2897315.9482735656 0 2897315.9482735656 821644.56598383654 0 0 0 0 -22513270.336442947 8155169.9280910492 0 8155169.9280910492 30570925.551096439 0 0 0 0 10896680.918949127 51038396.130502462 0 51038396.130502462 17477249.686114788 0 0 0 0 -22848024.119309425 -19907209.815360069 0 -19907209.815360069 -5031654.2054824829 0 0 0 0 -12114564.393404007 -1283493.7316904068 0 -1283493.7316904068 2273611.6120872498 0 0 0 0 -18910631.549690247 -10112368.962612629 0 -10112368.962612629 -6940593.356836319 0 0 0 0 -14267107.741092682 -17373306.447239161 0 -17373306.447239161 -11766250.670034409 0 0 0 0 -7384192.7613677979 -4635662.8417491913 0 -4635662.8417491913 -10180132.647029877 0 0 0 0 -5777152.8866996765 -7134995.1452038288 0 -7134995.1452038288 -6461762.9332714081 0 0 0 0 17392372.107917786 14637664.617582083 0 14637664.617582083 -11365658.555801392 0 0 0 0 12392383.211662292 -10438666.900244147 0 -10438666.900244147 -37182514.499281883 0 0 0 0 -15552790.872248173 -26150379.513985217 0 -26150379.513985217 -19180055.141772747 0 0 0 0 -1107833.3888969347 -1325777.6740166061 0 -1325777.6740166061 -668758.16529152496 0 0 0 0 -35918163.173561096 -20770204.903557301 0 -20770204.903557301 -7424545.9678189754 0 0 0 0 60135112.4114151 25921759.507268429 0 25921759.507268429 -22844472.16560936 0 0 0 0 -13534977.339797974 -15413997.410845757 0 -15413997.410845757 -6524290.4789180756 0 0 0 0 22037443.871643066 2646781.7651443481 0 2646781.7651443481 34189582.835536003 0 0 0 0 20394874.207641602 -8923863.9139461517 0 -8923863.9139461517 30312960.206068993 0 0 0 0 17462208.128631592 -14821364.610414505 0 -14821364.610414505 18453713.189772606 0 0 0 0 26912539.550476074 5945659.5790214539 0 5945659.5790214539 9330898.0865879059 0 0 0 0 25470345.181121826 13816235.523000717 0 13816235.523000717 25111896.884019852 0 0 0 0 28960788.541107178 13337724.085987091 0 13337724.085987091 17582147.373410225 0 0 0 0 118313.59756040573 -10731225.557276338 0 -10731225.557276338 -8593790.2409057617 0 0 0 0 31782981.372543335 -115557.84626865387 0 -115557.84626865387 -8174003.3232488632 0 0 0 0 117161.59129333496 -10613644.984307289 0 -10613644.984307289 11920341.522063255 0 0 0 0 17771919.873123169 -12425306.286323547 0 -12425306.286323547 769607.18340492249 0 0 0 0 -29456341.605728149 -15553355.835622787 0 -15553355.835622787 -24866285.473199844 0 0 0 0 -26821350.10786438 -7283432.4074449539 0 -7283432.4074449539 -336835.27834606171 0 0 0 0 -29341519.414340973 13404457.669685841 0 13404457.669685841 -24393839.147705078 0 0 0 0 11817829.170288086 -12623975.299389839 0 -12623975.299389839 -11629585.942602158 0 0 0 0 -24207947.018577576 1444820.2090859413 0 1444820.2090859413 -11506336.40639057 0 0 0 0 -75009411.476280212 -47095031.743908882 0 -47095031.743908882 40553782.585188389 0 0 0 0 73526691.412796021 -35764915.535429001 0 -35764915.535429001 -35287565.478717804 0 0 0 0 -89617030.808731079 -44074136.290812492 0 -44074136.290812492 -15534069.015169144 0 0 0 0 -108159121.4212265 -3433743.736448288 0 -3433743.736448288 20398081.531732082 0 0 0 0 -131723994.47027588 20371089.844272852 0 20371089.844272852 6242443.0021715164 0 0 0 0 -113074802.9982748 24090578.323297262 0 24090578.323297262 -30578217.741874695 0 0 0 0 -249174.42246461846 -146101.65087737516 0 -146101.65087737516 193267.13970689522 0 0 0 0 -180787568.70388269 76030249.642108589 0 76030249.642108589 -17161297.599145889 0 0 0 0 -189966596.08860779 7144394.4595108032 0 7144394.4595108032 27494662.504417419 0 0 0 0 -107901384.29247284 29602400.150355816 0 29602400.150355816 -13160660.492367744 0 0 0 0 -179183657.69457245 76580869.221959114 0 76580869.221959114 -17775331.818758011 0 0 0 0 -22409232.23859024 1485058.9082107544 0 1485058.9082107544 -138761.92394542694 0 0 0 0 -159691.43260863889 -171374.93548596837 0 -171374.93548596837 61691.783167353366 0 0 0 0 -21774343.371612549 4384740.1318969727 0 4384740.1318969727 -9936787.6087334156 0 0 0 0 -19211649.573921204 3509641.9267907143 0 3509641.9267907143 969578.99073886871 0 0 0 0 -14090985.155696869 -416269.75362551212 0 -416269.75362551212 5318139.8876485825 0 0 0 0 -5612425.9284934998 -4783985.0653147697 0 -4783985.0653147697 1207420.6691827774 0 0 0 0 -9005924.6318130493 -5656615.0182404518 0 -5656615.0182404518 8386933.7732844353 0 0 0 0 7937762.745552063 -10385323.925659657 0 -10385323.925659657 1180392.6965923309 0 0 0 0 4724618.9806747437 -19781584.942062855 0 -19781584.942062855 -1320747.6495161057 0 0 0 0 -10385962.303417206 -12110191.013653278 0 -12110191.013653278 3446956.5121660233 0 0 0 0 -8295093.6358718872 -11065896.147326469 0 -11065896.147326469 2145065.4512939453 0 0 0 0 -9306409.1957168579 -26061676.562837601 0 -26061676.562837601 -3779071.6483640671 0 0 0 0 -37302084.348220825 -5947039.7283883095 0 -5947039.7283883095 4273079.3658800125 0 0 0 0 -2326467.2633514404 -15563156.852425098 0 -15563156.852425098 5030792.540807724 0 0 0 0 17600564.317733765 -13628011.608264923 0 -13628011.608264923 -944505.99394798279 0 0 0 0 -1104238.266456604 -1269600.2889854908 0 -1269600.2889854908 -673518.81695365906 0 0 0 0 -352012.98592193425 -2126146.9556159899 0 -2126146.9556159899 -2290586.8102102419 0 0 0 0 29053745.558923721 -10727890.106055975 0 -10727890.106055975 -2034567.4018449783 0 0 0 0 21471337.114883423 -20908208.078223228 0 -20908208.078223228 7514977.9396743774 0 0 0 0 -1648767.9068710506 -717123.87508954294 0 -717123.87508954294 447365.27770040138 0 0 0 0 -9403145.1945648193 -10782709.176969528 0 -10782709.176969528 -11503053.295716763 0 0 0 0 -2703172.3977388293 -3208463.8686717348 0 -3208463.8686717348 -254428.44886796083 0 0 0 0 18528797.492900848 -9534590.3539464474 0 -9534590.3539464474 852022.3025970459 0 0 0 0 -1118813.4149093628 6135918.0328704119 0 6135918.0328704119 38829222.207803726 0 0 0 0 -4344665.9387588501 -2863133.5012390614 0 -2863133.5012390614 34024839.075354576 0 0 0 0 6562410.9304246902 -14118742.770605743 0 -14118742.770605743 -206172.50642967224 0 0 0 0 -2711639.4353581183 -3764395.4167529782 0 -3764395.4167529782 -3182904.8874720531 0 0 0 0 4841898.7203903198 -7104463.9807844162 0 -7104463.9807844162 -14455665.641119957 0 0 0 0 -352120.37474864349 -1566792.5149251781 0 -1566792.5149251781 -905299.62578648585 0 0 0 0 -3515888.6714676619 -1236658.8335299622 0 -1236658.8335299622 3233822.2162121143 0 0 0 0 -22800871.985977173 -30536935.867795944 0 -30536935.867795944 6174359.0570784211 0 0 0 0 -3921994.5017032996 -838113.17627242766 0 -838113.17627242766 3028278.3173914878 0 0 0 0 -8962186.9540023804 -8112145.4034309387 0 -8112145.4034309387 -1298743.0099964142 0 0 0 0 -15511045.729614258 -11865305.075975418 0 -11865305.075975418 -2466247.5445156097 0 0 0 0 -6676253.3289718628 -4508305.4312360287 0 -4508305.4312360287 -13209503.571026802 0 0 0 0 -22360815.081222534 -2017319.7192573547 0 -2017319.7192573547 5179763.7106781006 0 0 0 0 -10695519.899108887 -9015372.7282934189 0 -9015372.7282934189 -1098328.271068573 0 0 0 0 -9408848.6474318504 -377884.81976625323 0 -377884.81976625323 1669251.6392707825 0 0 0 0 -9254683.5194997787 -12104710.852695405 0 -12104710.852695405 -19523646.80406189 0 0 0 0 -817625.77190697379 57156.756172037683 0 57156.756172037683 824030.89764293516 0 0 0 0 1779643.6688728333 -1553649.92715168 0 -1553649.92715168 223942.73341417313 0 0 0 0 -1703030.0861034645 -776188.45502595976 0 -776188.45502595976 774903.81743075047 0 0 0 0 1296005.7181854248 -3102395.9248867035 0 -3102395.9248867035 3463086.4949674606 0 0 0 0 817866.80735778809 -962751.74776268005 0 -962751.74776268005 1573150.5146641731 0 0 0 0 5949702.6789169312 24909513.967308998 0 24909513.967308998 -17239531.452305555 0 0 0 0 -75269959.144073486 -663141.64961957932 0 -663141.64961957932 7068366.2465744019 0 0 0 0 47864303.446297646 5570243.5280849338 0 5570243.5280849338 -35099.72403717041 0 0 0 0 15982381.232439041 9066370.8749746084 0 9066370.8749746084 7695670.0991711617 0 0 0 0 199705.26816941798 -395057.54904585145 0 -395057.54904585145 79923.86002183496 0 0 0 0 932603.98861694336 -714485.63750743866 0 -714485.63750743866 -775610.15996360779 0 0 0 0 -2815650.3462219238 -5529167.5611505508 0 -5529167.5611505508 3071604.3339262009 0 0 0 0 2723569.9398574829 -4482416.6790866852 0 -4482416.6790866852 -7497737.3023989797 0 0 0 0 -6386845.0445127487 -14266562.052886724 0 -14266562.052886724 -8435191.8072338104 0 0 0 0 -215167712.58049011 -19151701.594556332 0 -19151701.594556332 34983674.714048386 0 0 0 0 -154542698.03089142 55822215.479012489 0 55822215.479012489 -9269649.3301553726 0 0 0 0 -236306.30520006269 -139393.92525546905 0 -139393.92525546905 106185.92250406649 0 0 0 0 -80129781.518722534 -14180203.699625969 0 -14180203.699625969 -17945068.434982777 0 0 0 0 -177098436.82993984 99789982.370063603 0 99789982.370063603 -33370136.017520905 0 0 0 0 -583721.14122390747 -605667.61610603333 0 -605667.61610603333 2459013.9133214951 0 0 0 0 -86070801.636764526 52658556.47461319 0 52658556.47461319 -32748969.601768062 0 0 0 0 -433329.92119836062 -447741.63023322169 0 -447741.63023322169 140688.32193293609 0 0 0 0 -99112492.818807602 31058841.055506229 0 31058841.055506229 11328340.979515076 0 0 0 0 -53854249.928535461 11319080.203292489 0 11319080.203292489 197556.41722726822 0 0 0 0 -86199755.090019226 44253012.18734169 0 44253012.18734169 -5819619.790971756 0 0 0 0 -111520743.23578262 45302190.043453693 0 45302190.043453693 -3754822.467549324 0 0 0 0 -121951232.3019104 35907481.759608984 0 35907481.759608984 -6173206.2032067776 0 0 0 0 -404936.07566790469 -214233.96301310882 0 -214233.96301310882 345415.68865707843 0 0 0 0 -141996964.22623825 49451663.092504263 0 49451663.092504263 11438714.923974991 0 0 0 0 -125247548.63698578 27879458.746199131 0 27879458.746199131 -17817717.824033737 0 0 0 0 -406799.40330966096 -417301.97933444753 0 -417301.97933444753 118161.03225668613 0 0 0 0 -115286356.78773499 8458861.940110445 0 8458861.940110445 -15134952.783599854 0 0 0 0 -39403005.836284637 32796310.760786772 0 32796310.760786772 -42679.181849002838 0 0 0 0 -112182173.90777016 17722408.548260689 0 17722408.548260689 11205868.101080894 0 0 0 0 -82928710.031208038 44787612.167876005 0 44787612.167876005 -10778764.957131386 0 0 0 0 -199323.65650215372 -791242.56893768907 0 -791242.56893768907 -21062.852049556561 0 0 0 0 -6181632.6333723068 -33183323.051155388 0 -33183323.051155388 16008653.482428551 0 0 0 0 -49507593.887776375 11380840.30653286 0 11380840.30653286 19772469.893482208 0 0 0 0 594405.72992324829 -1844957.4605433941 0 -1844957.4605433941 2122414.9675784111 0 0 0 0 -9668929.2323093414 -33053001.97655654 0 -33053001.97655654 -26614164.097701073 0 0 0 0 -1840475.5227018474 -1054168.9050029647 0 -1054168.9050029647 670601.23384139966 0 0 0 0 -240244115.09275436 44854796.048112869 0 44854796.048112869 16488322.461973906 0 0 0 0 -297853823.64363003 -45106670.283962607 0 -45106670.283962607 58237393.186498642 0 0 0 0 -264542258.85373688 -58727921.278865337 0 -58727921.278865337 55251597.554900289 0 0 0 0 -272113330.48894691 -33103857.61432147 0 -33103857.61432147 59683407.300308704 0 0 0 0 -90646243.219345093 28832921.655260086 0 28832921.655260086 7180737.3737359047 0 0 0 0 -257436059.54038239 -36226033.607388735 0 -36226033.607388735 32855029.614150524 0 0 0 0 25941.749412480742 -144901.2924788692 0 -144901.2924788692 5931.5115136690438 0 0 0 0 -262192691.58159637 -17201502.103135586 0 -17201502.103135586 29160415.112450957 0 0 0 0 -32840473.294085503 -56614920.387376189 0 -56614920.387376189 -34451897.333439827 0 0 0 0 -118290315.8806572 -86532203.736066699 0 -86532203.736066699 -16890087.828351974 0 0 0 0 -261046331.37312317 -19314773.639576912 0 -19314773.639576912 20071481.092059135 0 0 0 0 -400451449.18680573 -2914830.4509134293 0 -2914830.4509134293 18636864.488938689 0 0 0 0 -304144974.93332672 82380181.008794308 0 82380181.008794308 -21738319.955041885 0 0 0 0 -130624471.81164551 -76538369.03849411 0 -76538369.03849411 -59457672.950797558 0 0 0 0 -206874647.75328064 -30881441.944764614 0 -30881441.944764614 14872700.016400337 0 0 0 0 -305073224.853405 -128603611.12423944 0 -128603611.12423944 11504870.567333221 0 0 0 0 -376877.38772959262 -196889.03582908574 0 -196889.03582908574 90586.491738533136 0 0 0 0 40904630.54267025 32031261.13720715 0 32031261.13720715 -37062533.337827682 0 0 0 0 -100325458.32762527 -26308091.640706539 0 -26308091.640706539 -27326218.569658041 0 0 0 0 -226552300.67772293 21836623.915144444 0 21836623.915144444 2167682.613083601 0 0 0 0 -224064551.42327499 29903946.803798556 0 29903946.803798556 -31438432.626926899 0 0 0 0 -280930234.72719955 12394189.475014567 0 12394189.475014567 -13697826.592712402 0 0 0 0 -116873928.42711258 -64404604.214272976 0 -64404604.214272976 -28480817.104123116 0 0 0 0 -40625.636662252247 -77990.654097761028 0 -77990.654097761028 -221556.50253030052 0 0 0 0 -40342703.636571884 16401838.147755384 0 16401838.147755384 -101744327.59303236 0 0 0 0 -237631311.60700417 -73532466.976038218 0 -73532466.976038218 55643380.899468422 0 0 0 0 -252534650.53940582 -43429787.290774822 0 -43429787.290774822 -3823933.2452039719 0 0 0 0 -256263037.60060787 -42273548.948069751 0 -42273548.948069751 63295724.851651669 0 0 0 0 -28171.696399440989 -145766.02612922713 0 -145766.02612922713 -558248.00497653289 0 0 0 0 -20739218.273962021 42307700.880891562 0 42307700.880891562 -28613924.539121151 0 0 0 0 41623180.148012161 44202894.770077467 0 44202894.770077467 5153715.1654629707 0 0 0 0 -43278363.639663696 20053294.084617615 0 20053294.084617615 -1791499.8830060959 0 0 0 0 10481018.145931244 9865100.1301636696 0 9865100.1301636696 -28008960.784304038 0 0 0 0 6359217.7471351624 -31031031.245161295 0 -31031031.245161295 16657301.462865829 0 0 0 0 18121353.236404419 -2444419.9854235649 0 -2444419.9854235649 -23059513.859666824 0 0 0 0 30952096.401535034 -11828203.40510416 0 -11828203.40510416 -23676166.41006422 0 0 0 0 26126690.446411133 -6179576.6208896637 0 -6179576.6208896637 -26999642.332999468 0 0 0 0 115705589.13133621 -33517275.701951742 0 -33517275.701951742 -18677834.385179281 0 0 0 0 16530461.598060608 -79820937.099116683 0 -79820937.099116683 40534895.361845016 0 0 0 0 -27144874.938804626 -25154989.604905605 0 -25154989.604905605 18161363.229441643 0 0 0 0 -75762324.016403198 -57994746.622770309 0 -57994746.622770309 63225057.323270798 0 0 0 0 -1174243.8443012238 -41201317.451826572 0 -41201317.451826572 26927685.931253433 0 0 0 0 -76487493.229881287 37585.775679588318 0 37585.775679588318 36130611.558984995 0 0 0 0 -17386051.84854126 -11129528.881028175 0 -11129528.881028175 38213753.304592133 0 0 0 0 -2989089.051651001 -51928969.645462036 0 -51928969.645462036 -15998846.219190598 0 0 0 0 -552468.65455320105 -6230.7541969520971 0 -6230.7541969520971 677660.29276587698 0 0 0 0 -67202567.145568848 -757878187.35194302 0 -757878187.35194302 267654445.29039383 0 0 0 0 11808238.797904968 133505060.63078308 0 133505060.63078308 -316228180.22702408 0 0 0 0 101335149.43171787 -23949931.288202167 0 -23949931.288202167 -8080276.0714426041 0 0 0 0 -600445.41120888665 -962624.58220173698 0 -962624.58220173698 -14702.218801039038 0 0 0 0 -19933027.780174255 66640537.60325551 0 66640537.60325551 87622126.203841209 0 0 0 0 89056053.364974976 2414787.7330679893 0 2414787.7330679893 -3481520.6116099358 0 0 0 0 -1023678.5792141706 -3496336.1652767248 0 -3496336.1652767248 -3220475.5839824425 0 0 0 0 66970352.743804932 84665.034664154053 0 84665.034664154053 -2477708.3384242058 0 0 0 0 61316974.636081696 -29648779.85057354 0 -29648779.85057354 -7640182.8497846127 0 0 0 0 231601.60458183289 -9498513.3563184738 0 -9498513.3563184738 4062903.9300537109 0 0 0 0 576489.27207279205 -8078762.8665254116 0 -8078762.8665254116 4141158.0703029633 0 0 0 0 -1371818.6437398195 -8358793.4478622973 0 -8358793.4478622973 5998943.0198936462 0 0 0 0 421146.96352767944 -44043336.746683598 0 -44043336.746683598 -18390033.049615383 0 0 0 0 15777829.982067108 10374373.101969242 0 10374373.101969242 -50729037.422176838 0 0 0 0 19853925.702011108 -14814700.78249979 0 -14814700.78249979 40744840.61618185 0 0 0 0 78254108.094398499 -47156851.133952618 0 -47156851.133952618 -4869531.4777698517 0 0 0 0 70827323.748413086 -39139083.888123035 0 -39139083.888123035 -14273491.569499254 0 0 0 0 18314155.510562897 -20438279.622512817 0 -20438279.622512817 -1644826.7544088364 0 0 0 0 57737284.884223938 -45532448.352801323 0 -45532448.352801323 29124728.583068848 0 0 0 0 -17198828.956237793 -47908070.507884026 0 -47908070.507884026 -10454198.150940537 0 0 0 0 -56344447.61374855 10800888.852195501 0 10800888.852195501 -23223202.486721992 0 0 0 0 3879067.3143119812 -18492495.158916712 0 -18492495.158916712 30596408.976400852 0 0 0 0 13725860.731464386 -78144058.068024635 0 -78144058.068024635 36570361.38551721 0 0 0 0 -162783.65989995375 7665.2253782590851 0 7665.2253782590851 142752.96285048639 0 0 0 0 63203429.338767648 -96298688.283039302 0 -96298688.283039302 5382099.9811148643 0 0 0 0 -818343.66205329821 -2652254.4571346883 0 -2652254.4571346883 -3267645.9646144672 0 0 0 0 8405088.4009895325 -16922437.527264595 0 -16922437.527264595 11582457.703580856 0 0 0 0 16771622.760700226 -12841592.881316185 0 -12841592.881316185 8412664.9115657806 0 0 0 0 6681298.8759689331 -11327823.2566185 0 -11327823.2566185 13940468.634466171 0 0 0 0 70877738.847946167 41180308.924293101 0 41180308.924293101 27941092.860100269 0 0 0 0 79416886.159942627 -148537284.14187431 0 -148537284.14187431 -17227.20165514946 0 0 0 0 -1266567.8876075745 -8860501.0581412315 0 -8860501.0581412315 6260754.4098491669 0 0 0 0 -1785898.6648178101 -9226037.7758922577 0 -9226037.7758922577 8996228.3903341293 0 0 0 0 465053.54438018799 -11004831.746072292 0 -11004831.746072292 8499988.6185283661 0 0 0 0 9441380.1695976257 -13686099.019803047 0 -13686099.019803047 6790875.1758918762 0 0 0 0 4336227.0836048126 -8905764.5713291168 0 -8905764.5713291168 4189512.7217960358 0 0 0 0 678536.69364929199 -11317044.31486702 0 -11317044.31486702 12295296.248889923 0 0 0 0 6190862.7937793732 -12845484.853136063 0 -12845484.853136063 9304109.8619613647 0 0 0 0 1851090.589258194 -10915474.317673683 0 -10915474.317673683 8855638.1018638611 0 0 0 0 1447868.3738479614 -11123554.503240585 0 -11123554.503240585 11033705.58740139 0 0 0 0 -2941723.6449584961 -9469397.08522892 0 -9469397.08522892 10105148.894243717 0 0 0 0 -2281416.1976585388 -8304379.2905893326 0 -8304379.2905893326 7871877.6248016357 0 0 0 0 -1821052.7759857178 -9365855.8140258789 0 -9365855.8140258789 8542106.1167488098 0 0 0 0 -4097091.6913201809 -8878984.3228883147 0 -8878984.3228883147 9258452.6069450378 0 0 0 0 -6190936.306994915 -9662517.2804403901 0 -9662517.2804403901 7564718.1927967072 0 0 0 0 -1570593.6060256958 -8158611.2388772964 0 -8158611.2388772964 1893210.6285057068 0 0 0 0 -2357343.1216888428 -7290836.0163459778 0 -7290836.0163459778 7993856.2878000736 0 0 0 0 1210460.5492706299 -9900668.8313264847 0 -9900668.8313264847 7020793.5396289825 0 0 0 0 3237551.0489692688 -8425289.1798419952 0 -8425289.1798419952 7917678.1767520905 0 0 0 0 627830.06398391724 -10492944.854058743 0 -10492944.854058743 6366748.0674591064 0 0 0 0 -4417745.3689727783 -9851413.631295681 0 -9851413.631295681 2432509.3045854568 0 0 0 0 -1047033.2423095703 -6913389.0387134552 0 -6913389.0387134552 4808717.4292564392 0 0 0 0 -8054088.9745083479 -4870629.501807929 0 -4870629.501807929 321892.27902757749 0 0 0 0 -5296263.0489120483 -4230555.9054613113 0 -4230555.9054613113 3283991.6593208313 0 0 0 0 32081153.56994772 -35884628.023349524 0 -35884628.023349524 -35768427.828333855 0 0 0 0 -723822.92783105746 -1968515.3641216652 0 -1968515.3641216652 -2559207.2487024702 0 0 0 0 17061335.498283386 -26765154.82921505 0 -26765154.82921505 15313711.119508743 0 0 0 0 2474320.0546760559 -17268609.815438271 0 -17268609.815438271 19898589.220754147 0 0 0 0 4392765.5151596069 -14789594.891671181 0 -14789594.891671181 12009701.060351372 0 0 0 0 7112448.238445282 -8744505.5842638016 0 -8744505.5842638016 4815919.0800800323 0 0 0 0 -1523079.4946289062 -13725829.90534544 0 -13725829.90534544 1296447.7044153214 0 0 0 0 2071365.2132921219 -13686765.143622637 0 -13686765.143622637 916357.0432472229 0 0 0 0 14896456.252689362 -656896.46523094177 0 -656896.46523094177 -10764849.68253994 0 0 0 0 5238970.7664871216 -25098839.233225822 0 -25098839.233225822 -1970250.2473449707 0 0 0 0 160401.05213165283 -36938908.411423683 0 -36938908.411423683 -25536290.779071808 0 0 0 0 19050095.074623108 -58585157.167673111 0 -58585157.167673111 -1705743.1097846031 0 0 0 0 -656968.17058935016 -1137302.9580434887 0 -1137302.9580434887 -1120711.1161897001 0 0 0 0 83429183.897941589 -96955552.69360733 0 -96955552.69360733 -224210224.28366303 0 0 0 0 17637905.682121277 15623061.580720901 0 15623061.580720901 -122165708.69065666 0 0 0 0 316322159.23730469 -155561160.3146162 0 -155561160.3146162 -22097509.817562103 0 0 0 0 -28628222.203269958 -181885610.74877214 0 -181885610.74877214 36776768.939287603 0 0 0 0 -612598.89852418751 -18448.552268116735 0 -18448.552268116735 390423.06414640928 0 0 0 0 53862212.656667709 107648041.09119949 0 107648041.09119949 912878.63088989258 0 0 0 0 -830742753.96920395 266717980.45426226 0 266717980.45426226 163990204.34133005 0 0 0 0 -292575730.28549957 322031550.63915491 0 322031550.63915491 119724500.76763225 0 0 0 0 -1225513962.0474548 -573752300.99813271 0 -573752300.99813271 -913344191.13167191 0 0 0 0 -626205.9454478845 -3551.384452579543 0 -3551.384452579543 396819.32109154668 0 0 0 0 -46961665.307457924 198897353.16963539 0 198897353.16963539 61261375.498945236 0 0 0 0 -58815939.863311768 133542910.66840887 0 133542910.66840887 -184454573.33376122 0 0 0 0 127581474.61159134 171838482.04163837 0 171838482.04163837 -108916636.12741852 0 0 0 0 155878438.2988739 244282801.33874941 0 244282801.33874941 74377691.962619781 0 0 0 0 -178168841.79099274 -95195838.849302292 0 -95195838.849302292 149883552.50908852 0 0 0 0 -189045463.66218567 -162607754.15275002 0 -162607754.15275002 -88865496.354147196 0 0 0 0 56004022.968070984 886478603.41965771 0 886478603.41965771 254140154.81215858 0 0 0 0 -392204814.0056076 -336578539.90244198 0 -336578539.90244198 -237772141.30094337 0 0 0 0 -766433854.03527546 229130481.74881637 0 229130481.74881637 -10776087.941638947 0 0 0 0 -2002117.0168055668 887470.50470316038 0 887470.50470316038 -368769.44335273025 0 0 0 0 -232709374.85323334 -246159739.91358566 0 -246159739.91358566 -481864974.36512369 0 0 0 0 -139940393.07442474 296207567.50154877 0 296207567.50154877 -329815067.67881072 0 0 0 0 -88101569.673007011 66072819.352506161 0 66072819.352506161 -77340950.007125854 0 0 0 0 -409797388.54733276 -103291351.37775779 0 -103291351.37775779 36332008.930233002 0 0 0 0 -19345575.900424004 -19898090.74201405 0 -19898090.74201405 -242439890.9367466 0 0 0 0 -193602943.95427704 -172060890.13419437 0 -172060890.13419437 -177350725.04350233 0 0 0 0 -874895895.3382988 -298835343.17355061 0 -298835343.17355061 -45286249.34635973 0 0 0 0 -387508716.97344589 -49184026.94600153 0 -49184026.94600153 68090186.509144783 0 0 0 0 -371268997.09393692 43055881.899258614 0 43055881.899258614 153231537.04130316 0 0 0 0 -559275024.45038223 2830875.915541172 0 2830875.915541172 165732876.62707806 0 0 0 0 -373436693.72567177 43342694.551912308 0 43342694.551912308 164701316.44060802 0 0 0 0 -231280632.90972137 -61240209.518174171 0 -61240209.518174171 65801178.205468178 0 0 0 0 -221636832.05897522 -20803230.313346863 0 -20803230.313346863 70088381.215338707 0 0 0 0 -189755128.0725174 -15753904.055397034 0 -15753904.055397034 67569205.636848688 0 0 0 0 -194944525.32556152 -54794424.29615736 0 -54794424.29615736 64611489.993202686 0 0 0 0 -210041673.60886383 111403459.48096514 0 111403459.48096514 98829416.571434259 0 0 0 0 -372540949.01394272 25619442.186075926 0 25619442.186075926 146545788.62056351 0 0 0 0 -341682307.49622345 -62770214.286813259 0 -62770214.286813259 -26965225.734376281 0 0 0 0 -242200365.41570711 11220408.821414351 0 11220408.821414351 48433638.928432465 0 0 0 0 -237985169.72933197 41052909.463119507 0 41052909.463119507 76982774.048698425 0 0 0 0 -81611386.994483948 23238860.169264793 0 23238860.169264793 37490215.333902359 0 0 0 0 26665522.296599865 -24251732.762840152 0 -24251732.762840152 -6429890.0997505188 0 0 0 0 -90689355.123443604 -4259375.5093646049 0 -4259375.5093646049 16456236.311711311 0 0 0 0 -2078568.9076728821 -24659666.011270761 0 -24659666.011270761 52537098.464317799 0 0 0 0 -81120522.686798096 25351771.982462645 0 25351771.982462645 44873022.633687019 0 0 0 0 29863861.140586853 120325938.1622889 0 120325938.1622889 24647063.047306061 0 0 0 0 -245594277.11494637 113684034.69297838 0 113684034.69297838 52349176.741206169 0 0 0 0 -316018295.74920654 26545947.448588848 0 26545947.448588848 80052368.874022067 0 0 0 0 
</DataArray>
<DataArray type="Float64" Name="cross_section_updated" format="ascii">
1 1 1 1 1 0.049225451759040431 1 1 1 1 1 1 1 0.049970739697019054 1 1 1 1 0.050048807828760394 1 1 0.04876013763680985 1 1 1 1 0.049468927959022226 1 1 1 1 0.048137580000338104 1 1 1 1 1 1 1 1 1 1 1 1 1 0.050020142998649701 1 1 0.050038923815849422 1 1 1 1 1 0.049819883158022937 1 1 1 1 1 1 1 0.048990142702086945 1 1 1 1 0.049189419482987023 1 1 1 1 1 1 1 1 1 0.049152817575664087 1 1 0.0482013503165101 1 1 0.045742308016697243 1 1 1 1 0.050097775811114263 1 1 1 1 1 1 1 0.045783526628103539 0.050014064428611199 0.052292375790020697 1 1 0.051681846484260108 1 1 1 1 1 0.048444131053903786 1 1 1 1 1 1 1 1 1 1 1 1 1 0.050202917659621961 1 1 1 0.050729242270923833 1 1 1 1 1 1 0.050154036762006596 1 1 1 1 1 1 1 1 1 1 1 1 1 1 1 1 1 1 1 1 1 1 1 1 1 0.050004699056605609 1 1 1 0.049815369314179903 1 1 0.050241048289979162 1 1 1 1 1 1 1 1 1 1 1 0.049895842773215279 1 1 1 1 1 1 1 1 0.049563527373285787 1 1 1 1 1 1 1 1 0.049129140006488381 1 1 1 1 1 1 1 1 1 0.049940760856523408 1 1 1 1 1 1 1 1 1 1 1 1 1 1 1 1 1 1 1 1 1 1 1 0.04999613484304273 1 1 1 0.048509690386273563 1 0.049983342437677034 1 0.049488021657119886 1 1 0.046529804323134402 1 1 1 0.049639670157435943 1 0.049281803877972555 1 0.048892206354812326 1 0.049399054535496471 0.04718570499584071 1 0.048811233806445337 1 1 0.047940757575079276 1 0.049107658006241992 1 1 1 0.049382606310159428 1 0.049645467836023034 0.049086904550093888 1 1 0.049071231940648212 1 1 1 0.049831601578188445 1 0.049262983868278425 0.049256687037774395 0.050120044306236011 1 0.049402329888900781 1 1 1 0.050012835433427341 1 0.049334298451461638 0.049127071031422886 0.05001121770209864 1 1 0.047569176663175838 0.047210959610327723 1 1 1 1 0.046314862723622494 1 0.050021919971270763 1 1 0.049464809645634593 1 1 1 0.049855106747957886 1 0.049973059233087709 0.049678518140755024 0.050223362523755623 1 1 1 0.049527645872479112 1 0.049748065205933806 0.04862536303429154 0.049515031966505231 0.0489533510203497 1 1 1 0.049439524495419399 0.050000080049472512 1 1 0.050133531416050023 0.049118224240403963 0.049614267482632639 1 0.049706771594006577 1 1 1 1 0.050000327569849047 1 1 1 1 1 1 1 0.048818045818056627 1 1 1 1 1 1 0.049768638606758162 0.050000503152576606 1 1 1 0.048819944164725695 1 1 1 0.049990842580246421 1 0.049557749417345975 1 0.051818764915770685 0.046736670131996227 1 1 1 1 0.049960773601183991 1 1 0.046860665221129347 1 1 1 1 0.049989056773732214 1 0.050016350310052242 1 1 1 1 1 0.050752229500743762 0.046087722065627237 1 1 1 1 1 1 1 1 0.050046729037127424 1 1 1 0.050331673819058245 1 1 0.047714240773440351 1 0.05000182733468389 1 1 1 1 1 1 1 1 1 1 1 0.047194222518108578 1 0.049853141567474314 1 0.047555378048453702 1 1 1 0.050420058712969298 1 0.049997062680102677 1 0.049739672585682175 1 1 1 1 1 1 0.048924846307580525 1 0.048683417845688665 1 1 1 0.048887878490289784 1 1 1 0.048729513075159395 1 0.049298463849696945 0.050067985340967264 1 1 1 1 0.047214622088638955 1 1 1 1 0.047202258375278132 0.050365980279339563 1 1 0.05032997894258584 1 0.049486825011974531 1 0.047507444083505462 0.04786868406624168 1 1 1 0.049981051200845096 1 1 1 1 0.048487210675877183 1 1 1 1 1 1 1 1 1 1 1 0.049997970307297773 1 1 1 1 0.047593911940188777 1 1 1 0.049183980836283434 1 0.050043431771206896 0.04999542403738938 0.050000180596762714 1 1 1 0.048544948618845479 0.046685526068023661 1 0.045774035632712831 1 1 0.049899892771180593 1 1 1 1 0.045703638981249628 1 1 1 1 1 1 1 1 1 1 1 0.04518947468886534 0.050970463982519053 1 1 0.047409778170846482 1 1 1 0.050002520905427068 1 1 1 1 1 1 0.047275723967298344 1 1 1 0.052136549248482836 1 1 1 0.048208923472580475 1 1 1 1 1 1 1 1 1 1 1 0.048401164698881914 1 1 1 0.049565681166494305 1 1 1 1 1 1 1 0.049937814129042218 1 1 1 1 1 0.049931496439630789 1 1 1 1 1 1 1 1 1 1 1 1 1 1 1 1 1 1 1 0.043551433435544011 1 1 1 1 0.044994127695136707 1 1 0.047948814998891448 1 1 1 1 1 1 1 0.050024056131565964 1 1 1 1 1 1 1 1 0.05016332940910613 1 0.050285018353274792 1 1 0.044587908434829834 1 1 1 0.044949991710455356 1 1 0.042598525770670088 1 1 1 0.049704910551810401 1 0.048995053109859625 1 1 0.050004442127118333 1 0.042640834778808978 1 1 1 1 1 1 1 1 1 1 1 1 1 1 1 1 1 1 1 1 1 1 0.049657479906925317 1 0.049881857909606822 1 0.049939897354462554 1 1 1 1 1 1 1 1 1 1 1 1 1 1 1 0.049848338153729514 1 1 1 1 1 1 1 1 1 0.049809141753195806 1 1 1 1 1 1 1 1 1 1 1 1 1 1 1 1 1 1 1 1 1 1 1 1 1 1 1 1 1 0.049335259244557075 1 1 0.04938155532326266 1 1 1 0.04696355366035472 0.050082362053203017 1 0.04872449652906749 1 1 1 1 1 0.046821504946961315 1 1 1 1 1 0.047270583431401808 1 1 1 1 1 1 1 1 1 1 1 1 1 1 1 1 1 1 1 1 1 1 1 1 1 1 1 1 1 1 1 1 1 1 1 1 1 1 1 1 1 1 1 1 1 1 1 1 1 0.049302648912480096 1 1 1 1 1 1 1 1 1 1 1 1 1 1 1 0.048187001817590704 1 1 1 1 0.049076778222280515 1 1 1 1 1 1 1 1 1 1 1 1 1 1 1 1 1 1 1 1 1 1 1 1 1 1 1 0.048486809749494583 1 1 0.049797533220210639 1 0.047722655593744744 0.049712256427485578 0.050976943212555345 0.050190300349319553 1 1 0.050027897014600455 1 1 1 1 1 1 1 1 1 1 1 1 1 1 1 1 1 0.04717710210831616 1 1 0.046610347859280921 1 0.048645025775143978 1 1 1 1 0.045814297855713122 1 0.050120486850030871 1 1 1 1 0.049977314524416047 1 1 1 0.049411811090830204 1 1 1 1 1 0.049614275631123528 1 0.048359688454812477 1 1 0.049863252469238083 0.048333743130826883 1 0.048894726360267753 1 1 1 1 1 1 1 1 1 1 1 0.044953906636652219 1 1 1 0.046133395918130107 1 1 1 0.04790818524452771 1 1 0.046122451884690288 0.050197641149653478 0.050061051574170665 1 1 1 1 1 1 1 1 1 1 1 0.050001651178646717 1 1 1 1 1 1 1 1 0.046730434179835301 0.043994412865933308 0.047350514751184215 1 1 1 1 1 1 1 1 0.044770813604337704 0.049963198269996088 1 1 1 0.051032080994860882 1 1 0.049839802320351179 1 1 1 1 1 1 1 1 1 1 1 0.049933717239623039 1 1 1 1 1 1 1 1 0.050055398952138806 1 1 1 1 1 1 1 1 1 1 0.050011957454369926 1 0.048715779191692794 0.0446148598775905 0.050195089627292341 1 1 1 1 1 1 1 0.046874400472924627 0.042795578853817864 1 0.050400491334601505 1 1 1 1 1 0.048938170049497021 1 0.050113222618808309 0.049073214472107426 1 1 1 0.047976909467290718 1 0.047175888549482521 1 1 1 1 0.049995033407205881 1 1 1 1 1 1 1 1 1 1 1 1 1 1 1 1 1 0.048044993130421924 1 1 1 0.046247402370937808 1 1 1 1 1 0.049177433915656307 1 1 1 1 1 1 0.047257517530557569 1 0.048934620710343359 1 1 1 1 1 1 1 1 0.050328259640606665 1 1 1 0.049146138945392187 1 1 1 1 1 1 1 1 1 1 1 1 1 1 1 1 1 1 1 1 1 1 1 1 1 0.050849096606740647 0.050110579681166084 0.044896919635341592 1 1 1 1 0.05142222062243753 1 1 1 1 0.052533128079287221 1 1 1 1 1 1 1 0.049068525867311481 1 1 1 1 1 1 1 1 0.048343858652851728 1 1 1 1 1 1 1 1 1 1 1 1 0.048804876156876703 1 1 1 1 1 1 0.04987539030337073 1 1 1 1 1 1 1 1 0.050869203075406683 1 1 1 0.046541181015496425 1 1 1 1 1 1 1 1 1 1 1 1 0.049275332785540242 1 1 1 1 1 1 1 1 1 1 1 1 1 1 1 1 1 1 1 1 1 1 1 1 1 1 1 1 1 1 1 1 1 1 1 1 1 1 1 1 1 1 1 1 1 1 1 0.049958886605016899 1 1 1 1 1 1 1 1 1 1 1 1 1 1 1 1 1 1 1 1 1 1 1 1 0.049219897363278371 1 1 1 1 1 1 1 1 1 1 0.04903180299055139 1 1 0.048341809755664503 1 1 1 1 1 1 1 1 1 0.047883904903837621 1 0.047552231563829934 1 1 1 1 0.048200901114726302 1 1 0.045792033268508336 1 0.049565923366961605 1 1 1 1 1 0.047944042372070866 1 1 1 1 1 1 1 1 0.047647722464795782 1 1 1 1 1 1 1 1 1 1 1 1 1 1 0.045456003697452521 1 0.046928338044063177 0.050657082088074734 1 1 1 1 1 0.050231950204731313 1 1 1 1 1 1 1 1 1 1 1 1 1 1 1 0.048279444793953089 1 1 1 1 1 1 1 1 1 1 1 1 1 1 1 1 0.050228631880024514 1 1 1 1 1 0.043896085003988401 0.049567813322527479 1 1 0.045576806699601617 1 1 1 1 1 1 1 1 1 1 0.050048244973136889 1 1 1 1 1 1 1 1 1 0.049581381743538724 1 0.040054737261532573 1 1 1 1 1 0.050088887868483041 1 1 1 1 0.039588804425157234 1 1 1 0.050437386663821485 1 1 1 0.040075298766135158 1 1 0.050868710861234026 1 1 1 1 1 1 1 1 1 1 1 1 1 1 1 1 0.049757341590021584 1 1 1 1 1 1 1 0.050749225382074568 1 1 1 1 1 1 1 1 1 1 1 1 1 1 1 1 1 1 1 1 1 1 1 1 1 1 1 0.038453303158185986 1 1 1 1 0.050270294416733981 1 1 1 0.0590605997833323 1 1 1 1 1 1 1 1 1 0.058297158860015547 1 0.049997517205472151 1 1 1 1 1 1 1 1 1 1 1 1 1 1 1 1 1 1 0.049987735498198446 0.042437322638284508 1 1 1 0.051269196694879962 1 1 0.045975117624269229 1 1 0.047094264836762954 1 1 1 0.049986249693707324 1 1 0.048930602655019265 1 1 1 1 1 1 1 1 1 1 1 1 1 1 1 1 1 1 1 1 0.050214881573731836 1 0.049898819615980985 1 1 1 1 1 1 1 1 1 1 1 0.050391488706818588 1 0.051803507209146553 1 1 1 0.046016436747972775 1 1 1 1 1 0.049883083792423843 1 1 1 1 1 1 0.047911690197762057 1 1 1 1 1 1 1 1 1 1 1 0.046164625089084275 1 1 1 1 1 1 1 1 0.048425160340577554 1 1 1 0.050337986394976872 1 1 0.044488330711247359 1 1 1 1 1 0.049679155897536721 1 1 1 1 1 1 1 1 1 0.049971353568933084 1 1 0.047353879929367008 1 0.048173508078049411 1 0.049906123651963639 0.049382849626897839 0.049781956842478846 1 0.04998394144338407 1 1 1 1 1 1 0.051312079123554566 1 1 1 1 1 1 0.049938203034427003 1 1 1 1 1 1 1 0.052352116100250805 1 1 1 1 0.053468275611975778 1 1 1 1 1 0.048359654203417431 1 0.049983654310919862 1 1 1 1 1 1 1 1 1 1 0.049859543958745645 1 1 1 1 1 1 1 0.042536606287451817 1 1 1 1 1 1 1 0.050002353297881087 1 0.049813560225046433 1 1 1 1 1 1 1 1 0.043254748543668911 1 1 1 0.034528575269158118 0.049988036690932644 1 1 1 1 1 0.044233842915719995 0.050082196350220785 1 0.046115988296505969 1 1 0.049547259665113468 1 1 0.041575184548833237 1 1 1 1 1 1 1 1 0.042456623195887486 1 1 1 1 1 0.03934571517550281 1 1 1 1 0.028904608414557366 1 1 0.03138402770201966 1 1 1 1 1 1 1 1 1 1 1 1 1 1 1 1 1 1 1 1 1 1 1 1 1 1 1 1 1 1 1 1 1 1 1 1 1 1 1 1 1 0.050586603970448583 1 1 0.049951168594714997 1 1 1 1 1 0.048879184511258278 1 1 1 1 0.050372695343697566 1 1 1 1 1 1 1 1 1 1 1 1 1 1 1 1 1 1 1 1 1 1 1 1 0.049106947181123038 1 1 1 0.049622429358579724 1 1 1 1 1 1 0.049889949918879704 1 1 1 1 1 1 1 1 1 1 1 0.048432862945502766 1 0.050651394063175807 0.048705072583964913 1 1 0.049184743678168386 1 1 1 1 1 1 1 1 1 1 1 0.04720278717789788 1 1 0.048557845884949283 1 1 1 1 1 1 1 1 1 1 1 1 1 1 1 0.047961707825457875 1 1 1 1 1 1 1 0.049982732104056106 1 0.049393417511693322 1 1 1 1 0.050199136038842476 1 0.049824040153517143 1 1 1 1 1 1 1 1 1 0.049152537734774786 1 1 1 1 1 1 1 1 1 1 1 1 1 1 1 1 1 0.050086176856195361 1 1 1 1 1 1 1 1 1 1 1 1 1 1 1 1 1 1 1 1 1 1 1 1 1 0.049983560098733282 0.049927435977496257 1 1 1 1 1 1 1 1 1 1 1 0.04974406055819449 1 1 1 1 0.050285753566154383 1 1 1 1 0.050060580000258106 1 1 1 1 1 1 1 1 0.049576268969141121 1 1 1 1 1 1 1 1 1 0.049808162036318118 1 1 1 1 1 1 1 1 1 1 1 1 1 1 1 1 1 1 1 1 0.046452901466567845 1 1 1 1 1 1 1 1 1 1 1 1 1 1 0.050539700831799102 1 0.049907865350032041 1 1 1 1 1 1 1 1 0.049490968803030527 1 1 0.049797815268911742 1 1 1 1 1 1 1 1 1 1 1 1 1 1 1 1 1 1 1 1 1 1 1 1 1 1 1 1 1 1 1 1 1 1 1 1 0.049963402910030506 1 1 0.049902927612742433 1 1 1 1 0.052452861655875815 1 0.043947830430144851 1 1 0.0454851396791413 1 0.049011907418456929 1 1 1 1 1 0.049572741222975468 1 1 1 1 1 1 1 1 1 1 1 1 0.048585467378357054 1 1 1 0.054367311526830997 1 1 1 1 1 1 1 1 1 0.046178740245223282 1 1 1 1 0.046630412165105065 0.051973846181706827 1 1 1 1 1 1 1 1 0.049908644924571526 1 1 1 1 1 0.050122116468223274 1 1 1 0.04997669294378583 1 1 1 0.047320125762458809 1 1 1 1 0.051647701435833526 1 1 1 1 1 1 1 1 1 1 1 1 1 1 0.048451419143845952 1 1 1 1 1 1 0.052428264211915231 1 0.048757201523541932 0.049998610044158884 1 0.056556673371667567 1 0.047505141855648185 1 1 1 1 0.050045020828095386 1 1 1 1 0.050174918084192673 1 1 1 1 1 1 1 1 1 0.049508665135106864 1 1 1 1 1 1 1 1 1 1 1 1 1 1 0.048947831330588332 1 1 1 0.049921013781821733 1 1 1 0.049788331600950378 1 0.049990213814917514 1 1 1 1 1 1 1 1 1 1 1 1 1 1 1 1 0.049123799421515929 1 1 1 1 1 1 0.047165418914404164 1 1 1 1 1 1 1 1 1 1 1 1 1 1 1 1 1 1 0.043663029257835037 1 1 1 1 1 1 1 1 1 1 1 1 1 1 1 1 1 1 1 1 1 1 1 1 1 1 1 1 1 1 1 1 1 1 0.050442537329138892 1 1 1 1 0.049868339506757731 1 1 1 1 1 1 1 0.044391063947985712 1 1 1 1 1 1 1 1 1 0.050772297040385932 1 1 0.040911545607968072 1 1 1 1 1 0.049999269413081131 1 1 1 0.050018726399542253 1 1 0.04930174406599902 1 1 1 1 1 1 1 1 1 1 1 1 1 1 1 1 1 1 1 1 0.048623282074062857 1 1 1 1 1 1 1 1 1 1 0.049518857584443833 0.046699989009557151 1 0.036644398066341316 1 1 1 1 1 0.03473663971769296 1 1 1 1 0.049739527542588327 1 1 1 1 1 0.050071492460088102 1 0.050025695380240709 1 1 0.050735079947810124 1 1 1 1 1 1 1 1 0.050242481254875036 1 1 1 1 1 1 0.049813048324027748 1 1 1 1 1 1 0.049723680474113283 1 1 1 1 0.049227219786188506 1 1 0.050027054868945181 1 0.048792725436940014 1 1 0.04989246628238115 1 1 1 1 1 1 0.049912682795738121 1 1 1 1 0.049963050884073129 1 1 1 1 1 1 1 1 0.049210874013881911 0.04838657127461804 1 1 1 1 1 1 1 1 0.04975179147140852 1 1 1 1 1 1 0.049881582083517319 1 1 1 1 1 1 1 0.049052464390671471 1 1 1 0.047594125602788778 1 1 1 1 1 1 1 1 1 1 1 1 0.050004180607042911 1 1 1 1 0.049097972714566639 1 1 0.04998510067150648 1 1 1 1 0.050389791928165534 1 1 1 0.049986425477143361 0.050732251676751654 1 1 1 0.049663431366505945 1 1 1 0.05010089511074331 1 1 1 1 1 1 1 1 1 0.050650476575349934 1 1 1 0.050001830456964984 1 1 1 1 1 1 1 1 1 1 1 1 0.051156950152461154 1 0.049920887477005252 1 1 0.049890773856575879 1 1 0.049696758505541845 1 1 1 1 1 1 1 0.049992616287151938 1 1 1 1 1 0.050014188054488228 1 0.050502130267012592 1 1 1 0.05262890285196619 0.04600106082872911 1 0.04845516685028152 0.052084541084240377 1 0.050756473078121513 1 1 1 1 1 1 0.049867194520520505 1 0.045607699328558127 1 1 1 1 1 1 1 1 1 1 1 1 1 0.05003059317893413 1 1 0.047573405741980851 1 0.04957672096042208 1 1 0.046079651383919513 1 1 1 0.049397657560987282 0.049429157950866776 1 1 0.04581292955130413 1 1 1 1 1 1 1 1 1 1 1 1 1 1 1 1 1 1 1 1 1 1 1 0.049981017545766442 0.0500185085067128 1 0.049705934881504613 1 0.048785109285667365 1 1 0.0499999406055903 0.051167768018147139 1 1 0.050001160208511891 1 1 0.048989966229550375 1 1 0.050472650618862087 1 0.048716715613584094 1 1 1 1 0.050022457978327058 1 1 1 1 0.049800691179711441 1 0.049401463055750466 0.049373620051260822 1 0.050073930265499902 1 1 0.046377082764270973 0.049821796696474713 1 1 1 0.048565460216998042 1 1 1 1 0.047513386053745298 0.049852467989249111 1 1 1 1 1 0.050126199825715229 1 1 1 1 1 1 1 1 1 1 1 0.050509331135415579 1 0.049986220227879664 1 0.048789182580750642 1 1 0.050001158131668194 1 0.048087421943566078 1 1 1 1 1 1 1 1 0.049203142499082357 1 1 0.050509127561743875 1 1 1 1 0.050000147234148223 1 1 1 1 1 1 1 1 1 1 1 1 0.049429993160138491 1 1 1 1 1 1 1 1 1 1 1 0.049943942086030743 1 1 1 1 1 1 0.049987160499187985 1 0.050412104856172507 1 1 0.049840916499790167 1 1 1 1 1 1 1 1 1 1 1 1 1 1 1 1 1 0.049882346346219582 0.047552826339193971 1 1 1 0.050036162027830185 1 1 0.047305827667195141 1 1 1 1 1 1 1 1 1 1 1 1 1 1 1 1 1 1 1 1 1 1 1 1 1 0.04999870132635105 0.048699920719871823 1 1 1 1 1 1 1 1 1 1 1 0.048529863667353762 1 1 1 1 1 1 1 1 1 1 1 1 1 1 1 1 1 1 1 1 1 1 1 1 1 1 1 1 1 1 1 1 1 0.049966146773779405 1 1 1 1 1 0.049962193775631422 1 1 0.050164725175144947 1 1 0.04810417491875503 0.051105463025727327 1 1 1 1 1 1 1 1 1 1 1 1 1 0.05105131706612677 1 1 0.050054724388823225 1 1 1 1 1 1 0.050000686432568928 1 1 0.050978048466570433 1 1 1 1 1 1 1 1 1 1 1 1 1 0.050018653685879502 1 1 1 1 1 1 1 0.050000816290659708 1 1 1 1 1 1 1 1 1 1 1 1 0.049982228258477146 1 1 0.049995067759289163 1 1 1 1 1 1 1 1 1 1 1 1 1 1 1 1 1 1 1 1 0.049963425942047016 1 1 0.050004961315649486 1 0.050105753831447337 1 1 1 0.049998322881412184 1 1 0.048940741159917651 1 0.049825914448232977 1 1 1 0.049249834878609483 1 1 1 1 0.049977635266526217 1 1 1 1 1 1 1 0.049935138270904032 1 1 1 0.049744104286886713 1 1 1 1 1 1 1 1 1 1 1 1 0.050004370942128139 1 1 1 1 1 1 1 1 0.04972111757879169 1 1 1 1 1 1 1 1 1 1 1 0.049537679057834655 1 1 1 1 1 1 1 1 1 1 1 1 1 1 1 1 1 1 1 0.049365175553560195 0.049731968070804808 1 1 1 0.049898540501773614 1 1 1 1 1 1 1 1 1 1 1 1 0.049982083974720412 1 1 1 1 1 1 1 1 1 0.049942689574685506 1 1 1 1 1 1 1 1 1 1 1 1 1 1 1 1 0.0462007689440996 1 0.04976709384713341 1 1 1 1 1 0.047149894628766773 1 1 1 1 0.049762518673580787 1 1 1 0.050007121375535098 1 1 1 0.049348810167267332 1 1 1 1 1 1 1 1 1 0.049327278951157377 1 1 1 0.04814636118524681 1 1 0.049695146914483013 1 1 1 1 1 1 0.049844796571911265 1 1 1 1 1 1 1 1 0.049492707890159485 1 1 1 0.049751843654517458 1 1 1 1 1 1 1 1 1 1 1 1 1 1 1 1 1 1 1 1 1 1 1 1 1 1 1 0.049813549533447098 1 1 1 1 1 1 1 0.049882384828845702 1 1 1 1 1 1 1 1 1 1 1 1 1 1 1 1 1 1 1 1 1 1 1 1 1 0.049951713907518944 1 0.049964019811946397 1 1 1 1 1 1 0.049989994650012554 1 1 1 0.050063575626474059 1 1 0.050172428256542563 1 1 1 1 1 1 1 1 1 1 1 1 0.044651107540345084 1 1 1 1 1 0.045573027510048179 1 1 1 1 1 1 1 1 1 1 1 1 1 0.050002300554440007 1 1 1 0.049998756851093742 1 1 1 1 1 1 1 1 1 1 1 1 0.050004799313629049 0.049197536134892632 1 1 1 1 0.049838627061683786 1 1 1 1 1 1 1 1 1 0.050028794588479267 0.048049634929400106 1 1 1 1 1 0.04737038829489585 1 1 1 1 1 0.049887875804610189 1 1 1 1 1 0.050007070314522041 1 0.05045189284242884 1 1 1 1 0.049266895065442975 1 0.050401724510761456 1 0.049567238496424297 0.049997740058638176 1 1 1 1 1 1 1 0.050028626120127914 0.0496178323810475 1 1 1 1 1 1 0.050000485986815696 0.047208236403481485 0.049446492745614884 1 0.050135628473477203 0.05047047900715694 1 1 1 0.050084281126691534 1 1 1 1 1 0.047567335856242059 0.049312176119160625 0.050000317284472975 1 0.05036562055307682 1 1 1 0.049998748138469606 1 0.047351362749943129 0.049976917651886069 1 1 1 1 1 1 1 0.049375542687721929 0.050735521313001991 1 1 0.046923139658821895 0.045455422840547426 0.051535972922311976 1 1 1 1 1 1 1 1 1 1 1 1 1 1 1 1 1 1 1 1 1 1 1 1 1 1 1 1 1 1 1 1 1 1 1 1 1 1 1 1 0.049991470721392886 1 1 1 1 1 1 1 1 1 1 0.049968906235338513 1 1 1 1 1 1 0.049931082763283362 1 1 0.050166319351926267 1 1 1 1 1 1 1 1 1 1 1 1 1 0.050019134112857001 1 0.05025572351390957 1 1 1 1 0.049191363918035261 1 1 1 0.044090731821134752 1 1 0.044379922023667515 1 1 1 0.050002030377607747 1 1 0.049958607862830837 1 1 1 1 1 0.049978883914149154 1 1 1 1 1 1 1 0.049993995624386493 1 1 1 1 1 1 1 0.044857198819511779 1 1 0.045409247366574736 1 1 1 1 0.050089500609348324 1 0.049995110087152156 1 1 1 1 1 0.050276307911162554 1 1 1 1 0.049810239707054248 1 1 1 1 1 1 0.049395978269547447 0.051049508361639989 1 1 1 1 1 0.046922713120180461 1 1 0.048435036945465318 1 1 1 1 1 1 1 1 1 1 0.048473389650051976 1 1 1 1 1 1 1 1 1 1 1 1 1 1 1 1 1 1 0.04948101475137695 1 1 1 1 1 1 0.050072320203134589 1 1 1 1 1 1 1 0.051942281177003002 0.050238664750061973 1 1 1 1 0.050024721256545196 1 1 1 1 1 1 1 0.050871526116699928 1 1 0.0495301397995732 1 0.047971356821390962 0.051048088109223039 0.048444084869765203 1 1 1 1 1 1 0.0496218919207745 1 1 1 1 1 0.050001182098745184 1 1 1 1 0.048891394627708612 1 1 1 0.052205867103688713 1 1 1 0.049469080683731702 1 1 1 1 1 1 1 1 1 1 1 1 1 1 1 1 1 1 1 1 1 1 1 1 1 0.048859264228065295 1 1 1 1 1 1 1 0.049963436568387219 1 0.049300466458176997 1 1 1 1 1 1 0.045809850768792876 1 1 0.049767602048506401 1 1 1 0.049990438177693969 1 1 0.049143566319256697 1 1 1 1 1 0.050039919608896991 1 1 1 0.050014705638094292 0.04978637004389444 1 1 1 1 1 1 1 1 1 1 1 1 0.050333010475735296 1 1 1 1 1 1 1 1 1 0.05118266862011963 1 1 1 1 1 0.050013512776034247 0.049173065398283616 1 1 1 1 1 1 1 1 1 0.049887267984345958 1 1 1 1 1 1 1 1 0.049471392929135646 1 1 1 1 1 1 1 1 1 1 1 1 1 1 1 1 1 1 0.04981014287399417 1 1 1 1 0.049554247160880888 1 0.049817011807531016 1 0.049984445982131379 1 1 1 1 1 1 1 1 1 1 1 1 1 1 1 1 1 0.050075405631021155 1 1 1 1 1 0.048879701245632512 1 1 1 0.050362029727721469 0.048546574838642206 1 1 1 1 1 0.049643917498303741 1 1 1 1 0.050099765326817133 1 1 1 1 1 1 1 1 0.04894295506870977 1 1 1 1 1 1 1 0.049422991424855969 1 1 1 1 1 1 1 1 1 0.050117153844239579 1 1 1 1 1 1 1 1 1 1 1 1 1 1 1 1 1 1 0.050043967638995338 1 1 1 1 1 1 1 1 1 1 1 1 1 0.050010732415691692 1 1 1 1 1 1 0.049960469250828185 1 1 0.049740864235642022 1 1 0.049962612930178021 1 1 1 1 1 1 1 1 1 1 1 1 1 1 1 1 1 1 1 1 1 1 1 1 1 1 0.04997825616915591 1 0.049762569768669815 1 0.049999865583240002 0.050439176113214843 1 1 1 0.049720255409754707 1 1 1 1 1 1 1 1 1 0.050124713329889249 0.050036853293250652 1 0.048927328833441162 1 1 1 1 1 1 1 1 1 1 1 1 1 1 0.050000099044620688 1 0.050539036001264463 0.050812238611845265 1 0.049527426386931035 1 1 1 1 1 1 1 1 1 0.051693823135437397 0.050203452147310035 1 1 1 1 1 1 1 1 1 1 1 1 1 1 1 1 1 1 1 1 1 1 0.04936043240882293 1 1 1 1 1 0.050338133498265124 1 1 1 1 1 0.051140272903131501 1 1 1 0.047941053507555766 1 1 1 1 1 1 1 1 1 0.04884363020646084 1 1 1 1 0.048372617928318498 1 1 1 1 1 1 0.051743504007833292 1 1 1 1 1 1 1 0.049833062226771238 1 1 1 1 0.051725366151241431 1 1 1 1 1 1 1 1 1 1 0.049601165864840424 1 1 1 1 0.048640235559765689 1 1 1 0.047111855839074492 1 1 1 1 1 0.050481216338623666 1 1 1 1 1 1 1 1 1 1 1 1 1 1 0.050764368434029067 0.044770432196362689 1 1 0.046343052952750804 1 1 1 1 1 1 1 0.050272875835815828 1 1 1 1 1 1 0.049863875239702711 1 1 1 1 1 1 1 1 1 1 1 1 1 1 1 1 1 1 1 1 1 1 1 0.049385115300231708 1 1 1 1 1 1 1 1 0.049975183064684015 1 1 1 1 0.049950509089318564 1 1 1 1 1 0.048707514924361796 1 0.050008938257912035 1 0.048820390358691339 1 1 1 1 1 1 1 0.050081240185651799 1 1 1 0.045655177035072478 1 1 1 1 1 0.047849975098933489 1 1 1 1 1 0.050177819553083869 1 0.049592025113797351 1 1 0.049388834645272682 1 0.050326445442515647 1 1 1 1 1 0.050004824352172003 1 1 1 0.050098119484115883 1 1 1 1 1 1 1 1 1 1 0.050276397878616381 1 1 1 1 1 1 1 1 1 1 1 1 1 1 1 1 1 1 1 1 1 1 0.047962200537248853 1 1 1 1 1 1 1 1 1 1 1 1 1 1 1 1 1 1 0.044790359707275774 1 1 1 0.042648664459115859 1 1 1 1 1 1 0.036330157272460722 1 1 1 0.048582010815261936 0.047046001411898859 1 0.042255282544125493 1 0.049482912316729667 0.044210164054889742 1 0.044846782813872436 1 1 0.047399108471739129 1 1 0.051106495033494653 0.047213206609816219 1 1 1 1 1 1 1 1 0.048822661040962209 1 0.048887600299121231 1 1 1 1 1 1 1 1 1 1 1 1 1 1 1 1 1 1 1 1 1 1 0.047224207278977713 1 1 1 1 1 1 1 1 0.045917489863126146 1 1 0.049962315820422695 1 1 0.045084466859814445 0.049879522540453233 1 1 0.04996576518621635 1 1 1 1 1 1 1 1 1 1 1 1 1 1 1 1 1 1 1 1 1 1 1 1 1 1 1 1 1 1 1 1 1 1 1 1 1 1 1 0.028950343893913818 1 0.032437141368219187 1 1 1 1 1 1 1 1 1 1 1 1 1 1 1 1 1 1 1 1 1 1 1 1 1 1 1 1 1 1 1 1 1 1 1 1 1 1 1 1 0.048448118614948785 1 1 0.048452696695411399 1 1 1 1 1 0.05029113886296039 1 0.049968321627089932 1 1 0.050541811151885524 1 1 1 1 1 1 0.053258450545910954 1 1 1 1 1 1 1 1 1 1 1 0.050011256219155836 1 1 0.045192271407348321 0.030410751334449246 1 0.023309979059317962 1 1 0.055202651929052743 1 1 1 1 0.025969710537549536 1 1 1 1 1 1 1 1 1 0.049959658876394232 1 0.051096499494819675 1 1 1 1 1 1 1 0.049922528145160128 1 0.053956751293740446 1 1 1 1 1 1 1 1 1 0.050233433485839078 1 0.052824731812832641 1 1 1 1 1 1 1 1 1 1 0.050722007433606296 1 1 1 0.051812819068624644 1 1 0.049996295747021968 1 1 0.046249869265953272 1 1 1 1 0.047772566179868303 1 1 1 0.050002143679349846 1 1 1 1 1 1 1 1 1 1 1 1 1 1 0.049260443843117327 1 1 1 1 1 1 0.048195940437605743 1 0.050712364978368812 1 0.028423337149381604 1 1 1 0.048904086251380388 1 1 1 1 1 1 1 1 0.02502938039600016 1 1 1 1 1 0.049972358419604859 1 1 0.023826351577018092 1 1 1 1 1 1 1 1 1 0.04587477460509954 1 1 1 0.048583682156674433 1 1 1 1 1 1 0.043435967069346187 1 1 1 1 1 1 1 1 1 1 1 1 1 1 1 1 1 1 1 1 1 1 1 1 1 1 1 1 1 1 1 0.048448469168552853 1 1 1 1 1 0.049610321132992324 1 1 0.050384839805830452 0.049227637739061886 1 1 1 1 0.048942644111318094 1 1 1 1 1 0.049620001721521013 1 1 1 1 1 1 1 1 1 1 1 1 1 1 1 1 0.049380652287772019 1 1 1 1 1 1 1 1 0.049044165512300994 0.047819378655816862 1 1 1 1 1 1 0.048132220653960965 1 1 1 1 0.048757352347017446 1 1 1 1 1 1 1 1 1 1 1 1 1 1 1 1 1 1 1 1 1 1 1 1 0.048543155602687495 1 1 0.04947533872190666 1 1 1 1 1 1 1 1 1 1 1 1 1 1 1 1 1 1 1 1 1 1 1 1 1 1 1 0.04930502449746086 1 0.048339266554788388 1 1 1 1 1 0.04657213367090686 1 1 1 1 1 1 1 1 1 1 1 1 1 1 1 1 1 1 1 1 0.047884103911961975 0.048681958325321011 1 0.047154669654920774 1 1 1 1 1 1 1 1 1 1 1 1 1 1 1 1 0.047147841926715957 1 1 1 0.048680064412418844 1 1 1 1 1 1 1 1 1 1 1 1 1 0.048232867116118468 1 1 1 1 1 1 1 1 1 1 1 1 1 1 1 1 1 1 1 1 1 1 0.03419993469823697 1 1 1 1 1 1 1 1 1 1 1 1 1 0.034432509334871846 1 0.04170747839322983 1 1 0.037861877100788865 0.042442757313618129 1 1 1 1 1 1 1 1 1 1 1 1 1 1 1 1 1 1 1 1 0.050666688266947035 1 1 0.040668103329922441 1 1 1 0.049828011494206258 1 1 1 1 1 1 0.041465895770216289 1 1 1 0.04980433240582173 1 1 1 1 1 1 1 1 0.049984771730390988 1 1 0.049028928879289793 1 1 0.046712401526073241 1 0.046817111074508588 1 1 1 1 0.046552032697796564 0.040173312763009665 1 1 0.050310508447930585 0.040256210637220236 1 1 0.046587963295703305 1 1 1 1 0.049987642349240809 1 1 0.046975310580137972 0.049828262028765689 1 0.049994847542049144 1 1 1 1 1 1 1 1 1 1 1 1 1 1 1 1 1 1 1 1 0.050005129812185294 1 1 1 1 0.04934210013247755 1 1 1 1 0.050051281300397293 0.049807989973132398 1 1 1 1 1 1 1 1 1 1 1 1 0.049928795387251992 1 1 1 0.043664993169834881 1 1 1 1 1 1 1 0.042755796774002972 1 1 1 0.050259083875596834 1 1 0.050008790710307449 0.050160667670172139 1 1 1 0.042102808177592529 1 1 1 0.050050598504901331 1 1 1 1 1 1 1 1 1 1 1 1 1 1 1 1 1 1 0.049749346001718986 1 1 1 1 1 1 1 1 1 1 1 1 1 1 1 1 1 1 0.050056757762633373 0.049296173077353705 1 1 1 1 1 0.048910155565055416 0.050161333962946322 1 0.048545872572108698 1 1 1 1 1 1 1 1 1 0.030132666467239274 1 1 1 0.03191048503569556 1 1 1 1 1 1 1 1 1 1 1 1 1 1 0.041210813348569665 1 1 1 1 1 1 1 0.035787293032361792 1 1 0.033794543738532051 1 1 1 1 1 1 0.045411276911476894 1 1 1 1 0.044005751059166362 1 1 1 1 1 1 0.051165667582129627 1 1 1 1 1 1 1 1 0.050086610208953074 0.046762077591573012 1 1 1 0.048465700619747198 0.051071725377388716 1 1 1 1 1 0.049495502917285869 1 1 1 1 1 1 0.049774115190780704 1 1 1 1 0.049905799348662683 1 1 1 1 1 0.049887946347396697 1 1 1 1 0.05232574428265397 1 1 1 1 1 1 1 1 1 1 1 1 1 1 1 1 1 1 1 1 1 1 1 1 1 0.050039462011771035 1 1 1 1 0.041902807395366851 1 0.048931957230310526 1 0.038536955756020515 1 1 0.049969914724533174 1 1 0.050748100817034743 1 1 0.050198685628524517 1 1 1 1 1 1 0.053389143234690128 1 1 0.05188501156530094 1 0.049197860486057898 0.050423331142379131 0.051030471769369437 1 1 0.049387506457463537 1 0.049401436528168967 0.049435206682185165 1 1 1 0.050068669034536335 1 0.050005543979254267 1 1 1 1 1 1 0.048997375561422959 1 1 1 0.050012181831889005 1 1 1 1 1 1 1 0.049221529559123935 1 1 1 0.047591951022375845 1 0.056200932576889635 0.054828875418490644 1 1 1 1 1 1 1 0.049640535242109735 1 1 1 1 1 1 1 1 0.050190759433047863 0.048212648193966083 1 1 1 1 0.047244416934255351 1 1 0.04722965351268188 1 1 1 0.050000395856100735 1 1 1 0.047919259233753092 0.04919611629285367 1 1 1 1 0.050129712949717631 1 1 1 1 1 0.049042285721416133 0.048090322703363067 1 1 1 1 1 1 1 1 1 1 1 1 1 1 1 1 1 1 1 1 1 1 1 1 1 1 1 1 1 1 1 0.04911477908125951 1 1 1 0.0499425867459595 1 1 1 1 1 1 1 1 1 1 1 1 1 1 1 0.048048474646621306 1 0.050195353790118788 0.051519511977442145 1 1 0.04766228388601268 1 1 1 1 1 1 1 1 1 1 1 1 1 1 1 1 1 1 1 1 1 1 1 0.050340416215316382 1 1 0.048439548546430289 0.049974226727944243 1 1 1 1 1 1 1 0.049025470454801878 1 1 1 0.050880682189554147 1 1 1 1 0.050174432190587842 0.050058136967532051 1 1 1 1 1 1 1 0.047840894659442218 1 1 1 1 0.048611051301892902 1 1 1 1 0.049768775165546203 1 1 1 1 1 1 1 1 1 1 1 1 1 1 1 1 1 1 1 0.050333639328192285 1 1 1 1 1 1 1 1 1 1 1 1 1 1 1 1 0.050420381639023196 1 1 1 0.050148410787055134 1 1 1 1 1 1 1 1 1 0.049504606863205992 1 1 1 1 1 1 1 1 1 1 1 1 1 1 1 1 1 1 1 1 1 0.049611236852198579 1 1 1 1 1 1 1 1 1 1 1 1 1 1 1 1 1 0.048961117707294791 1 1 1 1 1 0.050059696050713712 1 1 1 1 1 1 1 1 1 1 1 1 1 1 1 1 1 1 1 1 1 1 1 1 1 1 1 0.050153156744504893 1 1 0.05516899346986575 1 1 1 0.056086462815522792 1 1 1 1 1 1 1 1 1 1 1 1 1 1 1 0.05725624338920185 1 0.048581236601035332 1 1 1 1 1 1 1 1 1 0.055454844992341511 1 1 1 1 1 1 1 1 1 0.050810483145115548 0.053257747224706817 1 1 1 1 1 1 1 1 1 1 1 1 1 1 1 1 1 1 1 1 1 1 1 1 1 1 1 1 1 1 1 1 1 1 1 1 1 1 1 1 1 1 1 1 1 1 1 1 1 1 1 1 1 1 1 1 1 1 1 1 1 1 1 1 1 1 1 1 1 1 1 0.050723511917911107 1 1 1 1 1 1 0.052061188930249039 1 1 1 1 1 1 1 1 1 0.051023016992840203 1 0.052148160157453466 1 1 1 1 1 1 1 1 1 1 1 1 1 1 1 1 1 1 1 1 1 1 1 1 1 1 1 1 1 1 1 1 1 1 0.04924919720365422 1 1 1 0.049298475765599745 0.050401217056080222 1 1 1 1 1 1 1 1 1 1 1 1 1 1 1 1 1 1 1 1 1 1 0.04964738454257521 0.049539867877077703 1 1 1 1 1 1 1 1 0.050922879930361986 1 1 1 1 1 1 0.050616697534858368 1 1 1 1 1 0.049571893385095003 1 1 1 1 0.049843314017858117 1 1 1 0.053524711685280953 1 1 1 0.052154470418439722 1 1 0.050898892374665189 1 1 1 1 1 1 1 1 1 1 1 1 1 0.049762431044371384 1 1 1 1 1 1 1 1 0.049309323600573003 1 1 1 1 1 1 1 1 1 1 1 0.049988711137971042 1 1 1 0.049990090121744317 1 1 1 1 0.049338589969109753 1 1 1 1 1 1 1 1 0.049606680989646726 1 0.05075626447787325 1 1 0.048096870327913717 1 1 1 1 1 0.050017147417364523 1 1 1 1 1 1 1 1 1 1 1 1 0.049731720753875289 1 1 1 1 1 1 1 1 1 0.049317044809639429 1 1 1 1 1 1 0.050165421189706502 1 1 1 1 1 1 1 0.049716273328173632 1 1 1 1 1 0.049447994082048932 1 1 1 1 1 1 1 1 1 1 1 1 1 1 1 1 1 1 1 1 1 1 1 1 1 1 1 1 1 1 1 1 1 1 1 1 1 1 1 1 1 1 1 1 1 1 1 0.049828688601436542 1 0.049693599873937892 1 1 1 1 1 1 1 1 1 1 1 1 1 1 0.050044162382318971 1 1 1 1 1 1 1 1 1 1 1 1 1 1 1 0.048312365121680328 1 1 0.049565462320653807 1 0.051120679117315215 1 1 1 1 1 0.049503789330601344 1 1 1 1 1 1 1 1 1 1 1 1 1 1 1 1 1 1 1 1 0.047548428025158809 1 1 1 1 1 1 1 1 1 1 1 0.047822126675121715 1 0.049894780221630484 1 1 0.048390644220244146 1 0.044244022323614421 1 1 1 1 1 1 1 0.050021258735079267 1 0.046964722083145588 1 1 1 1 0.047226067743375802 1 1 1 1 0.049669753116341898 0.049436965508911981 1 1 0.051740429891304993 1 1 1 1 1 1 1 1 1 1 1 1 1 1 1 1 0.050134283573986228 1 1 1 1 1 1 1 1 1 1 1 1 1 1 0.050395351401571614 1 0.049912176854974837 1 1 1 1 1 1 1 0.044608884205063717 1 0.04431607915761538 1 1 1 1 1 1 1 1 1 0.049952303529934357 0.045424082701578543 1 1 1 0.045637663775389539 1 1 1 1 0.043003639379034238 1 0.046671669733911007 1 1 0.050215557403011132 1 0.042870946313148153 0.043032780359860572 0.049897790143110986 1 1 0.049998541536741284 1 1 1 0.049601096244774184 0.047687495357704376 0.050755233082210915 1 1 1 1 1 1 1 1 1 1 1 0.050351103674909033 1 1 1 1 1 1 0.043087828288502744 1 1 1 0.049970285381943827 1 1 1 1 1 1 1 1 0.050130001774142063 1 1 1 0.050041281389147471 1 1 1 1 1 1 1 1 1 1 1 1 1 1 1 1 1 1 1 1 1 1 1 1 1 1 1 1 1 1 1 1 1 1 1 1 1 1 1 1 1 1 1 1 1 1 1 1 1 1 1 1 1 1 1 1 1 1 1 1 0.048994550806020082 1 1 1 1 1 0.047430319488822745 1 1 1 1 0.049151624233463254 1 1 1 0.046536891581291262 1 1 1 1 1 1 1 1 1 1 1 1 1 1 1 1 1 1 1 1 1 1 1 1 1 1 1 1 1 1 1 1 1 1 1 1 1 1 1 1 0.048360285647438724 1 1 0.045827887106157518 1 1 1 1 1 1 1 0.050258402418998989 1 1 1 1 1 1 1 1 1 1 1 0.051158589642398777 1 1 0.049961098787885093 1 0.048684900057882431 1 1 1 0.044384770557351377 1 1 1 1 1 1 1 1 0.050107671827083609 1 1 1 1 0.050371591314427297 1 1 1 1 0.044961679307787418 1 0.048927065961639649 1 1 1 1 1 1 1 1 1 1 1 1 0.048021499661919882 1 0.046377949722504176 1 1 1 1 1 1 1 1 1 1 1 1 1 0.049896031442792102 1 1 1 1 1 1 1 1 1 0.049735534353383508 1 1 1 0.049839502910591402 1 1 1 1 1 1 1 1 1 1 1 1 1 1 1 1 1 1 1 1 1 1 1 1 1 1 1 1 1 1 1 1 1 1 1 0.04974133221946684 1 1 0.050014771421825539 1 1 1 1 0.049115836508209054 1 1 1 1 1 1 1 1 1 1 1 1 1 1 1 0.049440325720882569 1 1 1 1 1 1 1 1 1 0.049668788358463264 1 0.049721973674778944 1 1 1 1 1 1 1 0.049620092588166825 1 1 1 1 1 1 1 1 1 1 1 1 1 1 0.049173087879404248 1 1 1 1 1 1 1 1 1 1 1 0.047975573161553209 1 1 1 1 1 1 1 1 1 1 1 1 1 1 1 1 1 1 1 1 1 1 1 0.050100028278025989 1 0.050232072789880761 1 1 1 1 1 1 0.048248987104443725 1 0.048902754968919493 1 1 1 0.048390731306148564 1 1 1 0.050747769734172485 1 1 1 0.04846888600101025 1 1 0.050801660237404012 1 1 1 1 1 1 1 0.050395908222404383 1 1 1 1 1 1 1 0.046037976335873712 1 1 1 1 1 1 1 1 1 1 1 1 1 0.049112413639219629 1 1 1 1 1 1 1 1 0.045761788640172586 1 1 1 1 1 1 1 1 1 1 1 1 1 1 1 1 1 1 1 1 0.047137570553503039 1 1 1 1 1 1 1 1 1 1 1 1 1 1 1 1 1 1 1 1 1 1 1 1 1 1 1 1 1 1 1 1 1 1 1 1 1 1 1 1 1 1 1 1 1 1 1 1 1 1 0.050484144534358628 1 0.047966902697530164 1 1 1 0.049840010930258846 1 1 0.050081731130049316 0.047457162368652842 1 0.051508809061867514 1 1 1 1 1 1 1 1 1 1 1 1 1 1 1 1 1 1 1 1 1 1 1 1 1 1 1 1 1 1 1 1 1 1 1 0.050164083265033667 1 1 1 1 0.05090193841913504 1 1 0.048983398275312021 1 1 1 0.049393418740554328 1 1 1 1 0.051846908512185416 1 0.049959392767074597 0.046482253022940179 1 1 1 1 0.047029049600011641 1 1 1 0.052226749348700696 1 1 1 0.048723221112454744 1 1 1 1 1 1 0.050007777470890288 1 1 1 1 1 1 1 1 1 1 1 1 1 1 1 1 1 1 1 1 0.05066227924244119 1 1 1 1 1 1 1 1 1 1 1 1 1 1 1 1 1 1 0.050220222888460501 1 1 0.050602942161080161 1 1 0.042755825319185529 1 1 1 1 1 1 1 1 1 1 1 0.051044155707767616 1 1 1 1 0.049841867832791459 1 1 1 1 0.048582217661179004 1 1 1 0.049037269148823809 1 1 1 1 1 1 1 1 1 1 1 1 1 1 1 1 1 1 1 1 1 1 1 1 1 0.049568815209386052 1 1 1 1 1 1 1 1 0.049039286666527855 1 1 1 0.043302247590319122 1 1 1 1 1 1 1 1 1 1 1 1 1 1 1 1 1 1 1 1 1 1 1 1 0.051375237916581079 1 1 1 0.048722014234601499 1 1 1 1 1 1 1 1 0.051220625189310864 1 1 0.049249330230450528 1 1 1 1 0.049790985290411649 1 1 1 1 1 1 1 0.043890937224769735 1 0.050990890261633677 1 1 0.052000123618239295 1 1 0.042244160362487015 0.049996821841972836 1 1 1 1 1 1 1 1 1 1 1 1 1 1 1 1 1 1 1 1 1 0.047503102512429562 1 1 1 1 0.045672244761382409 1 1 1 1 1 1 1 1 1 1 1 1 1 0.048721673469124302 1 1 0.049969229548043746 1 1 1 1 1 1 1 1 1 1 1 1 1 1 1 1 1 1 1 1 1 1 1 1 1 1 1 1 1 1 1 1 1 1 1 1 1 1 1 1 1 1 1 1 1 1 1 1 1 1 1 1 1 1 1 1 1 1 1 1 1 1 1 1 1 1 1 1 1 1 1 1 1 1 1 1 1 1 1 1 1 1 1 1 1 1 1 1 1 1 1 1 1 1 1 1 1 1 1 1 1 1 1 1 1 1 1 1 1 1 1 1 1 1 1 1 1 1 1 1 1 1 1 1 1 1 1 1 0.050292687544963369 1 1 1 1 1 1 1 0.05048657288564104 1 1 1 1 1 1 1 1 1 0.051215947347602916 1 0.046883440570603889 1 1 1 0.048612461024709085 1 1 0.048058897575652938 1 1 1 1 1 1 1 1 1 1 1 1 1 1 1 1 1 1 1 1 1 1 1 1 1 1 1 1 1 1 1 1 1 1 1 1 1 0.05063733731913244 1 1 0.04825454166416062 0.051741061635957833 1 1 0.050220093735300772 1 1 0.045254227213620254 1 1 1 0.046368323705362868 1 1 1 1 1 1 1 1 1 0.048667397870108028 1 1 1 1 1 1 0.050140306703509697 1 1 1 1 1 1 1 1 1 1 1 1 1 1 1 1 1 1 1 1 1 1 1 1 1 1 1 1 1 1 1 0.050955195656180299 1 1 1 1 1 1 1 1 1 1 1 1 1 1 1 1 1 1 1 1 1 1 1 1 1 1 1 1 1 1 1 1 1 1 1 1 1 1 1 1 1 1 1 1 1 1 0.045625596585519866 1 0.049788109522841628 1 1 1 1 0.049963203993121839 1 1 1 1 0.046131347939330124 1 1 1 1 0.050074690356357456 1 1 1 1 1 1 1 1 0.049701600469116439 1 1 0.049836779011418648 1 0.049901838138309014 1 1 1 1 0.049538551622646837 1 1 0.049447355365780286 0.048379294916974354 1 1 1 1 1 1 0.049976101838351307 1 1 1 1 1 1 1 1 1 1 0.049514721954601923 0.046487044922616849 1 1 1 1 1 0.046358756844272785 1 1 0.049750891196653053 1 1 1 1 0.049411618200263165 1 1 0.049999032219757211 1 1 1 1 1 1 1 1 1 1 1 1 1 1 1 1 1 1 1 1 1 1 1 1 1 1 1 1 1 0.049963937125422651 1 0.049989403702826202 1 1 1 1 1 1 1 1 1 1 1 1 1 0.050015696370844187 1 1 1 1 0.043293612055103098 0.043120607303507176 1 1 1 1 1 1 1 1 1 1 1 1 1 1 1 1 1 1 1 1 1 1 1 1 1 1 1 1 1 1 1 1 1 1 1 1 1 1 1 1 1 1 0.049983211167802452 1 1 1 0.049967514796958268 1 1 1 1 1 1 1 1 1 1 1 1 1 1 1 1 1 1 1 1 0.043492143420978159 1 1 0.043726061793530557 1 1 1 1 1 1 1 1 1 0.049999449428016506 1 1 1 1 1 0.04529461453876836 1 1 1 1 1 0.050040839862861897 1 0.050034673298765792 1 1 1 1 1 1 1 1 1 1 1 1 1 0.048766900627907318 1 1 1 0.047557609433359495 0.045696983463874352 1 1 1 1 1 1 1 1 0.049999542909052827 1 1 0.046770269590933701 1 1 0.049998797077779794 0.048607149609975739 1 1 1 1 1 0.050023736668534963 1 1 1 1 1 1 1 0.049629185952279983 1 1 0.049152604504633213 0.049739721472507638 1 1 1 1 1 1 0.047333046168518529 0.050871943385410678 1 1 1 0.048946671100120895 1 1 1 1 1 1 1 0.049081508598071255 1 1 1 1 1 1 1 1 1 1 1 1 1 1 1 1 1 1 1 1 1 1 1 1 1 1 0.045792413763144184 1 1 1 1 1 1 1 0.049969935177297364 1 1 1 1 1 1 1 1 1 1 1 0.045540554852781599 1 1 1 1 1 1 1 1 0.04906357100146537 1 1 1 1 1 1 1 1 1 1 1 1 1 1 1 1 0.049054458906837357 1 1 1 0.049431262689698718 1 1 1 1 1 0.047656862801884053 1 1 1 1 1 1 1 1 1 1 1 1 1 1 0.050193210693737771 1 1 1 1 0.050663994831289826 1 1 0.051284919850073399 1 1 1 1 1 0.050000469192141191 1 1 1 1 1 1 1 1 1 1 1 1 1 1 0.049909758661182156 1 0.05145603971341961 1 1 1 0.049473851984449771 1 0.04934760638189746 1 0.049204191335902869 1 1 1 1 1 1 0.049948698645741058 0.047822824894736701 1 1 1 1 1 1 0.047596429450644122 1 0.049779987035550859 1 1 1 1 1 1 1 1 1 1 1 1 1 1 1 1 1 0.047475199967562387 1 1 1 0.050078347839517631 0.047567900428784803 1 1 1 1 1 0.049446372298579302 1 1 0.049960315327098812 0.04976657849013507 1 1 1 1 1 1 1 1 1 1 1 1 1 1 1 1 1 1 1 1 1 1 1 1 1 1 1 1 1 1 1 1 1 1 1 1 1 1 1 1 1 1 1 1 0.051604749529830907 1 1 0.047452336937068421 0.048395506241781627 0.049851826890380792 1 1 1 1 1 1 0.050121915821291677 1 1 1 1 1 1 1 1 1 0.049872742872135237 1 1 1 0.050274431703405696 1 1 1 1 1 1 1 1 1 1 1 1 1 1 1 1 1 1 1 1 0.049566195968297103 1 1 1 1 0.049725718488790857 1 1 1 1 1 1 1 1 1 1 1 1 1 1 1 1 1 1 1 1 1 1 1 1 1 1 1 1 1 1 1 1 1 1 0.050259991179928569 1 0.049829213089805674 1 1 1 1 1 1 1 1 0.04965317476573422 1 1 1 0.050528139974561202 1 0.049823961675928549 1 1 1 1 1 1 1 1 0.046280596636416642 1 1 1 1 0.048499343030698715 1 1 1 1 0.049990757518322555 1 1 1 1 1 1 1 0.049392427550415008 1 1 1 1 0.049669818826725089 1 1 1 1 1 1 1 1 1 1 1 1 1 1 1 1 1 1 1 1 1 1 1 1 1 1 1 1 1 1 1 1 1 1 1 1 1 1 1 1 1 1 1 1 1 1 0.049630054148121917 1 1 1 1 0.049998336788677815 0.049811462666070422 1 1 0.049601861181997803 0.049555742259289187 1 1 1 1 1 1 1 1 1 1 1 1 1 1 1 1 1 1 1 0.049799263129464068 1 1 1 0.049949877167507227 0.049999304407114906 1 1 1 1 1 1 1 1 1 1 1 1 1 1 1 1 1 1 1 1 1 1 1 1 1 1 1 0.049861695241181787 1 1 1 1 1 1 1 0.05006118702950596 1 1 1 1 1 1 1 1 1 1 1 1 1 1 1 0.05037202149680936 1 1 1 1 1 1 1 1 0.049718883018838367 1 0.050223940746556159 0.04927420361738577 1 1 1 1 1 1 1 1 1 1 1 1 0.049632308311766668 1 1 1 1 1 1 1 1 1 1 1 1 1 1 1 1 1 1 0.045850473531517666 1 1 1 0.049462328459803098 1 1 1 1 1 1 1 1 0.049818855747488372 1 1 1 1 1 1 1 1 1 1 1 1 1 1 1 0.049200067306833697 1 1 1 0.049720843541515666 1 1 1 1 1 1 1 1 1 1 1 1 1 1 1 1 1 1 1 1 1 1 1 1 1 1 1 1 1 1 1 1 1 0.04975015557573912 1 0.049888328623069092 1 1 1 1 1 1 1 1 0.050011000233447095 1 1 1 1 1 1 1 1 1 0.050061153783106452 1 1 0.0500189475259495 1 1 1 1 1 0.050015551262279065 1 1 1 1 0.050005526677045151 1 1 1 1 0.050278924248099002 1 1 1 0.049972216809638398 1 0.050584286237240164 1 1 0.050255494033872923 1 1 1 1 1 1 1 1 1 1 1 1 1 1 0.050001909245475436 1 1 0.04999616867093308 1 0.050006164671906626 1 1 1 0.049988794631229863 1 1 0.051082587512109673 1 1 1 1 0.049604571478904701 1 0.04968364253922157 1 1 1 1 1 1 0.049882564828428261 1 0.04991543847484467 1 1 1 1 1 0.04451430183089268 1 1 1 1 0.049662006325052549 1 1 1 1 1 1 0.044701199244050957 1 1 1 1 1 1 1 1 1 1 1 1 1 1 1 1 1 1 1 1 1 1 1 1 1 1 1 1 1 1 1 1 1 0.04997215533192368 0.05000017991665924 1 1 1 1 1 1 1 1 1 1 0.044522429918912886 1 1 0.049733963425887859 0.045252786257072165 1 0.050007776037849845 1 1 1 1 1 1 1 0.045154018206303909 1 1 1 1 1 1 1 1 1 1 1 1 0.050352682608671935 1 1 1 1 0.050128115679068302 1 1 1 1 1 1 1 1 1 1 1 1 0.049110171815665543 1 1 1 1 1 1 1 1 1 1 1 1 1 1 1 1 1 0.049208198842023938 1 1 1 1 1 0.049760142419295834 1 1 1 0.048279802619002762 1 1 1 1 1 1 0.048853184831314199 1 0.04885301632031995 1 1 1 0.049247511722034842 1 1 1 1 1 1 1 1 1 0.047870263085023915 1 1 0.049988732304018804 1 1 1 1 1 1 1 0.049541978053897984 1 1 1 1 1 1 1 1 1 1 1 1 1 0.050583703142035412 1 1 0.049849790409226637 1 1 1 1 1 1 0.050039604773274883 1 1 1 1 1 1 0.047049008945164922 1 1 1 1 1 1 1 0.045819098186787394 1 1 1 1 1 1 1 1 1 1 1 1 1 1 1 1 1 1 1 1 1 1 0.04970521191807372 1 1 1 1 1 1 1 1 1 1 0.048181907159782843 1 1 1 1 0.048299143918537749 0.049403395452711205 1 1 1 1 0.049470933980314893 1 1 1 1 1 1 1 1 1 0.049560900786145987 1 1 1 1 1 1 1 1 1 1 1 0.047818210711001299 1 1 1 0.04901548508882593 1 1 1 0.049161990089427919 1 1 1 1 1 1 1 1 1 1 1 1 0.048080789857285852 1 1 1 1 1 0.05000304469218067 1 1 0.05002268508322006 1 1 1 1 1 1 1 1 1 1 1 1 1 1 0.048220930225381028 1 1 1 1 1 1 1 0.045262514524674287 1 1 1 0.043439328598824344 1 1 1 1 1 0.050043554330915598 1 1 1 1 1 1 1 1 1 0.050023913939876208 1 1 1 1 1 1 1 1 0.042476496647581408 1 1 1 1 1 0.049510635644223033 1 1 1 1 1 1 1 0.0498221790373507 1 1 1 1 1 1 1 1 1 1 1 1 1 1 1 1 1 1 1 1 1 1 1 1 1 1 1 1 1 1 1 1 1 1 1 1 1 1 1 1 1 1 1 1 1 1 1 1 0.04896859584158654 1 1 1 1 1 1 1 0.049600051640092908 1 1 1 1 1 1 1 1 1 1 1 1 1 1 1 1 1 1 1 1 1 1 0.049888106755487945 0.049811921736198264 1 1 0.04880330053000554 0.046877743201276578 1 1 1 1 1 1 1 0.045256619566143512 1 1 1 1 1 1 1 1 1 1 1 1 1 1 0.049980732615817654 1 1 1 1 1 1 1 1 0.050012140286347033 1 1 0.04995980380703828 1 1 1 0.049875273614855629 1 1 1 1 1 1 1 1 1 1 1 1 1 1 1 1 1 1 1 1 1 1 1 1 1 1 1 1 0.050065243515984854 1 1 1 1 1 1 1 1 0.050005836490480599 1 1 1 1 1 1 0.050283810657250183 0.050020620876344978 1 1 1 1 0.049989634210675246 1 1 0.05009727262959135 1 1 0.050441482894857378 1 1 1 1 1 1 0.049998111390776728 1 1 1 1 1 1 1 1 0.049999261974112155 1 1 1 1 1 1 1 1 1 1 1 0.049997112957095642 1 1 0.049997850147598111 1 1 1 1 1 1 1 0.050007124001491418 1 1 1 0.049989587735464983 1 0.049958010711618775 1 0.049999482988499308 1 1 1 1 1 1 1 1 1 1 1 1 1 1 1 1 1 0.049953962025720361 1 0.050000095959396779 1 1 1 1 1 1 1 1 1 1 0.049929774375979438 1 1 1 1 1 1 1 0.049917928744077564 1 1 1 0.050001533428135153 1 0.048747224053754229 0.048929355367346522 1 1 0.04762648622830816 1 1 1 1 0.049352442380951662 1 1 1 0.048788245503085997 1 1 1 0.048683498793882757 1 0.047670230244947959 0.050432160486545127 1 1 1 1 1 1 0.047350656984055453 1 1 1 1 1 1 1 1 0.051617751871163284 0.049999491547915782 0.050863827877252979 1 0.052491607590069857 1 1 0.046513951081717506 0.049999643721125753 1 1 0.041920207128906373 1 1 1 1 1 1 1 1 1 1 1 0.050009033583137123 1 1 1 1 1 1 1 1 1 1 1 1 1 0.050481267362474894 0.051271608038000765 1 1 1 1 0.050688093144944449 1 1 1 0.049312097773648186 1 1 1 1 1 0.050742712787728218 0.05000093398797878 1 1 1 0.049112306453192277 1 1 1 1 1 1 1 1 1 1 1 1 1 1 1 0.049563426517337271 1 1 1 0.049489195340736189 1 1 1 0.049790307477069515 1 1 1 1 1 1 0.048310874102900588 1 1 1 1 1 0.048644721726111367 1 1 1 1 1 1 1 1 0.049995793975907088 1 1 1 1 1 1 1 1 1 0.049985226492504489 1 1 1 1 0.049995000796637282 1 0.049991184002640951 1 1 0.050220256299843585 1 0.049570110603142634 1 1 1 1 1 1 0.049744144677741395 1 0.049992062162581521 0.049724392143372487 1 1 1 1 1 1 1 1 0.047936537259426468 1 0.04990135600901472 1 0.049974926857571988 1 0.050165981304656306 1 1 1 1 1 1 1 1 1 1 1 0.049766319802631395 1 1 1 0.049778867623882665 1 1 1 1 1 1 1 1 0.050012547821251252 1 1 1 1 1 1 1 1 1 0.049771296157872597 1 1 1 1 0.047901443372697583 1 1 0.044669056945778794 1 1 1 1 1 1 1 1 1 0.042132412017282642 1 1 1 0.042912218209342837 1 1 1 1 1 1 1 1 1 1 1 1 1 1 1 1 1 1 1 0.041956528484579418 1 1 1 1 1 1 1 1 1 1 0.050181956628651644 1 1 1 1 1 1 1 1 1 1 1 1 1 1 1 1 1 1 1 1 1 1 1 1 1 1 1 1 1 1 1 1 1 1 1 1 1 1 1 1 1 1 1 1 1 0.051558147478592185 0.049982950282193676 1 1 1 1 1 1 1 1 1 1 1 1 1 0.052249627440880533 0.045949997056027952 1 1 1 0.047008224089885864 1 1 0.051019387405729366 1 1 1 0.052434376468713566 1 1 1 0.051707797273705031 1 1 1 1 1 1 1 1 0.049815461480278982 1 1 0.05024694268144906 1 0.048607691789497864 0.05007290518172345 1 1 1 1 1 1 0.050648209884894088 1 0.049109875776893984 0.050113605193806976 0.050032712733637311 1 1 0.049576809081423624 1 1 0.051114947050491001 0.051088058682139892 1 1 1 1 1 1 1 1 1 1 1 1 1 1 1 1 1 1 1 1 1 0.041892694867045804 1 1 1 1 1 1 1 1 1 0.049848318286758932 1 1 1 1 1 1 1 0.049444854572149755 0.041986012982227504 1 1 1 1 1 1 1 1 1 1 1 1 1 1 1 1 1 1 1 1 1 1 1 0.050329786676857662 1 0.049990644741573914 1 1 1 1 1 1 1 0.050560364844845176 1 1 1 0.047959902579545383 0.041090733505000226 1 1 0.048641465592666362 1 1 1 1 0.048335900712096383 1 1 1 0.042110338973629743 1 1 1 0.051000480992820493 1 1 1 1 1 1 1 1 1 0.052333470123257217 0.048289931924180421 1 1 1 1 1 0.051001112233740743 1 1 0.048798736800271539 0.052418596409383539 0.051861486129845924 1 1 1 1 1 0.042439088413539564 1 1 1 1 1 1 1 1 1 0.04978785194326335 1 0.049909823529243884 1 1 1 1 1 1 1 1 1 1 1 1 1 1 1 1 1 1 1 1 1 1 1 1 0.049246513736457859 1 1 1 1 0.050543219731190726 0.047738335504212186 1 1 1 0.051760632862329972 1 1 1 1 1 1 1 1 1 1 1 1 1 1 1 1 0.044675733869674703 1 1 1 0.049978671686974264 1 1 0.043491422175420812 1 1 1 1 1 1 1 1 1 1 1 1 1 0.046279283671276178 1 1 0.046888094675958808 1 1 1 0.045708928782678203 1 0.0496653863144908 1 0.049853743295017794 1 0.05149082134665342 0.045758004986556688 0.049959123519422784 1 1 1 1 1 1 1 1 0.049557075491633622 1 1 1 1 1 1 1 1 0.043467535409194409 1 1 0.053617049359926894 1 1 1 1 1 1 1 1 1 1 1 1 1 1 1 1 1 1 1 1 1 0.046961659166920869 1 1 1 1 1 1 1 1 1 1 0.04810832341028802 1 0.050919810177744898 1 1 0.04898005778158572 1 0.046351725520756379 1 0.050029367230404249 1 1 0.050041634340493302 1 0.045243761587687038 1 1 0.049326738878636374 1 1 1 0.050396723837592985 1 1 1 1 1 1 1 1 1 1 1 1 1 1 1 1 1 1 1 1 1 1 1 1 1 1 1 1 1 1 1 1 1 1 1 1 1 1 1 1 1 1 1 1 1 1 1 1 1 1 1 1 1 1 1 1 1 1 1 1 1 0.047903057600866737 1 1 0.045584036459344141 1 1 1 1 1 1 0.051287251883136993 0.046222721287055124 1 1 1 1 1 1 1 1 1 1 1 1 1 1 1 1 1 1 0.047292394542972842 1 1 1 0.049946724735739051 1 1 1 1 1 1 1 1 1 1 1 1 1 1 1 1 0.050011999935872804 1 1 1 1 1 1 1 0.045279396289971748 1 1 1 1 1 1 1 1 0.046422102838526692 1 0.0498493881755952 1 1 1 1 1 1 1 1 1 1 1 1 1 1 1 1 0.047825095104230657 1 1 1 1 1 1 1 0.044398662029768096 1 1 1 1 0.050498141431691387 1 1 1 1 1 1 1 0.051950862996529873 1 1 0.046562651099902735 0.050143955662129154 1 1 0.043696727980200786 1 1 1 1 1 1 0.042141380952647016 1 1 1 1 1 1 1 1 1 0.051750364636775376 1 1 0.049949602981437524 1 1 0.050052835932913146 1 1 0.047069129798916087 1 1 1 1 1 0.047653959956804083 1 1 1 1 1 1 1 1 0.04992682881553364 1 1 1 1 1 1 1 0.049770578449126877 1 1 1 1 1 1 1 1 1 1 1 1 0.049341378733671108 1 1 1 1 1 1 1 0.050096426370429464 0.050059920466622908 1 0.058519015353989609 1 0.052251433298148943 1 1 1 1 1 1 1 1 1 1 1 1 1 1 1 0.050001540296145258 1 0.052885553213491088 1 1 1 1 1 1 1 1 0.04431838346683227 1 0.049143470265875719 1 0.052918027244705471 1 0.042172822198525105 1 0.050238537867514865 1 1 0.04999019192119681 1 1 1 1 1 0.050028264625885548 1 1 1 1 1 1 1 1 0.049942386746024955 1 1 1 1 1 0.049820222902611691 1 1 0.058403364343715347 1 0.049717056055376456 0.050879442696637793 1 1 1 1 1 1 1 1 0.050019541375126868 1 1 1 1 1 1 1 1 1 1 1 1 1 0.04458930943858979 1 1 1 1 1 1 1 0.049569265407983065 1 1 1 0.049569871582008401 1 1 1 1 1 1 1 1 1 1 1 1 1 1 1 1 1 0.050195652282696249 1 1 1 1 1 1 1 0.050106130147696396 1 1 0.047959541433457702 1 1 1 1 1 1 1 1 1 1 1 1 1 1 1 0.048453889462692898 1 1 1 1 0.050292443501306697 1 1 1 1 1 1 1 1 1 1 1 1 1 1 1 1 1 1 1 1 1 1 1 1 1 0.052638869791622939 1 1 1 1 1 1 0.050109047833043818 1 1 1 1 1 1 1 1 1 0.052376920117171349 0.047553064296275392 1 1 1 0.047770340011534143 1 0.050279127708492563 1 1 1 1 1 1 1 1 1 1 1 1 1 1 1 0.04923719779961179 1 1 1 1 1 1 1 1 1 1 1 1 0.049793972538775058 0.049445838795984784 1 1 1 1 1 1 1 1 0.047936078117861644 1 1 0.050078568392292591 1 1 0.046947925858596848 0.051344512512565832 1 1 1 1 1 1 1 0.048682998563468118 1 1 1 1 1 1 1 1 1 0.049651866257209722 1 1 1 0.049580481284448141 1 1 1 1 1 0.04983701010159728 1 1 1 1 1 1 1 1 1 1 1 1 0.050333626935143726 1 1 1 0.050188624860797108 1 1 1 0.048888052593120901 1 1 1 1 1 1 1 1 1 1 1 1 1 1 1 1 1 1 1 1 1 1 1 1 1 1 1 1 1 1 1 1 0.05041758369314011 1 1 1 1 1 1 1 1 1 1 1 1 1 1 1 1 1 1 1 1 1 1 1 1 0.049562822566616739 1 0.049976180371416726 1 1 0.053059057701851257 1 1 1 1 1 1 1 1 1 0.04819511358795868 1 1 1 1 1 1 1 1 1 1 1 1 1 1 0.051966695091687172 1 1 1 1 0.050927017112970208 1 1 1 0.050231526042031335 1 1 1 1 1 1 1 1 1 1 1 1 1 1 1 1 1 1 1 1 1 1 1 1 1 1 1 1 1 1 1 1 1 1 1 1 1 1 1 1 1 1 1 1 1 1 1 1 1 1 1 1 1 1 1 1 1 1 1 1 1 1 1 1 1 1 1 1 1 1 1 1 1 1 1 1 1 1 1 1 1 1 1 1 1 1 1 1 1 1 1 1 1 1 1 1 1 1 1 1 1 1 1 1 1 1 1 1 1 1 1 1 1 1 1 1 1 1 1 1 1 1 1 1 1 1 1 1 1 1 1 1 1 1 1 1 1 1 1 1 1 1 1 1 1 1 1 1 1 1 1 1 1 1 1 1 1 1 1 1 1 1 1 1 1 1 1 1 1 1 1 1 1 1 1 1 1 1 1 1 1 1 1 1 1 1 1 1 1 0.039867782546381125 1 1 1 1 1 1 1 1 1 1 1 1 1 1 1 1 0.049362005716673804 1 1 1 1 1 1 1 1 0.043185660456168597 1 1 1 1 0.050369906139892201 1 1 1 1 1 1 1 1 1 1 1 1 1 1 1 1 1 1 1 1 1 1 0.049592449075297099 1 1 1 1 1 1 1 1 1 1 1 1 1 0.051155409218019227 0.040503090416630055 1 1 1 1 1 0.043171032446064808 1 0.052785374846146968 1 1 1 1 1 1 1 1 1 1 1 0.047517481517811808 1 1 1 1 1 1 1 0.037200042312307419 1 1 1 1 1 1 1 1 1 1 1 1 1 1 1 0.049574084930082495 0.038735487967909286 1 1 1 1 1 1 1 1 1 1 1 1 0.05157858649779401 1 1 1 1 1 1 1 1 1 1 1 1 1 1 1 1 0.050497492255216998 1 1 1 1 1 1 1 0.040672314903327247 1 1 1 1 1 1 1 1 1 1 0.049925174538113667 0.043651023740887307 1 1 1 1 1 1 1 1 1 1 1 1 1 1 1 1 1 1 1 1 1 1 1 1 1 1 1 1 1 1 0.048502674116650116 1 1 1 1 1 0.04778517566669653 1 1 1 1 1 1 1 1 1 1 0.049021832368511854 1 1 1 1 0.050378605629864889 1 1 1 1 1 1 1 1 1 1 0.048003672248496158 1 0.049240328950311482 1 1 1 1 1 1 1 1 1 1 1 1 1 1 1 1 1 1 1 1 1 1 1 1 1 1 1 1 1 1 1 0.04976368126742349 1 1 1 1 1 0.049337766197505982 1 1 1 1 1 1 1 1 1 1 1 1 1 1 1 1 1 1 0.04957155669222147 1 1 0.041508467120595742 1 1 1 0.049848913311198527 1 1 1 1 1 0.037837263013017312 1 1 1 1 1 1 1 1 1 1 0.045778413321442959 1 1 1 1 1 1 0.050188352029123612 1 1 1 1 1 0.036443303084856174 0.050064468128330153 1 1 0.038167352500322466 1 1 0.049588612992567255 1 1 1 1 1 1 1 1 1 1 0.049507154433205233 1 1 0.049220846085359087 1 1 0.048876272315854404 1 1 0.04894001390021762 1 1 0.050487161472166038 1 1 0.049175518848769112 1 1 1 1 1 1 0.05078780474005417 1 1 1 1 1 1 1 1 1 1 1 0.03910633535956877 1 1 1 1 1 1 1 0.04952952907044228 1 1 1 1 0.050012827571905477 1 1 1 0.040865784031937948 1 1 1 1 1 1 1 1 1 1 1 0.050093678774776926 1 1 1 1 1 1 1 1 1 1 1 1 1 1 1 1 1 1 1 1 1 1 1 1 0.050008246949815191 1 1 1 1 1 0.04998273543017466 1 1 1 1 1 1 1 1 1 1 1 1 1 1 0.049418214574724811 1 1 0.050348766459388197 1 0.046204799037677935 1 1 1 1 0.044701036448751945 1 0.050114687747275163 0.051749545482247368 1 0.051238779762259254 1 1 1 1 1 1 1 0.049990823945825949 1 0.050232955077024168 1 1 1 1 1 1 0.049881614609891996 1 1 1 1 1 1 0.049838874806464116 1 1 1 1 0.049530438426494711 1 1 1 1 1 0.050047851723090071 1 1 0.049933048322748808 1 1 1 1 0.049285188010206177 1 1 1 1 0.050049560795226669 1 1 1 1 1 1 0.049923072972398508 1 1 1 1 1 1 1 1 1 0.049648698280231884 1 1 1 1 1 1 0.049824513204728152 1 1 1 1 0.049622968378328601 1 1 1 1 1 1 1 1 1 1 1 1 1 1 1 1 0.050121069807061401 1 1 1 0.050187810899768044 1 1 0.045438812183484681 1 1 1 1 1 1 1 1 1 1 1 1 1 1 1 1 0.049991490403328023 1 0.046147596730285269 1 1 1 1 1 1 1 1 1 1 1 1 1 1 1 1 1 1 1 1 1 1 1 1 1 1 0.044122974999119657 1 1 0.047040282429644642 1 1 1 1 1 1 1 1 1 1 0.048374282655289091 1 1 1 1 0.049875432711240175 1 1 1 1 0.049883942307912155 1 1 1 1 1 1 1 1 1 0.048523353250239556 1 1 1 1 1 1 1 1 1 1 1 1 1 1 1 1 1 1 1 1 1 1 1 1 1 1 1 1 
</DataArray>
</CellData>
</Piece>
</UnstructuredGrid>
</VTKFile>
