<?xml version="1.0"?>
<VTKFile type="UnstructuredGrid" version="0.1" byte_order="LittleEndian">
<UnstructuredGrid>
<Piece NumberOfPoints="29506" NumberOfCells="10360">
<Points>
<DataArray type="Float64" NumberOfComponents="3" format="ascii">
-0.5 -0.5 0 -0.47696226168452538 -0.47508257674467608 0 -0.5 -0.40194873453805408 0 -0.5 -0.5 0 -0.48617485428971441 -0.49999999999999978 0 -0.47696226168452538 -0.47508257674467608 0 -0.47696226168452538 -0.47508257674467608 0 -0.46774966907933629 -0.45016515348935238 0 -0.5 -0.40194873453805408 0 -0.48617485428971441 -0.49999999999999978 0 -0.47696226168452538 -0.47508257674467608 0 -0.45664250176891619 -0.5 0 -0.48617485428971441 -0.49999999999999978 0 -0.47696226168452538 -0.47508257674467608 0 -0.47696226168452538 -0.47508257674467608 0 -0.45664250176891619 -0.5 0 -0.45700033410924101 -0.47265801169205562 0 -0.45700033410924101 -0.47265801169205562 0 -0.4418902773561707 -0.48175554229659401 0 -0.44175696065725573 -0.45628678592965521 0 -0.45664250176891619 -0.5 0 -0.4418902773561707 -0.48175554229659401 0 -0.42711014924811808 -0.5 0 -0.45664250176891619 -0.5 0 -0.45700033410924101 -0.47265801169205562 0 -0.4418902773561707 -0.48175554229659401 0 -0.44187400167307422 -0.44095767887066201 0 -0.44175696065725573 -0.45628678592965521 0 -0.42955524590135852 -0.43868986677814847 0 -0.44187400167307422 -0.44095767887066201 0 -0.44175696065725573 -0.45628678592965521 0 -0.45325755922839678 -0.44082427593074058 0 -0.47696226168452538 -0.47508257674467608 0 -0.45700033410924101 -0.47265801169205562 0 -0.46774966907933629 -0.45016515348935238 0 -0.45700033410924101 -0.47265801169205562 0 -0.44175696065725573 -0.45628678592965521 0 -0.46774966907933629 -0.45016515348935238 0 -0.46774966907933629 -0.45016515348935238 0 -0.45853707647414721 -0.42524773023402862 0 -0.46774966907933629 -0.45016515348935238 0 -0.45325755922839678 -0.44082427593074058 0 -0.45853707647414721 -0.42524773023402862 0 -0.44175696065725573 -0.45628678592965521 0 -0.46774966907933629 -0.45016515348935238 0 -0.45325755922839678 -0.44082427593074058 0 -0.47696226168452538 -0.47508257674467608 0 -0.46774966907933629 -0.45016515348935238 0 -0.46774966907933629 -0.45016515348935238 0 -0.5 -0.40194873453805408 0 -0.45853707647414721 -0.42524773023402862 0 -0.5 -0.40194873453805408 0 -0.46923291525112393 -0.40227919791892319 0 -0.45853707647414721 -0.42524773023402862 0 -0.46923291525112393 -0.40227919791892319 0 -0.47723926971091502 -0.37883738684114437 0 -0.46199791381478489 -0.39324373611997282 0 -0.5 -0.40194873453805408 0 -0.46923291525112393 -0.40227919791892319 0 -0.47723926971091502 -0.37883738684114437 0 -0.47723926971091502 -0.37883738684114437 0 -0.46063227861286149 -0.37802114421650379 0 -0.46199791381478489 -0.39324373611997282 0 -0.46063227861286149 -0.37802114421650379 0 -0.44934692324427572 -0.38602370070780923 0 -0.46063227861286149 -0.37802114421650379 0 -0.46199791381478489 -0.39324373611997282 0 -0.44934692324427572 -0.38602370070780923 0 -0.46199791381478489 -0.39324373611997282 0 -0.44934692324427572 -0.38602370070780923 0 -0.45186062385423548 -0.41581831998743252 0 -0.46923291525112393 -0.40227919791892319 0 -0.46199791381478489 -0.39324373611997282 0 -0.45186062385423548 -0.41581831998743252 0 -0.44934692324427572 -0.38602370070780923 0 -0.45186062385423548 -0.41581831998743252 0 -0.44934692324427572 -0.38602370070780923 0 -0.4281951023695143 -0.40102266493320532 0 -0.44194423197073762 -0.40414133886736581 0 -0.44934692324427572 -0.38602370070780923 0 -0.45186062385423548 -0.41581831998743252 0 -0.44194423197073762 -0.40414133886736581 0 -0.44934692324427572 -0.38602370070780923 0 -0.4281951023695143 -0.40102266493320532 0 -0.46063227861286149 -0.37802114421650379 0 -0.44934692324427572 -0.38602370070780923 0 -0.44739979342913311 -0.36294458329013229 0 -0.44934692324427572 -0.38602370070780923 0 -0.43674333185042352 -0.37641919199672741 0 -0.4281951023695143 -0.40102266493320532 0 -0.44934692324427572 -0.38602370070780923 0 -0.43674333185042352 -0.37641919199672741 0 -0.44739979342913311 -0.36294458329013229 0 -0.46923291525112393 -0.40227919791892319 0 -0.45853707647414721 -0.42524773023402862 0 -0.45186062385423548 -0.41581831998743252 0 -0.44194423197073762 -0.40414133886736581 0 -0.45186062385423548 -0.41581831998743252 0 -0.43823280816596138 -0.41379272184435001 0 -0.45186062385423548 -0.41581831998743252 0 -0.43823280816596138 -0.41379272184435001 0 -0.44292624090528621 -0.42802978684410381 0 -0.45853707647414721 -0.42524773023402862 0 -0.45186062385423548 -0.41581831998743252 0 -0.44292624090528621 -0.42802978684410381 0 -0.45325755922839678 -0.44082427593074058 0 -0.45853707647414721 -0.42524773023402862 0 -0.44292624090528621 -0.42802978684410381 0 -0.44187400167307422 -0.44095767887066201 0 -0.45325755922839678 -0.44082427593074058 0 -0.44292624090528621 -0.42802978684410381 0 -0.44187400167307422 -0.44095767887066201 0 -0.44292624090528621 -0.42802978684410381 0 -0.42955524590135852 -0.43868986677814847 0 -0.42623784173003332 -0.41995149858964231 0 -0.41099716969282479 -0.4344190863311328 0 -0.42955524590135852 -0.43868986677814847 0 -0.44292624090528621 -0.42802978684410381 0 -0.42623784173003332 -0.41995149858964231 0 -0.42955524590135852 -0.43868986677814847 0 -0.43823280816596138 -0.41379272184435001 0 -0.42623784173003332 -0.41995149858964231 0 -0.4281951023695143 -0.40102266493320532 0 -0.43823280816596138 -0.41379272184435001 0 -0.44292624090528621 -0.42802978684410381 0 -0.42623784173003332 -0.41995149858964231 0 -0.44194423197073762 -0.40414133886736581 0 -0.43823280816596138 -0.41379272184435001 0 -0.4281951023695143 -0.40102266493320532 0 -0.42623784173003332 -0.41995149858964231 0 -0.40704328149475222 -0.41602162915860041 0 -0.4281951023695143 -0.40102266493320532 0 -0.40704328149475222 -0.41602162915860041 0 -0.4281951023695143 -0.40102266493320532 0 -0.42623784173003332 -0.41995149858964231 0 -0.40704328149475222 -0.41602162915860041 0 -0.41099716969282479 -0.4344190863311328 0 -0.43674333185042352 -0.37641919199672741 0 -0.4281951023695143 -0.40102266493320532 0 -0.42089628469911827 -0.37612820863284591 0 -0.40704328149475222 -0.41602162915860041 0 -0.4281951023695143 -0.40102266493320532 0 -0.40139446399348361 -0.38776554810080882 0 -0.4281951023695143 -0.40102266493320532 0 -0.42089628469911827 -0.37612820863284591 0 -0.40139446399348361 -0.38776554810080882 0 -0.40704328149475222 -0.41602162915860041 0 -0.40139446399348361 -0.38776554810080882 0 -0.38513132625911939 -0.40249628858521058 0 -0.38513132625911939 -0.40249628858521058 0 -0.36791152532905752 -0.40939097156179138 0 -0.37494147391003102 -0.38718626649864601 0 -0.40139446399348361 -0.38776554810080882 0 -0.38513132625911939 -0.40249628858521058 0 -0.37494147391003102 -0.38718626649864601 0 -0.40139446399348361 -0.38776554810080882 0 -0.38864739629284478 -0.37358803665991203 0 -0.37494147391003102 -0.38718626649864601 0 -0.40704328149475222 -0.41602162915860041 0 -0.38589146061999008 -0.43102059338399551 0 -0.40704328149475222 -0.41602162915860041 0 -0.41099716969282479 -0.4344190863311328 0 -0.38589146061999008 -0.43102059338399551 0 -0.40704328149475222 -0.41602162915860041 0 -0.38513132625911939 -0.40249628858521058 0 -0.3825683938499011 -0.41720756293568267 0 -0.40704328149475222 -0.41602162915860041 0 -0.3825683938499011 -0.41720756293568267 0 -0.38589146061999008 -0.43102059338399551 0 -0.38513132625911939 -0.40249628858521058 0 -0.3825683938499011 -0.41720756293568267 0 -0.36791152532905752 -0.40939097156179138 0 -0.3825683938499011 -0.41720756293568267 0 -0.38589146061999008 -0.43102059338399551 0 -0.36686437554658652 -0.42710833198881581 0 -0.38589146061999008 -0.43102059338399551 0 -0.38071661097606729 -0.4504362562503097 0 -0.36473963974522788 -0.4460195576093906 0 -0.38589146061999008 -0.43102059338399551 0 -0.36473963974522788 -0.4460195576093906 0 -0.38589146061999008 -0.43102059338399551 0 -0.38071661097606729 -0.4504362562503097 0 -0.3987887142996418 -0.44824954428615721 0 -0.41099716969282479 -0.4344190863311328 0 -0.38589146061999008 -0.43102059338399551 0 -0.3987887142996418 -0.44824954428615721 0 -0.3987887142996418 -0.44824954428615721 0 -0.3834170792530821 -0.47412477214307952 0 -0.3987887142996418 -0.44824954428615721 0 -0.3834170792530821 -0.47412477214307952 0 -0.40627049207056282 -0.46605163612719602 0 -0.38071661097606729 -0.4504362562503097 0 -0.3834170792530821 -0.47412477214307952 0 -0.3690595195626194 -0.4589872873636125 0 -0.38071661097606729 -0.4504362562503097 0 -0.3987887142996418 -0.44824954428615721 0 -0.3834170792530821 -0.47412477214307952 0 -0.3834170792530821 -0.47412477214307952 0 -0.39757779672732002 -0.5 0 -0.36804544420652191 -0.50000000000000133 0 -0.3834170792530821 -0.47412477214307952 0 -0.36804544420652191 -0.50000000000000133 0 -0.3834170792530821 -0.47412477214307952 0 -0.39757779672732002 -0.5 0 -0.4093383027102272 -0.48413714586396528 0 -0.3834170792530821 -0.47412477214307952 0 -0.4093383027102272 -0.48413714586396528 0 -0.40627049207056282 -0.46605163612719602 0 -0.4093383027102272 -0.48413714586396528 0 -0.42406828670935232 -0.47348097578246062 0 -0.40627049207056282 -0.46605163612719602 0 -0.4093383027102272 -0.48413714586396528 0 -0.42711014924811808 -0.5 0 -0.42406828670935232 -0.47348097578246062 0 -0.39757779672732002 -0.5 0 -0.4093383027102272 -0.48413714586396528 0 -0.42711014924811808 -0.5 0 -0.4418902773561707 -0.48175554229659401 0 -0.42711014924811808 -0.5 0 -0.42406828670935232 -0.47348097578246062 0 -0.4418902773561707 -0.48175554229659401 0 -0.44175696065725573 -0.45628678592965521 0 -0.42406828670935232 -0.47348097578246062 0 -0.44175696065725573 -0.45628678592965521 0 -0.42406828670935232 -0.47348097578246062 0 -0.41846647411117333 -0.45258138579025292 0 -0.44175696065725573 -0.45628678592965521 0 -0.42955524590135852 -0.43868986677814847 0 -0.41846647411117333 -0.45258138579025292 0 -0.41099716969282479 -0.4344190863311328 0 -0.42955524590135852 -0.43868986677814847 0 -0.41846647411117333 -0.45258138579025292 0 -0.41099716969282479 -0.4344190863311328 0 -0.3987887142996418 -0.44824954428615721 0 -0.41846647411117333 -0.45258138579025292 0 -0.3987887142996418 -0.44824954428615721 0 -0.41846647411117333 -0.45258138579025292 0 -0.40627049207056282 -0.46605163612719602 0 -0.42406828670935232 -0.47348097578246062 0 -0.41846647411117333 -0.45258138579025292 0 -0.40627049207056282 -0.46605163612719602 0 -0.44751522815918809 -0.25729726868341207 0 -0.47907445362755119 -0.25549534773603921 0 -0.45491676699532968 -0.28212372019175952 0 -0.44751522815918809 -0.25729726868341207 0 -0.47907445362755119 -0.25549534773603921 0 -0.46631009223088599 -0.24029623575425851 0 -0.44751522815918809 -0.25729726868341207 0 -0.45491676699532968 -0.28212372019175952 0 -0.42618170300901109 -0.28560522790287618 0 -0.47907445362755119 -0.25549534773603921 0 -0.5 -0.27408063401246119 0 -0.48953722681377398 -0.2293897766599379 0 -0.47907445362755119 -0.25549534773603921 0 -0.5 -0.27408063401246119 0 -0.48033196514368143 -0.2862932808312918 0 -0.47907445362755119 -0.25549534773603921 0 -0.48033196514368143 -0.2862932808312918 0 -0.45491676699532968 -0.28212372019175952 0 -0.5 -0.27408063401246119 0 -0.48222840631435671 -0.3064384797584882 0 -0.5 -0.32863004516883848 0 -0.5 -0.27408063401246119 0 -0.48033196514368143 -0.2862932808312918 0 -0.48222840631435671 -0.3064384797584882 0 -0.48033196514368143 -0.2862932808312918 0 -0.46159690444313162 -0.30426104926482672 0 -0.48033196514368143 -0.2862932808312918 0 -0.48222840631435671 -0.3064384797584882 0 -0.46159690444313162 -0.30426104926482672 0 -0.48033196514368143 -0.2862932808312918 0 -0.46159690444313162 -0.30426104926482672 0 -0.45491676699532968 -0.28212372019175952 0 -0.45491676699532968 -0.28212372019175952 0 -0.43480034758941483 -0.3037901467321113 0 -0.42618170300901109 -0.28560522790287618 0 -0.46159690444313162 -0.30426104926482672 0 -0.45491676699532968 -0.28212372019175952 0 -0.43480034758941483 -0.3037901467321113 0 -0.46159690444313162 -0.30426104926482672 0 -0.44286184374258181 -0.32222881769836159 0 -0.43480034758941483 -0.3037901467321113 0 -0.5 -0.40194873453805408 0 -0.47723926971091502 -0.37883738684114437 0 -0.5 -0.32863004516883848 0 -0.46159690444313162 -0.30426104926482672 0 -0.44286184374258181 -0.32222881769836159 0 -0.44286184374258181 -0.32222881769836159 0 -0.44545266361399111 -0.33986546587245547 0 -0.46669516812411538 -0.32738828931040398 0 -0.44545266361399111 -0.33986546587245547 0 -0.46669516812411538 -0.32738828931040398 0 -0.47525891843354978 -0.34995572757458282 0 -0.46159690444313162 -0.30426104926482672 0 -0.44286184374258181 -0.32222881769836159 0 -0.46669516812411538 -0.32738828931040398 0 -0.46669516812411538 -0.32738828931040398 0 -0.5 -0.32863004516883848 0 -0.47525891843354978 -0.34995572757458282 0 -0.48222840631435671 -0.3064384797584882 0 -0.46669516812411538 -0.32738828931040398 0 -0.5 -0.32863004516883848 0 -0.48222840631435671 -0.3064384797584882 0 -0.46159690444313162 -0.30426104926482672 0 -0.46669516812411538 -0.32738828931040398 0 -0.47723926971091502 -0.37883738684114437 0 -0.5 -0.32863004516883848 0 -0.47525891843354978 -0.34995572757458282 0 -0.47723926971091502 -0.37883738684114437 0 -0.47525891843354978 -0.34995572757458282 0 -0.46227966941263993 -0.3625775065146376 0 -0.47723926971091502 -0.37883738684114437 0 -0.46063227861286149 -0.37802114421650379 0 -0.46227966941263993 -0.3625775065146376 0 -0.46063227861286149 -0.37802114421650379 0 -0.46227966941263993 -0.3625775065146376 0 -0.44739979342913311 -0.36294458329013229 0 -0.44545266361399111 -0.33986546587245547 0 -0.47525891843354978 -0.34995572757458282 0 -0.46227966941263993 -0.3625775065146376 0 -0.44545266361399111 -0.33986546587245547 0 -0.44739979342913311 -0.36294458329013229 0 -0.43030886659497392 -0.35852314400993812 0 -0.44545266361399111 -0.33986546587245547 0 -0.46227966941263993 -0.3625775065146376 0 -0.44739979342913311 -0.36294458329013229 0 -0.44545266361399111 -0.33986546587245547 0 -0.44739979342913311 -0.36294458329013229 0 -0.43674333185042352 -0.37641919199672741 0 -0.44739979342913311 -0.36294458329013229 0 -0.43030886659497392 -0.35852314400993812 0 -0.44934692324427572 -0.38602370070780923 0 -0.44739979342913311 -0.36294458329013229 0 -0.43674333185042352 -0.37641919199672741 0 -0.42089628469911827 -0.37612820863284591 0 -0.43030886659497392 -0.35852314400993812 0 -0.44545266361399111 -0.33986546587245547 0 -0.43030886659497392 -0.35852314400993812 0 -0.42412678304203177 -0.34019658613189668 0 -0.43030886659497392 -0.35852314400993812 0 -0.40539172234148191 -0.35816435456543172 0 -0.42412678304203177 -0.34019658613189668 0 -0.40539172234148191 -0.35816435456543172 0 -0.40545726095397228 -0.33342364923325463 0 -0.42412678304203177 -0.34019658613189668 0 -0.40539172234148191 -0.35816435456543172 0 -0.42412678304203177 -0.34019658613189668 0 -0.42089628469911827 -0.37612820863284591 0 -0.43030886659497392 -0.35852314400993812 0 -0.40539172234148191 -0.35816435456543172 0 -0.42089628469911827 -0.37612820863284591 0 -0.40139446399348361 -0.38776554810080882 0 -0.40539172234148191 -0.35816435456543172 0 -0.40139446399348361 -0.38776554810080882 0 -0.38864739629284478 -0.37358803665991203 0 -0.40539172234148191 -0.35816435456543172 0 -0.40539172234148191 -0.35816435456543172 0 -0.38531018032108549 -0.33907566771317649 0 -0.37286192492638293 -0.36123597747476138 0 -0.38864739629284478 -0.37358803665991203 0 -0.40539172234148191 -0.35816435456543172 0 -0.37286192492638293 -0.36123597747476138 0 -0.38864739629284478 -0.37358803665991203 0 -0.37286192492638293 -0.36123597747476138 0 -0.37494147391003102 -0.38718626649864601 0 -0.40539172234148191 -0.35816435456543172 0 -0.40545726095397228 -0.33342364923325463 0 -0.38531018032108549 -0.33907566771317649 0 -0.40545726095397228 -0.33342364923325463 0 -0.38531018032108549 -0.33907566771317649 0 -0.39316441921368328 -0.31604462385908738 0 -0.38531018032108549 -0.33907566771317649 0 -0.39316441921368328 -0.31604462385908738 0 -0.37108392967224652 -0.3170082190878597 0 -0.40545726095397228 -0.33342364923325463 0 -0.39316441921368328 -0.31604462385908738 0 -0.41795827650616701 -0.3177796642102107 0 -0.40545726095397228 -0.33342364923325463 0 -0.41795827650616701 -0.3177796642102107 0 -0.42412678304203177 -0.34019658613189668 0 -0.44286184374258181 -0.32222881769836159 0 -0.42412678304203177 -0.34019658613189668 0 -0.44286184374258181 -0.32222881769836159 0 -0.44545266361399111 -0.33986546587245547 0 -0.42412678304203177 -0.34019658613189668 0 -0.44286184374258181 -0.32222881769836159 0 -0.41795827650616701 -0.3177796642102107 0 -0.42412678304203177 -0.34019658613189668 0 -0.44286184374258181 -0.32222881769836159 0 -0.41795827650616701 -0.3177796642102107 0 -0.43480034758941483 -0.3037901467321113 0 -0.43480034758941483 -0.3037901467321113 0 -0.42618170300901109 -0.28560522790287618 0 -0.40924182331169912 -0.29980218212012971 0 -0.42618170300901109 -0.28560522790287618 0 -0.40071275492830161 -0.27750882383617831 0 -0.42618170300901109 -0.28560522790287618 0 -0.40924182331169912 -0.29980218212012971 0 -0.40071275492830161 -0.27750882383617831 0 -0.41795827650616701 -0.3177796642102107 0 -0.43480034758941483 -0.3037901467321113 0 -0.40924182331169912 -0.29980218212012971 0 -0.39316441921368328 -0.31604462385908738 0 -0.41795827650616701 -0.3177796642102107 0 -0.40924182331169912 -0.29980218212012971 0 -0.39316441921368328 -0.31604462385908738 0 -0.40924182331169912 -0.29980218212012971 0 -0.38263343862361771 -0.29808460618031479 0 -0.39316441921368328 -0.31604462385908738 0 -0.38263343862361771 -0.29808460618031479 0 -0.37108392967224652 -0.3170082190878597 0 -0.38263343862361771 -0.29808460618031479 0 -0.40071275492830161 -0.27750882383617831 0 -0.37476378069317839 -0.28447037374388823 0 -0.40924182331169912 -0.29980218212012971 0 -0.38263343862361771 -0.29808460618031479 0 -0.40071275492830161 -0.27750882383617831 0 -0.37524380684759201 -0.26941241976948033 0 -0.39194677310835552 -0.25566444093544283 0 -0.37780692922792158 -0.23807922274995119 0 -0.40071275492830161 -0.27750882383617831 0 -0.37524380684759201 -0.26941241976948033 0 -0.37476378069317839 -0.28447037374388823 0 -0.40071275492830161 -0.27750882383617831 0 -0.37524380684759201 -0.26941241976948033 0 -0.39194677310835552 -0.25566444093544283 0 -0.40071275492830161 -0.27750882383617831 0 -0.37524380684759201 -0.26941241976948033 0 -0.40071275492830161 -0.27750882383617831 0 -0.39194677310835552 -0.25566444093544283 0 -0.42050334194304301 -0.26152975791797672 0 -0.39194677310835552 -0.25566444093544283 0 -0.42050334194304301 -0.26152975791797672 0 -0.40764792715735171 -0.2429427266549983 0 -0.42050334194304301 -0.26152975791797672 0 -0.43236564191033428 -0.24645372493203599 0 -0.40764792715735171 -0.2429427266549983 0 -0.42618170300901109 -0.28560522790287618 0 -0.40071275492830161 -0.27750882383617831 0 -0.42050334194304301 -0.26152975791797672 0 -0.44751522815918809 -0.25729726868341207 0 -0.42618170300901109 -0.28560522790287618 0 -0.42050334194304301 -0.26152975791797672 0 -0.44751522815918809 -0.25729726868341207 0 -0.42050334194304301 -0.26152975791797672 0 -0.43236564191033428 -0.24645372493203599 0 -0.32430591068617282 -0.25321961163608447 0 -0.32356720886040308 -0.27278828722040238 0 -0.33571343384910091 -0.26885906401951692 0 -0.32430591068617282 -0.25321961163608447 0 -0.32356720886040308 -0.27278828722040238 0 -0.30876465948446402 -0.26902062747230587 0 -0.32356720886040308 -0.27278828722040238 0 -0.31416856374581231 -0.29139524820457219 0 -0.30876465948446402 -0.26902062747230587 0 -0.32356720886040308 -0.27278828722040238 0 -0.33571343384910091 -0.26885906401951692 0 -0.33488347653646577 -0.28144688476953239 0 -0.33571343384910091 -0.26885906401951692 0 -0.34697670476062642 -0.27429673006352601 0 -0.33488347653646577 -0.28144688476953239 0 -0.34697670476062642 -0.27429673006352601 0 -0.34647867644199137 -0.28688970377575018 0 -0.33488347653646577 -0.28144688476953239 0 -0.32430591068617282 -0.25321961163608447 0 -0.34977485876688241 -0.26131601570278251 0 -0.33990594190953799 -0.24414370118103401 0 -0.32430591068617282 -0.25321961163608447 0 -0.33571343384910091 -0.26885906401951692 0 -0.34977485876688241 -0.26131601570278251 0 -0.32430591068617282 -0.25321961163608447 0 -0.34977485876688241 -0.26131601570278251 0 -0.34977485876688241 -0.26131601570278251 0 -0.36015300461917221 -0.26088545089158299 0 -0.35471287504477877 -0.24494242047594239 0 -0.37524380684759201 -0.26941241976948033 0 -0.36015300461917221 -0.26088545089158299 0 -0.37780692922792158 -0.23807922274995119 0 -0.34977485876688241 -0.26131601570278251 0 -0.35471287504477877 -0.24494242047594239 0 -0.33990594190953799 -0.24414370118103401 0 -0.37524380684759201 -0.26941241976948033 0 -0.34977485876688241 -0.26131601570278251 0 -0.36015300461917221 -0.26088545089158299 0 -0.37524380684759201 -0.26941241976948033 0 -0.34977485876688241 -0.26131601570278251 0 -0.37524380684759201 -0.26941241976948033 0 -0.3588731948879994 -0.27984953781366428 0 -0.35771714131577498 -0.27121867583736331 0 -0.37524380684759201 -0.26941241976948033 0 -0.34977485876688241 -0.26131601570278251 0 -0.35771714131577498 -0.27121867583736331 0 -0.37524380684759201 -0.26941241976948033 0 -0.3588731948879994 -0.27984953781366428 0 -0.37476378069317839 -0.28447037374388823 0 -0.3588731948879994 -0.27984953781366428 0 -0.35771714131577498 -0.27121867583736331 0 -0.34697670476062642 -0.27429673006352601 0 -0.34977485876688241 -0.26131601570278251 0 -0.35771714131577498 -0.27121867583736331 0 -0.34697670476062642 -0.27429673006352601 0 -0.33571343384910091 -0.26885906401951692 0 -0.34977485876688241 -0.26131601570278251 0 -0.34697670476062642 -0.27429673006352601 0 -0.3588731948879994 -0.27984953781366428 0 -0.34697670476062642 -0.27429673006352601 0 -0.34647867644199137 -0.28688970377575018 0 -0.34647867644199137 -0.28688970377575018 0 -0.35635570817838158 -0.29749648111980342 0 -0.33530429784648341 -0.30135888511222508 0 -0.3588731948879994 -0.27984953781366428 0 -0.34647867644199137 -0.28688970377575018 0 -0.35635570817838158 -0.29749648111980342 0 -0.38263343862361771 -0.29808460618031479 0 -0.37476378069317839 -0.28447037374388823 0 -0.35635570817838158 -0.29749648111980342 0 -0.3588731948879994 -0.27984953781366428 0 -0.37476378069317839 -0.28447037374388823 0 -0.35635570817838158 -0.29749648111980342 0 -0.35635570817838158 -0.29749648111980342 0 -0.35109624349615831 -0.3185371698854309 0 -0.37108392967224652 -0.3170082190878597 0 -0.38263343862361771 -0.29808460618031479 0 -0.35635570817838158 -0.29749648111980342 0 -0.37108392967224652 -0.3170082190878597 0 -0.35635570817838158 -0.29749648111980342 0 -0.33530429784648341 -0.30135888511222508 0 -0.35109624349615831 -0.3185371698854309 0 -0.33530429784648341 -0.30135888511222508 0 -0.33488347653646577 -0.28144688476953239 0 -0.31416856374581231 -0.29139524820457219 0 -0.34647867644199137 -0.28688970377575018 0 -0.33530429784648341 -0.30135888511222508 0 -0.33488347653646577 -0.28144688476953239 0 -0.32356720886040308 -0.27278828722040238 0 -0.33488347653646577 -0.28144688476953239 0 -0.31416856374581231 -0.29139524820457219 0 -0.33530429784648341 -0.30135888511222508 0 -0.31416856374581231 -0.29139524820457219 0 -0.31926080542162649 -0.31287684572582841 0 -0.31926080542162649 -0.31287684572582841 0 -0.33285451500668439 -0.32443380081241469 0 -0.31206404961264378 -0.3322168165783792 0 -0.32507476096087501 -0.34274994898806649 0 -0.31565398713330561 -0.35593537231161743 0 -0.31206404961264378 -0.3322168165783792 0 -0.32507476096087501 -0.34274994898806649 0 -0.33285451500668439 -0.32443380081241469 0 -0.31206404961264378 -0.3322168165783792 0 -0.32507476096087501 -0.34274994898806649 0 -0.34361195581972509 -0.33781120688065958 0 -0.33285451500668439 -0.32443380081241469 0 -0.33530429784648341 -0.30135888511222508 0 -0.33285451500668439 -0.32443380081241469 0 -0.35109624349615831 -0.3185371698854309 0 -0.34361195581972509 -0.33781120688065958 0 -0.33285451500668439 -0.32443380081241469 0 -0.35109624349615831 -0.3185371698854309 0 -0.33530429784648341 -0.30135888511222508 0 -0.31926080542162649 -0.31287684572582841 0 -0.33285451500668439 -0.32443380081241469 0 -0.35109624349615831 -0.3185371698854309 0 -0.37108392967224652 -0.3170082190878597 0 -0.36301503343016528 -0.33729259274968598 0 -0.38531018032108549 -0.33907566771317649 0 -0.37108392967224652 -0.3170082190878597 0 -0.36301503343016528 -0.33729259274968598 0 -0.34361195581972509 -0.33781120688065958 0 -0.35109624349615831 -0.3185371698854309 0 -0.36301503343016528 -0.33729259274968598 0 -0.34361195581972509 -0.33781120688065958 0 -0.36301503343016528 -0.33729259274968598 0 -0.35243490625858842 -0.35292368742369867 0 -0.34361195581972509 -0.33781120688065958 0 -0.35243490625858842 -0.35292368742369867 0 -0.33719627576587891 -0.35093004142466022 0 -0.36301503343016528 -0.33729259274968598 0 -0.35243490625858842 -0.35292368742369867 0 -0.37286192492638293 -0.36123597747476138 0 -0.38531018032108549 -0.33907566771317649 0 -0.36301503343016528 -0.33729259274968598 0 -0.37286192492638293 -0.36123597747476138 0 -0.37286192492638293 -0.36123597747476138 0 -0.34980743866496788 -0.36872877810499027 0 -0.35880049029492439 -0.38038687460091292 0 -0.35243490625858842 -0.35292368742369867 0 -0.37286192492638293 -0.36123597747476138 0 -0.34980743866496788 -0.36872877810499027 0 -0.35243490625858842 -0.35292368742369867 0 -0.34980743866496788 -0.36872877810499027 0 -0.33650287208452601 -0.36304320074714391 0 -0.34980743866496788 -0.36872877810499027 0 -0.33609122698737909 -0.37457068137499022 0 -0.34541100581246698 -0.3818031767435115 0 -0.34980743866496788 -0.36872877810499027 0 -0.33609122698737909 -0.37457068137499022 0 -0.33650287208452601 -0.36304320074714391 0 -0.33609122698737909 -0.37457068137499022 0 -0.33650287208452601 -0.36304320074714391 0 -0.32159156026024488 -0.36692584721770138 0 -0.33650287208452601 -0.36304320074714391 0 -0.32720389124096599 -0.3559168821378379 0 -0.32159156026024488 -0.36692584721770138 0 -0.32507476096087501 -0.34274994898806649 0 -0.34361195581972509 -0.33781120688065958 0 -0.33719627576587891 -0.35093004142466022 0 -0.35243490625858842 -0.35292368742369867 0 -0.33650287208452601 -0.36304320074714391 0 -0.33719627576587891 -0.35093004142466022 0 -0.32507476096087501 -0.34274994898806649 0 -0.33719627576587891 -0.35093004142466022 0 -0.32720389124096599 -0.3559168821378379 0 -0.33650287208452601 -0.36304320074714391 0 -0.33719627576587891 -0.35093004142466022 0 -0.32720389124096599 -0.3559168821378379 0 -0.31565398713330561 -0.35593537231161743 0 -0.31206404961264378 -0.3322168165783792 0 -0.32507476096087501 -0.34274994898806649 0 -0.32720389124096599 -0.3559168821378379 0 -0.31565398713330561 -0.35593537231161743 0 -0.31565398713330561 -0.35593537231161743 0 -0.30861606156995441 -0.36823990918037808 0 -0.31924392465396739 -0.37965392804485559 0 -0.31565398713330561 -0.35593537231161743 0 -0.31924392465396739 -0.37965392804485559 0 -0.31565398713330561 -0.35593537231161743 0 -0.32159156026024488 -0.36692584721770138 0 -0.31924392465396739 -0.37965392804485559 0 -0.32720389124096599 -0.3559168821378379 0 -0.31565398713330561 -0.35593537231161743 0 -0.32159156026024488 -0.36692584721770138 0 -0.2979913325718696 -0.36047510738532179 0 -0.30861606156995441 -0.36823990918037808 0 -0.30706578425633352 -0.35935010721947602 0 -0.2979913325718696 -0.36047510738532179 0 -0.29798709164564691 -0.37156528738488392 0 -0.30861606156995441 -0.36823990918037808 0 -0.29798709164564691 -0.37156528738488392 0 -0.30861606156995441 -0.36823990918037808 0 -0.30679259434477119 -0.37826521245862432 0 -0.31565398713330561 -0.35593537231161743 0 -0.30861606156995441 -0.36823990918037808 0 -0.30706578425633352 -0.35935010721947602 0 -0.2979913325718696 -0.36047510738532179 0 -0.30359058690150648 -0.34563027960839371 0 -0.28958752031042839 -0.3323677794863113 0 -0.31565398713330561 -0.35593537231161743 0 -0.30706578425633352 -0.35935010721947602 0 -0.30359058690150648 -0.34563027960839371 0 -0.31565398713330561 -0.35593537231161743 0 -0.30359058690150648 -0.34563027960839371 0 -0.31206404961264378 -0.3322168165783792 0 -0.2979913325718696 -0.36047510738532179 0 -0.30706578425633352 -0.35935010721947602 0 -0.30359058690150648 -0.34563027960839371 0 -0.28864269168997703 -0.36323470038617228 0 -0.27623815596808737 -0.34240350764888611 0 -0.2979913325718696 -0.36047510738532179 0 -0.28958752031042839 -0.3323677794863113 0 -0.2979913325718696 -0.36047510738532179 0 -0.28864269168997703 -0.36323470038617228 0 -0.27623815596808737 -0.34240350764888611 0 -0.2979913325718696 -0.36047510738532179 0 -0.27623815596808737 -0.34240350764888611 0 -0.28958752031042839 -0.3323677794863113 0 -0.2979913325718696 -0.36047510738532179 0 -0.29798709164564691 -0.37156528738488392 0 -0.28864269168997703 -0.36323470038617228 0 -0.29798709164564691 -0.37156528738488392 0 -0.28864269168997703 -0.36323470038617228 0 -0.28489988464892418 -0.37638961154645778 0 -0.28864269168997703 -0.36323470038617228 0 -0.27820594333017978 -0.36814641930529712 0 -0.28489988464892418 -0.37638961154645778 0 -0.28864269168997703 -0.36323470038617228 0 -0.27820594333017978 -0.36814641930529712 0 -0.27146670317426819 -0.36037672755938932 0 -0.27820594333017978 -0.36814641930529712 0 -0.27050958203810649 -0.37368082221002602 0 -0.28489988464892418 -0.37638961154645778 0 -0.27820594333017978 -0.36814641930529712 0 -0.27146670317426819 -0.36037672755938932 0 -0.27050958203810649 -0.37368082221002602 0 -0.27146670317426819 -0.36037672755938932 0 -0.27050958203810649 -0.37368082221002602 0 -0.25411823777705178 -0.37005376561696479 0 -0.27146670317426819 -0.36037672755938932 0 -0.25411823777705178 -0.37005376561696479 0 -0.26270346426377728 -0.34761056941625329 0 -0.25411823777705178 -0.37005376561696479 0 -0.26270346426377728 -0.34761056941625329 0 -0.24786060415328129 -0.34364653134442652 0 -0.27146670317426819 -0.36037672755938932 0 -0.26270346426377728 -0.34761056941625329 0 -0.27623815596808737 -0.34240350764888611 0 -0.28864269168997703 -0.36323470038617228 0 -0.27146670317426819 -0.36037672755938932 0 -0.27623815596808737 -0.34240350764888611 0 -0.27623815596808737 -0.34240350764888611 0 -0.26383362024619789 -0.32157231491159988 0 -0.27623815596808737 -0.34240350764888611 0 -0.26383362024619789 -0.32157231491159988 0 -0.28958752031042839 -0.3323677794863113 0 -0.26270346426377728 -0.34761056941625329 0 -0.27623815596808737 -0.34240350764888611 0 -0.26383362024619789 -0.32157231491159988 0 -0.26270346426377728 -0.34761056941625329 0 -0.26383362024619789 -0.32157231491159988 0 -0.24786060415328129 -0.34364653134442652 0 -0.26383362024619789 -0.32157231491159988 0 -0.2514290845243084 -0.30074112217431381 0 -0.23772176552187679 -0.32069741309768929 0 -0.26383362024619789 -0.32157231491159988 0 -0.28958752031042839 -0.3323677794863113 0 -0.28118370804898718 -0.30426045158730092 0 -0.28958752031042839 -0.3323677794863113 0 -0.28118370804898718 -0.30426045158730092 0 -0.28958752031042839 -0.3323677794863113 0 -0.30139077811245818 -0.31093762735745922 0 -0.28118370804898718 -0.30426045158730092 0 -0.30359058690150648 -0.34563027960839371 0 -0.28958752031042839 -0.3323677794863113 0 -0.31206404961264378 -0.3322168165783792 0 -0.28958752031042839 -0.3323677794863113 0 -0.31206404961264378 -0.3322168165783792 0 -0.30139077811245818 -0.31093762735745922 0 -0.31926080542162649 -0.31287684572582841 0 -0.31206404961264378 -0.3322168165783792 0 -0.30139077811245818 -0.31093762735745922 0 -0.31416856374581231 -0.29139524820457219 0 -0.31926080542162649 -0.31287684572582841 0 -0.30139077811245818 -0.31093762735745922 0 -0.31416856374581231 -0.29139524820457219 0 -0.29347422976667942 -0.28377418594643089 0 -0.31416856374581231 -0.29139524820457219 0 -0.30139077811245818 -0.31093762735745922 0 -0.29347422976667942 -0.28377418594643089 0 -0.31416856374581231 -0.29139524820457219 0 -0.29347422976667942 -0.28377418594643089 0 -0.30876465948446402 -0.26902062747230587 0 -0.29347422976667942 -0.28377418594643089 0 -0.28118370804898718 -0.30426045158730092 0 -0.27277989578754641 -0.27615312368829031 0 -0.30139077811245818 -0.31093762735745922 0 -0.29347422976667942 -0.28377418594643089 0 -0.28118370804898718 -0.30426045158730092 0 -0.26383362024619789 -0.32157231491159988 0 -0.28118370804898718 -0.30426045158730092 0 -0.26565383800534931 -0.29770312188275311 0 -0.26383362024619789 -0.32157231491159988 0 -0.26565383800534931 -0.29770312188275311 0 -0.2514290845243084 -0.30074112217431381 0 -0.26383362024619789 -0.32157231491159988 0 -0.2514290845243084 -0.30074112217431381 0 -0.2514290845243084 -0.30074112217431381 0 -0.25904288141970672 -0.28578859705226067 0 -0.2504921355384786 -0.27933653031883537 0 -0.26565383800534931 -0.29770312188275311 0 -0.2514290845243084 -0.30074112217431381 0 -0.25904288141970672 -0.28578859705226067 0 -0.28118370804898718 -0.30426045158730092 0 -0.27277989578754641 -0.27615312368829031 0 -0.28118370804898718 -0.30426045158730092 0 -0.26565383800534931 -0.29770312188275311 0 -0.27277989578754641 -0.27615312368829031 0 -0.26565383800534931 -0.29770312188275311 0 -0.25904288141970672 -0.28578859705226067 0 -0.27277989578754641 -0.27615312368829031 0 -0.27039983795990519 -0.26819280000435392 0 -0.27277989578754641 -0.27615312368829031 0 -0.28132165967320882 -0.27029664606334958 0 -0.27039983795990519 -0.26819280000435392 0 -0.27277989578754641 -0.27615312368829031 0 -0.27039983795990519 -0.26819280000435392 0 -0.27277989578754641 -0.27615312368829031 0 -0.26463925571377511 -0.26752141066430252 0 -0.27039983795990519 -0.26819280000435392 0 -0.26463925571377511 -0.26752141066430252 0 -0.26625185319353689 -0.26213242343221049 0 -0.25904288141970672 -0.28578859705226067 0 -0.25483627904399642 -0.26954506273417939 0 -0.2504921355384786 -0.27933653031883537 0 -0.25904288141970672 -0.28578859705226067 0 -0.27277989578754641 -0.27615312368829031 0 -0.25483627904399642 -0.26954506273417939 0 -0.27277989578754641 -0.27615312368829031 0 -0.25483627904399642 -0.26954506273417939 0 -0.27277989578754641 -0.27615312368829031 0 -0.26463925571377511 -0.26752141066430252 0 -0.25483627904399642 -0.26954506273417939 0 -0.26463925571377511 -0.26752141066430252 0 -0.25483627904399642 -0.26954506273417939 0 -0.25892841258389032 -0.26158364346247859 0 -0.25483627904399642 -0.26954506273417939 0 -0.25892841258389032 -0.26158364346247859 0 -0.24552228452451999 -0.26611501602784698 0 -0.25483627904399642 -0.26954506273417939 0 -0.24552228452451999 -0.26611501602784698 0 -0.24454988477764869 -0.25749770810531208 0 -0.2589589496512007 -0.24726225580399791 0 -0.25892841258389032 -0.26158364346247859 0 -0.24454988477764869 -0.25749770810531208 0 -0.2589589496512007 -0.24726225580399791 0 -0.25892841258389032 -0.26158364346247859 0 -0.24454988477764869 -0.25749770810531208 0 -0.25892841258389032 -0.26158364346247859 0 -0.26725718232416801 -0.25389859205194781 0 -0.26625185319353689 -0.26213242343221049 0 -0.26463925571377511 -0.26752141066430252 0 -0.25892841258389032 -0.26158364346247859 0 -0.26625185319353689 -0.26213242343221049 0 -0.25892841258389032 -0.26158364346247859 0 -0.26725718232416801 -0.25389859205194781 0 -0.2589589496512007 -0.24726225580399791 0 -0.26725718232416801 -0.25389859205194781 0 -0.26625185319353689 -0.26213242343221049 0 -0.27810165793155861 -0.25747132149105112 0 -0.27039983795990519 -0.26819280000435392 0 -0.26625185319353689 -0.26213242343221049 0 -0.27810165793155861 -0.25747132149105112 0 -0.27039983795990519 -0.26819280000435392 0 -0.27810165793155861 -0.25747132149105112 0 -0.28132165967320882 -0.27029664606334958 0 -0.27810165793155861 -0.25747132149105112 0 -0.2918526769203546 -0.26589179918662209 0 -0.29883696260546339 -0.2451232075693866 0 -0.27810165793155861 -0.25747132149105112 0 -0.28132165967320882 -0.27029664606334958 0 -0.2918526769203546 -0.26589179918662209 0 -0.29347422976667942 -0.28377418594643089 0 -0.27277989578754641 -0.27615312368829031 0 -0.29347422976667942 -0.28377418594643089 0 -0.27277989578754641 -0.27615312368829031 0 -0.28132165967320882 -0.27029664606334958 0 -0.29347422976667942 -0.28377418594643089 0 -0.28132165967320882 -0.27029664606334958 0 -0.2918526769203546 -0.26589179918662209 0 -0.29347422976667942 -0.28377418594643089 0 -0.2918526769203546 -0.26589179918662209 0 -0.30876465948446402 -0.26902062747230587 0 -0.2918526769203546 -0.26589179918662209 0 -0.30876465948446402 -0.26902062747230587 0 -0.29883696260546339 -0.2451232075693866 0 -0.32430591068617282 -0.25321961163608447 0 -0.30876465948446402 -0.26902062747230587 0 -0.29883696260546339 -0.2451232075693866 0 -0.34070387063187391 -0.44890812280486159 0 -0.32673552176375931 -0.45926342863641878 0 -0.34391597724767481 -0.46248769604489992 0 -0.32673552176375931 -0.45926342863641878 0 -0.34413665328442189 -0.47980692487555021 0 -0.34391597724767481 -0.46248769604489992 0 -0.34070387063187391 -0.44890812280486159 0 -0.3248744219704372 -0.44319375633310693 0 -0.34747634599010169 -0.43350166290582021 0 -0.34070387063187391 -0.44890812280486159 0 -0.3248744219704372 -0.44319375633310693 0 -0.32673552176375931 -0.45926342863641878 0 -0.3248744219704372 -0.44319375633310693 0 -0.31002613221508479 -0.43677298132399561 0 -0.30668794640389291 -0.44225560112653511 0 -0.3248744219704372 -0.44319375633310693 0 -0.32673552176375931 -0.45926342863641878 0 -0.30668794640389291 -0.44225560112653511 0 -0.32673552176375931 -0.45926342863641878 0 -0.30668794640389291 -0.44225560112653511 0 -0.32673552176375931 -0.45926342863641878 0 -0.30928733762356342 -0.46010499016793133 0 -0.31201595483115963 -0.47770134639006911 0 -0.32673552176375931 -0.45926342863641878 0 -0.30928733762356342 -0.46010499016793133 0 -0.30668794640389291 -0.44225560112653511 0 -0.32673552176375931 -0.45926342863641878 0 -0.32710994319331749 -0.48432020426099931 0 -0.31201595483115963 -0.47770134639006911 0 -0.32710994319331749 -0.48432020426099931 0 -0.33837172287629852 -0.5 0 -0.3086980015460753 -0.50004019725791848 0 -0.32710994319331749 -0.48432020426099931 0 -0.3086980015460753 -0.50004019725791848 0 -0.31201595483115963 -0.47770134639006911 0 -0.32710994319331749 -0.48432020426099931 0 -0.33837172287629852 -0.5 0 -0.34413665328442189 -0.47980692487555021 0 -0.32673552176375931 -0.45926342863641878 0 -0.32710994319331749 -0.48432020426099931 0 -0.34413665328442189 -0.47980692487555021 0 -0.34413665328442189 -0.47980692487555021 0 -0.36804544420652191 -0.50000000000000133 0 -0.36077988024239571 -0.47185004698261129 0 -0.34413665328442189 -0.47980692487555021 0 -0.36077988024239571 -0.47185004698261129 0 -0.34391597724767481 -0.46248769604489992 0 -0.33837172287629852 -0.5 0 -0.34413665328442189 -0.47980692487555021 0 -0.36804544420652191 -0.50000000000000133 0 -0.3834170792530821 -0.47412477214307952 0 -0.36804544420652191 -0.50000000000000133 0 -0.36077988024239571 -0.47185004698261129 0 -0.3834170792530821 -0.47412477214307952 0 -0.36077988024239571 -0.47185004698261129 0 -0.3690595195626194 -0.4589872873636125 0 -0.36077988024239571 -0.47185004698261129 0 -0.3690595195626194 -0.4589872873636125 0 -0.35610460790005399 -0.4556936014685265 0 -0.3690595195626194 -0.4589872873636125 0 -0.35610460790005399 -0.4556936014685265 0 -0.36473963974522788 -0.4460195576093906 0 -0.36077988024239571 -0.47185004698261129 0 -0.35610460790005399 -0.4556936014685265 0 -0.34391597724767481 -0.46248769604489992 0 -0.34070387063187391 -0.44890812280486159 0 -0.35610460790005399 -0.4556936014685265 0 -0.34391597724767481 -0.46248769604489992 0 -0.34070387063187391 -0.44890812280486159 0 -0.35610460790005399 -0.4556936014685265 0 -0.34747634599010169 -0.43350166290582021 0 -0.35610460790005399 -0.4556936014685265 0 -0.34747634599010169 -0.43350166290582021 0 -0.35610460790005399 -0.4556936014685265 0 -0.36473963974522788 -0.4460195576093906 0 -0.34747634599010169 -0.43350166290582021 0 -0.38071661097606729 -0.4504362562503097 0 -0.3690595195626194 -0.4589872873636125 0 -0.36473963974522788 -0.4460195576093906 0 -0.38589146061999008 -0.43102059338399551 0 -0.36473963974522788 -0.4460195576093906 0 -0.36686437554658652 -0.42710833198881581 0 -0.36473963974522788 -0.4460195576093906 0 -0.36686437554658652 -0.42710833198881581 0 -0.34747634599010169 -0.43350166290582021 0 -0.3825683938499011 -0.41720756293568267 0 -0.36686437554658652 -0.42710833198881581 0 -0.36791152532905752 -0.40939097156179138 0 -0.36686437554658652 -0.42710833198881581 0 -0.36791152532905752 -0.40939097156179138 0 -0.3546472763781523 -0.41550449093115938 0 -0.3546472763781523 -0.41550449093115938 0 -0.35213605094486661 -0.39621176385625623 0 -0.33884808408014938 -0.41130972434311391 0 -0.3546472763781523 -0.41550449093115938 0 -0.34747634599010169 -0.43350166290582021 0 -0.33884808408014938 -0.41130972434311391 0 -0.36791152532905752 -0.40939097156179138 0 -0.3546472763781523 -0.41550449093115938 0 -0.35213605094486661 -0.39621176385625623 0 -0.36686437554658652 -0.42710833198881581 0 -0.3546472763781523 -0.41550449093115938 0 -0.34747634599010169 -0.43350166290582021 0 -0.37494147391003102 -0.38718626649864601 0 -0.35213605094486661 -0.39621176385625623 0 -0.35880049029492439 -0.38038687460091292 0 -0.37286192492638293 -0.36123597747476138 0 -0.37494147391003102 -0.38718626649864601 0 -0.35880049029492439 -0.38038687460091292 0 -0.36791152532905752 -0.40939097156179138 0 -0.37494147391003102 -0.38718626649864601 0 -0.35213605094486661 -0.39621176385625623 0 -0.35213605094486661 -0.39621176385625623 0 -0.34541100581246698 -0.3818031767435115 0 -0.35880049029492439 -0.38038687460091292 0 -0.34980743866496788 -0.36872877810499027 0 -0.34541100581246698 -0.3818031767435115 0 -0.35880049029492439 -0.38038687460091292 0 -0.35213605094486661 -0.39621176385625623 0 -0.34541100581246698 -0.3818031767435115 0 -0.33021982217019707 -0.38911778578040768 0 -0.33609122698737909 -0.37457068137499022 0 -0.32159156026024488 -0.36692584721770138 0 -0.33021982217019707 -0.38911778578040768 0 -0.33609122698737909 -0.37457068137499022 0 -0.34541100581246698 -0.3818031767435115 0 -0.33021982217019707 -0.38911778578040768 0 -0.33021982217019707 -0.38911778578040768 0 -0.33884808408014938 -0.41130972434311391 0 -0.35213605094486661 -0.39621176385625623 0 -0.33021982217019707 -0.38911778578040768 0 -0.33884808408014938 -0.41130972434311391 0 -0.33021982217019707 -0.38911778578040768 0 -0.32283386217462928 -0.40337248377809393 0 -0.33884808408014938 -0.41130972434311391 0 -0.33021982217019707 -0.38911778578040768 0 -0.32283386217462928 -0.40337248377809393 0 -0.31924392465396739 -0.37965392804485559 0 -0.32283386217462928 -0.40337248377809393 0 -0.31924392465396739 -0.37965392804485559 0 -0.32159156026024488 -0.36692584721770138 0 -0.33021982217019707 -0.38911778578040768 0 -0.32159156026024488 -0.36692584721770138 0 -0.33021982217019707 -0.38911778578040768 0 -0.31924392465396739 -0.37965392804485559 0 -0.32283386217462928 -0.40337248377809393 0 -0.31924392465396739 -0.37965392804485559 0 -0.30950742870789849 -0.38772165988522722 0 -0.34747634599010169 -0.43350166290582021 0 -0.33884808408014938 -0.41130972434311391 0 -0.32642379969529112 -0.42709103951133209 0 -0.34747634599010169 -0.43350166290582021 0 -0.33884808408014938 -0.41130972434311391 0 -0.3248744219704372 -0.44319375633310693 0 -0.34747634599010169 -0.43350166290582021 0 -0.32642379969529112 -0.42709103951133209 0 -0.32283386217462928 -0.40337248377809393 0 -0.33884808408014938 -0.41130972434311391 0 -0.32642379969529112 -0.42709103951133209 0 -0.32283386217462928 -0.40337248377809393 0 -0.32642379969529112 -0.42709103951133209 0 -0.32283386217462928 -0.40337248377809393 0 -0.32642379969529112 -0.42709103951133209 0 -0.31131226455116001 -0.41597783346429568 0 -0.32283386217462928 -0.40337248377809393 0 -0.31131226455116001 -0.41597783346429568 0 -0.30420011064883262 -0.3995106203806727 0 -0.31533948201136741 -0.42782381077858972 0 -0.32642379969529112 -0.42709103951133209 0 -0.31131226455116001 -0.41597783346429568 0 -0.3248744219704372 -0.44319375633310693 0 -0.31533948201136741 -0.42782381077858972 0 -0.32642379969529112 -0.42709103951133209 0 -0.3248744219704372 -0.44319375633310693 0 -0.31533948201136741 -0.42782381077858972 0 -0.31002613221508479 -0.43677298132399561 0 -0.30410919953869892 -0.42722997339501789 0 -0.28672485496207251 -0.42531944751634698 0 -0.30668794640389291 -0.44225560112653511 0 -0.31533948201136741 -0.42782381077858972 0 -0.31002613221508479 -0.43677298132399561 0 -0.30410919953869892 -0.42722997339501789 0 -0.31002613221508479 -0.43677298132399561 0 -0.30410919953869892 -0.42722997339501789 0 -0.30668794640389291 -0.44225560112653511 0 -0.31533948201136741 -0.42782381077858972 0 -0.30410919953869892 -0.42722997339501789 0 -0.31131226455116001 -0.41597783346429568 0 -0.31131226455116001 -0.41597783346429568 0 -0.29350984341365882 -0.41172067100941218 0 -0.30420011064883262 -0.3995106203806727 0 -0.30410919953869892 -0.42722997339501789 0 -0.31131226455116001 -0.41597783346429568 0 -0.29350984341365882 -0.41172067100941218 0 -0.30410919953869892 -0.42722997339501789 0 -0.29350984341365882 -0.41172067100941218 0 -0.28672485496207251 -0.42531944751634698 0 -0.29350984341365882 -0.41172067100941218 0 -0.28672485496207251 -0.42531944751634698 0 -0.2667617635202521 -0.40838329390615891 0 -0.28672485496207251 -0.42531944751634698 0 -0.30668794640389291 -0.44225560112653511 0 -0.29798709164564691 -0.37156528738488392 0 -0.30679259434477119 -0.37826521245862432 0 -0.29860846514638872 -0.38414527779777657 0 -0.30861606156995441 -0.36823990918037808 0 -0.31924392465396739 -0.37965392804485559 0 -0.30679259434477119 -0.37826521245862432 0 -0.31924392465396739 -0.37965392804485559 0 -0.30679259434477119 -0.37826521245862432 0 -0.30950742870789849 -0.38772165988522722 0 -0.30679259434477119 -0.37826521245862432 0 -0.30950742870789849 -0.38772165988522722 0 -0.29860846514638872 -0.38414527779777657 0 -0.30950742870789849 -0.38772165988522722 0 -0.29860846514638872 -0.38414527779777657 0 -0.30420011064883262 -0.3995106203806727 0 -0.29860846514638872 -0.38414527779777657 0 -0.30420011064883262 -0.3995106203806727 0 -0.28795086726093688 -0.39390285739398118 0 -0.32283386217462928 -0.40337248377809393 0 -0.30950742870789849 -0.38772165988522722 0 -0.30420011064883262 -0.3995106203806727 0 -0.29350984341365882 -0.41172067100941218 0 -0.28795086726093688 -0.39390285739398118 0 -0.2667617635202521 -0.40838329390615891 0 -0.29350984341365882 -0.41172067100941218 0 -0.30420011064883262 -0.3995106203806727 0 -0.28795086726093688 -0.39390285739398118 0 -0.29860846514638872 -0.38414527779777657 0 -0.28795086726093688 -0.39390285739398118 0 -0.28489988464892418 -0.37638961154645778 0 -0.28795086726093688 -0.39390285739398118 0 -0.28489988464892418 -0.37638961154645778 0 -0.27465056207703309 -0.38320050885552082 0 -0.29798709164564691 -0.37156528738488392 0 -0.29860846514638872 -0.38414527779777657 0 -0.28489988464892418 -0.37638961154645778 0 -0.27050958203810649 -0.37368082221002602 0 -0.27465056207703309 -0.38320050885552082 0 -0.25971616122118252 -0.38391790037652651 0 -0.27050958203810649 -0.37368082221002602 0 -0.28489988464892418 -0.37638961154645778 0 -0.27465056207703309 -0.38320050885552082 0 -0.27465056207703309 -0.38320050885552082 0 -0.25971616122118252 -0.38391790037652651 0 -0.2667617635202521 -0.40838329390615891 0 -0.28795086726093688 -0.39390285739398118 0 -0.27465056207703309 -0.38320050885552082 0 -0.2667617635202521 -0.40838329390615891 0 -0.25971616122118252 -0.38391790037652651 0 -0.2667617635202521 -0.40838329390615891 0 -0.24679867207843029 -0.39144714029597261 0 -0.2667617635202521 -0.40838329390615891 0 -0.24679867207843029 -0.39144714029597261 0 -0.25278507215510421 -0.40401782343052561 0 -0.2667617635202521 -0.40838329390615891 0 -0.24679867207843029 -0.39144714029597261 0 -0.25411823777705178 -0.37005376561696479 0 -0.25971616122118252 -0.38391790037652651 0 -0.24679867207843029 -0.39144714029597261 0 -0.27050958203810649 -0.37368082221002602 0 -0.25411823777705178 -0.37005376561696479 0 -0.25971616122118252 -0.38391790037652651 0 -0.25411823777705178 -0.37005376561696479 0 -0.24679867207843029 -0.39144714029597261 0 -0.28672485496207251 -0.42531944751634698 0 -0.27378648631288982 -0.43298150932571772 0 -0.27894394365693459 -0.44646011011249842 0 -0.27378648631288982 -0.43298150932571772 0 -0.27235810606962041 -0.41926703266550691 0 -0.257119040562932 -0.44087944700851878 0 -0.28672485496207251 -0.42531944751634698 0 -0.27378648631288982 -0.43298150932571772 0 -0.27235810606962041 -0.41926703266550691 0 -0.28672485496207251 -0.42531944751634698 0 -0.2667617635202521 -0.40838329390615891 0 -0.27235810606962041 -0.41926703266550691 0 -0.28672485496207251 -0.42531944751634698 0 -0.2667617635202521 -0.40838329390615891 0 -0.2667617635202521 -0.40838329390615891 0 -0.27235810606962041 -0.41926703266550691 0 -0.25876688745518678 -0.41937487293987158 0 -0.2667617635202521 -0.40838329390615891 0 -0.25876688745518678 -0.41937487293987158 0 -0.25383257035148121 -0.41336057970423362 0 -0.25278507215510421 -0.40401782343052561 0 -0.25383257035148121 -0.41336057970423362 0 -0.24635151002356409 -0.41453556073199249 0 -0.25278507215510421 -0.40401782343052561 0 -0.2667617635202521 -0.40838329390615891 0 -0.25383257035148121 -0.41336057970423362 0 -0.25876688745518678 -0.41937487293987158 0 -0.25383257035148121 -0.41336057970423362 0 -0.2476389868817622 -0.42717888996817632 0 -0.27235810606962041 -0.41926703266550691 0 -0.25876688745518678 -0.41937487293987158 0 -0.257119040562932 -0.44087944700851878 0 -0.25876688745518678 -0.41937487293987158 0 -0.257119040562932 -0.44087944700851878 0 -0.2476389868817622 -0.42717888996817632 0 -0.27235810606962041 -0.41926703266550691 0 -0.257119040562932 -0.44087944700851878 0 -0.26115438459901041 -0.45717506045676642 0 -0.26143318937379523 -0.47347977431176808 0 -0.24187997505624381 -0.46249186135153081 0 -0.257119040562932 -0.44087944700851878 0 -0.26115438459901041 -0.45717506045676642 0 -0.24187997505624381 -0.46249186135153081 0 -0.26143318937379523 -0.47347977431176808 0 -0.24187997505624381 -0.46249186135153081 0 -0.26115438459901041 -0.45717506045676642 0 -0.27527101927374142 -0.46498885527046119 0 -0.26143318937379523 -0.47347977431176808 0 -0.26115438459901041 -0.45717506045676642 0 -0.27527101927374142 -0.46498885527046119 0 -0.27894394365693459 -0.44646011011249842 0 -0.27378648631288982 -0.43298150932571772 0 -0.257119040562932 -0.44087944700851878 0 -0.27894394365693459 -0.44646011011249842 0 -0.257119040562932 -0.44087944700851878 0 -0.26115438459901041 -0.45717506045676642 0 -0.27894394365693459 -0.44646011011249842 0 -0.27894394365693459 -0.44646011011249842 0 -0.29383717504761919 -0.46336164419926901 0 -0.30668794640389291 -0.44225560112653511 0 -0.28672485496207251 -0.42531944751634698 0 -0.27894394365693459 -0.44646011011249842 0 -0.30668794640389291 -0.44225560112653511 0 -0.27527101927374142 -0.46498885527046119 0 -0.27894394365693459 -0.44646011011249842 0 -0.29383717504761919 -0.46336164419926901 0 -0.29383717504761919 -0.46336164419926901 0 -0.30928733762356342 -0.46010499016793133 0 -0.2975640406243143 -0.47769563315258001 0 -0.29383717504761919 -0.46336164419926901 0 -0.30928733762356342 -0.46010499016793133 0 -0.30668794640389291 -0.44225560112653511 0 -0.29383717504761919 -0.46336164419926901 0 -0.30668794640389291 -0.44225560112653511 0 -0.31002613221508479 -0.43677298132399561 0 -0.30668794640389291 -0.44225560112653511 0 -0.3086980015460753 -0.50004019725791848 0 -0.31201595483115963 -0.47770134639006911 0 -0.29484220261871141 -0.49225394226496128 0 -0.3086980015460753 -0.50004019725791848 0 -0.29484220261871141 -0.49225394226496128 0 -0.29011364694359371 -0.5 0 -0.3086980015460753 -0.50004019725791848 0 -0.29484220261871141 -0.49225394226496128 0 -0.2975640406243143 -0.47769563315258001 0 -0.31201595483115963 -0.47770134639006911 0 -0.29484220261871141 -0.49225394226496128 0 -0.30928733762356342 -0.46010499016793133 0 -0.2975640406243143 -0.47769563315258001 0 -0.31201595483115963 -0.47770134639006911 0 -0.27527101927374142 -0.46498885527046119 0 -0.29383717504761919 -0.46336164419926901 0 -0.28098640369134759 -0.48446768727200401 0 -0.29383717504761919 -0.46336164419926901 0 -0.28098640369134759 -0.48446768727200401 0 -0.29383717504761919 -0.46336164419926901 0 -0.2975640406243143 -0.47769563315258001 0 -0.28098640369134759 -0.48446768727200401 0 -0.29484220261871141 -0.49225394226496128 0 -0.28098640369134759 -0.48446768727200401 0 -0.2975640406243143 -0.47769563315258001 0 -0.29484220261871141 -0.49225394226496128 0 -0.28098640369134759 -0.48446768727200401 0 -0.29484220261871141 -0.49225394226496128 0 -0.29011364694359371 -0.5 0 -0.28098640369134759 -0.48446768727200401 0 -0.28098640369134759 -0.48446768727200401 0 -0.27152929234111212 -0.50000000000000178 0 -0.2605243916440742 -0.48736275436770671 0 -0.29011364694359371 -0.5 0 -0.28098640369134759 -0.48446768727200401 0 -0.27152929234111212 -0.50000000000000178 0 -0.28098640369134759 -0.48446768727200401 0 -0.27152929234111212 -0.50000000000000178 0 -0.28098640369134759 -0.48446768727200401 0 -0.26143318937379523 -0.47347977431176808 0 -0.2605243916440742 -0.48736275436770671 0 -0.27527101927374142 -0.46498885527046119 0 -0.28098640369134759 -0.48446768727200401 0 -0.26143318937379523 -0.47347977431176808 0 -0.28098640369134759 -0.48446768727200401 0 -0.26143318937379523 -0.47347977431176808 0 -0.26143318937379523 -0.47347977431176808 0 -0.2605243916440742 -0.48736275436770671 0 -0.24621396186262709 -0.47991210305404253 0 -0.2605243916440742 -0.48736275436770671 0 -0.2434810073877455 -0.5 0 -0.24621396186262709 -0.47991210305404253 0 -0.27152929234111212 -0.50000000000000178 0 -0.2605243916440742 -0.48736275436770671 0 -0.2434810073877455 -0.5 0 -0.2434810073877455 -0.5 0 -0.24621396186262709 -0.47991210305404253 0 -0.22865634874531179 -0.48124593067576699 0 -0.26143318937379523 -0.47347977431176808 0 -0.24621396186262709 -0.47991210305404253 0 -0.24187997505624381 -0.46249186135153081 0 -0.24621396186262709 -0.47991210305404253 0 -0.22865634874531179 -0.48124593067576699 0 -0.24187997505624381 -0.46249186135153081 0 -0.22865634874531179 -0.48124593067576699 0 -0.24187997505624381 -0.46249186135153081 0 -0.22865634874531179 -0.48124593067576699 0 -0.23098002792343519 -0.46884530255735851 0 -0.24187997505624381 -0.46249186135153081 0 -0.22865634874531179 -0.48124593067576699 0 -0.23098002792343519 -0.46884530255735851 0 -0.21800844742381051 -0.47811557344673122 0 -0.2434810073877455 -0.5 0 -0.22865634874531179 -0.48124593067576699 0 -0.21543272243437889 -0.50000000000000244 0 -0.22865634874531179 -0.48124593067576699 0 -0.21543272243437889 -0.50000000000000244 0 -0.21800844742381051 -0.47811557344673122 0 -0.22865634874531179 -0.48124593067576699 0 -0.21543272243437889 -0.50000000000000244 0 -0.257119040562932 -0.44087944700851878 0 -0.23918894669088919 -0.4417050184308175 0 -0.2422317172025201 -0.45032686842108172 0 -0.257119040562932 -0.44087944700851878 0 -0.24187997505624381 -0.46249186135153081 0 -0.257119040562932 -0.44087944700851878 0 -0.2422317172025201 -0.45032686842108172 0 -0.24187997505624381 -0.46249186135153081 0 -0.23918894669088919 -0.4417050184308175 0 -0.23073890650001619 -0.45623114689345862 0 -0.23918894669088919 -0.4417050184308175 0 -0.2422317172025201 -0.45032686842108172 0 -0.23073890650001619 -0.45623114689345862 0 -0.24187997505624381 -0.46249186135153081 0 -0.23073890650001619 -0.45623114689345862 0 -0.2422317172025201 -0.45032686842108172 0 -0.24187997505624381 -0.46249186135153081 0 -0.23073890650001619 -0.45623114689345862 0 -0.23098002792343519 -0.46884530255735851 0 -0.24187997505624381 -0.46249186135153081 0 -0.23073890650001619 -0.45623114689345862 0 -0.23073890650001619 -0.45623114689345862 0 -0.21523072231492049 -0.45997308976628931 0 -0.21800844742381051 -0.47811557344673122 0 -0.23073890650001619 -0.45623114689345862 0 -0.21800844742381051 -0.47811557344673122 0 -0.23098002792343519 -0.46884530255735851 0 -0.23073890650001619 -0.45623114689345862 0 -0.21800844742381051 -0.47811557344673122 0 -0.22555664095438929 -0.45331897696438911 0 -0.21747519618713079 -0.44877761561819041 0 -0.21523072231492049 -0.45997308976628931 0 -0.22555664095438929 -0.45331897696438911 0 -0.23073890650001619 -0.45623114689345862 0 -0.21523072231492049 -0.45997308976628931 0 -0.22555664095438929 -0.45331897696438911 0 -0.23073890650001619 -0.45623114689345862 0 -0.22555664095438929 -0.45331897696438911 0 -0.2228254897013815 -0.44374926620882132 0 -0.2278394003245621 -0.43330761624069392 0 -0.22555664095438929 -0.45331897696438911 0 -0.2278394003245621 -0.43330761624069392 0 -0.2345348941729859 -0.42729128822954981 0 -0.23918894669088919 -0.4417050184308175 0 -0.22555664095438929 -0.45331897696438911 0 -0.2345348941729859 -0.42729128822954981 0 -0.22555664095438929 -0.45331897696438911 0 -0.2345348941729859 -0.42729128822954981 0 -0.23918894669088919 -0.4417050184308175 0 -0.22555664095438929 -0.45331897696438911 0 -0.23073890650001619 -0.45623114689345862 0 -0.22555664095438929 -0.45331897696438911 0 -0.21747519618713079 -0.44877761561819041 0 -0.22555664095438929 -0.45331897696438911 0 -0.2228254897013815 -0.44374926620882132 0 -0.21747519618713079 -0.44877761561819041 0 -0.22024384916013581 -0.43992539885114967 0 -0.2228254897013815 -0.44374926620882132 0 -0.21747519618713079 -0.44877761561819041 0 -0.22024384916013581 -0.43992539885114967 0 -0.2228254897013815 -0.44374926620882132 0 -0.2278394003245621 -0.43330761624069392 0 -0.20421148587424259 -0.4413240843429273 0 -0.21747519618713079 -0.44877761561819041 0 -0.20421148587424259 -0.4413240843429273 0 -0.2141465979365792 -0.43863267996258581 0 -0.21747519618713079 -0.44877761561819041 0 -0.22024384916013581 -0.43992539885114967 0 -0.2141465979365792 -0.43863267996258581 0 -0.21747519618713079 -0.44877761561819041 0 -0.20421148587424259 -0.4413240843429273 0 -0.21747519618713079 -0.44877761561819041 0 -0.2068547162027706 -0.45326333178616712 0 -0.21523072231492049 -0.45997308976628931 0 -0.202771668590077 -0.46513460231241532 0 -0.21800844742381051 -0.47811557344673122 0 -0.2068547162027706 -0.45326333178616712 0 -0.21523072231492049 -0.45997308976628931 0 -0.202771668590077 -0.46513460231241532 0 -0.21747519618713079 -0.44877761561819041 0 -0.2068547162027706 -0.45326333178616712 0 -0.21523072231492049 -0.45997308976628931 0 -0.202771668590077 -0.46513460231241532 0 -0.19458450804748181 -0.4511072668910131 0 -0.18311844998387719 -0.46695207004743211 0 -0.2068547162027706 -0.45326333178616712 0 -0.202771668590077 -0.46513460231241532 0 -0.19458450804748181 -0.4511072668910131 0 -0.19458450804748181 -0.4511072668910131 0 -0.1776291891415438 -0.44386699931794688 0 -0.1911511217857513 -0.43665442797760401 0 -0.20421148587424259 -0.4413240843429273 0 -0.2068547162027706 -0.45326333178616712 0 -0.19458450804748181 -0.4511072668910131 0 -0.20421148587424259 -0.4413240843429273 0 -0.19458450804748181 -0.4511072668910131 0 -0.1911511217857513 -0.43665442797760401 0 -0.2052779883476035 -0.50000000000000289 0 -0.21800844742381051 -0.47811557344673122 0 -0.2052779883476035 -0.50000000000000289 0 -0.21800844742381051 -0.47811557344673122 0 -0.19270244617229271 -0.48197151382671088 0 -0.2052779883476035 -0.50000000000000289 0 -0.21543272243437889 -0.50000000000000244 0 -0.21800844742381051 -0.47811557344673122 0 -0.202771668590077 -0.46513460231241532 0 -0.21800844742381051 -0.47811557344673122 0 -0.19270244617229271 -0.48197151382671088 0 -0.202771668590077 -0.46513460231241532 0 -0.19270244617229271 -0.48197151382671088 0 -0.18311844998387719 -0.46695207004743211 0 -0.2052779883476035 -0.50000000000000289 0 -0.19270244617229271 -0.48197151382671088 0 -0.17718074726997801 -0.5 0 -0.19270244617229271 -0.48197151382671088 0 -0.17718074726997801 -0.5 0 -0.16745185279653399 -0.48233229869300093 0 -0.17718074726997801 -0.5 0 -0.16745185279653399 -0.48233229869300093 0 -0.14908350619235231 -0.5 0 -0.16745185279653399 -0.48233229869300093 0 -0.18311844998387719 -0.46695207004743211 0 -0.15993942239199299 -0.46451429508596581 0 -0.16745185279653399 -0.48233229869300093 0 -0.15993942239199299 -0.46451429508596581 0 -0.1426865447687107 -0.48055591319789681 0 -0.19270244617229271 -0.48197151382671088 0 -0.16745185279653399 -0.48233229869300093 0 -0.18311844998387719 -0.46695207004743211 0 -0.19458450804748181 -0.4511072668910131 0 -0.18311844998387719 -0.46695207004743211 0 -0.1776291891415438 -0.44386699931794688 0 -0.18311844998387719 -0.46695207004743211 0 -0.1776291891415438 -0.44386699931794688 0 -0.15993942239199299 -0.46451429508596581 0 -0.1776291891415438 -0.44386699931794688 0 -0.15993942239199299 -0.46451429508596581 0 -0.1514994063912726 -0.44545048461858422 0 -0.1776291891415438 -0.44386699931794688 0 -0.1514994063912726 -0.44545048461858422 0 -0.162913233289116 -0.42881904266211363 0 -0.18311844998387719 -0.46695207004743211 0 -0.15993942239199299 -0.46451429508596581 0 -0.15993942239199299 -0.46451429508596581 0 -0.13676039480010871 -0.4620765201244994 0 -0.15993942239199299 -0.46451429508596581 0 -0.1514994063912726 -0.44545048461858422 0 -0.13676039480010871 -0.4620765201244994 0 -0.1514994063912726 -0.44545048461858422 0 -0.13070341277012409 -0.44586269453286981 0 -0.14079029812156341 -0.42716994583476853 0 -0.1514994063912726 -0.44545048461858422 0 -0.13070341277012409 -0.44586269453286981 0 -0.13676039480010871 -0.4620765201244994 0 -0.13070341277012409 -0.44586269453286981 0 -0.13676039480010871 -0.4620765201244994 0 -0.1135813672082245 -0.45963874516303299 0 -0.13676039480010871 -0.4620765201244994 0 -0.1135813672082245 -0.45963874516303299 0 -0.13676039480010871 -0.4620765201244994 0 -0.1426865447687107 -0.48055591319789681 0 -0.119492304694676 -0.47511782682322767 0 -0.14908350619235231 -0.5 0 -0.1426865447687107 -0.48055591319789681 0 -0.1209862651147269 -0.50000000000000289 0 -0.1426865447687107 -0.48055591319789681 0 -0.119492304694676 -0.47511782682322767 0 -0.1209862651147269 -0.50000000000000289 0 -0.16745185279653399 -0.48233229869300093 0 -0.14908350619235231 -0.5 0 -0.1426865447687107 -0.48055591319789681 0 -0.15993942239199299 -0.46451429508596581 0 -0.13676039480010871 -0.4620765201244994 0 -0.1426865447687107 -0.48055591319789681 0 -0.14896882759582011 -0.40464617901746941 0 -0.1532594722774569 -0.37853685948595361 0 -0.16185777795326939 -0.39902661817752888 0 -0.14896882759582011 -0.40464617901746941 0 -0.1532594722774569 -0.37853685948595361 0 -0.14896882759582011 -0.40464617901746941 0 -0.14070792052904091 -0.38775474066515597 0 -0.1532594722774569 -0.37853685948595361 0 -0.14070792052904091 -0.38775474066515597 0 -0.1532594722774569 -0.37853685948595361 0 -0.1327962299645537 -0.37329777386170088 0 -0.1532594722774569 -0.37853685948595361 0 -0.1327962299645537 -0.37329777386170088 0 -0.14070792052904091 -0.38775474066515597 0 -0.127807152278333 -0.39453815029550032 0 -0.1327962299645537 -0.37329777386170088 0 -0.14896882759582011 -0.40464617901746941 0 -0.14070792052904091 -0.38775474066515597 0 -0.127807152278333 -0.39453815029550032 0 -0.14896882759582011 -0.40464617901746941 0 -0.127807152278333 -0.39453815029550032 0 -0.1249760016650604 -0.41140088444285461 0 -0.14896882759582011 -0.40464617901746941 0 -0.14079029812156341 -0.42716994583476853 0 -0.1249760016650604 -0.41140088444285461 0 -0.14079029812156341 -0.42716994583476853 0 -0.1229075344292966 -0.42992744480411849 0 -0.1249760016650604 -0.41140088444285461 0 -0.13070341277012409 -0.44586269453286981 0 -0.14079029812156341 -0.42716994583476853 0 -0.1229075344292966 -0.42992744480411849 0 -0.1514994063912726 -0.44545048461858422 0 -0.14079029812156341 -0.42716994583476853 0 -0.162913233289116 -0.42881904266211363 0 -0.14896882759582011 -0.40464617901746941 0 -0.14079029812156341 -0.42716994583476853 0 -0.162913233289116 -0.42881904266211363 0 -0.14896882759582011 -0.40464617901746941 0 -0.16638164047133841 -0.41096621130249522 0 -0.162913233289116 -0.42881904266211363 0 -0.16638164047133841 -0.41096621130249522 0 -0.162913233289116 -0.42881904266211363 0 -0.18251498299402369 -0.42059490551352591 0 -0.1776291891415438 -0.44386699931794688 0 -0.18251498299402369 -0.42059490551352591 0 -0.1911511217857513 -0.43665442797760401 0 -0.1776291891415438 -0.44386699931794688 0 -0.162913233289116 -0.42881904266211363 0 -0.18251498299402369 -0.42059490551352591 0 -0.16638164047133841 -0.41096621130249522 0 -0.18251498299402369 -0.42059490551352591 0 -0.17565338052446289 -0.40174431114183767 0 -0.18251498299402369 -0.42059490551352591 0 -0.17565338052446289 -0.40174431114183767 0 -0.19104761111212371 -0.40534546279586248 0 -0.18424251579808321 -0.39624042796665709 0 -0.17565338052446289 -0.40174431114183767 0 -0.19104761111212371 -0.40534546279586248 0 -0.18424251579808321 -0.39624042796665709 0 -0.17487448577604731 -0.39132996846735291 0 -0.1854639567937077 -0.38678198747132558 0 -0.18424251579808321 -0.39624042796665709 0 -0.17487448577604731 -0.39132996846735291 0 -0.17565338052446289 -0.40174431114183767 0 -0.17487448577604731 -0.39132996846735291 0 -0.17565338052446289 -0.40174431114183767 0 -0.16945729341999721 -0.39440175963630592 0 -0.14896882759582011 -0.40464617901746941 0 -0.16638164047133841 -0.41096621130249522 0 -0.16185777795326939 -0.39902661817752888 0 -0.16638164047133841 -0.41096621130249522 0 -0.17565338052446289 -0.40174431114183767 0 -0.16185777795326939 -0.39902661817752888 0 -0.16945729341999721 -0.39440175963630592 0 -0.16185777795326939 -0.39902661817752888 0 -0.1671525921069027 -0.38600089560912287 0 -0.17565338052446289 -0.40174431114183767 0 -0.16945729341999721 -0.39440175963630592 0 -0.16185777795326939 -0.39902661817752888 0 -0.1532594722774569 -0.37853685948595361 0 -0.16185777795326939 -0.39902661817752888 0 -0.1671525921069027 -0.38600089560912287 0 -0.1532594722774569 -0.37853685948595361 0 -0.1671525921069027 -0.38600089560912287 0 -0.1686399661827008 -0.38247463842052742 0 -0.1532594722774569 -0.37853685948595361 0 -0.1686399661827008 -0.38247463842052742 0 -0.1532594722774569 -0.37853685948595361 0 -0.1686399661827008 -0.38247463842052742 0 -0.1643739482181307 -0.36793813151770821 0 -0.17487448577604731 -0.39132996846735291 0 -0.1671525921069027 -0.38600089560912287 0 -0.1686399661827008 -0.38247463842052742 0 -0.17487448577604731 -0.39132996846735291 0 -0.16945729341999721 -0.39440175963630592 0 -0.1671525921069027 -0.38600089560912287 0 -0.1671525921069027 -0.38600089560912287 0 -0.1686399661827008 -0.38247463842052742 0 -0.17487448577604731 -0.39132996846735291 0 -0.1686399661827008 -0.38247463842052742 0 -0.1854639567937077 -0.38678198747132558 0 -0.1686399661827008 -0.38247463842052742 0 -0.1854639567937077 -0.38678198747132558 0 -0.18168741137988989 -0.37422709064061449 0 -0.1686399661827008 -0.38247463842052742 0 -0.1854639567937077 -0.38678198747132558 0 -0.1854639567937077 -0.38678198747132558 0 -0.19510046258372049 -0.36628971323222848 0 -0.18168741137988989 -0.37422709064061449 0 -0.20228794740471501 -0.39108933652212258 0 -0.19510046258372049 -0.36628971323222848 0 -0.1854639567937077 -0.38678198747132558 0 -0.20228794740471501 -0.39108933652212258 0 -0.19510046258372049 -0.36628971323222848 0 -0.20228794740471501 -0.39108933652212258 0 -0.19510046258372049 -0.36628971323222848 0 -0.20642263145494691 -0.3710060692632785 0 -0.1854639567937077 -0.38678198747132558 0 -0.20228794740471501 -0.39108933652212258 0 -0.18424251579808321 -0.39624042796665709 0 -0.1854639567937077 -0.38678198747132558 0 -0.19417314478407449 -0.39600040995690672 0 -0.1854639567937077 -0.38678198747132558 0 -0.19417314478407449 -0.39600040995690672 0 -0.20228794740471501 -0.39108933652212258 0 -0.18424251579808321 -0.39624042796665709 0 -0.19417314478407449 -0.39600040995690672 0 -0.19104761111212371 -0.40534546279586248 0 -0.19417314478407449 -0.39600040995690672 0 -0.19104761111212371 -0.40534546279586248 0 -0.19896539192492529 -0.40122896291237359 0 -0.19104761111212371 -0.40534546279586248 0 -0.19896539192492529 -0.40122896291237359 0 -0.2047319746066372 -0.40758401122898608 0 -0.19896539192492529 -0.40122896291237359 0 -0.20332607166502839 -0.39467126973312411 0 -0.2043746443278511 -0.40093393335250682 0 -0.19896539192492529 -0.40122896291237359 0 -0.2043746443278511 -0.40093393335250682 0 -0.2047319746066372 -0.40758401122898608 0 -0.19417314478407449 -0.39600040995690672 0 -0.19896539192492529 -0.40122896291237359 0 -0.20332607166502839 -0.39467126973312411 0 -0.19417314478407449 -0.39600040995690672 0 -0.20228794740471501 -0.39108933652212258 0 -0.20332607166502839 -0.39467126973312411 0 -0.20228794740471501 -0.39108933652212258 0 -0.20332607166502839 -0.39467126973312411 0 -0.20228794740471501 -0.39108933652212258 0 -0.20332607166502839 -0.39467126973312411 0 -0.2104751391148135 -0.40025148953554368 0 -0.20228794740471501 -0.39108933652212258 0 -0.2104751391148135 -0.40025148953554368 0 -0.2228071113084949 -0.39634273942798448 0 -0.20228794740471501 -0.39108933652212258 0 -0.2228071113084949 -0.39634273942798448 0 -0.2104751391148135 -0.40025148953554368 0 -0.2047319746066372 -0.40758401122898608 0 -0.2167251730499917 -0.40952503044492761 0 -0.2043746443278511 -0.40093393335250682 0 -0.2104751391148135 -0.40025148953554368 0 -0.2047319746066372 -0.40758401122898608 0 -0.20332607166502839 -0.39467126973312411 0 -0.2043746443278511 -0.40093393335250682 0 -0.2104751391148135 -0.40025148953554368 0 -0.2104751391148135 -0.40025148953554368 0 -0.2167251730499917 -0.40952503044492761 0 -0.2228071113084949 -0.39634273942798448 0 -0.20228794740471501 -0.39108933652212258 0 -0.21096782797567301 -0.38222337013062552 0 -0.2228071113084949 -0.39634273942798448 0 -0.20228794740471501 -0.39108933652212258 0 -0.21096782797567301 -0.38222337013062552 0 -0.20642263145494691 -0.3710060692632785 0 -0.21096782797567301 -0.38222337013062552 0 -0.20642263145494691 -0.3710060692632785 0 -0.21766298169056489 -0.372942845804696 0 -0.21096782797567301 -0.38222337013062552 0 -0.2229663114131725 -0.38448862630997671 0 -0.21766298169056489 -0.372942845804696 0 -0.18251498299402369 -0.42059490551352591 0 -0.1911511217857513 -0.43665442797760401 0 -0.19681544287146471 -0.42637888382260708 0 -0.20421148587424259 -0.4413240843429273 0 -0.19681544287146471 -0.42637888382260708 0 -0.20758651138044529 -0.43035119248362208 0 -0.20421148587424259 -0.4413240843429273 0 -0.1911511217857513 -0.43665442797760401 0 -0.19681544287146471 -0.42637888382260708 0 -0.19681544287146471 -0.42637888382260708 0 -0.1965222888545764 -0.41561696163457001 0 -0.20992938721926421 -0.41973201134813998 0 -0.18251498299402369 -0.42059490551352591 0 -0.19681544287146471 -0.42637888382260708 0 -0.1965222888545764 -0.41561696163457001 0 -0.18251498299402369 -0.42059490551352591 0 -0.19104761111212371 -0.40534546279586248 0 -0.1965222888545764 -0.41561696163457001 0 -0.19104761111212371 -0.40534546279586248 0 -0.1965222888545764 -0.41561696163457001 0 -0.2047319746066372 -0.40758401122898608 0 -0.2047319746066372 -0.40758401122898608 0 -0.2167251730499917 -0.40952503044492761 0 -0.20992938721926421 -0.41973201134813998 0 -0.2167251730499917 -0.40952503044492761 0 -0.20992938721926421 -0.41973201134813998 0 -0.22368592316088079 -0.4218822150732211 0 -0.1965222888545764 -0.41561696163457001 0 -0.2047319746066372 -0.40758401122898608 0 -0.20992938721926421 -0.41973201134813998 0 -0.19681544287146471 -0.42637888382260708 0 -0.20992938721926421 -0.41973201134813998 0 -0.20758651138044529 -0.43035119248362208 0 -0.20992938721926421 -0.41973201134813998 0 -0.21827876087025549 -0.43170058779863818 0 -0.20758651138044529 -0.43035119248362208 0 -0.20992938721926421 -0.41973201134813998 0 -0.21827876087025549 -0.43170058779863818 0 -0.22368592316088079 -0.4218822150732211 0 -0.2141465979365792 -0.43863267996258581 0 -0.21827876087025549 -0.43170058779863818 0 -0.20758651138044529 -0.43035119248362208 0 -0.22024384916013581 -0.43992539885114967 0 -0.2141465979365792 -0.43863267996258581 0 -0.21827876087025549 -0.43170058779863818 0 -0.20421148587424259 -0.4413240843429273 0 -0.2141465979365792 -0.43863267996258581 0 -0.20758651138044529 -0.43035119248362208 0 -0.22024384916013581 -0.43992539885114967 0 -0.21827876087025549 -0.43170058779863818 0 -0.2278394003245621 -0.43330761624069392 0 -0.21827876087025549 -0.43170058779863818 0 -0.2278394003245621 -0.43330761624069392 0 -0.22368592316088079 -0.4218822150732211 0 -0.2278394003245621 -0.43330761624069392 0 -0.22368592316088079 -0.4218822150732211 0 -0.2345348941729859 -0.42729128822954981 0 -0.22368592316088079 -0.4218822150732211 0 -0.2287215028898596 -0.4113577160556906 0 -0.2345348941729859 -0.42729128822954981 0 -0.2167251730499917 -0.40952503044492761 0 -0.22368592316088079 -0.4218822150732211 0 -0.2287215028898596 -0.4113577160556906 0 -0.2345348941729859 -0.42729128822954981 0 -0.24332627521227429 -0.40159614233384838 0 -0.24635151002356409 -0.41453556073199249 0 -0.2345348941729859 -0.42729128822954981 0 -0.24332627521227429 -0.40159614233384838 0 -0.2287215028898596 -0.4113577160556906 0 -0.2345348941729859 -0.42729128822954981 0 -0.24332627521227429 -0.40159614233384838 0 -0.25278507215510421 -0.40401782343052561 0 -0.24635151002356409 -0.41453556073199249 0 -0.24332627521227429 -0.40159614233384838 0 -0.25383257035148121 -0.41336057970423362 0 -0.24635151002356409 -0.41453556073199249 0 -0.2476389868817622 -0.42717888996817632 0 -0.257119040562932 -0.44087944700851878 0 -0.23918894669088919 -0.4417050184308175 0 -0.2476389868817622 -0.42717888996817632 0 -0.24635151002356409 -0.41453556073199249 0 -0.2345348941729859 -0.42729128822954981 0 -0.2476389868817622 -0.42717888996817632 0 -0.23918894669088919 -0.4417050184308175 0 -0.2476389868817622 -0.42717888996817632 0 -0.23918894669088919 -0.4417050184308175 0 -0.2345348941729859 -0.42729128822954981 0 -0.2476389868817622 -0.42717888996817632 0 -0.23356089000078331 -0.39053746225694203 0 -0.23190607999154339 -0.37881266291692961 0 -0.2229663114131725 -0.38448862630997671 0 -0.23190607999154339 -0.37881266291692961 0 -0.2229663114131725 -0.38448862630997671 0 -0.21766298169056489 -0.372942845804696 0 -0.23356089000078331 -0.39053746225694203 0 -0.2229663114131725 -0.38448862630997671 0 -0.2228071113084949 -0.39634273942798448 0 -0.21096782797567301 -0.38222337013062552 0 -0.2229663114131725 -0.38448862630997671 0 -0.2228071113084949 -0.39634273942798448 0 -0.2287215028898596 -0.4113577160556906 0 -0.2228071113084949 -0.39634273942798448 0 -0.24332627521227429 -0.40159614233384838 0 -0.23356089000078331 -0.39053746225694203 0 -0.2228071113084949 -0.39634273942798448 0 -0.24332627521227429 -0.40159614233384838 0 -0.2228071113084949 -0.39634273942798448 0 -0.24332627521227429 -0.40159614233384838 0 -0.2167251730499917 -0.40952503044492761 0 -0.2287215028898596 -0.4113577160556906 0 -0.2228071113084949 -0.39634273942798448 0 -0.23356089000078331 -0.39053746225694203 0 -0.24332627521227429 -0.40159614233384838 0 -0.24679867207843029 -0.39144714029597261 0 -0.25278507215510421 -0.40401782343052561 0 -0.24332627521227429 -0.40159614233384838 0 -0.24679867207843029 -0.39144714029597261 0 -0.25278507215510421 -0.40401782343052561 0 -0.24332627521227429 -0.40159614233384838 0 -0.24332627521227429 -0.40159614233384838 0 -0.24679867207843029 -0.39144714029597261 0 -0.25411823777705178 -0.37005376561696479 0 -0.23190607999154339 -0.37881266291692961 0 -0.24679867207843029 -0.39144714029597261 0 -0.23356089000078331 -0.39053746225694203 0 -0.23190607999154339 -0.37881266291692961 0 -0.24679867207843029 -0.39144714029597261 0 -0.23190607999154339 -0.37881266291692961 0 -0.24679867207843029 -0.39144714029597261 0 -0.25411823777705178 -0.37005376561696479 0 -0.23190607999154339 -0.37881266291692961 0 -0.23299750553274251 -0.35708382556414447 0 -0.23190607999154339 -0.37881266291692961 0 -0.23299750553274251 -0.35708382556414447 0 -0.2170134879046566 -0.36617818553788661 0 -0.23190607999154339 -0.37881266291692961 0 -0.2170134879046566 -0.36617818553788661 0 -0.23190607999154339 -0.37881266291692961 0 -0.21766298169056489 -0.372942845804696 0 -0.2170134879046566 -0.36617818553788661 0 -0.23299750553274251 -0.35708382556414447 0 -0.22914139756894319 -0.33638402550069402 0 -0.21471353351382511 -0.34222351434503212 0 -0.23299750553274251 -0.35708382556414447 0 -0.21471353351382511 -0.34222351434503212 0 -0.2170134879046566 -0.36617818553788661 0 -0.25411823777705178 -0.37005376561696479 0 -0.23299750553274251 -0.35708382556414447 0 -0.24786060415328129 -0.34364653134442652 0 -0.23299750553274251 -0.35708382556414447 0 -0.24786060415328129 -0.34364653134442652 0 -0.22914139756894319 -0.33638402550069402 0 -0.26383362024619789 -0.32157231491159988 0 -0.24786060415328129 -0.34364653134442652 0 -0.23772176552187679 -0.32069741309768929 0 -0.24786060415328129 -0.34364653134442652 0 -0.23772176552187679 -0.32069741309768929 0 -0.22914139756894319 -0.33638402550069402 0 -0.23772176552187679 -0.32069741309768929 0 -0.21241357912299019 -0.31826884315217779 0 -0.2225787399257759 -0.30520510978755128 0 -0.23772176552187679 -0.32069741309768929 0 -0.22914139756894319 -0.33638402550069402 0 -0.21241357912299019 -0.31826884315217779 0 -0.22914139756894319 -0.33638402550069402 0 -0.21471353351382511 -0.34222351434503212 0 -0.21241357912299019 -0.31826884315217779 0 -0.21471353351382511 -0.34222351434503212 0 -0.20353935037939089 -0.32634266615534119 0 -0.20147222213233659 -0.33604790027062181 0 -0.21471353351382511 -0.34222351434503212 0 -0.21241357912299019 -0.31826884315217779 0 -0.20353935037939089 -0.32634266615534119 0 -0.21471353351382511 -0.34222351434503212 0 -0.21241357912299019 -0.31826884315217779 0 -0.21471353351382511 -0.34222351434503212 0 -0.200225362357971 -0.34365939551231678 0 -0.20147222213233659 -0.33604790027062181 0 -0.21241357912299019 -0.31826884315217779 0 -0.20353935037939089 -0.32634266615534119 0 -0.19743074241275649 -0.3142176455776034 0 -0.19743074241275649 -0.3142176455776034 0 -0.18710424405517961 -0.33869964352213022 0 -0.18097640741422871 -0.31755621935326062 0 -0.20353935037939089 -0.32634266615534119 0 -0.19743074241275649 -0.3142176455776034 0 -0.19679345423781011 -0.33067988817872601 0 -0.19743074241275649 -0.3142176455776034 0 -0.19679345423781011 -0.33067988817872601 0 -0.18710424405517961 -0.33869964352213022 0 -0.19743074241275649 -0.3142176455776034 0 -0.18710424405517961 -0.33869964352213022 0 -0.200225362357971 -0.34365939551231678 0 -0.20147222213233659 -0.33604790027062181 0 -0.19442071220938731 -0.33809158536793332 0 -0.20353935037939089 -0.32634266615534119 0 -0.20147222213233659 -0.33604790027062181 0 -0.19679345423781011 -0.33067988817872601 0 -0.20147222213233659 -0.33604790027062181 0 -0.19679345423781011 -0.33067988817872601 0 -0.19442071220938731 -0.33809158536793332 0 -0.19679345423781011 -0.33067988817872601 0 -0.19442071220938731 -0.33809158536793332 0 -0.18710424405517961 -0.33869964352213022 0 -0.19442071220938731 -0.33809158536793332 0 -0.18791297776272839 -0.34149008994233349 0 -0.18710424405517961 -0.33869964352213022 0 -0.200225362357971 -0.34365939551231678 0 -0.19442071220938731 -0.33809158536793332 0 -0.18791297776272839 -0.34149008994233349 0 -0.18791297776272839 -0.34149008994233349 0 -0.18710424405517961 -0.33869964352213022 0 -0.18791297776272839 -0.34149008994233349 0 -0.20246323283369219 -0.35383413774011041 0 -0.18791297776272839 -0.34149008994233349 0 -0.20246323283369219 -0.35383413774011041 0 -0.19510046258372049 -0.36628971323222848 0 -0.18791297776272839 -0.34149008994233349 0 -0.19510046258372049 -0.36628971323222848 0 -0.200225362357971 -0.34365939551231678 0 -0.18791297776272839 -0.34149008994233349 0 -0.20246323283369219 -0.35383413774011041 0 -0.20246323283369219 -0.35383413774011041 0 -0.19510046258372049 -0.36628971323222848 0 -0.20642263145494691 -0.3710060692632785 0 -0.20246323283369219 -0.35383413774011041 0 -0.20642263145494691 -0.3710060692632785 0 -0.2170134879046566 -0.36617818553788661 0 -0.20246323283369219 -0.35383413774011041 0 -0.2170134879046566 -0.36617818553788661 0 -0.20642263145494691 -0.3710060692632785 0 -0.21766298169056489 -0.372942845804696 0 -0.2170134879046566 -0.36617818553788661 0 -0.21766298169056489 -0.372942845804696 0 -0.2170134879046566 -0.36617818553788661 0 -0.21471353351382511 -0.34222351434503212 0 -0.20246323283369219 -0.35383413774011041 0 -0.2170134879046566 -0.36617818553788661 0 -0.21471353351382511 -0.34222351434503212 0 -0.2170134879046566 -0.36617818553788661 0 -0.21471353351382511 -0.34222351434503212 0 -0.200225362357971 -0.34365939551231678 0 -0.20246323283369219 -0.35383413774011041 0 -0.2248525589425418 -0.25190033394045769 0 -0.22863313209780209 -0.25989528060359562 0 -0.24454988477764869 -0.25749770810531208 0 -0.2248525589425418 -0.25190033394045769 0 -0.22863313209780209 -0.25989528060359562 0 -0.21715726273407621 -0.26052043792771168 0 -0.22863313209780209 -0.25989528060359562 0 -0.2239939250699762 -0.27209959566304109 0 -0.21715726273407621 -0.26052043792771168 0 -0.22863313209780209 -0.25989528060359562 0 -0.2368926623004447 -0.26293700178007329 0 -0.2239939250699762 -0.27209959566304109 0 -0.22863313209780209 -0.25989528060359562 0 -0.2368926623004447 -0.26293700178007329 0 -0.2248525589425418 -0.25190033394045769 0 -0.24454988477764869 -0.25749770810531208 0 -0.2248525589425418 -0.25190033394045769 0 -0.24454988477764869 -0.25749770810531208 0 -0.2411477483349829 -0.24160624167899691 0 -0.22863313209780209 -0.25989528060359562 0 -0.24454988477764869 -0.25749770810531208 0 -0.2368926623004447 -0.26293700178007329 0 -0.25892841258389032 -0.26158364346247859 0 -0.24454988477764869 -0.25749770810531208 0 -0.24552228452451999 -0.26611501602784698 0 -0.24454988477764869 -0.25749770810531208 0 -0.24552228452451999 -0.26611501602784698 0 -0.24454988477764869 -0.25749770810531208 0 -0.2368926623004447 -0.26293700178007329 0 -0.24552228452451999 -0.26611501602784698 0 -0.2368926623004447 -0.26293700178007329 0 -0.24552228452451999 -0.26611501602784698 0 -0.24454988477764869 -0.25749770810531208 0 -0.2368926623004447 -0.26293700178007329 0 -0.2368926623004447 -0.26293700178007329 0 -0.2429702656020751 -0.27273974735635048 0 -0.23360570232503691 -0.27197021251163678 0 -0.2368926623004447 -0.26293700178007329 0 -0.24552228452451999 -0.26611501602784698 0 -0.2429702656020751 -0.27273974735635048 0 -0.25483627904399642 -0.26954506273417939 0 -0.24552228452451999 -0.26611501602784698 0 -0.2429702656020751 -0.27273974735635048 0 -0.25483627904399642 -0.26954506273417939 0 -0.2504921355384786 -0.27933653031883537 0 -0.2429702656020751 -0.27273974735635048 0 -0.2504921355384786 -0.27933653031883537 0 -0.2429702656020751 -0.27273974735635048 0 -0.23902454880241891 -0.27990992943702758 0 -0.2429702656020751 -0.27273974735635048 0 -0.23902454880241891 -0.27990992943702758 0 -0.23360570232503691 -0.27197021251163678 0 -0.23902454880241891 -0.27990992943702758 0 -0.23360570232503691 -0.27197021251163678 0 -0.2252628085618196 -0.28628740176065332 0 -0.23360570232503691 -0.27197021251163678 0 -0.2239939250699762 -0.27209959566304109 0 -0.2252628085618196 -0.28628740176065332 0 -0.2368926623004447 -0.26293700178007329 0 -0.23360570232503691 -0.27197021251163678 0 -0.2239939250699762 -0.27209959566304109 0 -0.2368926623004447 -0.26293700178007329 0 -0.2239939250699762 -0.27209959566304109 0 -0.2239939250699762 -0.27209959566304109 0 -0.2252628085618196 -0.28628740176065332 0 -0.2110951878395064 -0.28126218954600679 0 -0.2252628085618196 -0.28628740176065332 0 -0.2225787399257759 -0.30520510978755128 0 -0.21011362473215531 -0.29431417195932352 0 -0.2252628085618196 -0.28628740176065332 0 -0.23580316502836379 -0.29890243598705812 0 -0.2225787399257759 -0.30520510978755128 0 -0.23902454880241891 -0.27990992943702758 0 -0.2252628085618196 -0.28628740176065332 0 -0.23580316502836379 -0.29890243598705812 0 -0.2514290845243084 -0.30074112217431381 0 -0.23902454880241891 -0.27990992943702758 0 -0.2514290845243084 -0.30074112217431381 0 -0.2504921355384786 -0.27933653031883537 0 -0.23902454880241891 -0.27990992943702758 0 -0.2514290845243084 -0.30074112217431381 0 -0.23902454880241891 -0.27990992943702758 0 -0.23580316502836379 -0.29890243598705812 0 -0.2514290845243084 -0.30074112217431381 0 -0.23772176552187679 -0.32069741309768929 0 -0.23580316502836379 -0.29890243598705812 0 -0.23772176552187679 -0.32069741309768929 0 -0.23580316502836379 -0.29890243598705812 0 -0.2225787399257759 -0.30520510978755128 0 -0.19743074241275649 -0.3142176455776034 0 -0.21011362473215531 -0.29431417195932352 0 -0.20775724077033311 -0.28973564763307619 0 -0.21241357912299019 -0.31826884315217779 0 -0.19743074241275649 -0.3142176455776034 0 -0.21011362473215531 -0.29431417195932352 0 -0.21241357912299019 -0.31826884315217779 0 -0.21011362473215531 -0.29431417195932352 0 -0.21241357912299019 -0.31826884315217779 0 -0.2225787399257759 -0.30520510978755128 0 -0.21011362473215531 -0.29431417195932352 0 -0.19743074241275649 -0.3142176455776034 0 -0.19174933982206149 -0.30561711813331388 0 -0.20775724077033311 -0.28973564763307619 0 -0.19743074241275649 -0.3142176455776034 0 -0.19174933982206149 -0.30561711813331388 0 -0.18097640741422871 -0.31755621935326062 0 -0.19743074241275649 -0.3142176455776034 0 -0.20775724077033311 -0.28973564763307619 0 -0.19174933982206149 -0.30561711813331388 0 -0.1911003370664548 -0.29640531342434651 0 -0.20775724077033311 -0.28973564763307619 0 -0.19174933982206149 -0.30561711813331388 0 -0.1911003370664548 -0.29640531342434651 0 -0.18140063327193481 -0.30541514080189769 0 -0.1911003370664548 -0.29640531342434651 0 -0.19490184845290329 -0.28861584465878681 0 -0.20775724077033311 -0.28973564763307619 0 -0.1911003370664548 -0.29640531342434651 0 -0.19490184845290329 -0.28861584465878681 0 -0.18684647095181331 -0.28795204883288789 0 -0.19390334502301179 -0.28037036874483628 0 -0.18351168798418749 -0.27966947999265329 0 -0.18684647095181331 -0.28795204883288789 0 -0.19490184845290329 -0.28861584465878681 0 -0.19390334502301179 -0.28037036874483628 0 -0.18684647095181331 -0.28795204883288789 0 -0.19490184845290329 -0.28861584465878681 0 -0.20775724077033311 -0.28973564763307619 0 -0.19390334502301179 -0.28037036874483628 0 -0.21011362473215531 -0.29431417195932352 0 -0.20781367034132039 -0.27035950076646931 0 -0.2110951878395064 -0.28126218954600679 0 -0.21011362473215531 -0.29431417195932352 0 -0.20781367034132039 -0.27035950076646931 0 -0.21011362473215531 -0.29431417195932352 0 -0.20775724077033311 -0.28973564763307619 0 -0.20781367034132039 -0.27035950076646931 0 -0.2252628085618196 -0.28628740176065332 0 -0.21011362473215531 -0.29431417195932352 0 -0.2110951878395064 -0.28126218954600679 0 -0.2239939250699762 -0.27209959566304109 0 -0.20781367034132039 -0.27035950076646931 0 -0.21715726273407621 -0.26052043792771168 0 -0.2239939250699762 -0.27209959566304109 0 -0.20781367034132039 -0.27035950076646931 0 -0.2110951878395064 -0.28126218954600679 0 -0.20775724077033311 -0.28973564763307619 0 -0.20781367034132039 -0.27035950076646931 0 -0.19390334502301179 -0.28037036874483628 0 -0.2239939250699762 -0.27209959566304109 0 -0.2110951878395064 -0.28126218954600679 0 -0.20781367034132039 -0.27035950076646931 0 -0.19390334502301179 -0.28037036874483628 0 -0.1902174626211485 -0.27083950258952061 0 -0.20781367034132039 -0.27035950076646931 0 -0.1902174626211485 -0.27083950258952061 0 -0.1959214867612597 -0.26032827192655439 0 -0.19390334502301179 -0.28037036874483628 0 -0.1902174626211485 -0.27083950258952061 0 -0.18351168798418749 -0.27966947999265329 0 -0.1959214867612597 -0.26032827192655439 0 -0.18936100069649531 -0.25130593984176219 0 -0.20551371595048259 -0.2464048295736154 0 -0.20781367034132039 -0.27035950076646931 0 -0.1959214867612597 -0.26032827192655439 0 -0.20551371595048259 -0.2464048295736154 0 -0.1902174626211485 -0.27083950258952061 0 -0.1959214867612597 -0.26032827192655439 0 -0.18441910075860329 -0.26115883217695829 0 -0.1959214867612597 -0.26032827192655439 0 -0.18936100069649531 -0.25130593984176219 0 -0.18441910075860329 -0.26115883217695829 0 -0.20781367034132039 -0.27035950076646931 0 -0.21715726273407621 -0.26052043792771168 0 -0.20551371595048259 -0.2464048295736154 0 -0.2248525589425418 -0.25190033394045769 0 -0.21715726273407621 -0.26052043792771168 0 -0.20551371595048259 -0.2464048295736154 0 -0.20781367034132039 -0.27035950076646931 0 -0.20551371595048259 -0.2464048295736154 0 -0.1609712796120123 -0.26761162056871102 0 -0.16888952720563299 -0.248643973516668 0 -0.1563410501836712 -0.2498212514116096 0 -0.1738964440493603 -0.26179383161322289 0 -0.1609712796120123 -0.26761162056871102 0 -0.16888952720563299 -0.248643973516668 0 -0.1791349909606712 -0.2525987561777624 0 -0.1738964440493603 -0.26179383161322289 0 -0.16888952720563299 -0.248643973516668 0 -0.18936100069649531 -0.25130593984176219 0 -0.1791349909606712 -0.2525987561777624 0 -0.18441910075860329 -0.26115883217695829 0 -0.18441910075860329 -0.26115883217695829 0 -0.1738964440493603 -0.26179383161322289 0 -0.17573548485850859 -0.27315056192965248 0 -0.1791349909606712 -0.2525987561777624 0 -0.18441910075860329 -0.26115883217695829 0 -0.1738964440493603 -0.26179383161322289 0 -0.1902174626211485 -0.27083950258952061 0 -0.18441910075860329 -0.26115883217695829 0 -0.17573548485850859 -0.27315056192965248 0 -0.1902174626211485 -0.27083950258952061 0 -0.17573548485850859 -0.27315056192965248 0 -0.18351168798418749 -0.27966947999265329 0 -0.17573548485850859 -0.27315056192965248 0 -0.16592107078186569 -0.28062610613970029 0 -0.1764460466094106 -0.28639490931553191 0 -0.17573548485850859 -0.27315056192965248 0 -0.18351168798418749 -0.27966947999265329 0 -0.1764460466094106 -0.28639490931553191 0 -0.17573548485850859 -0.27315056192965248 0 -0.16592107078186569 -0.28062610613970029 0 -0.1609712796120123 -0.26761162056871102 0 -0.1738964440493603 -0.26179383161322289 0 -0.17573548485850859 -0.27315056192965248 0 -0.1609712796120123 -0.26761162056871102 0 -0.16592107078186569 -0.28062610613970029 0 -0.1609712796120123 -0.26761162056871102 0 -0.15757837127381469 -0.2806281954597668 0 -0.16592107078186569 -0.28062610613970029 0 -0.15757837127381469 -0.2806281954597668 0 -0.15811159896791679 -0.29257792217861228 0 -0.15811159896791679 -0.29257792217861228 0 -0.16966512128831751 -0.29308224750542189 0 -0.16512664119574441 -0.29985341266363602 0 -0.16592107078186569 -0.28062610613970029 0 -0.15811159896791679 -0.29257792217861228 0 -0.16966512128831751 -0.29308224750542189 0 -0.16592107078186569 -0.28062610613970029 0 -0.16966512128831751 -0.29308224750542189 0 -0.1764460466094106 -0.28639490931553191 0 -0.18351168798418749 -0.27966947999265329 0 -0.1764460466094106 -0.28639490931553191 0 -0.18684647095181331 -0.28795204883288789 0 -0.1911003370664548 -0.29640531342434651 0 -0.18684647095181331 -0.28795204883288789 0 -0.17994847981364021 -0.29584982630205608 0 -0.1764460466094106 -0.28639490931553191 0 -0.18684647095181331 -0.28795204883288789 0 -0.17994847981364021 -0.29584982630205608 0 -0.16966512128831751 -0.29308224750542189 0 -0.1764460466094106 -0.28639490931553191 0 -0.17994847981364021 -0.29584982630205608 0 -0.17994847981364021 -0.29584982630205608 0 -0.17243689036132739 -0.30319130843299502 0 -0.18140063327193481 -0.30541514080189769 0 -0.16966512128831751 -0.29308224750542189 0 -0.17994847981364021 -0.29584982630205608 0 -0.17243689036132739 -0.30319130843299502 0 -0.1911003370664548 -0.29640531342434651 0 -0.17994847981364021 -0.29584982630205608 0 -0.18140063327193481 -0.30541514080189769 0 -0.19174933982206149 -0.30561711813331388 0 -0.18140063327193481 -0.30541514080189769 0 -0.18097640741422871 -0.31755621935326062 0 -0.18140063327193481 -0.30541514080189769 0 -0.18097640741422871 -0.31755621935326062 0 -0.17217539970085491 -0.3128803041911673 0 -0.17243689036132739 -0.30319130843299502 0 -0.18140063327193481 -0.30541514080189769 0 -0.17217539970085491 -0.3128803041911673 0 -0.16562723389912229 -0.30950573850999719 0 -0.17217539970085491 -0.3128803041911673 0 -0.1678309582223341 -0.31479621359611409 0 -0.17243689036132739 -0.30319130843299502 0 -0.16562723389912229 -0.30950573850999719 0 -0.17217539970085491 -0.3128803041911673 0 -0.16966512128831751 -0.29308224750542189 0 -0.17243689036132739 -0.30319130843299502 0 -0.16512664119574441 -0.29985341266363602 0 -0.17243689036132739 -0.30319130843299502 0 -0.16562723389912229 -0.30950573850999719 0 -0.16512664119574441 -0.29985341266363602 0 -0.15811159896791679 -0.29257792217861228 0 -0.16512664119574441 -0.29985341266363602 0 -0.1592338318295245 -0.30489553619614812 0 -0.16562723389912229 -0.30950573850999719 0 -0.1592338318295245 -0.30489553619614812 0 -0.16330311815720641 -0.31741952654573508 0 -0.16562723389912229 -0.30950573850999719 0 -0.16512664119574441 -0.29985341266363602 0 -0.1592338318295245 -0.30489553619614812 0 -0.1592338318295245 -0.30489553619614812 0 -0.14611421371261041 -0.3060291348727272 0 -0.16330311815720641 -0.31741952654573508 0 -0.15811159896791679 -0.29257792217861228 0 -0.1592338318295245 -0.30489553619614812 0 -0.14611421371261041 -0.3060291348727272 0 -0.14611421371261041 -0.3060291348727272 0 -0.12934133919039109 -0.29179947609364237 0 -0.1209814817758855 -0.31158883754432648 0 -0.14611421371261041 -0.3060291348727272 0 -0.12934133919039109 -0.29179947609364237 0 -0.14611421371261041 -0.3060291348727272 0 -0.13429881139015529 -0.29130600869306011 0 -0.12934133919039109 -0.29179947609364237 0 -0.13429881139015529 -0.29130600869306011 0 -0.12934133919039109 -0.29179947609364237 0 -0.13429881139015529 -0.29130600869306011 0 -0.12934133919039109 -0.29179947609364237 0 -0.13059499209945211 -0.28293209586729801 0 -0.13429881139015529 -0.29130600869306011 0 -0.13059499209945211 -0.28293209586729801 0 -0.14530953573346411 -0.28169713295204368 0 -0.14611421371261041 -0.3060291348727272 0 -0.14530953573346411 -0.28169713295204368 0 -0.15811159896791679 -0.29257792217861228 0 -0.14611421371261041 -0.3060291348727272 0 -0.14530953573346411 -0.28169713295204368 0 -0.14611421371261041 -0.3060291348727272 0 -0.13429881139015529 -0.29130600869306011 0 -0.14530953573346411 -0.28169713295204368 0 -0.15757837127381469 -0.2806281954597668 0 -0.15811159896791679 -0.29257792217861228 0 -0.14530953573346411 -0.28169713295204368 0 -0.14530953573346411 -0.28169713295204368 0 -0.14450485775431851 -0.25736513103136011 0 -0.1609712796120123 -0.26761162056871102 0 -0.14530953573346411 -0.28169713295204368 0 -0.14450485775431851 -0.25736513103136011 0 -0.1609712796120123 -0.26761162056871102 0 -0.15757837127381469 -0.2806281954597668 0 -0.14530953573346411 -0.28169713295204368 0 -0.14530953573346411 -0.28169713295204368 0 -0.13054795344993381 -0.27151699507100491 0 -0.14450485775431851 -0.25736513103136011 0 -0.13059499209945211 -0.28293209586729801 0 -0.14530953573346411 -0.28169713295204368 0 -0.13054795344993381 -0.27151699507100491 0 -0.14450485775431851 -0.25736513103136011 0 -0.11840662886325649 -0.25645158738316548 0 -0.1278027162143065 -0.24043015051396341 0 -0.13054795344993381 -0.27151699507100491 0 -0.14450485775431851 -0.25736513103136011 0 -0.11840662886325649 -0.25645158738316548 0 -0.1609712796120123 -0.26761162056871102 0 -0.14450485775431851 -0.25736513103136011 0 -0.1563410501836712 -0.2498212514116096 0 -0.1580510944529343 -0.34937900472597561 0 -0.17754525995943099 -0.36136202343837648 0 -0.1741733858327007 -0.34530642895792157 0 -0.1686399661827008 -0.38247463842052742 0 -0.1643739482181307 -0.36793813151770821 0 -0.17754525995943099 -0.36136202343837648 0 -0.1532594722774569 -0.37853685948595361 0 -0.1580510944529343 -0.34937900472597561 0 -0.1643739482181307 -0.36793813151770821 0 -0.1580510944529343 -0.34937900472597561 0 -0.1643739482181307 -0.36793813151770821 0 -0.17754525995943099 -0.36136202343837648 0 -0.1686399661827008 -0.38247463842052742 0 -0.17754525995943099 -0.36136202343837648 0 -0.18168741137988989 -0.37422709064061449 0 -0.1686399661827008 -0.38247463842052742 0 -0.17754525995943099 -0.36136202343837648 0 -0.19510046258372049 -0.36628971323222848 0 -0.17754525995943099 -0.36136202343837648 0 -0.18168741137988989 -0.37422709064061449 0 -0.18791297776272839 -0.34149008994233349 0 -0.19510046258372049 -0.36628971323222848 0 -0.17754525995943099 -0.36136202343837648 0 -0.17754525995943099 -0.36136202343837648 0 -0.18645055373615341 -0.34024940845622209 0 -0.18791297776272839 -0.34149008994233349 0 -0.17754525995943099 -0.36136202343837648 0 -0.18645055373615341 -0.34024940845622209 0 -0.17754525995943099 -0.36136202343837648 0 -0.1741733858327007 -0.34530642895792157 0 -0.18645055373615341 -0.34024940845622209 0 -0.18645055373615341 -0.34024940845622209 0 -0.18710424405517961 -0.33869964352213022 0 -0.1746466351822859 -0.33023527921111018 0 -0.18710424405517961 -0.33869964352213022 0 -0.1746466351822859 -0.33023527921111018 0 -0.18097640741422871 -0.31755621935326062 0 -0.18791297776272839 -0.34149008994233349 0 -0.18645055373615341 -0.34024940845622209 0 -0.18710424405517961 -0.33869964352213022 0 -0.18791297776272839 -0.34149008994233349 0 -0.18645055373615341 -0.34024940845622209 0 -0.18645055373615341 -0.34024940845622209 0 -0.18710424405517961 -0.33869964352213022 0 -0.18645055373615341 -0.34024940845622209 0 -0.1746466351822859 -0.33023527921111018 0 -0.1741733858327007 -0.34530642895792157 0 -0.18645055373615341 -0.34024940845622209 0 -0.1746466351822859 -0.33023527921111018 0 -0.18710424405517961 -0.33869964352213022 0 -0.18097640741422871 -0.31755621935326062 0 -0.1746466351822859 -0.33023527921111018 0 -0.18097640741422871 -0.31755621935326062 0 -0.170218081132153 -0.31937928513755709 0 -0.18097640741422871 -0.31755621935326062 0 -0.17217539970085491 -0.3128803041911673 0 -0.170218081132153 -0.31937928513755709 0 -0.14611421371261041 -0.3060291348727272 0 -0.16284271662841809 -0.32022114996599871 0 -0.16330311815720641 -0.31741952654573508 0 -0.16562723389912229 -0.30950573850999719 0 -0.1678309582223341 -0.31479621359611409 0 -0.16330311815720641 -0.31741952654573508 0 -0.17217539970085491 -0.3128803041911673 0 -0.1678309582223341 -0.31479621359611409 0 -0.170218081132153 -0.31937928513755709 0 -0.1678309582223341 -0.31479621359611409 0 -0.170218081132153 -0.31937928513755709 0 -0.16330311815720641 -0.31741952654573508 0 -0.170218081132153 -0.31937928513755709 0 -0.16284271662841809 -0.32022114996599871 0 -0.16330311815720641 -0.31741952654573508 0 -0.1746466351822859 -0.33023527921111018 0 -0.16284271662841809 -0.32022114996599871 0 -0.1746466351822859 -0.33023527921111018 0 -0.170218081132153 -0.31937928513755709 0 -0.16284271662841809 -0.32022114996599871 0 -0.16284271662841809 -0.32022114996599871 0 -0.16330311815720641 -0.31741952654573508 0 -0.1580510944529343 -0.34937900472597561 0 -0.1741733858327007 -0.34530642895792157 0 -0.1746466351822859 -0.33023527921111018 0 -0.1580510944529343 -0.34937900472597561 0 -0.16284271662841809 -0.32022114996599871 0 -0.1580510944529343 -0.34937900472597561 0 -0.1746466351822859 -0.33023527921111018 0 -0.16284271662841809 -0.32022114996599871 0 -0.1580510944529343 -0.34937900472597561 0 -0.16284271662841809 -0.32022114996599871 0 -0.1469577034266312 -0.33153473322827948 0 -0.14611421371261041 -0.3060291348727272 0 -0.1469577034266312 -0.33153473322827948 0 -0.14611421371261041 -0.3060291348727272 0 -0.16284271662841809 -0.32022114996599871 0 -0.1469577034266312 -0.33153473322827948 0 -0.14611421371261041 -0.3060291348727272 0 -0.1469577034266312 -0.33153473322827948 0 -0.1298152324756163 -0.33060790568630199 0 -0.14611421371261041 -0.3060291348727272 0 -0.16284271662841809 -0.32022114996599871 0 -0.14611421371261041 -0.3060291348727272 0 -0.1298152324756163 -0.33060790568630199 0 -0.1209814817758855 -0.31158883754432648 0 -0.1469577034266312 -0.33153473322827948 0 -0.1298152324756163 -0.33060790568630199 0 -0.13676025319584681 -0.34568051156322599 0 -0.1298152324756163 -0.33060790568630199 0 -0.13676025319584681 -0.34568051156322599 0 -0.1240441974091905 -0.34877218573461488 0 -0.13676025319584681 -0.34568051156322599 0 -0.13298896078134079 -0.36026971055396362 0 -0.1240441974091905 -0.34877218573461488 0 -0.13676025319584681 -0.34568051156322599 0 -0.1478011931406526 -0.35704033158383192 0 -0.13298896078134079 -0.36026971055396362 0 -0.1469577034266312 -0.33153473322827948 0 -0.1478011931406526 -0.35704033158383192 0 -0.1580510944529343 -0.34937900472597561 0 -0.1469577034266312 -0.33153473322827948 0 -0.1478011931406526 -0.35704033158383192 0 -0.1469577034266312 -0.33153473322827948 0 -0.13676025319584681 -0.34568051156322599 0 -0.1478011931406526 -0.35704033158383192 0 -0.1532594722774569 -0.37853685948595361 0 -0.1580510944529343 -0.34937900472597561 0 -0.1478011931406526 -0.35704033158383192 0 -0.1532594722774569 -0.37853685948595361 0 -0.14242216097961519 -0.36770976986324749 0 -0.1327962299645537 -0.37329777386170088 0 -0.1532594722774569 -0.37853685948595361 0 -0.1478011931406526 -0.35704033158383192 0 -0.14242216097961519 -0.36770976986324749 0 -0.1532594722774569 -0.37853685948595361 0 -0.1580510944529343 -0.34937900472597561 0 -0.1478011931406526 -0.35704033158383192 0 -0.14242216097961519 -0.36770976986324749 0 -0.13298896078134079 -0.36026971055396362 0 -0.13298896078134079 -0.36026971055396362 0 -0.1327962299645537 -0.37329777386170088 0 -0.11233298765165051 -0.36805868823744797 0 -0.14242216097961519 -0.36770976986324749 0 -0.13298896078134079 -0.36026971055396362 0 -0.1327962299645537 -0.37329777386170088 0 -0.1327962299645537 -0.37329777386170088 0 -0.11233298765165051 -0.36805868823744797 0 -0.11233298765165051 -0.36805868823744797 0 -0.10657360197902239 -0.35093485707956451 0 -0.091869745338747338 -0.36281960261319512 0 -0.11233298765165051 -0.36805868823744797 0 -0.091869745338747338 -0.36281960261319512 0 -0.097775674146993077 -0.37739671169266148 0 -0.11233298765165051 -0.36805868823744797 0 -0.091869745338747338 -0.36281960261319512 0 -0.10657360197902239 -0.35093485707956451 0 -0.091916712325302422 -0.34155830555672678 0 -0.091869745338747338 -0.36281960261319512 0 -0.13298896078134079 -0.36026971055396362 0 -0.11233298765165051 -0.36805868823744797 0 -0.1240441974091905 -0.34877218573461488 0 -0.10657360197902239 -0.35093485707956451 0 -0.1240441974091905 -0.34877218573461488 0 -0.1127043671702211 -0.33346550325583779 0 -0.11233298765165051 -0.36805868823744797 0 -0.10657360197902239 -0.35093485707956451 0 -0.1240441974091905 -0.34877218573461488 0 -0.1298152324756163 -0.33060790568630199 0 -0.1240441974091905 -0.34877218573461488 0 -0.1127043671702211 -0.33346550325583779 0 -0.1127043671702211 -0.33346550325583779 0 -0.099986269548101969 -0.31566147358884428 0 -0.1209814817758855 -0.31158883754432648 0 -0.1298152324756163 -0.33060790568630199 0 -0.1127043671702211 -0.33346550325583779 0 -0.1209814817758855 -0.31158883754432648 0 -0.1127043671702211 -0.33346550325583779 0 -0.099986269548101969 -0.31566147358884428 0 -0.091916712325302422 -0.34155830555672678 0 -0.10657360197902239 -0.35093485707956451 0 -0.1127043671702211 -0.33346550325583779 0 -0.091916712325302422 -0.34155830555672678 0 -0.091916712325302422 -0.34155830555672678 0 -0.079659154099951807 -0.32209157050387333 0 -0.072088592165134774 -0.34819186869710661 0 -0.099986269548101969 -0.31566147358884428 0 -0.091916712325302422 -0.34155830555672678 0 -0.079659154099951807 -0.32209157050387333 0 -0.079659154099951807 -0.32209157050387333 0 -0.060522906676780952 -0.3312172837287945 0 -0.050280674938654853 -0.31344540534240262 0 -0.079659154099951807 -0.32209157050387333 0 -0.072088592165134774 -0.34819186869710661 0 -0.079659154099951807 -0.32209157050387333 0 -0.072088592165134774 -0.34819186869710661 0 -0.060522906676780952 -0.3312172837287945 0 -0.072088592165134774 -0.34819186869710661 0 -0.064518030230317755 -0.37429216689033978 0 -0.072088592165134774 -0.34819186869710661 0 -0.064518030230317755 -0.37429216689033978 0 -0.059265051853294219 -0.35862041164794711 0 -0.072088592165134774 -0.34819186869710661 0 -0.064518030230317755 -0.37429216689033978 0 -0.079614076326722516 -0.36002528721142618 0 -0.064518030230317755 -0.37429216689033978 0 -0.07767730157411025 -0.37326449229976272 0 -0.079614076326722516 -0.36002528721142618 0 -0.07767730157411025 -0.37326449229976272 0 -0.079614076326722516 -0.36002528721142618 0 -0.091869745338747338 -0.36281960261319512 0 -0.07767730157411025 -0.37326449229976272 0 -0.091869745338747338 -0.36281960261319512 0 -0.087607745564597259 -0.37649639105237848 0 -0.091869745338747338 -0.36281960261319512 0 -0.097775674146993077 -0.37739671169266148 0 -0.087607745564597259 -0.37649639105237848 0 -0.091916712325302422 -0.34155830555672678 0 -0.072088592165134774 -0.34819186869710661 0 -0.079614076326722516 -0.36002528721142618 0 -0.091916712325302422 -0.34155830555672678 0 -0.079614076326722516 -0.36002528721142618 0 -0.091869745338747338 -0.36281960261319512 0 -0.097613302276242722 -0.26488225695983642 0 -0.11840662886325649 -0.25645158738316548 0 -0.099162486762250313 -0.24921486017549499 0 -0.097613302276242722 -0.26488225695983642 0 -0.11840662886325649 -0.25645158738316548 0 -0.1134773207333163 -0.27834086652674012 0 -0.13054795344993381 -0.27151699507100491 0 -0.11840662886325649 -0.25645158738316548 0 -0.1134773207333163 -0.27834086652674012 0 -0.13059499209945211 -0.28293209586729801 0 -0.13054795344993381 -0.27151699507100491 0 -0.1134773207333163 -0.27834086652674012 0 -0.1134773207333163 -0.27834086652674012 0 -0.09405878642764437 -0.27540232535208747 0 -0.1006263221673562 -0.28481225473539401 0 -0.097613302276242722 -0.26488225695983642 0 -0.1134773207333163 -0.27834086652674012 0 -0.097613302276242722 -0.26488225695983642 0 -0.1134773207333163 -0.27834086652674012 0 -0.09405878642764437 -0.27540232535208747 0 -0.1006263221673562 -0.28481225473539401 0 -0.1082855276125807 -0.29389537420214129 0 -0.087229716034770394 -0.29599127231064071 0 -0.1082855276125807 -0.29389537420214129 0 -0.087229716034770394 -0.29599127231064071 0 -0.09405878642764437 -0.27540232535208747 0 -0.1006263221673562 -0.28481225473539401 0 -0.090183314227677461 -0.28580843591861821 0 -0.1134773207333163 -0.27834086652674012 0 -0.1006263221673562 -0.28481225473539401 0 -0.1082855276125807 -0.29389537420214129 0 -0.12934133919039109 -0.29179947609364237 0 -0.13059499209945211 -0.28293209586729801 0 -0.1134773207333163 -0.27834086652674012 0 -0.12934133919039109 -0.29179947609364237 0 -0.1134773207333163 -0.27834086652674012 0 -0.12934133919039109 -0.29179947609364237 0 -0.1082855276125807 -0.29389537420214129 0 -0.12934133919039109 -0.29179947609364237 0 -0.1134773207333163 -0.27834086652674012 0 -0.1082855276125807 -0.29389537420214129 0 -0.12934133919039109 -0.29179947609364237 0 -0.1082855276125807 -0.29389537420214129 0 -0.1209814817758855 -0.31158883754432648 0 -0.099986269548101969 -0.31566147358884428 0 -0.1082855276125807 -0.29389537420214129 0 -0.1209814817758855 -0.31158883754432648 0 -0.099986269548101969 -0.31566147358884428 0 -0.1082855276125807 -0.29389537420214129 0 -0.087229716034770394 -0.29599127231064071 0 -0.099986269548101969 -0.31566147358884428 0 -0.079659154099951807 -0.32209157050387333 0 -0.087229716034770394 -0.29599127231064071 0 -0.079659154099951807 -0.32209157050387333 0 -0.087229716034770394 -0.29599127231064071 0 -0.079659154099951807 -0.32209157050387333 0 -0.068422624734181092 -0.29786333252250419 0 -0.087229716034770394 -0.29599127231064071 0 -0.079659154099951807 -0.32209157050387333 0 -0.068422624734181092 -0.29786333252250419 0 -0.050280674938654853 -0.31344540534240262 0 -0.068422624734181092 -0.29786333252250419 0 -0.087229716034770394 -0.29599127231064071 0 -0.067268086142553363 -0.28664123588762519 0 -0.085857446980755966 -0.28288860968895929 0 -0.072553917982818947 -0.27861354390699988 0 -0.068422624734181092 -0.29786333252250419 0 -0.085857446980755966 -0.28288860968895929 0 -0.068422624734181092 -0.29786333252250419 0 -0.067268086142553363 -0.28664123588762519 0 -0.085857446980755966 -0.28288860968895929 0 -0.068422624734181092 -0.29786333252250419 0 -0.067268086142553363 -0.28664123588762519 0 -0.053380380114534207 -0.29318348926985971 0 -0.067268086142553363 -0.28664123588762519 0 -0.072553917982818947 -0.27861354390699988 0 -0.058601196893822059 -0.27937620074444142 0 -0.068422624734181092 -0.29786333252250419 0 -0.082923275494346235 -0.29063791261018068 0 -0.087229716034770394 -0.29599127231064071 0 -0.068422624734181092 -0.29786333252250419 0 -0.085857446980755966 -0.28288860968895929 0 -0.082923275494346235 -0.29063791261018068 0 -0.087229716034770394 -0.29599127231064071 0 -0.090183314227677461 -0.28580843591861821 0 -0.082923275494346235 -0.29063791261018068 0 -0.087229716034770394 -0.29599127231064071 0 -0.090183314227677461 -0.28580843591861821 0 -0.085857446980755966 -0.28288860968895929 0 -0.090183314227677461 -0.28580843591861821 0 -0.08689152267282621 -0.27798495039472332 0 -0.1006263221673562 -0.28481225473539401 0 -0.087229716034770394 -0.29599127231064071 0 -0.090183314227677461 -0.28580843591861821 0 -0.085857446980755966 -0.28288860968895929 0 -0.082923275494346235 -0.29063791261018068 0 -0.090183314227677461 -0.28580843591861821 0 -0.097613302276242722 -0.26488225695983642 0 -0.083575365836385945 -0.27132412139242579 0 -0.080579273192581694 -0.26139366306794182 0 -0.09405878642764437 -0.27540232535208747 0 -0.090183314227677461 -0.28580843591861821 0 -0.08689152267282621 -0.27798495039472332 0 -0.09405878642764437 -0.27540232535208747 0 -0.08689152267282621 -0.27798495039472332 0 -0.083575365836385945 -0.27132412139242579 0 -0.097613302276242722 -0.26488225695983642 0 -0.09405878642764437 -0.27540232535208747 0 -0.083575365836385945 -0.27132412139242579 0 -0.083575365836385945 -0.27132412139242579 0 -0.07202217162836394 -0.26465011606661792 0 -0.080579273192581694 -0.26139366306794182 0 -0.083575365836385945 -0.27132412139242579 0 -0.082219563368196774 -0.27770280634577699 0 -0.072553917982818947 -0.27861354390699988 0 -0.085857446980755966 -0.28288860968895929 0 -0.082219563368196774 -0.27770280634577699 0 -0.072553917982818947 -0.27861354390699988 0 -0.08689152267282621 -0.27798495039472332 0 -0.083575365836385945 -0.27132412139242579 0 -0.082219563368196774 -0.27770280634577699 0 -0.085857446980755966 -0.28288860968895929 0 -0.08689152267282621 -0.27798495039472332 0 -0.082219563368196774 -0.27770280634577699 0 -0.07202217162836394 -0.26465011606661792 0 -0.067936242402746733 -0.25468817352789619 0 -0.058601196893822059 -0.27937620074444142 0 -0.067936242402746733 -0.25468817352789619 0 -0.058601196893822059 -0.27937620074444142 0 -0.072553917982818947 -0.27861354390699988 0 -0.07202217162836394 -0.26465011606661792 0 -0.058601196893822059 -0.27937620074444142 0 -0.07202217162836394 -0.26465011606661792 0 -0.058601196893822059 -0.27937620074444142 0 -0.083575365836385945 -0.27132412139242579 0 -0.072553917982818947 -0.27861354390699988 0 -0.07202217162836394 -0.26465011606661792 0 -0.07202217162836394 -0.26465011606661792 0 -0.067936242402746733 -0.25468817352789619 0 -0.080579273192581694 -0.26139366306794182 0 -0.067936242402746733 -0.25468817352789619 0 -0.081749283819169183 -0.25142364739293283 0 -0.080579273192581694 -0.26139366306794182 0 -0.097613302276242722 -0.26488225695983642 0 -0.081749283819169183 -0.25142364739293283 0 -0.099162486762250313 -0.24921486017549499 0 -0.097613302276242722 -0.26488225695983642 0 -0.081749283819169183 -0.25142364739293283 0 -0.080579273192581694 -0.26139366306794182 0 -0.097613302276242722 -0.26488225695983642 0 -0.081749283819169183 -0.25142364739293283 0 -0.033515532645534807 -0.25565753410287012 0 -0.049783633663150237 -0.26257296060548302 0 -0.052778720187395052 -0.24295676583674891 0 -0.033515532645534807 -0.25565753410287012 0 -0.049783633663150237 -0.26257296060548302 0 -0.033086127311324841 -0.27854050452153889 0 -0.067936242402746733 -0.25468817352789619 0 -0.049783633663150237 -0.26257296060548302 0 -0.052778720187395052 -0.24295676583674891 0 -0.067936242402746733 -0.25468817352789619 0 -0.049783633663150237 -0.26257296060548302 0 -0.058601196893822059 -0.27937620074444142 0 -0.049783633663150237 -0.26257296060548302 0 -0.058601196893822059 -0.27937620074444142 0 -0.033086127311324841 -0.27854050452153889 0 -0.033515532645534807 -0.25565753410287012 0 -0.033086127311324841 -0.27854050452153889 0 -0.033086127311324841 -0.27854050452153889 0 -0.032656721977112148 -0.30142347494020783 0 -0.033086127311324841 -0.27854050452153889 0 -0.03909164358176101 -0.30078294204174028 0 -0.032656721977112148 -0.30142347494020783 0 -0.058601196893822059 -0.27937620074444142 0 -0.033086127311324841 -0.27854050452153889 0 -0.03909164358176101 -0.30078294204174028 0 -0.058601196893822059 -0.27937620074444142 0 -0.03909164358176101 -0.30078294204174028 0 -0.058601196893822059 -0.27937620074444142 0 -0.053380380114534207 -0.29318348926985971 0 -0.03909164358176101 -0.30078294204174028 0 -0.058601196893822059 -0.27937620074444142 0 -0.053380380114534207 -0.29318348926985971 0 -0.067268086142553363 -0.28664123588762519 0 -0.058601196893822059 -0.27937620074444142 0 -0.053380380114534207 -0.29318348926985971 0 -0.068422624734181092 -0.29786333252250419 0 -0.053380380114534207 -0.29318348926985971 0 -0.03909164358176101 -0.30078294204174028 0 -0.068422624734181092 -0.29786333252250419 0 -0.03909164358176101 -0.30078294204174028 0 -0.068422624734181092 -0.29786333252250419 0 -0.03909164358176101 -0.30078294204174028 0 -0.050280674938654853 -0.31344540534240262 0 -0.068422624734181092 -0.29786333252250419 0 -0.050280674938654853 -0.31344540534240262 0 -0.03909164358176101 -0.30078294204174028 0 -0.032533713374809578 -0.30797859194414418 0 -0.050280674938654853 -0.31344540534240262 0 -0.03909164358176101 -0.30078294204174028 0 -0.032656721977112148 -0.30142347494020783 0 -0.03909164358176101 -0.30078294204174028 0 -0.032533713374809578 -0.30797859194414418 0 -0.032656721977112148 -0.30142347494020783 0 -0.032533713374809578 -0.30797859194414418 0 -0.03909164358176101 -0.30078294204174028 0 -0.032656721977112148 -0.30142347494020783 0 -0.032533713374809578 -0.30797859194414418 0 -0.032656721977112148 -0.30142347494020783 0 -0.021022017901489429 -0.30978843881947632 0 -0.0056478410678713056 -0.30411194231184918 0 -0.032656721977112148 -0.30142347494020783 0 -0.0056478410678713056 -0.30411194231184918 0 -0.032656721977112148 -0.30142347494020783 0 -0.0056478410678713056 -0.30411194231184918 0 -0.01792318465985027 -0.28909843042835409 0 -0.032656721977112148 -0.30142347494020783 0 -0.032533713374809578 -0.30797859194414418 0 -0.021022017901489429 -0.30978843881947632 0 -0.0056478410678713056 -0.30411194231184918 0 -0.003550042800243684 -0.28209207201754433 0 -0.01792318465985027 -0.28909843042835409 0 -0.033086127311324841 -0.27854050452153889 0 -0.032656721977112148 -0.30142347494020783 0 -0.01792318465985027 -0.28909843042835409 0 -0.033515532645534807 -0.25565753410287012 0 -0.033086127311324841 -0.27854050452153889 0 -0.016964089863525041 -0.27073302193743187 0 -0.033086127311324841 -0.27854050452153889 0 -0.01792318465985027 -0.28909843042835409 0 -0.016964089863525041 -0.27073302193743187 0 -0.003550042800243684 -0.28209207201754433 0 -0.01792318465985027 -0.28909843042835409 0 -0.016964089863525041 -0.27073302193743187 0 -0.003550042800243684 -0.28209207201754433 0 -0.016964089863525041 -0.27073302193743187 0 0.00027413042534417219 -0.26461719389675081 0 -0.018248806879461149 -0.25297125270079762 0 -0.0070936043338453089 -0.2410739498827342 0 0.00027413042534417219 -0.26461719389675081 0 -0.016964089863525041 -0.27073302193743187 0 -0.018248806879461149 -0.25297125270079762 0 0.00027413042534417219 -0.26461719389675081 0 -0.033515532645534807 -0.25565753410287012 0 -0.016964089863525041 -0.27073302193743187 0 -0.018248806879461149 -0.25297125270079762 0 -0.031608971029783023 -0.35725802571037552 0 -0.03206575203586038 -0.33291620827788859 0 -0.031608971029783023 -0.35725802571037552 0 -0.045360730737570437 -0.36304176378248582 0 -0.050193049462686733 -0.34310053985071809 0 -0.031608971029783023 -0.35725802571037552 0 -0.050193049462686733 -0.34310053985071809 0 -0.03206575203586038 -0.33291620827788859 0 -0.031608971029783023 -0.35725802571037552 0 -0.031152190023703102 -0.38159984314286211 0 -0.045360730737570437 -0.36304176378248582 0 -0.051622219478239452 -0.37231677157947901 0 -0.031152190023703102 -0.38159984314286211 0 -0.031608971029783023 -0.35725802571037552 0 -0.045360730737570437 -0.36304176378248582 0 -0.031152190023703102 -0.38159984314286211 0 -0.045360730737570437 -0.36304176378248582 0 -0.051622219478239452 -0.37231677157947901 0 -0.059265051853294219 -0.35862041164794711 0 -0.064518030230317755 -0.37429216689033978 0 -0.051622219478239452 -0.37231677157947901 0 -0.059265051853294219 -0.35862041164794711 0 -0.045360730737570437 -0.36304176378248582 0 -0.059265051853294219 -0.35862041164794711 0 -0.050193049462686733 -0.34310053985071809 0 -0.072088592165134774 -0.34819186869710661 0 -0.059265051853294219 -0.35862041164794711 0 -0.050193049462686733 -0.34310053985071809 0 -0.072088592165134774 -0.34819186869710661 0 -0.060522906676780952 -0.3312172837287945 0 -0.050193049462686733 -0.34310053985071809 0 -0.060522906676780952 -0.3312172837287945 0 -0.050193049462686733 -0.34310053985071809 0 -0.044947263141536097 -0.33121288369516838 0 -0.060522906676780952 -0.3312172837287945 0 -0.050280674938654853 -0.31344540534240262 0 -0.044947263141536097 -0.33121288369516838 0 -0.050280674938654853 -0.31344540534240262 0 -0.032138725143127878 -0.32902747816229988 0 -0.032533713374809578 -0.30797859194414418 0 -0.050280674938654853 -0.31344540534240262 0 -0.032138725143127878 -0.32902747816229988 0 -0.032533713374809578 -0.30797859194414418 0 -0.032138725143127878 -0.32902747816229988 0 -0.050280674938654853 -0.31344540534240262 0 -0.044947263141536097 -0.33121288369516838 0 -0.032138725143127878 -0.32902747816229988 0 -0.050193049462686733 -0.34310053985071809 0 -0.03206575203586038 -0.33291620827788859 0 -0.050193049462686733 -0.34310053985071809 0 -0.044947263141536097 -0.33121288369516838 0 -0.03206575203586038 -0.33291620827788859 0 -0.044947263141536097 -0.33121288369516838 0 -0.032138725143127878 -0.32902747816229988 0 -0.03206575203586038 -0.33291620827788859 0 -0.032138725143127878 -0.32902747816229988 0 -0.03206575203586038 -0.33291620827788859 0 -0.02937271407803491 -0.33140319776921551 0 -0.0090340080922087593 -0.34887205868579768 0 -0.023577068608822679 -0.34507915116508331 0 -0.02937271407803491 -0.33140319776921551 0 -0.0090340080922087593 -0.34887205868579768 0 -0.02937271407803491 -0.33140319776921551 0 -0.01734413521792311 -0.32464526620462958 0 -0.0057410480103785074 -0.33737668460918963 0 -0.03206575203586038 -0.33291620827788859 0 -0.02937271407803491 -0.33140319776921551 0 -0.023577068608822679 -0.34507915116508331 0 -0.032138725143127878 -0.32902747816229988 0 -0.02937271407803491 -0.33140319776921551 0 -0.01734413521792311 -0.32464526620462958 0 -0.03206575203586038 -0.33291620827788859 0 -0.02937271407803491 -0.33140319776921551 0 -0.032138725143127878 -0.32902747816229988 0 -0.03206575203586038 -0.33291620827788859 0 -0.02937271407803491 -0.33140319776921551 0 -0.032138725143127878 -0.32902747816229988 0 -0.02937271407803491 -0.33140319776921551 0 -0.032533713374809578 -0.30797859194414418 0 -0.01734413521792311 -0.32464526620462958 0 -0.032533713374809578 -0.30797859194414418 0 -0.032138725143127878 -0.32902747816229988 0 -0.01734413521792311 -0.32464526620462958 0 -0.032533713374809578 -0.30797859194414418 0 -0.021022017901489429 -0.30978843881947632 0 -0.01734413521792311 -0.32464526620462958 0 -0.02937271407803491 -0.33140319776921551 0 -0.01734413521792311 -0.32464526620462958 0 -0.01734413521792311 -0.32464526620462958 0 0.0066724863395269743 -0.31115217722169719 0 -0.021022017901489429 -0.30978843881947632 0 -0.0056478410678713056 -0.30411194231184918 0 -0.01734413521792311 -0.32464526620462958 0 -0.01734413521792311 -0.32464526620462958 0 0.002600192195030319 -0.32665160973773938 0 0.0066724863395269743 -0.31115217722169719 0 -0.0056478410678713056 -0.30411194231184918 0 -0.01734413521792311 -0.32464526620462958 0 0.0066724863395269743 -0.31115217722169719 0 -0.01734413521792311 -0.32464526620462958 0 -0.0057410480103785074 -0.33737668460918963 0 0.002600192195030319 -0.32665160973773938 0 -0.02937271407803491 -0.33140319776921551 0 -0.0057410480103785074 -0.33737668460918963 0 -0.0090340080922087593 -0.34887205868579768 0 -0.01734413521792311 -0.32464526620462958 0 -0.0057410480103785074 -0.33737668460918963 0 -0.0057410480103785074 -0.33737668460918963 0 -0.0090340080922087593 -0.34887205868579768 0 0.0058620391971661648 -0.35010810301374962 0 -0.0090340080922087593 -0.34887205868579768 0 -0.005690371318418405 -0.36081602155646109 0 0.01130469789361814 -0.36634091960237891 0 -0.0090340080922087593 -0.34887205868579768 0 -0.016960018442695849 -0.35556889786043039 0 -0.005690371318418405 -0.36081602155646109 0 -0.0090340080922087593 -0.34887205868579768 0 -0.016960018442695849 -0.35556889786043039 0 -0.023577068608822679 -0.34507915116508331 0 -0.031608971029783023 -0.35725802571037552 0 -0.03206575203586038 -0.33291620827788859 0 -0.023577068608822679 -0.34507915116508331 0 -0.031608971029783023 -0.35725802571037552 0 -0.016960018442695849 -0.35556889786043039 0 -0.02076485931872029 -0.36238122822925101 0 -0.031608971029783023 -0.35725802571037552 0 -0.016960018442695849 -0.35556889786043039 0 -0.023577068608822679 -0.34507915116508331 0 -0.031608971029783023 -0.35725802571037552 0 -0.021982583817964741 -0.37065516071829641 0 -0.031152190023703102 -0.38159984314286211 0 -0.031608971029783023 -0.35725802571037552 0 -0.02076485931872029 -0.36238122822925101 0 -0.021982583817964741 -0.37065516071829641 0 -0.016960018442695849 -0.35556889786043039 0 -0.02076485931872029 -0.36238122822925101 0 -0.01250786398443756 -0.36604282862790172 0 -0.02076485931872029 -0.36238122822925101 0 -0.021982583817964741 -0.37065516071829641 0 -0.01250786398443756 -0.36604282862790172 0 -0.021982583817964741 -0.37065516071829641 0 -0.01250786398443756 -0.36604282862790172 0 -0.01261592041162685 -0.37562350234278058 0 -0.01250786398443756 -0.36604282862790172 0 -0.0056625916442426009 -0.37274107753382157 0 -0.01261592041162685 -0.37562350234278058 0 -0.016960018442695849 -0.35556889786043039 0 -0.01250786398443756 -0.36604282862790172 0 -0.005690371318418405 -0.36081602155646109 0 -0.01250786398443756 -0.36604282862790172 0 -0.005690371318418405 -0.36081602155646109 0 -0.0012546639663679939 -0.36725540300579651 0 -0.01250786398443756 -0.36604282862790172 0 -0.0056625916442426009 -0.37274107753382157 0 -0.0012546639663679939 -0.36725540300579651 0 -0.0056625916442426009 -0.37274107753382157 0 -0.0012546639663679939 -0.36725540300579651 0 0.00083080919627883981 -0.37495933448478602 0 -0.0056625916442426009 -0.37274107753382157 0 -0.0039418185662910459 -0.37940177918111478 0 -0.01261592041162685 -0.37562350234278058 0 -0.0056625916442426009 -0.37274107753382157 0 -0.0039418185662910459 -0.37940177918111478 0 0.00083080919627883981 -0.37495933448478602 0 -0.0039418185662910459 -0.37940177918111478 0 0.0023126715974343039 -0.38121453777462277 0 0.00083080919627883981 -0.37495933448478602 0 -0.0039418185662910459 -0.37940177918111478 0 -0.0019023268811386069 -0.38812108031404702 0 -0.010031692843495759 -0.38407302932068732 0 -0.0039418185662910459 -0.37940177918111478 0 -0.0019023268811386069 -0.38812108031404702 0 0.0023126715974343039 -0.38121453777462277 0 -0.010031692843495759 -0.38407302932068732 0 -0.011460378120849459 -0.39265938441852682 0 -0.016896198421982391 -0.38750483071309261 0 -0.0019023268811386069 -0.38812108031404702 0 -0.010031692843495759 -0.38407302932068732 0 -0.011460378120849459 -0.39265938441852682 0 -0.0039418185662910459 -0.37940177918111478 0 -0.010031692843495759 -0.38407302932068732 0 -0.01261592041162685 -0.37562350234278058 0 -0.010031692843495759 -0.38407302932068732 0 -0.01261592041162685 -0.37562350234278058 0 -0.021855983430249269 -0.38075266630750049 0 -0.0040835555638557286 -0.39851387390366932 0 -0.006097273337609779 -0.40725715184949118 0 0.0046086086085545663 -0.4058911627348869 0 -0.0019023268811386069 -0.38812108031404702 0 -0.0040835555638557286 -0.39851387390366932 0 0.0046112937987620997 -0.39629612094955691 0 -0.0019023268811386069 -0.38812108031404702 0 -0.0040835555638557286 -0.39851387390366932 0 -0.011460378120849459 -0.39265938441852682 0 -0.0040835555638557286 -0.39851387390366932 0 -0.014935916852572799 -0.40452273086999008 0 -0.006097273337609779 -0.40725715184949118 0 -0.0040835555638557286 -0.39851387390366932 0 -0.011460378120849459 -0.39265938441852682 0 -0.014935916852572799 -0.40452273086999008 0 -0.014935916852572799 -0.40452273086999008 0 -0.030715031898996579 -0.40489595904791142 0 -0.02232913139831539 -0.39227086140054951 0 -0.030715031898996579 -0.40489595904791142 0 -0.02232913139831539 -0.39227086140054951 0 -0.031152190023703102 -0.38159984314286211 0 -0.030715031898996579 -0.40489595904791142 0 -0.031152190023703102 -0.38159984314286211 0 -0.011460378120849459 -0.39265938441852682 0 -0.014935916852572799 -0.40452273086999008 0 -0.02232913139831539 -0.39227086140054951 0 -0.011460378120849459 -0.39265938441852682 0 -0.02232913139831539 -0.39227086140054951 0 -0.016896198421982391 -0.38750483071309261 0 -0.021982583817964741 -0.37065516071829641 0 -0.01261592041162685 -0.37562350234278058 0 -0.021855983430249269 -0.38075266630750049 0 -0.02232913139831539 -0.39227086140054951 0 -0.021855983430249269 -0.38075266630750049 0 -0.016896198421982391 -0.38750483071309261 0 -0.010031692843495759 -0.38407302932068732 0 -0.021855983430249269 -0.38075266630750049 0 -0.016896198421982391 -0.38750483071309261 0 -0.02232913139831539 -0.39227086140054951 0 -0.021855983430249269 -0.38075266630750049 0 -0.031152190023703102 -0.38159984314286211 0 -0.021855983430249269 -0.38075266630750049 0 -0.031152190023703102 -0.38159984314286211 0 -0.021982583817964741 -0.37065516071829641 0 -0.021855983430249269 -0.38075266630750049 0 -0.031152190023703102 -0.38159984314286211 0 -0.031152190023703102 -0.38159984314286211 0 -0.045612517276577148 -0.39621281994383428 0 -0.057815094546309002 -0.38402967243376029 0 -0.031152190023703102 -0.38159984314286211 0 -0.057815094546309002 -0.38402967243376029 0 -0.030715031898996579 -0.40489595904791142 0 -0.031152190023703102 -0.38159984314286211 0 -0.045612517276577148 -0.39621281994383428 0 -0.030715031898996579 -0.40489595904791142 0 -0.045612517276577148 -0.39621281994383428 0 -0.044970540071458787 -0.41223903647625282 0 -0.045612517276577148 -0.39621281994383428 0 -0.060072440452772297 -0.406233088969641 0 -0.044970540071458787 -0.41223903647625282 0 -0.045612517276577148 -0.39621281994383428 0 -0.057577700636528777 -0.39511111885993611 0 -0.057815094546309002 -0.38402967243376029 0 -0.045612517276577148 -0.39621281994383428 0 -0.060072440452772297 -0.406233088969641 0 -0.057577700636528777 -0.39511111885993611 0 -0.060072440452772297 -0.406233088969641 0 -0.057577700636528777 -0.39511111885993611 0 -0.066810750270456687 -0.39396889409250868 0 -0.057577700636528777 -0.39511111885993611 0 -0.057815094546309002 -0.38402967243376029 0 -0.066810750270456687 -0.39396889409250868 0 -0.051622219478239452 -0.37231677157947901 0 -0.031152190023703102 -0.38159984314286211 0 -0.057815094546309002 -0.38402967243376029 0 -0.064518030230317755 -0.37429216689033978 0 -0.051622219478239452 -0.37231677157947901 0 -0.057815094546309002 -0.38402967243376029 0 -0.058174836954660553 -0.42566123946691642 0 -0.052611732511095112 -0.44587233617779137 0 -0.076176396309111258 -0.44043700475793429 0 -0.058174836954660553 -0.42566123946691642 0 -0.03027787377429161 -0.4281920749529608 0 -0.052611732511095112 -0.44587233617779137 0 -0.060072440452772297 -0.406233088969641 0 -0.058174836954660553 -0.42566123946691642 0 -0.044970540071458787 -0.41223903647625282 0 -0.030715031898996579 -0.40489595904791142 0 -0.044970540071458787 -0.41223903647625282 0 -0.03027787377429161 -0.4281920749529608 0 -0.03027787377429161 -0.4281920749529608 0 -0.052611732511095112 -0.44587233617779137 0 -0.058174836954660553 -0.42566123946691642 0 -0.044970540071458787 -0.41223903647625282 0 -0.03027787377429161 -0.4281920749529608 0 -0.03027787377429161 -0.4281920749529608 0 -0.020254089366659209 -0.42025689774614111 0 -0.01935614224925079 -0.4352771610053851 0 -0.020254089366659209 -0.42025689774614111 0 -0.0082599908264913632 -0.42809619331814092 0 -0.03027787377429161 -0.4281920749529608 0 -0.01935614224925079 -0.4352771610053851 0 -0.020254089366659209 -0.42025689774614111 0 -0.030715031898996579 -0.40489595904791142 0 -0.03027787377429161 -0.4281920749529608 0 -0.014935916852572799 -0.40452273086999008 0 -0.030715031898996579 -0.40489595904791142 0 -0.020254089366659209 -0.42025689774614111 0 -0.030715031898996579 -0.40489595904791142 0 -0.03027787377429161 -0.4281920749529608 0 -0.020254089366659209 -0.42025689774614111 0 -0.014935916852572799 -0.40452273086999008 0 -0.020254089366659209 -0.42025689774614111 0 -0.0096947947739557533 -0.41681707354167308 0 -0.014935916852572799 -0.40452273086999008 0 -0.0096947947739557533 -0.41681707354167308 0 -0.006097273337609779 -0.40725715184949118 0 -0.020254089366659209 -0.42025689774614111 0 -0.0096947947739557533 -0.41681707354167308 0 -0.0082599908264913632 -0.42809619331814092 0 -0.0096947947739557533 -0.41681707354167308 0 -0.0082599908264913632 -0.42809619331814092 0 0.0028022247942034251 -0.41946384022854472 0 -0.0096947947739557533 -0.41681707354167308 0 -0.006097273337609779 -0.40725715184949118 0 0.0028022247942034251 -0.41946384022854472 0 -0.0082599908264913632 -0.42809619331814092 0 -0.0082063676535428925 -0.44524425972810189 0 0.0075572732535143317 -0.43656391431578739 0 -0.01935614224925079 -0.4352771610053851 0 -0.0082599908264913632 -0.42809619331814092 0 -0.0082063676535428925 -0.44524425972810189 0 -0.0082063676535428925 -0.44524425972810189 0 -0.0097957142331583924 -0.46367350718703881 0 0.013671953577505081 -0.46006232744794029 0 -0.0097957142331583924 -0.46367350718703881 0 -0.0297823896252731 -0.45459637928158059 0 -0.024717880258620709 -0.47843340575360083 0 -0.0082063676535428925 -0.44524425972810189 0 -0.0097957142331583924 -0.46367350718703881 0 -0.0297823896252731 -0.45459637928158059 0 -0.03027787377429161 -0.4281920749529608 0 -0.0297823896252731 -0.45459637928158059 0 -0.03027787377429161 -0.4281920749529608 0 -0.01935614224925079 -0.4352771610053851 0 -0.0297823896252731 -0.45459637928158059 0 -0.01935614224925079 -0.4352771610053851 0 -0.0082063676535428925 -0.44524425972810189 0 -0.0297823896252731 -0.45459637928158059 0 -0.01355972798922583 -0.50000000000000011 0 5.6112794139664267e-05 -0.48003116372397031 0 -0.01355972798922583 -0.50000000000000011 0 -0.024717880258620709 -0.47843340575360083 0 5.6112794139664267e-05 -0.48003116372397031 0 -0.01355972798922583 -0.50000000000000011 0 5.6112794139664267e-05 -0.48003116372397031 0 0.0029207159399868838 -0.5 0 -0.0097957142331583924 -0.46367350718703881 0 -0.024717880258620709 -0.47843340575360083 0 5.6112794139664267e-05 -0.48003116372397031 0 -0.01355972798922583 -0.50000000000000011 0 -0.024717880258620709 -0.47843340575360083 0 -0.043282326556483341 -0.5 0 -0.024717880258620709 -0.47843340575360083 0 -0.043282326556483341 -0.5 0 -0.050980105637671601 -0.47343453653750278 0 -0.0297823896252731 -0.45459637928158059 0 -0.024717880258620709 -0.47843340575360083 0 -0.050980105637671601 -0.47343453653750278 0 -0.050980105637671601 -0.47343453653750278 0 -0.058143625840113067 -0.49007101660018798 0 -0.073975258185815768 -0.48177629870131627 0 -0.043282326556483341 -0.5 0 -0.050980105637671601 -0.47343453653750278 0 -0.058143625840113067 -0.49007101660018798 0 -0.043282326556483341 -0.5 0 -0.058143625840113067 -0.49007101660018798 0 -0.073004925123740905 -0.50000000000000266 0 -0.03027787377429161 -0.4281920749529608 0 -0.0297823896252731 -0.45459637928158059 0 -0.052611732511095112 -0.44587233617779137 0 -0.0297823896252731 -0.45459637928158059 0 -0.050980105637671601 -0.47343453653750278 0 -0.052611732511095112 -0.44587233617779137 0 -0.050980105637671601 -0.47343453653750278 0 -0.052611732511095112 -0.44587233617779137 0 -0.074945591247892296 -0.46355259740263011 0 -0.052611732511095112 -0.44587233617779137 0 -0.076176396309111258 -0.44043700475793429 0 -0.074945591247892296 -0.46355259740263011 0 -0.076176396309111258 -0.44043700475793429 0 -0.074945591247892296 -0.46355259740263011 0 -0.052611732511095112 -0.44587233617779137 0 -0.074945591247892296 -0.46355259740263011 0 -0.076176396309111258 -0.44043700475793429 0 -0.074945591247892296 -0.46355259740263011 0 -0.090402339616340477 -0.45720097020156669 0 -0.074945591247892296 -0.46355259740263011 0 -0.090402339616340477 -0.45720097020156669 0 -0.1010499717879187 -0.46737552442943681 0 -0.076176396309111258 -0.44043700475793429 0 -0.090402339616340477 -0.45720097020156669 0 -0.096819875954107348 -0.44093415033708072 0 -0.058143625840113067 -0.49007101660018798 0 -0.073004925123740905 -0.50000000000000266 0 -0.073975258185815768 -0.48177629870131627 0 -0.073004925123740905 -0.50000000000000266 0 -0.073975258185815768 -0.48177629870131627 0 -0.085485426652525134 -0.49088814935065878 0 -0.073004925123740905 -0.50000000000000266 0 -0.073975258185815768 -0.48177629870131627 0 -0.050980105637671601 -0.47343453653750278 0 -0.074945591247892296 -0.46355259740263011 0 -0.073975258185815768 -0.48177629870131627 0 -0.074945591247892296 -0.46355259740263011 0 -0.073975258185815768 -0.48177629870131627 0 -0.074945591247892296 -0.46355259740263011 0 -0.097965928181309878 -0.48177629870131611 0 -0.074945591247892296 -0.46355259740263011 0 -0.097965928181309878 -0.48177629870131611 0 -0.1010499717879187 -0.46737552442943681 0 -0.074945591247892296 -0.46355259740263011 0 -0.073975258185815768 -0.48177629870131627 0 -0.097965928181309878 -0.48177629870131611 0 -0.085485426652525134 -0.49088814935065878 0 -0.096995595119233835 -0.5 0 -0.097965928181309878 -0.48177629870131611 0 -0.073975258185815768 -0.48177629870131627 0 -0.085485426652525134 -0.49088814935065878 0 -0.097965928181309878 -0.48177629870131611 0 -0.073004925123740905 -0.50000000000000266 0 -0.085485426652525134 -0.49088814935065878 0 -0.096995595119233835 -0.5 0 -0.096995595119233835 -0.5 0 -0.097965928181309878 -0.48177629870131611 0 -0.1209862651147269 -0.50000000000000289 0 -0.097965928181309878 -0.48177629870131611 0 -0.119492304694676 -0.47511782682322767 0 -0.1010499717879187 -0.46737552442943681 0 -0.097965928181309878 -0.48177629870131611 0 -0.119492304694676 -0.47511782682322767 0 -0.1209862651147269 -0.50000000000000289 0 -0.097965928181309878 -0.48177629870131611 0 -0.1209862651147269 -0.50000000000000289 0 -0.090402339616340477 -0.45720097020156669 0 -0.096819875954107348 -0.44093415033708072 0 -0.1037609612720625 -0.45049485165087189 0 -0.096819875954107348 -0.44093415033708072 0 -0.1037609612720625 -0.45049485165087189 0 -0.1142402623095774 -0.44420554090180692 0 -0.090402339616340477 -0.45720097020156669 0 -0.1037609612720625 -0.45049485165087189 0 -0.1135813672082245 -0.45963874516303299 0 -0.090402339616340477 -0.45720097020156669 0 -0.1135813672082245 -0.45963874516303299 0 -0.090402339616340477 -0.45720097020156669 0 -0.1010499717879187 -0.46737552442943681 0 -0.1135813672082245 -0.45963874516303299 0 -0.119492304694676 -0.47511782682322767 0 -0.1010499717879187 -0.46737552442943681 0 -0.1135813672082245 -0.45963874516303299 0 -0.13676039480010871 -0.4620765201244994 0 -0.119492304694676 -0.47511782682322767 0 -0.1135813672082245 -0.45963874516303299 0 -0.13070341277012409 -0.44586269453286981 0 -0.1135813672082245 -0.45963874516303299 0 -0.1142402623095774 -0.44420554090180692 0 -0.13070341277012409 -0.44586269453286981 0 -0.1142402623095774 -0.44420554090180692 0 -0.1229075344292966 -0.42992744480411849 0 -0.1037609612720625 -0.45049485165087189 0 -0.1135813672082245 -0.45963874516303299 0 -0.1142402623095774 -0.44420554090180692 0 -0.1142402623095774 -0.44420554090180692 0 -0.1229075344292966 -0.42992744480411849 0 -0.1043195078960229 -0.42495686117609149 0 -0.1229075344292966 -0.42992744480411849 0 -0.1043195078960229 -0.42495686117609149 0 -0.1249760016650604 -0.41140088444285461 0 -0.096819875954107348 -0.44093415033708072 0 -0.1043195078960229 -0.42495686117609149 0 -0.08903106963660111 -0.42759730499394771 0 -0.1142402623095774 -0.44420554090180692 0 -0.1043195078960229 -0.42495686117609149 0 -0.096819875954107348 -0.44093415033708072 0 -0.1142402623095774 -0.44420554090180692 0 -0.1043195078960229 -0.42495686117609149 0 -0.1043195078960229 -0.42495686117609149 0 -0.094398753482468359 -0.40570818145037613 0 -0.1043195078960229 -0.42495686117609149 0 -0.094398753482468359 -0.40570818145037613 0 -0.08903106963660111 -0.42759730499394771 0 -0.1043195078960229 -0.42495686117609149 0 -0.1097150107003516 -0.40415120268397431 0 -0.094398753482468359 -0.40570818145037613 0 -0.1043195078960229 -0.42495686117609149 0 -0.1249760016650604 -0.41140088444285461 0 -0.1097150107003516 -0.40415120268397431 0 -0.127807152278333 -0.39453815029550032 0 -0.1097150107003516 -0.40415120268397431 0 -0.1096784415666318 -0.38875605472294961 0 -0.127807152278333 -0.39453815029550032 0 -0.1249760016650604 -0.41140088444285461 0 -0.1097150107003516 -0.40415120268397431 0 -0.1327962299645537 -0.37329777386170088 0 -0.11233298765165051 -0.36805868823744797 0 -0.1096784415666318 -0.38875605472294961 0 -0.127807152278333 -0.39453815029550032 0 -0.1327962299645537 -0.37329777386170088 0 -0.1096784415666318 -0.38875605472294961 0 -0.11233298765165051 -0.36805868823744797 0 -0.1096784415666318 -0.38875605472294961 0 -0.097775674146993077 -0.37739671169266148 0 -0.1096784415666318 -0.38875605472294961 0 -0.084477999068914705 -0.38645950172466009 0 -0.1096784415666318 -0.38875605472294961 0 -0.097775674146993077 -0.37739671169266148 0 -0.084477999068914705 -0.38645950172466009 0 -0.1096784415666318 -0.38875605472294961 0 -0.094398753482468359 -0.40570818145037613 0 -0.084477999068914705 -0.38645950172466009 0 -0.1097150107003516 -0.40415120268397431 0 -0.1096784415666318 -0.38875605472294961 0 -0.094398753482468359 -0.40570818145037613 0 -0.094398753482468359 -0.40570818145037613 0 -0.084477999068914705 -0.38645950172466009 0 -0.094398753482468359 -0.40570818145037613 0 -0.078638006431552818 -0.39420581946854311 0 -0.077407201370332024 -0.4173214121132387 0 -0.094398753482468359 -0.40570818145037613 0 -0.078638006431552818 -0.39420581946854311 0 -0.084477999068914705 -0.38645950172466009 0 -0.097775674146993077 -0.37739671169266148 0 -0.087607745564597259 -0.37649639105237848 0 -0.084477999068914705 -0.38645950172466009 0 -0.07767730157411025 -0.37326449229976272 0 -0.084477999068914705 -0.38645950172466009 0 -0.07767730157411025 -0.37326449229976272 0 -0.087607745564597259 -0.37649639105237848 0 -0.084477999068914705 -0.38645950172466009 0 -0.057815094546309002 -0.38402967243376029 0 -0.084477999068914705 -0.38645950172466009 0 -0.066810750270456687 -0.39396889409250868 0 -0.057815094546309002 -0.38402967243376029 0 -0.084477999068914705 -0.38645950172466009 0 -0.064518030230317755 -0.37429216689033978 0 -0.057815094546309002 -0.38402967243376029 0 -0.084477999068914705 -0.38645950172466009 0 -0.064518030230317755 -0.37429216689033978 0 -0.07767730157411025 -0.37326449229976272 0 -0.084477999068914705 -0.38645950172466009 0 -0.078638006431552818 -0.39420581946854311 0 -0.084477999068914705 -0.38645950172466009 0 -0.066810750270456687 -0.39396889409250868 0 -0.078638006431552818 -0.39420581946854311 0 -0.070732099631278453 -0.40293230366098293 0 -0.077407201370332024 -0.4173214121132387 0 -0.078638006431552818 -0.39420581946854311 0 -0.077407201370332024 -0.4173214121132387 0 -0.078638006431552818 -0.39420581946854311 0 -0.070732099631278453 -0.40293230366098293 0 -0.066810750270456687 -0.39396889409250868 0 -0.060072440452772297 -0.406233088969641 0 -0.070732099631278453 -0.40293230366098293 0 -0.066810750270456687 -0.39396889409250868 0 -0.060072440452772297 -0.406233088969641 0 -0.070732099631278453 -0.40293230366098293 0 -0.077407201370332024 -0.4173214121132387 0 -0.060072440452772297 -0.406233088969641 0 -0.058174836954660553 -0.42566123946691642 0 -0.077407201370332024 -0.4173214121132387 0 -0.058174836954660553 -0.42566123946691642 0 -0.076176396309111258 -0.44043700475793429 0 -0.077407201370332024 -0.4173214121132387 0 -0.076176396309111258 -0.44043700475793429 0 -0.077407201370332024 -0.4173214121132387 0 -0.076176396309111258 -0.44043700475793429 0 -0.077407201370332024 -0.4173214121132387 0 -0.08903106963660111 -0.42759730499394771 0 -0.076176396309111258 -0.44043700475793429 0 -0.096819875954107348 -0.44093415033708072 0 -0.08903106963660111 -0.42759730499394771 0 -0.094398753482468359 -0.40570818145037613 0 -0.077407201370332024 -0.4173214121132387 0 -0.08903106963660111 -0.42759730499394771 0 -0.07653504331631733 -0.085578219536940614 0 -0.09644711738255822 -0.077548340156376808 0 -0.0886414084658734 -0.090532514252049931 0 -0.07653504331631733 -0.085578219536940614 0 -0.09644711738255822 -0.077548340156376808 0 -0.081745695855381981 -0.093496140569666014 0 -0.0886414084658734 -0.090532514252049931 0 -0.07653504331631733 -0.085578219536940614 0 -0.081228641460904139 -0.070541741075636821 0 -0.07653504331631733 -0.085578219536940614 0 -0.09644711738255822 -0.077548340156376808 0 -0.081228641460904139 -0.070541741075636821 0 -0.1025665981138344 -0.064019709211088516 0 -0.085284461728681205 -0.054438345278225893 0 -0.081228641460904139 -0.070541741075636821 0 -0.09644711738255822 -0.077548340156376808 0 -0.1025665981138344 -0.064019709211088516 0 -0.081228641460904139 -0.070541741075636821 0 -0.065840234237801123 -0.070426946955235978 0 -0.069068511188442427 -0.0794054252226645 0 -0.081228641460904139 -0.070541741075636821 0 -0.065840234237801123 -0.070426946955235978 0 -0.072742915364380906 -0.061651547774139788 0 -0.065840234237801123 -0.070426946955235978 0 -0.072742915364380906 -0.061651547774139788 0 -0.061384853019164652 -0.061137459306390321 0 -0.065840234237801123 -0.070426946955235978 0 -0.069068511188442427 -0.0794054252226645 0 -0.058132652399341539 -0.078446803886493555 0 -0.069068511188442427 -0.0794054252226645 0 -0.066400936617283648 -0.089537352379941787 0 -0.058132652399341539 -0.078446803886493555 0 -0.081228641460904139 -0.070541741075636821 0 -0.069068511188442427 -0.0794054252226645 0 -0.07653504331631733 -0.085578219536940614 0 -0.069068511188442427 -0.0794054252226645 0 -0.07653504331631733 -0.085578219536940614 0 -0.066400936617283648 -0.089537352379941787 0 -0.081745695855381981 -0.093496140569666014 0 -0.066400936617283648 -0.089537352379941787 0 -0.081745695855381981 -0.093496140569666014 0 -0.07653504331631733 -0.085578219536940614 0 -0.066400936617283648 -0.089537352379941787 0 -0.081745695855381981 -0.093496140569666014 0 -0.066400936617283648 -0.089537352379941787 0 -0.072055692477342254 -0.098262799938959186 0 -0.066400936617283648 -0.089537352379941787 0 -0.063966464614082827 -0.096786751794741693 0 -0.072055692477342254 -0.098262799938959186 0 -0.063966464614082827 -0.096786751794741693 0 -0.070142793887981503 -0.10553876120799981 0 -0.072055692477342254 -0.098262799938959186 0 -0.063966464614082827 -0.096786751794741693 0 -0.070142793887981503 -0.10553876120799981 0 -0.060176722708621087 -0.1050162812565914 0 -0.070142793887981503 -0.10553876120799981 0 -0.06971620021084976 -0.1152394530907878 0 -0.060176722708621087 -0.1050162812565914 0 -0.070142793887981503 -0.10553876120799981 0 -0.077477782632976361 -0.1106119230091379 0 -0.078477564096818483 -0.10443296631338141 0 -0.070142793887981503 -0.10553876120799981 0 -0.072055692477342254 -0.098262799938959186 0 -0.078477564096818483 -0.10443296631338141 0 -0.081745695855381981 -0.093496140569666014 0 -0.072055692477342254 -0.098262799938959186 0 -0.078477564096818483 -0.10443296631338141 0 -0.069297268038055776 -0.1244539983229668 0 -0.060176722708621087 -0.1050162812565914 0 -0.069297268038055776 -0.1244539983229668 0 -0.059623887476762109 -0.1209109438392692 0 -0.060176722708621087 -0.1050162812565914 0 -0.069297268038055776 -0.1244539983229668 0 -0.06971620021084976 -0.1152394530907878 0 -0.060176722708621087 -0.1050162812565914 0 -0.06971620021084976 -0.1152394530907878 0 -0.077477782632976361 -0.1106119230091379 0 -0.085153285822730712 -0.1182407707218109 0 -0.070142793887981503 -0.10553876120799981 0 -0.06971620021084976 -0.1152394530907878 0 -0.077477782632976361 -0.1106119230091379 0 -0.06971620021084976 -0.1152394530907878 0 -0.085153285822730712 -0.1182407707218109 0 -0.069297268038055776 -0.1244539983229668 0 -0.06971620021084976 -0.1152394530907878 0 -0.076375423297769807 -0.1218339098422855 0 -0.06971620021084976 -0.1152394530907878 0 -0.076375423297769807 -0.1218339098422855 0 -0.085153285822730712 -0.1182407707218109 0 -0.076375423297769807 -0.1218339098422855 0 -0.085153285822730712 -0.1182407707218109 0 -0.081334939119443048 -0.1294014172335764 0 -0.077477782632976361 -0.1106119230091379 0 -0.085153285822730712 -0.1182407707218109 0 -0.083899069146501359 -0.1096076637117098 0 -0.085153285822730712 -0.1182407707218109 0 -0.083899069146501359 -0.1096076637117098 0 -0.090471290666007453 -0.11070274300169559 0 -0.085153285822730712 -0.1182407707218109 0 -0.090471290666007453 -0.11070274300169559 0 -0.10059037143461121 -0.12124208835283649 0 -0.085153285822730712 -0.1182407707218109 0 -0.10059037143461121 -0.12124208835283649 0 -0.085153285822730712 -0.1182407707218109 0 -0.091834790721980877 -0.12507536779925801 0 -0.081334939119443048 -0.1294014172335764 0 -0.085153285822730712 -0.1182407707218109 0 -0.10059037143461121 -0.12124208835283649 0 -0.091834790721980877 -0.12507536779925801 0 -0.081745695855381981 -0.093496140569666014 0 -0.078477564096818483 -0.10443296631338141 0 -0.089045749964930684 -0.10197698332522701 0 -0.083899069146501359 -0.1096076637117098 0 -0.078477564096818483 -0.10443296631338141 0 -0.089045749964930684 -0.10197698332522701 0 -0.077477782632976361 -0.1106119230091379 0 -0.083899069146501359 -0.1096076637117098 0 -0.078477564096818483 -0.10443296631338141 0 -0.090471290666007453 -0.11070274300169559 0 -0.089045749964930684 -0.10197698332522701 0 -0.099527232704977264 -0.1039823783425067 0 -0.083899069146501359 -0.1096076637117098 0 -0.090471290666007453 -0.11070274300169559 0 -0.089045749964930684 -0.10197698332522701 0 -0.081745695855381981 -0.093496140569666014 0 -0.0886414084658734 -0.090532514252049931 0 -0.089045749964930684 -0.10197698332522701 0 -0.0886414084658734 -0.090532514252049931 0 -0.089045749964930684 -0.10197698332522701 0 -0.099433435810178855 -0.094062887672039158 0 -0.099527232704977264 -0.1039823783425067 0 -0.1039571591472538 -0.1156038503490926 0 -0.11472852793651581 -0.097565427364478777 0 -0.089045749964930684 -0.10197698332522701 0 -0.099433435810178855 -0.094062887672039158 0 -0.099527232704977264 -0.1039823783425067 0 -0.1039571591472538 -0.1156038503490926 0 -0.11472852793651581 -0.097565427364478777 0 -0.099433435810178855 -0.094062887672039158 0 -0.099527232704977264 -0.1039823783425067 0 -0.11472852793651581 -0.097565427364478777 0 -0.10059037143461121 -0.12124208835283649 0 -0.1039571591472538 -0.1156038503490926 0 -0.12089125345270731 -0.12518903770960499 0 -0.090471290666007453 -0.11070274300169559 0 -0.1039571591472538 -0.1156038503490926 0 -0.090471290666007453 -0.11070274300169559 0 -0.099527232704977264 -0.1039823783425067 0 -0.1039571591472538 -0.1156038503490926 0 -0.090471290666007453 -0.11070274300169559 0 -0.10059037143461121 -0.12124208835283649 0 -0.1039571591472538 -0.1156038503490926 0 -0.10059037143461121 -0.12124208835283649 0 -0.1039571591472538 -0.1156038503490926 0 -0.1225746473090282 -0.12236991870773441 0 -0.11626992195512589 -0.11072103793584059 0 -0.1279141590416612 -0.10667456835646449 0 -0.1039571591472538 -0.1156038503490926 0 -0.1225746473090282 -0.12236991870773441 0 -0.10059037143461121 -0.12124208835283649 0 -0.12089125345270731 -0.12518903770960499 0 -0.1039571591472538 -0.1156038503490926 0 -0.1225746473090282 -0.12236991870773441 0 -0.11626992195512589 -0.11072103793584059 0 -0.1039571591472538 -0.1156038503490926 0 -0.1225746473090282 -0.12236991870773441 0 -0.12089125345270731 -0.12518903770960499 0 -0.11472852793651581 -0.097565427364478777 0 -0.1316888914507503 -0.09232194246104844 0 -0.1279141590416612 -0.10667456835646449 0 -0.1039571591472538 -0.1156038503490926 0 -0.11626992195512589 -0.11072103793584059 0 -0.11472852793651581 -0.097565427364478777 0 -0.11626992195512589 -0.11072103793584059 0 -0.11472852793651581 -0.097565427364478777 0 -0.1279141590416612 -0.10667456835646449 0 -0.11472852793651581 -0.097565427364478777 0 -0.12549989672577999 -0.079527004379866317 0 -0.11472852793651581 -0.097565427364478777 0 -0.12549989672577999 -0.079527004379866317 0 -0.1316888914507503 -0.09232194246104844 0 -0.11472852793651581 -0.097565427364478777 0 -0.110899730111442 -0.083474025329999063 0 -0.12549989672577999 -0.079527004379866317 0 -0.0886414084658734 -0.090532514252049931 0 -0.099433435810178855 -0.094062887672039158 0 -0.09644711738255822 -0.077548340156376808 0 -0.099433435810178855 -0.094062887672039158 0 -0.11472852793651581 -0.097565427364478777 0 -0.110899730111442 -0.083474025329999063 0 -0.099433435810178855 -0.094062887672039158 0 -0.110899730111442 -0.083474025329999063 0 -0.09644711738255822 -0.077548340156376808 0 -0.09644711738255822 -0.077548340156376808 0 -0.1025665981138344 -0.064019709211088516 0 -0.1163591914487991 -0.069518460775813015 0 -0.110899730111442 -0.083474025329999063 0 -0.09644711738255822 -0.077548340156376808 0 -0.1163591914487991 -0.069518460775813015 0 -0.09644711738255822 -0.077548340156376808 0 -0.1163591914487991 -0.069518460775813015 0 -0.1025665981138344 -0.064019709211088516 0 -0.1163591914487991 -0.069518460775813015 0 -0.11857618052259131 -0.060561139696039983 0 -0.110899730111442 -0.083474025329999063 0 -0.1163591914487991 -0.069518460775813015 0 -0.12549989672577999 -0.079527004379866317 0 -0.1163591914487991 -0.069518460775813015 0 -0.11857618052259131 -0.060561139696039983 0 -0.12755736622911809 -0.0612864245434133 0 -0.11857618052259131 -0.060561139696039983 0 -0.11270842506085491 -0.053553394954762593 0 -0.1241597025088316 -0.052896041674259459 0 -0.1025665981138344 -0.064019709211088516 0 -0.11857618052259131 -0.060561139696039983 0 -0.11270842506085491 -0.053553394954762593 0 -0.11857618052259131 -0.060561139696039983 0 -0.1241597025088316 -0.052896041674259459 0 -0.12755736622911809 -0.0612864245434133 0 -0.11270842506085491 -0.053553394954762593 0 -0.117165295199898 -0.04387806241611332 0 -0.10147086937802439 -0.045750758284930727 0 -0.11270842506085491 -0.053553394954762593 0 -0.1241597025088316 -0.052896041674259459 0 -0.117165295199898 -0.04387806241611332 0 -0.1122254319001845 -0.033698486233809437 0 -0.117165295199898 -0.04387806241611332 0 -0.10147086937802439 -0.045750758284930727 0 -0.1241597025088316 -0.052896041674259459 0 -0.117165295199898 -0.04387806241611332 0 -0.12837680609682481 -0.041963049052672043 0 -0.1235419344184987 -0.034850153341615647 0 -0.117165295199898 -0.04387806241611332 0 -0.12837680609682481 -0.041963049052672043 0 -0.1235419344184987 -0.034850153341615647 0 -0.1122254319001845 -0.033698486233809437 0 -0.117165295199898 -0.04387806241611332 0 -0.099000362187643187 -0.03258904046497018 0 -0.10147086937802439 -0.045750758284930727 0 -0.083730059591562322 -0.033916983385304973 0 -0.1122254319001845 -0.033698486233809437 0 -0.099000362187643187 -0.03258904046497018 0 -0.10147086937802439 -0.045750758284930727 0 -0.1025665981138344 -0.064019709211088516 0 -0.10147086937802439 -0.045750758284930727 0 -0.085284461728681205 -0.054438345278225893 0 -0.1025665981138344 -0.064019709211088516 0 -0.11270842506085491 -0.053553394954762593 0 -0.10147086937802439 -0.045750758284930727 0 -0.1201415431010609 -0.01606667565510073 0 -0.11080627435813829 0.00234838994996916 0 -0.1201415431010609 -0.01606667565510073 0 -0.1263847071420727 -0.00049017928581041167 0 -0.11080627435813829 0.00234838994996916 0 -0.1201415431010609 -0.01606667565510073 0 -0.1079132501032553 -0.0095502169956382596 0 -0.11080627435813829 0.00234838994996916 0 -0.097925632898937631 -0.01842713650890726 0 -0.12650633931083369 -0.023455557937210041 0 -0.1201415431010609 -0.01606667565510073 0 -0.097925632898937631 -0.01842713650890726 0 -0.12650633931083369 -0.023455557937210041 0 -0.1122254319001845 -0.033698486233809437 0 -0.097925632898937631 -0.01842713650890726 0 -0.12650633931083369 -0.023455557937210041 0 -0.1235419344184987 -0.034850153341615647 0 -0.1122254319001845 -0.033698486233809437 0 -0.12650633931083369 -0.023455557937210041 0 -0.1122254319001845 -0.033698486233809437 0 -0.099000362187643187 -0.03258904046497018 0 -0.097925632898937631 -0.01842713650890726 0 -0.097925632898937631 -0.01842713650890726 0 -0.1003169503325788 -0.0030229177658489211 0 -0.08584508395003515 0.0017893316119406929 0 -0.1201415431010609 -0.01606667565510073 0 -0.097925632898937631 -0.01842713650890726 0 -0.1079132501032553 -0.0095502169956382596 0 -0.097925632898937631 -0.01842713650890726 0 -0.1079132501032553 -0.0095502169956382596 0 -0.1003169503325788 -0.0030229177658489211 0 -0.1079132501032553 -0.0095502169956382596 0 -0.1003169503325788 -0.0030229177658489211 0 -0.11080627435813829 0.00234838994996916 0 -0.097925632898937631 -0.01842713650890726 0 -0.069344926487041575 -0.01339871508060447 0 -0.08584508395003515 0.0017893316119406929 0 -0.097925632898937631 -0.01842713650890726 0 -0.069344926487041575 -0.01339871508060447 0 -0.097925632898937631 -0.01842713650890726 0 -0.069344926487041575 -0.01339871508060447 0 -0.083730059591562322 -0.033916983385304973 0 -0.099000362187643187 -0.03258904046497018 0 -0.097925632898937631 -0.01842713650890726 0 -0.083730059591562322 -0.033916983385304973 0 -0.069344926487041575 -0.01339871508060447 0 -0.066521290273321529 -0.032304190792859601 0 -0.054534999500817687 -0.02528921427805823 0 -0.069344926487041575 -0.01339871508060447 0 -0.083730059591562322 -0.033916983385304973 0 -0.066521290273321529 -0.032304190792859601 0 -0.069344926487041575 -0.01339871508060447 0 -0.08584508395003515 0.0017893316119406929 0 -0.060541425960350281 0.0027902607275900118 0 -0.081228641460904139 -0.070541741075636821 0 -0.085284461728681205 -0.054438345278225893 0 -0.072742915364380906 -0.061651547774139788 0 -0.085284461728681205 -0.054438345278225893 0 -0.083730059591562322 -0.033916983385304973 0 -0.069958986551408781 -0.049785417621299143 0 -0.10147086937802439 -0.045750758284930727 0 -0.085284461728681205 -0.054438345278225893 0 -0.083730059591562322 -0.033916983385304973 0 -0.083730059591562322 -0.033916983385304973 0 -0.066521290273321529 -0.032304190792859601 0 -0.069958986551408781 -0.049785417621299143 0 -0.066521290273321529 -0.032304190792859601 0 -0.069958986551408781 -0.049785417621299143 0 -0.055037479235777252 -0.039130623599031161 0 -0.085284461728681205 -0.054438345278225893 0 -0.069958986551408781 -0.049785417621299143 0 -0.072742915364380906 -0.061651547774139788 0 -0.069958986551408781 -0.049785417621299143 0 -0.072742915364380906 -0.061651547774139788 0 -0.061384853019164652 -0.061137459306390321 0 -0.061384853019164652 -0.061137459306390321 0 -0.050639851822833662 -0.061477229590209938 0 -0.055990917754684788 -0.051741501913319887 0 -0.050639851822833662 -0.061477229590209938 0 -0.055990917754684788 -0.051741501913319887 0 -0.043756721477700662 -0.050649273402337443 0 -0.055990917754684788 -0.051741501913319887 0 -0.055037479235777252 -0.039130623599031161 0 -0.043756721477700662 -0.050649273402337443 0 -0.069958986551408781 -0.049785417621299143 0 -0.061384853019164652 -0.061137459306390321 0 -0.055990917754684788 -0.051741501913319887 0 -0.069958986551408781 -0.049785417621299143 0 -0.055990917754684788 -0.051741501913319887 0 -0.055037479235777252 -0.039130623599031161 0 -0.055037479235777252 -0.039130623599031161 0 -0.054534999500817687 -0.02528921427805823 0 -0.038048179185209668 -0.030086211501438101 0 -0.066521290273321529 -0.032304190792859601 0 -0.055037479235777252 -0.039130623599031161 0 -0.054534999500817687 -0.02528921427805823 0 -0.055037479235777252 -0.039130623599031161 0 -0.043756721477700662 -0.050649273402337443 0 -0.038048179185209668 -0.030086211501438101 0 -0.043756721477700662 -0.050649273402337443 0 -0.038048179185209668 -0.030086211501438101 0 -0.0280014113649222 -0.050908728532664892 0 -0.043756721477700662 -0.050649273402337443 0 -0.0280014113649222 -0.050908728532664892 0 -0.038079618984174543 -0.068515563983061509 0 -0.050639851822833662 -0.061477229590209938 0 -0.043756721477700662 -0.050649273402337443 0 -0.038079618984174543 -0.068515563983061509 0 -0.069344926487041575 -0.01339871508060447 0 -0.040764220075145519 -0.0083702936523016892 0 -0.060541425960350281 0.0027902607275900118 0 -0.069344926487041575 -0.01339871508060447 0 -0.040764220075145519 -0.0083702936523016892 0 -0.069344926487041575 -0.01339871508060447 0 -0.054534999500817687 -0.02528921427805823 0 -0.040764220075145519 -0.0083702936523016892 0 -0.054534999500817687 -0.02528921427805823 0 -0.038048179185209668 -0.030086211501438101 0 -0.040764220075145519 -0.0083702936523016892 0 -0.038048179185209668 -0.030086211501438101 0 -0.040764220075145519 -0.0083702936523016892 0 -0.024661971629593989 -0.025282258286790451 0 -0.040764220075145519 -0.0083702936523016892 0 -0.020443904501618999 -0.001123202528514524 0 -0.027098612542354999 0.0088100697805568503 0 -0.040764220075145519 -0.0083702936523016892 0 -0.020443904501618999 -0.001123202528514524 0 -0.01659975244833755 -0.01356606687985591 0 -0.040764220075145519 -0.0083702936523016892 0 -0.01659975244833755 -0.01356606687985591 0 -0.024661971629593989 -0.025282258286790451 0 -0.01659975244833755 -0.01356606687985591 0 -0.024661971629593989 -0.025282258286790451 0 -0.01022069436267959 -0.028224222438621591 0 -0.024661971629593989 -0.025282258286790451 0 -0.01022069436267959 -0.028224222438621591 0 -0.01789629169821956 -0.038621983104400313 0 -0.01022069436267959 -0.028224222438621591 0 -0.0042138432274254111 -0.01568410281411094 0 0.0067198478298647838 -0.03104786934797488 0 -0.01659975244833755 -0.01356606687985591 0 -0.01022069436267959 -0.028224222438621591 0 -0.0042138432274254111 -0.01568410281411094 0 -0.01659975244833755 -0.01356606687985591 0 -0.0042138432274254111 -0.01568410281411094 0 -0.0071981610143054264 -0.0025996853953654721 0 -0.0042138432274254111 -0.01568410281411094 0 -0.0071981610143054264 -0.0025996853953654721 0 0.0064962241320766084 -0.0047630321238083806 0 -0.020443904501618999 -0.001123202528514524 0 -0.01659975244833755 -0.01356606687985591 0 -0.0071981610143054264 -0.0025996853953654721 0 -0.01789629169821956 -0.038621983104400313 0 -0.01371803322723979 -0.056744873740630211 0 -0.0280014113649222 -0.050908728532664892 0 -0.01371803322723979 -0.056744873740630211 0 -0.02337214807971923 -0.066747664323743655 0 -0.0280014113649222 -0.050908728532664892 0 -0.02337214807971923 -0.066747664323743655 0 -0.038079618984174543 -0.068515563983061509 0 -0.0280014113649222 -0.050908728532664892 0 -0.01789629169821956 -0.038621983104400313 0 -0.01371803322723979 -0.056744873740630211 0 -0.038048179185209668 -0.030086211501438101 0 -0.0280014113649222 -0.050908728532664892 0 -0.01789629169821956 -0.038621983104400313 0 -0.038048179185209668 -0.030086211501438101 0 -0.024661971629593989 -0.025282258286790451 0 -0.01789629169821956 -0.038621983104400313 0 -0.01022069436267959 -0.028224222438621591 0 -0.0046721550023658262 -0.04514305419859705 0 0.0067198478298647838 -0.03104786934797488 0 -0.01022069436267959 -0.028224222438621591 0 -0.01789629169821956 -0.038621983104400313 0 -0.0046721550023658262 -0.04514305419859705 0 -0.01789629169821956 -0.038621983104400313 0 -0.0046721550023658262 -0.04514305419859705 0 -0.01371803322723979 -0.056744873740630211 0 -0.0046721550023658262 -0.04514305419859705 0 -0.0035180734766415999 -0.061635968702166158 0 0.0069434715276529601 -0.057332706572141401 0 -0.0046721550023658262 -0.04514305419859705 0 -0.01371803322723979 -0.056744873740630211 0 -0.0035180734766415999 -0.061635968702166158 0 -0.01371803322723979 -0.056744873740630211 0 -0.0095397747562600572 -0.074867764376860185 0 -0.01371803322723979 -0.056744873740630211 0 -0.0095397747562600572 -0.074867764376860185 0 -0.02337214807971923 -0.066747664323743655 0 -0.0035180734766415999 -0.061635968702166158 0 -0.00098556646883425636 -0.072660867662791256 0 -0.0095397747562600572 -0.074867764376860185 0 -0.01371803322723979 -0.056744873740630211 0 -0.0035180734766415999 -0.061635968702166158 0 -0.0095397747562600572 -0.074867764376860185 0 -0.00098556646883425636 -0.072660867662791256 0 -0.0095397747562600572 -0.074867764376860185 0 -0.00124953766244034 -0.083680151025063834 0 -0.00098556646883425636 -0.072660867662791256 0 -0.0095397747562600572 -0.074867764376860185 0 -0.0095397747562600572 -0.074867764376860185 0 -0.00124953766244034 -0.083680151025063834 0 -0.0043397721180612678 -0.097422395636444323 0 -0.0095397747562600572 -0.074867764376860185 0 -0.0043397721180612678 -0.097422395636444323 0 -0.0095397747562600572 -0.074867764376860185 0 -0.01324624165081782 -0.092620331695506278 0 -0.020237531848942902 -0.087128948066728135 0 -0.0095397747562600572 -0.074867764376860185 0 -0.01324624165081782 -0.092620331695506278 0 -0.0043397721180612678 -0.097422395636444323 0 -0.00124953766244034 -0.083680151025063834 0 -0.0043397721180612678 -0.097422395636444323 0 0.001450329805512745 -0.089832183652915371 0 -0.0095397747562600572 -0.074867764376860185 0 -0.020237531848942902 -0.087128948066728135 0 -0.030297976067722991 -0.080223164283537776 0 -0.020237531848942902 -0.087128948066728135 0 -0.029036345012228681 -0.093163274517251107 0 -0.020284941711452731 -0.094832033961453566 0 -0.01324624165081782 -0.092620331695506278 0 -0.020237531848942902 -0.087128948066728135 0 -0.020284941711452731 -0.094832033961453566 0 -0.020237531848942902 -0.087128948066728135 0 -0.030297976067722991 -0.080223164283537776 0 -0.029036345012228681 -0.093163274517251107 0 -0.0095397747562600572 -0.074867764376860185 0 -0.030297976067722991 -0.080223164283537776 0 -0.02337214807971923 -0.066747664323743655 0 -0.0095397747562600572 -0.074867764376860185 0 -0.030297976067722991 -0.080223164283537776 0 -0.030297976067722991 -0.080223164283537776 0 -0.02337214807971923 -0.066747664323743655 0 -0.038079618984174543 -0.068515563983061509 0 -0.030297976067722991 -0.080223164283537776 0 -0.038079618984174543 -0.068515563983061509 0 -0.047810410560132258 -0.078661182080552783 0 -0.038079618984174543 -0.068515563983061509 0 -0.047810410560132258 -0.078661182080552783 0 -0.053127512471906307 -0.070778197667181797 0 -0.030297976067722991 -0.080223164283537776 0 -0.038352664943383068 -0.08914493726315495 0 -0.051056177379185629 -0.085578564190216283 0 -0.030297976067722991 -0.080223164283537776 0 -0.047810410560132258 -0.078661182080552783 0 -0.051056177379185629 -0.085578564190216283 0 -0.030297976067722991 -0.080223164283537776 0 -0.051056177379185629 -0.085578564190216283 0 -0.030297976067722991 -0.080223164283537776 0 -0.029036345012228681 -0.093163274517251107 0 -0.038352664943383068 -0.08914493726315495 0 -0.029036345012228681 -0.093163274517251107 0 -0.038352664943383068 -0.08914493726315495 0 -0.039090375083883903 -0.096227495530088192 0 -0.038352664943383068 -0.08914493726315495 0 -0.044953693390309253 -0.091652030052896696 0 -0.051056177379185629 -0.085578564190216283 0 -0.038352664943383068 -0.08914493726315495 0 -0.044953693390309253 -0.091652030052896696 0 -0.039090375083883903 -0.096227495530088192 0 -0.047810410560132258 -0.078661182080552783 0 -0.051056177379185629 -0.085578564190216283 0 -0.058132652399341539 -0.078446803886493555 0 -0.047810410560132258 -0.078661182080552783 0 -0.051056177379185629 -0.085578564190216283 0 -0.044953693390309253 -0.091652030052896696 0 -0.051056177379185629 -0.085578564190216283 0 -0.049115243539235569 -0.097978891030565229 0 -0.066400936617283648 -0.089537352379941787 0 -0.051056177379185629 -0.085578564190216283 0 -0.066400936617283648 -0.089537352379941787 0 -0.063966464614082827 -0.096786751794741693 0 -0.051056177379185629 -0.085578564190216283 0 -0.066400936617283648 -0.089537352379941787 0 -0.051056177379185629 -0.085578564190216283 0 -0.058132652399341539 -0.078446803886493555 0 -0.065840234237801123 -0.070426946955235978 0 -0.058132652399341539 -0.078446803886493555 0 -0.053127512471906307 -0.070778197667181797 0 -0.065840234237801123 -0.070426946955235978 0 -0.061384853019164652 -0.061137459306390321 0 -0.053127512471906307 -0.070778197667181797 0 -0.061384853019164652 -0.061137459306390321 0 -0.050639851822833662 -0.061477229590209938 0 -0.053127512471906307 -0.070778197667181797 0 -0.050639851822833662 -0.061477229590209938 0 -0.038079618984174543 -0.068515563983061509 0 -0.053127512471906307 -0.070778197667181797 0 -0.047810410560132258 -0.078661182080552783 0 -0.058132652399341539 -0.078446803886493555 0 -0.053127512471906307 -0.070778197667181797 0 -0.052192501530536999 -0.1148027939369464 0 -0.059623887476762109 -0.1209109438392692 0 -0.060176722708621087 -0.1050162812565914 0 -0.052192501530536999 -0.1148027939369464 0 -0.048222034734225407 -0.10793762823495941 0 -0.043466122023944828 -0.11546538767852579 0 -0.052192501530536999 -0.1148027939369464 0 -0.050309071670416393 -0.1233943631983347 0 -0.059623887476762109 -0.1209109438392692 0 -0.052192501530536999 -0.1148027939369464 0 -0.050309071670416393 -0.1233943631983347 0 -0.043466122023944828 -0.11546538767852579 0 -0.051056177379185629 -0.085578564190216283 0 -0.060176722708621087 -0.1050162812565914 0 -0.063966464614082827 -0.096786751794741693 0 -0.051056177379185629 -0.085578564190216283 0 -0.060176722708621087 -0.1050162812565914 0 -0.051056177379185629 -0.085578564190216283 0 -0.060176722708621087 -0.1050162812565914 0 -0.049115243539235569 -0.097978891030565229 0 -0.060176722708621087 -0.1050162812565914 0 -0.049115243539235569 -0.097978891030565229 0 -0.048222034734225407 -0.10793762823495941 0 -0.052192501530536999 -0.1148027939369464 0 -0.060176722708621087 -0.1050162812565914 0 -0.048222034734225407 -0.10793762823495941 0 -0.049115243539235569 -0.097978891030565229 0 -0.048222034734225407 -0.10793762823495941 0 -0.040188767590047129 -0.1049350544676621 0 -0.049115243539235569 -0.097978891030565229 0 -0.040188767590047129 -0.1049350544676621 0 -0.039090375083883903 -0.096227495530088192 0 -0.044953693390309253 -0.091652030052896696 0 -0.049115243539235569 -0.097978891030565229 0 -0.039090375083883903 -0.096227495530088192 0 -0.029036345012228681 -0.093163274517251107 0 -0.039090375083883903 -0.096227495530088192 0 -0.031554603048052077 -0.1034798613655116 0 -0.040188767590047129 -0.1049350544676621 0 -0.039090375083883903 -0.096227495530088192 0 -0.031554603048052077 -0.1034798613655116 0 -0.040188767590047129 -0.1049350544676621 0 -0.031554603048052077 -0.1034798613655116 0 -0.033746497046771337 -0.1138967071624629 0 -0.048222034734225407 -0.10793762823495941 0 -0.040188767590047129 -0.1049350544676621 0 -0.043466122023944828 -0.11546538767852579 0 -0.040188767590047129 -0.1049350544676621 0 -0.033746497046771337 -0.1138967071624629 0 -0.043466122023944828 -0.11546538767852579 0 -0.050309071670416393 -0.1233943631983347 0 -0.043466122023944828 -0.11546538767852579 0 -0.038380915769698869 -0.12504659637242971 0 -0.033746497046771337 -0.1138967071624629 0 -0.043466122023944828 -0.11546538767852579 0 -0.038380915769698869 -0.12504659637242971 0 -0.033746497046771337 -0.1138967071624629 0 -0.025281894249509579 -0.12553639798702559 0 -0.038380915769698869 -0.12504659637242971 0 -0.033746497046771337 -0.1138967071624629 0 -0.02452737740936714 -0.1116921721369637 0 -0.025281894249509579 -0.12553639798702559 0 -0.031554603048052077 -0.1034798613655116 0 -0.033746497046771337 -0.1138967071624629 0 -0.02452737740936714 -0.1116921721369637 0 -0.02452737740936714 -0.1116921721369637 0 -0.01818921296646946 -0.11769191336589679 0 -0.015626827969140521 -0.10895424601184681 0 -0.01818921296646946 -0.11769191336589679 0 -0.01003575243589416 -0.12709576391022509 0 -0.025281894249509579 -0.12553639798702559 0 -0.02452737740936714 -0.1116921721369637 0 -0.01818921296646946 -0.11769191336589679 0 -0.025281894249509579 -0.12553639798702559 0 -0.029036345012228681 -0.093163274517251107 0 -0.02312743865174214 -0.1017696530367541 0 -0.020284941711452731 -0.094832033961453566 0 -0.029036345012228681 -0.093163274517251107 0 -0.031554603048052077 -0.1034798613655116 0 -0.02312743865174214 -0.1017696530367541 0 -0.031554603048052077 -0.1034798613655116 0 -0.02452737740936714 -0.1116921721369637 0 -0.02312743865174214 -0.1017696530367541 0 -0.02452737740936714 -0.1116921721369637 0 -0.015626827969140521 -0.10895424601184681 0 -0.02312743865174214 -0.1017696530367541 0 -0.015626827969140521 -0.10895424601184681 0 -0.02312743865174214 -0.1017696530367541 0 -0.015777151393532089 -0.099477962491028318 0 -0.02312743865174214 -0.1017696530367541 0 -0.015777151393532089 -0.099477962491028318 0 -0.020284941711452731 -0.094832033961453566 0 -0.01324624165081782 -0.092620331695506278 0 -0.015777151393532089 -0.099477962491028318 0 -0.020284941711452731 -0.094832033961453566 0 -0.0043397721180612678 -0.097422395636444323 0 0.00086023052013748129 -0.1199770268960285 0 -0.0043397721180612678 -0.097422395636444323 0 0.00086023052013748129 -0.1199770268960285 0 0.002709564413051732 -0.1056825328365129 0 -0.0084087465724206317 -0.1013383830319841 0 -0.0043397721180612678 -0.097422395636444323 0 0.00086023052013748129 -0.1199770268960285 0 -0.01324624165081782 -0.092620331695506278 0 -0.015777151393532089 -0.099477962491028318 0 -0.0084087465724206317 -0.1013383830319841 0 -0.01324624165081782 -0.092620331695506278 0 -0.0084087465724206317 -0.1013383830319841 0 -0.0043397721180612678 -0.097422395636444323 0 -0.015626827969140521 -0.10895424601184681 0 -0.015777151393532089 -0.099477962491028318 0 -0.0084087465724206317 -0.1013383830319841 0 -0.01818921296646946 -0.11769191336589679 0 -0.015626827969140521 -0.10895424601184681 0 -0.01003575243589416 -0.12709576391022509 0 -0.015626827969140521 -0.10895424601184681 0 -0.0084087465724206317 -0.1013383830319841 0 -0.01003575243589416 -0.12709576391022509 0 -0.0084087465724206317 -0.1013383830319841 0 -0.01003575243589416 -0.12709576391022509 0 0.00086023052013748129 -0.1199770268960285 0 -0.0084087465724206317 -0.1013383830319841 0 -0.01003575243589416 -0.12709576391022509 0 -0.0071603237416107534 -0.14020747157317989 0 -0.01003575243589416 -0.12709576391022509 0 -0.011662758299367691 -0.15285314478846629 0 -0.01003575243589416 -0.12709576391022509 0 -0.011662758299367691 -0.15285314478846629 0 -0.001050597315567052 -0.13813025709692589 0 -0.01003575243589416 -0.12709576391022509 0 0.00086023052013748129 -0.1199770268960285 0 -0.01003575243589416 -0.12709576391022509 0 -0.018905414265874661 -0.13358271994149151 0 -0.017534324833056541 -0.1441176227040217 0 -0.001050597315567052 -0.13813025709692589 0 -0.0071603237416107534 -0.14020747157317989 0 -0.01003575243589416 -0.12709576391022509 0 -0.01003575243589416 -0.12709576391022509 0 -0.018905414265874661 -0.13358271994149151 0 -0.025281894249509579 -0.12553639798702559 0 -0.023830959168816029 -0.14008298626708029 0 -0.025281894249509579 -0.12553639798702559 0 -0.036169737266186108 -0.14371450718847939 0 -0.018905414265874661 -0.13358271994149151 0 -0.023830959168816029 -0.14008298626708029 0 -0.025281894249509579 -0.12553639798702559 0 -0.018905414265874661 -0.13358271994149151 0 -0.023830959168816029 -0.14008298626708029 0 -0.017534324833056541 -0.1441176227040217 0 -0.027462970519975361 -0.14952242598328491 0 -0.014822257071545971 -0.15483687891537831 0 -0.041861964357539028 -0.16343261656967309 0 -0.023830959168816029 -0.14008298626708029 0 -0.027462970519975361 -0.14952242598328491 0 -0.036169737266186108 -0.14371450718847939 0 -0.023830959168816029 -0.14008298626708029 0 -0.027462970519975361 -0.14952242598328491 0 -0.017534324833056541 -0.1441176227040217 0 -0.027462970519975361 -0.14952242598328491 0 -0.017534324833056541 -0.1441176227040217 0 -0.014822257071545971 -0.15483687891537831 0 -0.017534324833056541 -0.1441176227040217 0 -0.011662758299367691 -0.15285314478846629 0 -0.014822257071545971 -0.15483687891537831 0 -0.01003575243589416 -0.12709576391022509 0 -0.017534324833056541 -0.1441176227040217 0 -0.011662758299367691 -0.15285314478846629 0 -0.001050597315567052 -0.13813025709692589 0 -0.0071603237416107534 -0.14020747157317989 0 -0.0025921059873258989 -0.14943225635359239 0 -0.0071603237416107534 -0.14020747157317989 0 -0.011662758299367691 -0.15285314478846629 0 -0.0025921059873258989 -0.14943225635359239 0 -0.011662758299367691 -0.15285314478846629 0 -0.0025921059873258989 -0.14943225635359239 0 -0.0035127006409058979 -0.1557142128403636 0 -0.0025921059873258989 -0.14943225635359239 0 -0.0035127006409058979 -0.1557142128403636 0 0.002067714751090347 -0.15592293470848509 0 -0.011662758299367691 -0.15285314478846629 0 -0.01328976416284122 -0.1786105256667074 0 -0.011662758299367691 -0.15285314478846629 0 -0.0035127006409058979 -0.1557142128403636 0 -0.0029138897130330508 -0.1646766099163092 0 -0.0035127006409058979 -0.1557142128403636 0 -0.0029138897130330508 -0.1646766099163092 0 0.002067714751090347 -0.15592293470848509 0 -0.011662758299367691 -0.15285314478846629 0 -0.0029138897130330508 -0.1646766099163092 0 -0.01328976416284122 -0.1786105256667074 0 -0.011662758299367691 -0.15285314478846629 0 -0.014822257071545971 -0.15483687891537831 0 -0.01328976416284122 -0.1786105256667074 0 -0.01328976416284122 -0.1786105256667074 0 -0.0065513521457199854 -0.19632683165197301 0 0.001144493214242684 -0.1794645347638037 0 -0.0029138897130330508 -0.1646766099163092 0 -0.01328976416284122 -0.1786105256667074 0 0.001144493214242684 -0.1794645347638037 0 -0.01328976416284122 -0.1786105256667074 0 -0.025804446403332262 -0.170320197416267 0 -0.033243800021402828 -0.18440076851330911 0 -0.014822257071545971 -0.15483687891537831 0 -0.041861964357539028 -0.16343261656967309 0 -0.014822257071545971 -0.15483687891537831 0 -0.01328976416284122 -0.1786105256667074 0 -0.025804446403332262 -0.170320197416267 0 -0.014822257071545971 -0.15483687891537831 0 -0.025804446403332262 -0.170320197416267 0 -0.041861964357539028 -0.16343261656967309 0 -0.041861964357539028 -0.16343261656967309 0 -0.033243800021402828 -0.18440076851330911 0 -0.051787648582053147 -0.18298262144503649 0 -0.025804446403332262 -0.170320197416267 0 -0.041861964357539028 -0.16343261656967309 0 -0.033243800021402828 -0.18440076851330911 0 -0.041861964357539028 -0.16343261656967309 0 -0.051787648582053147 -0.18298262144503649 0 -0.068901671643532225 -0.17202835422396801 0 -0.041861964357539028 -0.16343261656967309 0 -0.068901671643532225 -0.17202835422396801 0 -0.041861964357539028 -0.16343261656967309 0 -0.066825781422803099 -0.15734620160038301 0 -0.068901671643532225 -0.17202835422396801 0 -0.041861964357539028 -0.16343261656967309 0 -0.057293775316837978 -0.14380311128891121 0 -0.066825781422803099 -0.15734620160038301 0 -0.057293775316837978 -0.14380311128891121 0 -0.047777152354765373 -0.13319826579708741 0 -0.036169737266186108 -0.14371450718847939 0 -0.050309071670416393 -0.1233943631983347 0 -0.059623887476762109 -0.1209109438392692 0 -0.058566965902534157 -0.13119512912766959 0 -0.050309071670416393 -0.1233943631983347 0 -0.058566965902534157 -0.13119512912766959 0 -0.047777152354765373 -0.13319826579708741 0 -0.057293775316837978 -0.14380311128891121 0 -0.058566965902534157 -0.13119512912766959 0 -0.047777152354765373 -0.13319826579708741 0 -0.047777152354765373 -0.13319826579708741 0 -0.038380915769698869 -0.12504659637242971 0 -0.036169737266186108 -0.14371450718847939 0 -0.025281894249509579 -0.12553639798702559 0 -0.038380915769698869 -0.12504659637242971 0 -0.036169737266186108 -0.14371450718847939 0 -0.050309071670416393 -0.1233943631983347 0 -0.047777152354765373 -0.13319826579708741 0 -0.038380915769698869 -0.12504659637242971 0 -0.027462970519975361 -0.14952242598328491 0 -0.041861964357539028 -0.16343261656967309 0 -0.036169737266186108 -0.14371450718847939 0 -0.057293775316837978 -0.14380311128891121 0 -0.036169737266186108 -0.14371450718847939 0 -0.041861964357539028 -0.16343261656967309 0 -0.057293775316837978 -0.14380311128891121 0 -0.036169737266186108 -0.14371450718847939 0 -0.033515532645534807 -0.25565753410287012 0 -0.018248806879461149 -0.25297125270079762 0 -0.033944937979744773 -0.2327745636842011 0 -0.018248806879461149 -0.25297125270079762 0 -0.0070936043338453089 -0.2410739498827342 0 -0.033944937979744773 -0.2327745636842011 0 -0.0070936043338453089 -0.2410739498827342 0 -0.016816132170242651 -0.2248337616365815 0 0.0065026017270185072 -0.22838774414485091 0 -0.016816132170242651 -0.2248337616365815 0 -0.0041227302505375974 -0.21312671679935091 0 0.0065026017270185072 -0.22838774414485091 0 -0.0070936043338453089 -0.2410739498827342 0 -0.016816132170242651 -0.2248337616365815 0 -0.033944937979744773 -0.2327745636842011 0 -0.016816132170242651 -0.2248337616365815 0 -0.034801408921347893 -0.2156378147897986 0 -0.033944937979744773 -0.2327745636842011 0 -0.016816132170242651 -0.2248337616365815 0 -0.02251032601436171 -0.20019490525072209 0 -0.034801408921347893 -0.2156378147897986 0 -0.0041227302505375974 -0.21312671679935091 0 -0.0065513521457199854 -0.19632683165197301 0 -0.02251032601436171 -0.20019490525072209 0 -0.016816132170242651 -0.2248337616365815 0 -0.0041227302505375974 -0.21312671679935091 0 -0.02251032601436171 -0.20019490525072209 0 -0.0041227302505375974 -0.21312671679935091 0 -0.0065513521457199854 -0.19632683165197301 0 0.0085513850884246061 -0.19558393661854651 0 -0.01328976416284122 -0.1786105256667074 0 -0.0065513521457199854 -0.19632683165197301 0 -0.02251032601436171 -0.20019490525072209 0 -0.01328976416284122 -0.1786105256667074 0 -0.033243800021402828 -0.18440076851330911 0 -0.02251032601436171 -0.20019490525072209 0 -0.033243800021402828 -0.18440076851330911 0 -0.02251032601436171 -0.20019490525072209 0 -0.047686483279059617 -0.20079070867758891 0 -0.033243800021402828 -0.18440076851330911 0 -0.051787648582053147 -0.18298262144503649 0 -0.047686483279059617 -0.20079070867758891 0 -0.051787648582053147 -0.18298262144503649 0 -0.047686483279059617 -0.20079070867758891 0 -0.067244323608732046 -0.19426065924064309 0 -0.047686483279059617 -0.20079070867758891 0 -0.068242849967375951 -0.21108397220336081 0 -0.067244323608732046 -0.19426065924064309 0 -0.047686483279059617 -0.20079070867758891 0 -0.053595613839245382 -0.22170437839412499 0 -0.068242849967375951 -0.21108397220336081 0 -0.047686483279059617 -0.20079070867758891 0 -0.034801408921347893 -0.2156378147897986 0 -0.053595613839245382 -0.22170437839412499 0 -0.02251032601436171 -0.20019490525072209 0 -0.047686483279059617 -0.20079070867758891 0 -0.034801408921347893 -0.2156378147897986 0 -0.033944937979744773 -0.2327745636842011 0 -0.053595613839245382 -0.22170437839412499 0 -0.052778720187395052 -0.24295676583674891 0 -0.034801408921347893 -0.2156378147897986 0 -0.033944937979744773 -0.2327745636842011 0 -0.053595613839245382 -0.22170437839412499 0 -0.053595613839245382 -0.22170437839412499 0 -0.052778720187395052 -0.24295676583674891 0 -0.077271287911671843 -0.23000014631135121 0 -0.033515532645534807 -0.25565753410287012 0 -0.033944937979744773 -0.2327745636842011 0 -0.052778720187395052 -0.24295676583674891 0 -0.033515532645534807 -0.25565753410287012 0 -0.033944937979744773 -0.2327745636842011 0 -0.081749283819169183 -0.25142364739293283 0 -0.092655494495095608 -0.23750377238773079 0 -0.099162486762250313 -0.24921486017549499 0 -0.081749283819169183 -0.25142364739293283 0 -0.092655494495095608 -0.23750377238773079 0 -0.077271287911671843 -0.23000014631135121 0 -0.067936242402746733 -0.25468817352789619 0 -0.077271287911671843 -0.23000014631135121 0 -0.067936242402746733 -0.25468817352789619 0 -0.081749283819169183 -0.25142364739293283 0 -0.077271287911671843 -0.23000014631135121 0 -0.067936242402746733 -0.25468817352789619 0 -0.052778720187395052 -0.24295676583674891 0 -0.077271287911671843 -0.23000014631135121 0 -0.053595613839245382 -0.22170437839412499 0 -0.077271287911671843 -0.23000014631135121 0 -0.068242849967375951 -0.21108397220336081 0 -0.092655494495095608 -0.23750377238773079 0 -0.077271287911671843 -0.23000014631135121 0 -0.094857990952019189 -0.22254113768338421 0 -0.077271287911671843 -0.23000014631135121 0 -0.086606333420596954 -0.20531211909480629 0 -0.094857990952019189 -0.22254113768338421 0 -0.077271287911671843 -0.23000014631135121 0 -0.086606333420596954 -0.20531211909480629 0 -0.086606333420596954 -0.20531211909480629 0 -0.068242849967375951 -0.21108397220336081 0 -0.067244323608732046 -0.19426065924064309 0 -0.077271287911671843 -0.23000014631135121 0 -0.086606333420596954 -0.20531211909480629 0 -0.068242849967375951 -0.21108397220336081 0 -0.086606333420596954 -0.20531211909480629 0 -0.067244323608732046 -0.19426065924064309 0 -0.079673426900596617 -0.18805630610942009 0 -0.086606333420596954 -0.20531211909480629 0 -0.079673426900596617 -0.18805630610942009 0 -0.095941378929525326 -0.18062409187826259 0 -0.086606333420596954 -0.20531211909480629 0 -0.095941378929525326 -0.18062409187826259 0 -0.086606333420596954 -0.20531211909480629 0 -0.10444596152872369 -0.20047246209630709 0 -0.095941378929525326 -0.18062409187826259 0 -0.10444596152872369 -0.20047246209630709 0 -0.12237950921916051 -0.18902859232777369 0 -0.095941378929525326 -0.18062409187826259 0 -0.10444596152872369 -0.20047246209630709 0 -0.12237950921916051 -0.18902859232777369 0 -0.1184827943907336 -0.21249802065054599 0 -0.10444596152872369 -0.20047246209630709 0 -0.1184827943907336 -0.21249802065054599 0 -0.094857990952019189 -0.22254113768338421 0 -0.086606333420596954 -0.20531211909480629 0 -0.10444596152872369 -0.20047246209630709 0 -0.094857990952019189 -0.22254113768338421 0 -0.092655494495095608 -0.23750377238773079 0 -0.094857990952019189 -0.22254113768338421 0 -0.1102364230303675 -0.23433907037549101 0 -0.1184827943907336 -0.21249802065054599 0 -0.094857990952019189 -0.22254113768338421 0 -0.1102364230303675 -0.23433907037549101 0 -0.1102364230303675 -0.23433907037549101 0 -0.1278027162143065 -0.24043015051396341 0 -0.12985542753853191 -0.22448873655032189 0 -0.1184827943907336 -0.21249802065054599 0 -0.1102364230303675 -0.23433907037549101 0 -0.12985542753853191 -0.22448873655032189 0 -0.11840662886325649 -0.25645158738316548 0 -0.1102364230303675 -0.23433907037549101 0 -0.1278027162143065 -0.24043015051396341 0 -0.11840662886325649 -0.25645158738316548 0 -0.1102364230303675 -0.23433907037549101 0 -0.099162486762250313 -0.24921486017549499 0 -0.092655494495095608 -0.23750377238773079 0 -0.1102364230303675 -0.23433907037549101 0 -0.099162486762250313 -0.24921486017549499 0 -0.078417813367489764 -0.14389171538934259 0 -0.096084813514846046 -0.1439658190551113 0 -0.094246240932195219 -0.15344271195687309 0 -0.078417813367489764 -0.14389171538934259 0 -0.096084813514846046 -0.1439658190551113 0 -0.078417813367489764 -0.14389171538934259 0 -0.087653682428616472 -0.1635752105300198 0 -0.078417813367489764 -0.14389171538934259 0 -0.087653682428616472 -0.1635752105300198 0 -0.094246240932195219 -0.15344271195687309 0 -0.078417813367489764 -0.14389171538934259 0 -0.092612956142481911 -0.13460157814273069 0 -0.096084813514846046 -0.1439658190551113 0 -0.092612956142481911 -0.13460157814273069 0 -0.091834790721980877 -0.12507536779925801 0 -0.081334939119443048 -0.1294014172335764 0 -0.078417813367489764 -0.14389171538934259 0 -0.092612956142481911 -0.13460157814273069 0 -0.081334939119443048 -0.1294014172335764 0 -0.069297268038055776 -0.1244539983229668 0 -0.078417813367489764 -0.14389171538934259 0 -0.069297268038055776 -0.1244539983229668 0 -0.078417813367489764 -0.14389171538934259 0 -0.081334939119443048 -0.1294014172335764 0 -0.057293775316837978 -0.14380311128891121 0 -0.058566965902534157 -0.13119512912766959 0 -0.078417813367489764 -0.14389171538934259 0 -0.069297268038055776 -0.1244539983229668 0 -0.058566965902534157 -0.13119512912766959 0 -0.078417813367489764 -0.14389171538934259 0 -0.069297268038055776 -0.1244539983229668 0 -0.076375423297769807 -0.1218339098422855 0 -0.081334939119443048 -0.1294014172335764 0 -0.069297268038055776 -0.1244539983229668 0 -0.059623887476762109 -0.1209109438392692 0 -0.058566965902534157 -0.13119512912766959 0 -0.057293775316837978 -0.14380311128891121 0 -0.078417813367489764 -0.14389171538934259 0 -0.066825781422803099 -0.15734620160038301 0 -0.078417813367489764 -0.14389171538934259 0 -0.066825781422803099 -0.15734620160038301 0 -0.087653682428616472 -0.1635752105300198 0 -0.057293775316837978 -0.14380311128891121 0 -0.078417813367489764 -0.14389171538934259 0 -0.066825781422803099 -0.15734620160038301 0 -0.068901671643532225 -0.17202835422396801 0 -0.087653682428616472 -0.1635752105300198 0 -0.051787648582053147 -0.18298262144503649 0 -0.067244323608732046 -0.19426065924064309 0 -0.068901671643532225 -0.17202835422396801 0 -0.067244323608732046 -0.19426065924064309 0 -0.079673426900596617 -0.18805630610942009 0 -0.068901671643532225 -0.17202835422396801 0 -0.068901671643532225 -0.17202835422396801 0 -0.095941378929525326 -0.18062409187826259 0 -0.068901671643532225 -0.17202835422396801 0 -0.087653682428616472 -0.1635752105300198 0 -0.095941378929525326 -0.18062409187826259 0 -0.079673426900596617 -0.18805630610942009 0 -0.068901671643532225 -0.17202835422396801 0 -0.095941378929525326 -0.18062409187826259 0 -0.087653682428616472 -0.1635752105300198 0 -0.1016720914265153 -0.16546830222938441 0 -0.095941378929525326 -0.18062409187826259 0 -0.087653682428616472 -0.1635752105300198 0 -0.1016720914265153 -0.16546830222938441 0 -0.094246240932195219 -0.15344271195687309 0 -0.1016720914265153 -0.16546830222938441 0 -0.1074028039235085 -0.1503125125805074 0 -0.094246240932195219 -0.15344271195687309 0 -0.1016720914265153 -0.16546830222938441 0 -0.1074028039235085 -0.1503125125805074 0 -0.1016720914265153 -0.16546830222938441 0 -0.1121031402664244 -0.16067719446946349 0 -0.1074028039235085 -0.1503125125805074 0 -0.12237950921916051 -0.18902859232777369 0 -0.095941378929525326 -0.18062409187826259 0 -0.1016720914265153 -0.16546830222938441 0 -0.095941378929525326 -0.18062409187826259 0 -0.11474257868292299 -0.1715369550345931 0 -0.1016720914265153 -0.16546830222938441 0 -0.095941378929525326 -0.18062409187826259 0 -0.12237950921916051 -0.18902859232777369 0 -0.11474257868292299 -0.1715369550345931 0 -0.13413754388435301 -0.1761490996563099 0 -0.12237950921916051 -0.18902859232777369 0 -0.095941378929525326 -0.18062409187826259 0 -0.11474257868292299 -0.1715369550345931 0 -0.11474257868292299 -0.1715369550345931 0 -0.12582871684134331 -0.15879657116794241 0 -0.13413754388435301 -0.1761490996563099 0 -0.1016720914265153 -0.16546830222938441 0 -0.1121031402664244 -0.16067719446946349 0 -0.11474257868292299 -0.1715369550345931 0 -0.1121031402664244 -0.16067719446946349 0 -0.1162039049853336 -0.15236770183881371 0 -0.12582871684134331 -0.15879657116794241 0 -0.1121031402664244 -0.16067719446946349 0 -0.11474257868292299 -0.1715369550345931 0 -0.12582871684134331 -0.15879657116794241 0 -0.12264556861092819 -0.14752091340497511 0 -0.1162039049853336 -0.15236770183881371 0 -0.12582871684134331 -0.15879657116794241 0 -0.12264556861092819 -0.14752091340497511 0 -0.1137518136622023 -0.14403992272087959 0 -0.1162039049853336 -0.15236770183881371 0 -0.12264556861092819 -0.14752091340497511 0 -0.1137518136622023 -0.14403992272087959 0 -0.12623140781342659 -0.13766358983023469 0 -0.1137518136622023 -0.14403992272087959 0 -0.1162039049853336 -0.15236770183881371 0 -0.1074028039235085 -0.1503125125805074 0 -0.1121031402664244 -0.16067719446946349 0 -0.1162039049853336 -0.15236770183881371 0 -0.1074028039235085 -0.1503125125805074 0 -0.1137518136622023 -0.14403992272087959 0 -0.096084813514846046 -0.1439658190551113 0 -0.1137518136622023 -0.14403992272087959 0 -0.1074028039235085 -0.1503125125805074 0 -0.096084813514846046 -0.1439658190551113 0 -0.1137518136622023 -0.14403992272087959 0 -0.096084813514846046 -0.1439658190551113 0 -0.1004116680395897 -0.1366566568641196 0 -0.1074028039235085 -0.1503125125805074 0 -0.096084813514846046 -0.1439658190551113 0 -0.094246240932195219 -0.15344271195687309 0 -0.10059037143461121 -0.12124208835283649 0 -0.092612956142481911 -0.13460157814273069 0 -0.10059037143461121 -0.12124208835283649 0 -0.092612956142481911 -0.13460157814273069 0 -0.091834790721980877 -0.12507536779925801 0 -0.10059037143461121 -0.12124208835283649 0 -0.092612956142481911 -0.13460157814273069 0 -0.1004116680395897 -0.1366566568641196 0 -0.092612956142481911 -0.13460157814273069 0 -0.096084813514846046 -0.1439658190551113 0 -0.1004116680395897 -0.1366566568641196 0 -0.1137518136622023 -0.14403992272087959 0 -0.1004116680395897 -0.1366566568641196 0 -0.10684944056031929 -0.1332236356624775 0 -0.10059037143461121 -0.12124208835283649 0 -0.1004116680395897 -0.1366566568641196 0 -0.10684944056031929 -0.1332236356624775 0 -0.10059037143461121 -0.12124208835283649 0 -0.10684944056031929 -0.1332236356624775 0 -0.12089125345270731 -0.12518903770960499 0 -0.10684944056031929 -0.1332236356624775 0 -0.1169309788721639 -0.13502904648079919 0 -0.12089125345270731 -0.12518903770960499 0 -0.1137518136622023 -0.14403992272087959 0 -0.10684944056031929 -0.1332236356624775 0 -0.1169309788721639 -0.13502904648079919 0 -0.1137518136622023 -0.14403992272087959 0 -0.1169309788721639 -0.13502904648079919 0 -0.12623140781342659 -0.13766358983023469 0 -0.1169309788721639 -0.13502904648079919 0 -0.12089125345270731 -0.12518903770960499 0 -0.12623140781342659 -0.13766358983023469 0 -0.1225746473090282 -0.12236991870773441 0 -0.12089125345270731 -0.12518903770960499 0 -0.14119213547080281 -0.1291359870663758 0 -0.1225746473090282 -0.12236991870773441 0 -0.14119213547080281 -0.1291359870663758 0 -0.12089125345270731 -0.12518903770960499 0 -0.14119213547080281 -0.1291359870663758 0 -0.12089125345270731 -0.12518903770960499 0 -0.12623140781342659 -0.13766358983023469 0 -0.14119213547080281 -0.1291359870663758 0 -0.12623140781342659 -0.13766358983023469 0 -0.13812898399764051 -0.14059603891032149 0 -0.14119213547080281 -0.1291359870663758 0 -0.14119213547080281 -0.1291359870663758 0 -0.16269669944505119 -0.13695129214986609 0 -0.14119213547080281 -0.1291359870663758 0 -0.14899208015316209 -0.14378147017618689 0 -0.16269669944505119 -0.13695129214986609 0 -0.14119213547080281 -0.1291359870663758 0 -0.15453810922200911 -0.1317307453860318 0 -0.16269669944505119 -0.13695129214986609 0 -0.14119213547080281 -0.1291359870663758 0 -0.15453810922200911 -0.1317307453860318 0 -0.14119213547080281 -0.1291359870663758 0 -0.15453810922200911 -0.1317307453860318 0 -0.14842756872799071 -0.1223078998278221 0 -0.13812898399764051 -0.14059603891032149 0 -0.14119213547080281 -0.1291359870663758 0 -0.14899208015316209 -0.14378147017618689 0 -0.15453810922200911 -0.1317307453860318 0 -0.15812849855799191 -0.1216807865201372 0 -0.14842756872799071 -0.1223078998278221 0 -0.14899208015316209 -0.14378147017618689 0 -0.14024534363005681 -0.1517470636450968 0 -0.1562249343197539 -0.15833346758539041 0 -0.14899208015316209 -0.14378147017618689 0 -0.1562249343197539 -0.15833346758539041 0 -0.16006608083217899 -0.14686157616277629 0 -0.13812898399764051 -0.14059603891032149 0 -0.14899208015316209 -0.14378147017618689 0 -0.14024534363005681 -0.1517470636450968 0 -0.13812898399764051 -0.14059603891032149 0 -0.14024534363005681 -0.1517470636450968 0 -0.13121199975233519 -0.14473678146700489 0 -0.12264556861092819 -0.14752091340497511 0 -0.12623140781342659 -0.13766358983023469 0 -0.13121199975233519 -0.14473678146700489 0 -0.12623140781342659 -0.13766358983023469 0 -0.13812898399764051 -0.14059603891032149 0 -0.13121199975233519 -0.14473678146700489 0 -0.12264556861092819 -0.14752091340497511 0 -0.13121199975233519 -0.14473678146700489 0 -0.12582871684134331 -0.15879657116794241 0 -0.14024534363005681 -0.1517470636450968 0 -0.13121199975233519 -0.14473678146700489 0 -0.12582871684134331 -0.15879657116794241 0 -0.12582871684134331 -0.15879657116794241 0 -0.13413754388435301 -0.1761490996563099 0 -0.14108534671610601 -0.1642380525637348 0 -0.14024534363005681 -0.1517470636450968 0 -0.12582871684134331 -0.15879657116794241 0 -0.14108534671610601 -0.1642380525637348 0 -0.13413754388435301 -0.1761490996563099 0 -0.1519714723377899 -0.17586133406653121 0 -0.14108534671610601 -0.1642380525637348 0 -0.13413754388435301 -0.1761490996563099 0 -0.1519714723377899 -0.17586133406653121 0 -0.14881763950879559 -0.19743309277728449 0 -0.14024534363005681 -0.1517470636450968 0 -0.14108534671610601 -0.1642380525637348 0 -0.1562249343197539 -0.15833346758539041 0 -0.1519714723377899 -0.17586133406653121 0 -0.14108534671610601 -0.1642380525637348 0 -0.1562249343197539 -0.15833346758539041 0 -0.1519714723377899 -0.17586133406653121 0 -0.1562249343197539 -0.15833346758539041 0 -0.1738031896045911 -0.17710883398322819 0 -0.1562249343197539 -0.15833346758539041 0 -0.1738031896045911 -0.17710883398322819 0 -0.17235060941074881 -0.14838007473966189 0 -0.1519714723377899 -0.17586133406653121 0 -0.1738031896045911 -0.17710883398322819 0 -0.14881763950879559 -0.19743309277728449 0 -0.1738031896045911 -0.17710883398322819 0 -0.187861851224147 -0.16958558328473469 0 -0.19140783645189949 -0.18120326779743831 0 -0.1738031896045911 -0.17710883398322819 0 -0.1857685038246468 -0.1563687324005629 0 -0.17235060941074881 -0.14838007473966189 0 -0.1738031896045911 -0.17710883398322819 0 -0.1857685038246468 -0.1563687324005629 0 -0.187861851224147 -0.16958558328473469 0 -0.1738031896045911 -0.17710883398322819 0 -0.17235060941074881 -0.14838007473966189 0 -0.1857685038246468 -0.1563687324005629 0 -0.17235060941074881 -0.14838007473966189 0 -0.18647837356359659 -0.13767088797027019 0 -0.18647837356359659 -0.13767088797027019 0 -0.1915316175508146 -0.1209350109372955 0 -0.17089802921690639 -0.1196513154960956 0 -0.17235060941074881 -0.14838007473966189 0 -0.18647837356359659 -0.13767088797027019 0 -0.17089802921690639 -0.1196513154960956 0 -0.17235060941074881 -0.14838007473966189 0 -0.16269669944505119 -0.13695129214986609 0 -0.17089802921690639 -0.1196513154960956 0 -0.16269669944505119 -0.13695129214986609 0 -0.17089802921690639 -0.1196513154960956 0 -0.15812849855799191 -0.1216807865201372 0 -0.17235060941074881 -0.14838007473966189 0 -0.17089802921690639 -0.1196513154960956 0 -0.15453810922200911 -0.1317307453860318 0 -0.16269669944505119 -0.13695129214986609 0 -0.15812849855799191 -0.1216807865201372 0 -0.1562249343197539 -0.15833346758539041 0 -0.17235060941074881 -0.14838007473966189 0 -0.16006608083217899 -0.14686157616277629 0 -0.14899208015316209 -0.14378147017618689 0 -0.16269669944505119 -0.13695129214986609 0 -0.16006608083217899 -0.14686157616277629 0 -0.17235060941074881 -0.14838007473966189 0 -0.16269669944505119 -0.13695129214986609 0 -0.16006608083217899 -0.14686157616277629 0 -0.14450485775431851 -0.25736513103136011 0 -0.14370017977517291 -0.2330331291106765 0 -0.14370017977517291 -0.2330331291106765 0 -0.1610244584904883 -0.23864371099585899 0 -0.1563410501836712 -0.2498212514116096 0 -0.14450485775431851 -0.25736513103136011 0 -0.14370017977517291 -0.2330331291106765 0 -0.1563410501836712 -0.2498212514116096 0 -0.14450485775431851 -0.25736513103136011 0 -0.1278027162143065 -0.24043015051396341 0 -0.14370017977517291 -0.2330331291106765 0 -0.1278027162143065 -0.24043015051396341 0 -0.12985542753853191 -0.22448873655032189 0 -0.14370017977517291 -0.2330331291106765 0 -0.12985542753853191 -0.22448873655032189 0 -0.14370017977517291 -0.2330331291106765 0 -0.14289550179602731 -0.2087011271899929 0 -0.14370017977517291 -0.2330331291106765 0 -0.1638418242071101 -0.22850675689943109 0 -0.1610244584904883 -0.23864371099585899 0 -0.14370017977517291 -0.2330331291106765 0 -0.14289550179602731 -0.2087011271899929 0 -0.14370017977517291 -0.2330331291106765 0 -0.15996466448097429 -0.2173161090291062 0 -0.1638418242071101 -0.22850675689943109 0 -0.14370017977517291 -0.2330331291106765 0 -0.14289550179602731 -0.2087011271899929 0 -0.15996466448097429 -0.2173161090291062 0 -0.14289550179602731 -0.2087011271899929 0 -0.15996466448097429 -0.2173161090291062 0 -0.15673339389605701 -0.2073219805557947 0 -0.14289550179602731 -0.2087011271899929 0 -0.14881763950879559 -0.19743309277728449 0 -0.15673339389605701 -0.2073219805557947 0 -0.12237950921916051 -0.18902859232777369 0 -0.1184827943907336 -0.21249802065054599 0 -0.14289550179602731 -0.2087011271899929 0 -0.1184827943907336 -0.21249802065054599 0 -0.12985542753853191 -0.22448873655032189 0 -0.14289550179602731 -0.2087011271899929 0 -0.12237950921916051 -0.18902859232777369 0 -0.14881763950879559 -0.19743309277728449 0 -0.12237950921916051 -0.18902859232777369 0 -0.13413754388435301 -0.1761490996563099 0 -0.14881763950879559 -0.19743309277728449 0 -0.12237950921916051 -0.18902859232777369 0 -0.14289550179602731 -0.2087011271899929 0 -0.14881763950879559 -0.19743309277728449 0 -0.14881763950879559 -0.19743309277728449 0 -0.17525576979843099 -0.20583759322679451 0 -0.1738031896045911 -0.17710883398322819 0 -0.14881763950879559 -0.19743309277728449 0 -0.17525576979843099 -0.20583759322679451 0 -0.1738031896045911 -0.17710883398322819 0 -0.17525576979843099 -0.20583759322679451 0 -0.1738031896045911 -0.17710883398322819 0 -0.17525576979843099 -0.20583759322679451 0 -0.19140783645189949 -0.18120326779743831 0 -0.17525576979843099 -0.20583759322679451 0 -0.17633557649090231 -0.22719373358244099 0 -0.14881763950879559 -0.19743309277728449 0 -0.17525576979843099 -0.20583759322679451 0 -0.15673339389605701 -0.2073219805557947 0 -0.17525576979843099 -0.20583759322679451 0 -0.15996466448097429 -0.2173161090291062 0 -0.15673339389605701 -0.2073219805557947 0 -0.17525576979843099 -0.20583759322679451 0 -0.15996466448097429 -0.2173161090291062 0 -0.17633557649090231 -0.22719373358244099 0 -0.15996466448097429 -0.2173161090291062 0 -0.1638418242071101 -0.22850675689943109 0 -0.17633557649090231 -0.22719373358244099 0 -0.1638418242071101 -0.22850675689943109 0 -0.17633557649090231 -0.22719373358244099 0 -0.16982622716200571 -0.23637398350957151 0 -0.17525576979843099 -0.20583759322679451 0 -0.17633557649090231 -0.22719373358244099 0 -0.1904291251902562 -0.22720723047234789 0 -0.17633557649090231 -0.22719373358244099 0 -0.17903974941589451 -0.23888174255345829 0 -0.1904291251902562 -0.22720723047234789 0 -0.17633557649090231 -0.22719373358244099 0 -0.17903974941589451 -0.23888174255345829 0 -0.16982622716200571 -0.23637398350957151 0 -0.17903974941589451 -0.23888174255345829 0 -0.16888952720563299 -0.248643973516668 0 -0.16982622716200571 -0.23637398350957151 0 -0.18936100069649531 -0.25130593984176219 0 -0.1791349909606712 -0.2525987561777624 0 -0.17903974941589451 -0.23888174255345829 0 -0.1791349909606712 -0.2525987561777624 0 -0.17903974941589451 -0.23888174255345829 0 -0.16888952720563299 -0.248643973516668 0 -0.1638418242071101 -0.22850675689943109 0 -0.16982622716200571 -0.23637398350957151 0 -0.1610244584904883 -0.23864371099585899 0 -0.16888952720563299 -0.248643973516668 0 -0.16982622716200571 -0.23637398350957151 0 -0.1610244584904883 -0.23864371099585899 0 -0.16888952720563299 -0.248643973516668 0 -0.1610244584904883 -0.23864371099585899 0 -0.1563410501836712 -0.2498212514116096 0 -0.2248525589425418 -0.25190033394045769 0 -0.21705716657709401 -0.23686746357677099 0 -0.20551371595048259 -0.2464048295736154 0 -0.21705716657709401 -0.23686746357677099 0 -0.20551371595048259 -0.2464048295736154 0 -0.20398121847876979 -0.23044343782379759 0 -0.2248525589425418 -0.25190033394045769 0 -0.20551371595048259 -0.2464048295736154 0 -0.20551371595048259 -0.2464048295736154 0 -0.20398121847876979 -0.23044343782379759 0 -0.17903974941589451 -0.23888174255345829 0 -0.20551371595048259 -0.2464048295736154 0 -0.1904291251902562 -0.22720723047234789 0 -0.20551371595048259 -0.2464048295736154 0 -0.1904291251902562 -0.22720723047234789 0 -0.20398121847876979 -0.23044343782379759 0 -0.18936100069649531 -0.25130593984176219 0 -0.17903974941589451 -0.23888174255345829 0 -0.20551371595048259 -0.2464048295736154 0 -0.17903974941589451 -0.23888174255345829 0 -0.20551371595048259 -0.2464048295736154 0 -0.1904291251902562 -0.22720723047234789 0 -0.20398121847876979 -0.23044343782379759 0 -0.2024487210070551 -0.21448204607397989 0 -0.20398121847876979 -0.23044343782379759 0 -0.2024487210070551 -0.21448204607397989 0 -0.22027640787121369 -0.2201493455623342 0 -0.21705716657709401 -0.23686746357677099 0 -0.20398121847876979 -0.23044343782379759 0 -0.22027640787121369 -0.2201493455623342 0 -0.20398121847876979 -0.23044343782379759 0 -0.2024487210070551 -0.21448204607397989 0 -0.21470917340859469 -0.20477581989821131 0 -0.2024487210070551 -0.21448204607397989 0 -0.20046803519637499 -0.1938526468475241 0 -0.2024487210070551 -0.21448204607397989 0 -0.22027640787121369 -0.2201493455623342 0 -0.21470917340859469 -0.20477581989821131 0 -0.2024487210070551 -0.21448204607397989 0 -0.22027640787121369 -0.2201493455623342 0 -0.17525576979843099 -0.20583759322679451 0 -0.2024487210070551 -0.21448204607397989 0 -0.20046803519637499 -0.1938526468475241 0 -0.17525576979843099 -0.20583759322679451 0 -0.2024487210070551 -0.21448204607397989 0 -0.2024487210070551 -0.21448204607397989 0 -0.20046803519637499 -0.1938526468475241 0 -0.17525576979843099 -0.20583759322679451 0 -0.1904291251902562 -0.22720723047234789 0 -0.2024487210070551 -0.21448204607397989 0 -0.17525576979843099 -0.20583759322679451 0 -0.20046803519637499 -0.1938526468475241 0 -0.19140783645189949 -0.18120326779743831 0 -0.21470917340859469 -0.20477581989821131 0 -0.20046803519637499 -0.1938526468475241 0 -0.21747383963602071 -0.19056619200720801 0 -0.21470917340859469 -0.20477581989821131 0 -0.21747383963602071 -0.19056619200720801 0 -0.23313018801803029 -0.20001345222240249 0 -0.21747383963602071 -0.19056619200720801 0 -0.23313018801803029 -0.20001345222240249 0 -0.22815628130069671 -0.17421025939410989 0 -0.23313018801803029 -0.20001345222240249 0 -0.24903603404399791 -0.1906553931807439 0 -0.22815628130069671 -0.17421025939410989 0 -0.23313018801803029 -0.20001345222240249 0 -0.24903603404399791 -0.1906553931807439 0 -0.2563036130072725 -0.21092518831798779 0 -0.23313018801803029 -0.20001345222240249 0 -0.2381040947353705 -0.22581664505069379 0 -0.2563036130072725 -0.21092518831798779 0 -0.23313018801803029 -0.20001345222240249 0 -0.2381040947353705 -0.22581664505069379 0 -0.21470917340859469 -0.20477581989821131 0 -0.23313018801803029 -0.20001345222240249 0 -0.22027640787121369 -0.2201493455623342 0 -0.23313018801803029 -0.20001345222240249 0 -0.22027640787121369 -0.2201493455623342 0 -0.2381040947353705 -0.22581664505069379 0 -0.22027640787121369 -0.2201493455623342 0 -0.2381040947353705 -0.22581664505069379 0 -0.22945053554541051 -0.2353519398500781 0 -0.22027640787121369 -0.2201493455623342 0 -0.2381040947353705 -0.22581664505069379 0 -0.21705716657709401 -0.23686746357677099 0 -0.22027640787121369 -0.2201493455623342 0 -0.22945053554541051 -0.2353519398500781 0 -0.2381040947353705 -0.22581664505069379 0 -0.2411477483349829 -0.24160624167899691 0 -0.25573605463006283 -0.23142172427668981 0 -0.2381040947353705 -0.22581664505069379 0 -0.25573605463006283 -0.23142172427668981 0 -0.2381040947353705 -0.22581664505069379 0 -0.2411477483349829 -0.24160624167899691 0 -0.22945053554541051 -0.2353519398500781 0 -0.2381040947353705 -0.22581664505069379 0 -0.2411477483349829 -0.24160624167899691 0 -0.24454988477764869 -0.25749770810531208 0 -0.2411477483349829 -0.24160624167899691 0 -0.2589589496512007 -0.24726225580399791 0 -0.24454988477764869 -0.25749770810531208 0 -0.2411477483349829 -0.24160624167899691 0 -0.2248525589425418 -0.25190033394045769 0 -0.21705716657709401 -0.23686746357677099 0 -0.22945053554541051 -0.2353519398500781 0 -0.2248525589425418 -0.25190033394045769 0 -0.2411477483349829 -0.24160624167899691 0 -0.22945053554541051 -0.2353519398500781 0 -0.20917460420777331 -0.15306305583523491 0 -0.2109850864099069 -0.1410119066218736 0 -0.19791412525785729 -0.14677914268999809 0 -0.20917460420777331 -0.15306305583523491 0 -0.21710677859131511 -0.16298906992540241 0 -0.22318237458336279 -0.1484070665658174 0 -0.20917460420777331 -0.15306305583523491 0 -0.2109850864099069 -0.1410119066218736 0 -0.22318237458336279 -0.1484070665658174 0 -0.2109850864099069 -0.1410119066218736 0 -0.21955951631954629 -0.1296127232692153 0 -0.20719559133418991 -0.1236302886587301 0 -0.2109850864099069 -0.1410119066218736 0 -0.199395157736204 -0.13390446849283999 0 -0.20719559133418991 -0.1236302886587301 0 -0.2109850864099069 -0.1410119066218736 0 -0.22318237458336279 -0.1484070665658174 0 -0.21955951631954629 -0.1296127232692153 0 -0.2109850864099069 -0.1410119066218736 0 -0.199395157736204 -0.13390446849283999 0 -0.19791412525785729 -0.14677914268999809 0 -0.18647837356359659 -0.13767088797027019 0 -0.199395157736204 -0.13390446849283999 0 -0.1915316175508146 -0.1209350109372955 0 -0.199395157736204 -0.13390446849283999 0 -0.20719559133418991 -0.1236302886587301 0 -0.1915316175508146 -0.1209350109372955 0 -0.18647837356359659 -0.13767088797027019 0 -0.199395157736204 -0.13390446849283999 0 -0.19791412525785729 -0.14677914268999809 0 -0.20917460420777331 -0.15306305583523491 0 -0.19791412525785729 -0.14677914268999809 0 -0.2004678750154508 -0.16366149895770951 0 -0.1857685038246468 -0.1563687324005629 0 -0.18647837356359659 -0.13767088797027019 0 -0.19791412525785729 -0.14677914268999809 0 -0.1857685038246468 -0.1563687324005629 0 -0.19791412525785729 -0.14677914268999809 0 -0.2004678750154508 -0.16366149895770951 0 -0.1857685038246468 -0.1563687324005629 0 -0.187861851224147 -0.16958558328473469 0 -0.2004678750154508 -0.16366149895770951 0 -0.187861851224147 -0.16958558328473469 0 -0.2004678750154508 -0.16366149895770951 0 -0.19140783645189949 -0.18120326779743831 0 -0.20046803519637499 -0.1938526468475241 0 -0.19140783645189949 -0.18120326779743831 0 -0.21103118259926759 -0.1775710732849875 0 -0.2004678750154508 -0.16366149895770951 0 -0.19140783645189949 -0.18120326779743831 0 -0.21103118259926759 -0.1775710732849875 0 -0.20046803519637499 -0.1938526468475241 0 -0.21747383963602071 -0.19056619200720801 0 -0.21103118259926759 -0.1775710732849875 0 -0.2004678750154508 -0.16366149895770951 0 -0.21103118259926759 -0.1775710732849875 0 -0.21710677859131511 -0.16298906992540241 0 -0.20917460420777331 -0.15306305583523491 0 -0.2004678750154508 -0.16366149895770951 0 -0.21710677859131511 -0.16298906992540241 0 -0.21103118259926759 -0.1775710732849875 0 -0.21710677859131511 -0.16298906992540241 0 -0.21710677859131511 -0.16298906992540241 0 -0.22815628130069671 -0.17421025939410989 0 -0.22318237458336279 -0.1484070665658174 0 -0.21103118259926759 -0.1775710732849875 0 -0.21710677859131511 -0.16298906992540241 0 -0.22815628130069671 -0.17421025939410989 0 -0.22815628130069671 -0.17421025939410989 0 -0.24079364746494719 -0.1570518795833743 0 -0.22318237458336279 -0.1484070665658174 0 -0.22815628130069671 -0.17421025939410989 0 -0.22318237458336279 -0.1484070665658174 0 -0.23313018801803029 -0.20001345222240249 0 -0.22815628130069671 -0.17421025939410989 0 -0.21747383963602071 -0.19056619200720801 0 -0.21103118259926759 -0.1775710732849875 0 -0.22815628130069671 -0.17421025939410989 0 -0.24903603404399791 -0.1906553931807439 0 -0.22815628130069671 -0.17421025939410989 0 -0.2472159042494245 -0.17300239474267201 0 -0.22815628130069671 -0.17421025939410989 0 -0.2472159042494245 -0.17300239474267201 0 -0.24079364746494719 -0.1570518795833743 0 -0.2472159042494245 -0.17300239474267201 0 -0.24079364746494719 -0.1570518795833743 0 -0.25757496885849102 -0.1629027281717142 0 -0.24079364746494719 -0.1570518795833743 0 -0.24000508148060901 -0.13814944628348519 0 -0.25304542354951343 -0.14448752822611621 0 -0.24079364746494719 -0.1570518795833743 0 -0.22318237458336279 -0.1484070665658174 0 -0.24000508148060901 -0.13814944628348519 0 -0.21710677859131511 -0.16298906992540241 0 -0.22318237458336279 -0.1484070665658174 0 -0.22318237458336279 -0.1484070665658174 0 -0.2347571680667645 -0.12062647060742911 0 -0.22318237458336279 -0.1484070665658174 0 -0.21955951631954629 -0.1296127232692153 0 -0.2347571680667645 -0.12062647060742911 0 -0.22318237458336279 -0.1484070665658174 0 -0.24000508148060901 -0.13814944628348519 0 -0.2347571680667645 -0.12062647060742911 0 -0.22318237458336279 -0.1484070665658174 0 -0.21955951631954629 -0.1296127232692153 0 -0.24000508148060901 -0.13814944628348519 0 -0.2347571680667645 -0.12062647060742911 0 -0.25486108899419019 -0.12099975944446199 0 -0.24000508148060901 -0.13814944628348519 0 -0.25486108899419019 -0.12099975944446199 0 -0.25304542354951343 -0.14448752822611621 0 -0.2347571680667645 -0.12062647060742911 0 -0.24633196155016651 -0.092845874649040872 0 -0.25486108899419019 -0.12099975944446199 0 -0.2347571680667645 -0.12062647060742911 0 -0.2295017933673231 -0.10428468376490339 0 -0.24633196155016651 -0.092845874649040872 0 -0.2347571680667645 -0.12062647060742911 0 -0.24633196155016651 -0.092845874649040872 0 -0.2295017933673231 -0.10428468376490339 0 -0.2209813857966321 -0.092848009830530598 0 -0.2159366580557294 -0.11081837997261321 0 -0.2295017933673231 -0.10428468376490339 0 -0.24633196155016651 -0.092845874649040872 0 -0.2209813857966321 -0.092848009830530598 0 -0.2347571680667645 -0.12062647060742911 0 -0.2295017933673231 -0.10428468376490339 0 -0.2159366580557294 -0.11081837997261321 0 -0.21955951631954629 -0.1296127232692153 0 -0.2347571680667645 -0.12062647060742911 0 -0.2159366580557294 -0.11081837997261321 0 -0.24072698681413221 -0.06579334866134455 0 -0.22743700800558181 -0.075524162926393787 0 -0.25064243141425341 -0.076653782063124593 0 -0.24072698681413221 -0.06579334866134455 0 -0.25115992304814089 -0.061119750346517357 0 -0.25064243141425341 -0.076653782063124593 0 -0.24633196155016651 -0.092845874649040872 0 -0.22743700800558181 -0.075524162926393787 0 -0.25064243141425341 -0.076653782063124593 0 -0.24633196155016651 -0.092845874649040872 0 -0.2209813857966321 -0.092848009830530598 0 -0.22743700800558181 -0.075524162926393787 0 -0.22743700800558181 -0.075524162926393787 0 -0.21217567641734161 -0.067282685836976802 0 -0.22541814218389769 -0.062223396027771119 0 -0.24072698681413221 -0.06579334866134455 0 -0.22743700800558181 -0.075524162926393787 0 -0.22541814218389769 -0.062223396027771119 0 -0.21217567641734161 -0.067282685836976802 0 -0.2075239656510475 -0.079660208671455485 0 -0.1958912386187483 -0.067162211370313349 0 -0.22743700800558181 -0.075524162926393787 0 -0.21217567641734161 -0.067282685836976802 0 -0.2075239656510475 -0.079660208671455485 0 -0.2209813857966321 -0.092848009830530598 0 -0.22743700800558181 -0.075524162926393787 0 -0.2075239656510475 -0.079660208671455485 0 -0.2209813857966321 -0.092848009830530598 0 -0.2075239656510475 -0.079660208671455485 0 -0.20270495895453211 -0.093364271313537278 0 -0.20270495895453211 -0.093364271313537278 0 -0.18690378158126761 -0.1025227226906933 0 -0.18595352611344909 -0.081779910750981233 0 -0.20270495895453211 -0.093364271313537278 0 -0.18595352611344909 -0.081779910750981233 0 -0.2075239656510475 -0.079660208671455485 0 -0.20270495895453211 -0.093364271313537278 0 -0.18595352611344909 -0.081779910750981233 0 -0.2075239656510475 -0.079660208671455485 0 -0.1958912386187483 -0.067162211370313349 0 -0.18595352611344909 -0.081779910750981233 0 -0.1958912386187483 -0.067162211370313349 0 -0.18595352611344909 -0.081779910750981233 0 -0.18298201223974489 -0.06867337174186175 0 -0.21955951631954629 -0.1296127232692153 0 -0.2159366580557294 -0.11081837997261321 0 -0.21955951631954629 -0.1296127232692153 0 -0.20719559133418991 -0.1236302886587301 0 -0.2159366580557294 -0.11081837997261321 0 -0.20719559133418991 -0.1236302886587301 0 -0.2159366580557294 -0.11081837997261321 0 -0.20088910862883949 -0.10848327139372101 0 -0.2209813857966321 -0.092848009830530598 0 -0.20270495895453211 -0.093364271313537278 0 -0.2159366580557294 -0.11081837997261321 0 -0.20270495895453211 -0.093364271313537278 0 -0.2159366580557294 -0.11081837997261321 0 -0.20088910862883949 -0.10848327139372101 0 -0.20270495895453211 -0.093364271313537278 0 -0.20088910862883949 -0.10848327139372101 0 -0.18690378158126761 -0.1025227226906933 0 -0.20719559133418991 -0.1236302886587301 0 -0.20088910862883949 -0.10848327139372101 0 -0.1915316175508146 -0.1209350109372955 0 -0.20088910862883949 -0.10848327139372101 0 -0.1915316175508146 -0.1209350109372955 0 -0.18690378158126761 -0.1025227226906933 0 -0.1915316175508146 -0.1209350109372955 0 -0.17089802921690639 -0.1196513154960956 0 -0.18690378158126761 -0.1025227226906933 0 -0.17089802921690639 -0.1196513154960956 0 -0.15812849855799191 -0.1216807865201372 0 -0.15778566885557291 -0.10326223317719641 0 -0.17089802921690639 -0.1196513154960956 0 -0.15778566885557291 -0.10326223317719641 0 -0.1694454490230641 -0.090922556252529346 0 -0.17089802921690639 -0.1196513154960956 0 -0.1694454490230641 -0.090922556252529346 0 -0.17089802921690639 -0.1196513154960956 0 -0.18690378158126761 -0.1025227226906933 0 -0.1694454490230641 -0.090922556252529346 0 -0.18690378158126761 -0.1025227226906933 0 -0.18595352611344909 -0.081779910750981233 0 -0.1694454490230641 -0.090922556252529346 0 -0.18595352611344909 -0.081779910750981233 0 -0.1692020932723661 -0.070195550188425132 0 -0.1694454490230641 -0.090922556252529346 0 -0.18595352611344909 -0.081779910750981233 0 -0.18298201223974489 -0.06867337174186175 0 -0.1692020932723661 -0.070195550188425132 0 -0.18595352611344909 -0.081779910750981233 0 -0.1692020932723661 -0.070195550188425132 0 -0.1958912386187483 -0.067162211370313349 0 -0.18298201223974489 -0.06867337174186175 0 -0.18088119095441629 -0.055555814657727277 0 -0.18298201223974489 -0.06867337174186175 0 -0.1692020932723661 -0.070195550188425132 0 -0.18088119095441629 -0.055555814657727277 0 -0.1692020932723661 -0.070195550188425132 0 -0.15275849391032981 -0.069655631388488348 0 -0.1514735402897476 -0.058716198866508737 0 -0.1692020932723661 -0.070195550188425132 0 -0.15742702139899661 -0.084794025279486263 0 -0.15275849391032981 -0.069655631388488348 0 -0.1692020932723661 -0.070195550188425132 0 -0.1514735402897476 -0.058716198866508737 0 -0.15778566885557291 -0.10326223317719641 0 -0.1694454490230641 -0.090922556252529346 0 -0.15742702139899661 -0.084794025279486263 0 -0.1692020932723661 -0.070195550188425132 0 -0.1694454490230641 -0.090922556252529346 0 -0.15742702139899661 -0.084794025279486263 0 -0.15742702139899661 -0.084794025279486263 0 -0.14403108800287531 -0.086452388180919409 0 -0.15064535941305021 -0.093919900197493786 0 -0.15742702139899661 -0.084794025279486263 0 -0.14403108800287531 -0.086452388180919409 0 -0.14619274241006269 -0.077662092553018036 0 -0.14403108800287531 -0.086452388180919409 0 -0.14619274241006269 -0.077662092553018036 0 -0.137443504849798 -0.080783631878495035 0 -0.15742702139899661 -0.084794025279486263 0 -0.15275849391032981 -0.069655631388488348 0 -0.14619274241006269 -0.077662092553018036 0 -0.15275849391032981 -0.069655631388488348 0 -0.14619274241006269 -0.077662092553018036 0 -0.14030620743073011 -0.06928467759754478 0 -0.14619274241006269 -0.077662092553018036 0 -0.14030620743073011 -0.06928467759754478 0 -0.137443504849798 -0.080783631878495035 0 -0.14030620743073011 -0.06928467759754478 0 -0.14012058196952909 -0.059936279674980553 0 -0.1514735402897476 -0.058716198866508737 0 -0.15275849391032981 -0.069655631388488348 0 -0.14030620743073011 -0.06928467759754478 0 -0.1514735402897476 -0.058716198866508737 0 -0.14030620743073011 -0.06928467759754478 0 -0.1514735402897476 -0.058716198866508737 0 -0.14030620743073011 -0.06928467759754478 0 -0.12549989672577999 -0.079527004379866317 0 -0.13627126551504101 -0.061488581395251957 0 -0.12549989672577999 -0.079527004379866317 0 -0.13627126551504101 -0.061488581395251957 0 -0.1163591914487991 -0.069518460775813015 0 -0.13627126551504101 -0.061488581395251957 0 -0.1163591914487991 -0.069518460775813015 0 -0.12755736622911809 -0.0612864245434133 0 -0.13627126551504101 -0.061488581395251957 0 -0.1163591914487991 -0.069518460775813015 0 -0.12549989672577999 -0.079527004379866317 0 -0.13627126551504101 -0.061488581395251957 0 -0.14030620743073011 -0.06928467759754478 0 -0.14012058196952909 -0.059936279674980553 0 -0.13627126551504101 -0.061488581395251957 0 -0.14030620743073011 -0.06928467759754478 0 -0.137443504849798 -0.080783631878495035 0 -0.12549989672577999 -0.079527004379866317 0 -0.14403108800287531 -0.086452388180919409 0 -0.1316888914507503 -0.09232194246104844 0 -0.1433376593947561 -0.101170954152373 0 -0.14403108800287531 -0.086452388180919409 0 -0.137443504849798 -0.080783631878495035 0 -0.1316888914507503 -0.09232194246104844 0 -0.137443504849798 -0.080783631878495035 0 -0.12549989672577999 -0.079527004379866317 0 -0.1316888914507503 -0.09232194246104844 0 -0.1316888914507503 -0.09232194246104844 0 -0.1279141590416612 -0.10667456835646449 0 -0.1433376593947561 -0.101170954152373 0 -0.1279141590416612 -0.10667456835646449 0 -0.13888530620379111 -0.1158981295173116 0 -0.1433376593947561 -0.101170954152373 0 -0.1225746473090282 -0.12236991870773441 0 -0.1279141590416612 -0.10667456835646449 0 -0.13888530620379111 -0.1158981295173116 0 -0.1225746473090282 -0.12236991870773441 0 -0.14119213547080281 -0.1291359870663758 0 -0.13888530620379111 -0.1158981295173116 0 -0.13888530620379111 -0.1158981295173116 0 -0.14842756872799071 -0.1223078998278221 0 -0.14939379418535861 -0.1130938506492544 0 -0.13888530620379111 -0.1158981295173116 0 -0.14939379418535861 -0.1130938506492544 0 -0.1433376593947561 -0.101170954152373 0 -0.15812849855799191 -0.1216807865201372 0 -0.15778566885557291 -0.10326223317719641 0 -0.14939379418535861 -0.1130938506492544 0 -0.14119213547080281 -0.1291359870663758 0 -0.13888530620379111 -0.1158981295173116 0 -0.14842756872799071 -0.1223078998278221 0 -0.15812849855799191 -0.1216807865201372 0 -0.14842756872799071 -0.1223078998278221 0 -0.14939379418535861 -0.1130938506492544 0 -0.15778566885557291 -0.10326223317719641 0 -0.14939379418535861 -0.1130938506492544 0 -0.1433376593947561 -0.101170954152373 0 -0.15778566885557291 -0.10326223317719641 0 -0.15742702139899661 -0.084794025279486263 0 -0.15064535941305021 -0.093919900197493786 0 -0.15778566885557291 -0.10326223317719641 0 -0.15064535941305021 -0.093919900197493786 0 -0.1433376593947561 -0.101170954152373 0 -0.14403108800287531 -0.086452388180919409 0 -0.15064535941305021 -0.093919900197493786 0 -0.1433376593947561 -0.101170954152373 0 -0.15508704572272969 -0.028483979365512831 0 -0.14880516952357351 -0.014267683319556031 0 -0.12650633931083369 -0.023455557937210041 0 -0.15508704572272969 -0.028483979365512831 0 -0.12650633931083369 -0.023455557937210041 0 -0.14880516952357351 -0.014267683319556031 0 -0.14316050255274121 -0.00029168652766420469 0 -0.1643647403796791 -0.002180185179673185 0 -0.14880516952357351 -0.014267683319556031 0 -0.14316050255274121 -0.00029168652766420469 0 -0.13255944309022311 -0.01125437117064511 0 -0.14316050255274121 -0.00029168652766420469 0 -0.1263847071420727 -0.00049017928581041167 0 -0.13255944309022311 -0.01125437117064511 0 -0.1201415431010609 -0.01606667565510073 0 -0.1263847071420727 -0.00049017928581041167 0 -0.13255944309022311 -0.01125437117064511 0 -0.1201415431010609 -0.01606667565510073 0 -0.13255944309022311 -0.01125437117064511 0 -0.12650633931083369 -0.023455557937210041 0 -0.14880516952357351 -0.014267683319556031 0 -0.13255944309022311 -0.01125437117064511 0 -0.12650633931083369 -0.023455557937210041 0 -0.15508704572272969 -0.028483979365512831 0 -0.12650633931083369 -0.023455557937210041 0 -0.1353449389456417 -0.033348999094338631 0 -0.1235419344184987 -0.034850153341615647 0 -0.12650633931083369 -0.023455557937210041 0 -0.1353449389456417 -0.033348999094338631 0 -0.1235419344184987 -0.034850153341615647 0 -0.12837680609682481 -0.041963049052672043 0 -0.1353449389456417 -0.033348999094338631 0 -0.12837680609682481 -0.041963049052672043 0 -0.142215865589674 -0.051533373963544717 0 -0.12837680609682481 -0.041963049052672043 0 -0.142215865589674 -0.051533373963544717 0 -0.1432125691793216 -0.037992255774682612 0 -0.12837680609682481 -0.041963049052672043 0 -0.1353449389456417 -0.033348999094338631 0 -0.1432125691793216 -0.037992255774682612 0 -0.1241597025088316 -0.052896041674259459 0 -0.12755736622911809 -0.0612864245434133 0 -0.13019762401881729 -0.056464956686300978 0 -0.12755736622911809 -0.0612864245434133 0 -0.13627126551504101 -0.061488581395251957 0 -0.12755736622911809 -0.0612864245434133 0 -0.13019762401881729 -0.056464956686300978 0 -0.13627126551504101 -0.061488581395251957 0 -0.1241597025088316 -0.052896041674259459 0 -0.13019762401881729 -0.056464956686300978 0 -0.1320756265841477 -0.051405481502697858 0 -0.1241597025088316 -0.052896041674259459 0 -0.12837680609682481 -0.041963049052672043 0 -0.1320756265841477 -0.051405481502697858 0 -0.12837680609682481 -0.041963049052672043 0 -0.1320756265841477 -0.051405481502697858 0 -0.142215865589674 -0.051533373963544717 0 -0.13019762401881729 -0.056464956686300978 0 -0.1320756265841477 -0.051405481502697858 0 -0.13627126551504101 -0.061488581395251957 0 -0.14012058196952909 -0.059936279674980553 0 -0.13627126551504101 -0.061488581395251957 0 -0.142215865589674 -0.051533373963544717 0 -0.1320756265841477 -0.051405481502697858 0 -0.13627126551504101 -0.061488581395251957 0 -0.142215865589674 -0.051533373963544717 0 -0.13627126551504101 -0.061488581395251957 0 -0.142215865589674 -0.051533373963544717 0 -0.14012058196952909 -0.059936279674980553 0 -0.13627126551504101 -0.061488581395251957 0 -0.14012058196952909 -0.059936279674980553 0 -0.142215865589674 -0.051533373963544717 0 -0.14911929015777009 -0.056307398972142708 0 -0.14012058196952909 -0.059936279674980553 0 -0.14911929015777009 -0.056307398972142708 0 -0.1514735402897476 -0.058716198866508737 0 -0.14012058196952909 -0.059936279674980553 0 -0.1514735402897476 -0.058716198866508737 0 -0.14012058196952909 -0.059936279674980553 0 -0.14911929015777009 -0.056307398972142708 0 -0.14622609152179669 -0.05163213859109448 0 -0.142215865589674 -0.051533373963544717 0 -0.15077902516842881 -0.048116199763287883 0 -0.142215865589674 -0.051533373963544717 0 -0.14911929015777009 -0.056307398972142708 0 -0.14622609152179669 -0.05163213859109448 0 -0.142215865589674 -0.051533373963544717 0 -0.14911929015777009 -0.056307398972142708 0 -0.15077902516842881 -0.048116199763287883 0 -0.14911929015777009 -0.056307398972142708 0 -0.15765682845381229 -0.052864492798926188 0 -0.14622609152179669 -0.05163213859109448 0 -0.15077902516842881 -0.048116199763287883 0 -0.14911929015777009 -0.056307398972142708 0 -0.14911929015777009 -0.056307398972142708 0 -0.15765682845381229 -0.052864492798926188 0 -0.15077902516842881 -0.048116199763287883 0 -0.15551462572742489 -0.045292654355780497 0 -0.15765682845381229 -0.052864492798926188 0 -0.14911929015777009 -0.056307398972142708 0 -0.1514735402897476 -0.058716198866508737 0 -0.15765682845381229 -0.052864492798926188 0 -0.14911929015777009 -0.056307398972142708 0 -0.1514735402897476 -0.058716198866508737 0 -0.1514735402897476 -0.058716198866508737 0 -0.15765682845381229 -0.052864492798926188 0 -0.15508704572272969 -0.028483979365512831 0 -0.1353449389456417 -0.033348999094338631 0 -0.1432125691793216 -0.037992255774682612 0 -0.142215865589674 -0.051533373963544717 0 -0.15077902516842881 -0.048116199763287883 0 -0.1432125691793216 -0.037992255774682612 0 -0.15077902516842881 -0.048116199763287883 0 -0.1432125691793216 -0.037992255774682612 0 -0.15262348827795411 -0.039522054677744833 0 -0.15077902516842881 -0.048116199763287883 0 -0.15262348827795411 -0.039522054677744833 0 -0.15551462572742489 -0.045292654355780497 0 -0.15508704572272969 -0.028483979365512831 0 -0.1432125691793216 -0.037992255774682612 0 -0.15262348827795411 -0.039522054677744833 0 -0.15508704572272969 -0.028483979365512831 0 -0.15262348827795411 -0.039522054677744833 0 -0.1609991610095042 -0.040667870183162723 0 -0.15765682845381229 -0.052864492798926188 0 -0.1733613139533394 -0.038002168636210087 0 -0.18086565913365429 -0.043505140764422988 0 -0.15508704572272969 -0.028483979365512831 0 -0.1609991610095042 -0.040667870183162723 0 -0.16538572406947649 -0.031012989029507151 0 -0.1609991610095042 -0.040667870183162723 0 -0.15765682845381229 -0.052864492798926188 0 -0.1733613139533394 -0.038002168636210087 0 -0.15765682845381229 -0.052864492798926188 0 -0.1733613139533394 -0.038002168636210087 0 -0.15262348827795411 -0.039522054677744833 0 -0.15551462572742489 -0.045292654355780497 0 -0.1609991610095042 -0.040667870183162723 0 -0.15551462572742489 -0.045292654355780497 0 -0.1609991610095042 -0.040667870183162723 0 -0.15765682845381229 -0.052864492798926188 0 -0.1609991610095042 -0.040667870183162723 0 -0.1733613139533394 -0.038002168636210087 0 -0.16538572406947649 -0.031012989029507151 0 -0.1514735402897476 -0.058716198866508737 0 -0.18088119095441629 -0.055555814657727277 0 -0.15765682845381229 -0.052864492798926188 0 -0.18086565913365429 -0.043505140764422988 0 -0.1514735402897476 -0.058716198866508737 0 -0.15765682845381229 -0.052864492798926188 0 -0.18088119095441629 -0.055555814657727277 0 -0.1692020932723661 -0.070195550188425132 0 -0.1514735402897476 -0.058716198866508737 0 -0.18088119095441629 -0.055555814657727277 0 -0.15765682845381229 -0.052864492798926188 0 -0.18088119095441629 -0.055555814657727277 0 -0.18086565913365429 -0.043505140764422988 0 -0.18088119095441629 -0.055555814657727277 0 -0.18086565913365429 -0.043505140764422988 0 -0.1920288292455633 -0.049025095406126921 0 -0.1733613139533394 -0.038002168636210087 0 -0.18906579945286681 -0.023139844473494379 0 -0.18889423328211599 -0.033330416231643033 0 -0.1733613139533394 -0.038002168636210087 0 -0.18086565913365429 -0.043505140764422988 0 -0.18889423328211599 -0.033330416231643033 0 -0.1733613139533394 -0.038002168636210087 0 -0.17115294608523429 -0.019940319736630852 0 -0.18906579945286681 -0.023139844473494379 0 -0.17115294608523429 -0.019940319736630852 0 -0.18844860492981441 -0.0067593314437991887 0 -0.18906579945286681 -0.023139844473494379 0 -0.1733613139533394 -0.038002168636210087 0 -0.18906579945286681 -0.023139844473494379 0 -0.15508704572272969 -0.028483979365512831 0 -0.14880516952357351 -0.014267683319556031 0 -0.17115294608523429 -0.019940319736630852 0 -0.1733613139533394 -0.038002168636210087 0 -0.17115294608523429 -0.019940319736630852 0 -0.16538572406947649 -0.031012989029507151 0 -0.15508704572272969 -0.028483979365512831 0 -0.17115294608523429 -0.019940319736630852 0 -0.16538572406947649 -0.031012989029507151 0 -0.14880516952357351 -0.014267683319556031 0 -0.17115294608523429 -0.019940319736630852 0 -0.1643647403796791 -0.002180185179673185 0 -0.17115294608523429 -0.019940319736630852 0 -0.1643647403796791 -0.002180185179673185 0 -0.18844860492981441 -0.0067593314437991887 0 -0.18844860492981441 -0.0067593314437991887 0 -0.20474847440626631 -0.005022555336773038 0 -0.2047702849523943 -0.0082775203107786355 0 -0.18844860492981441 -0.0067593314437991887 0 -0.18906579945286681 -0.023139844473494379 0 -0.2047702849523943 -0.0082775203107786355 0 -0.18906579945286681 -0.023139844473494379 0 -0.20170682052871 -0.021486575298620591 0 -0.2047702849523943 -0.0082775203107786355 0 -0.18906579945286681 -0.023139844473494379 0 -0.2047702849523943 -0.0082775203107786355 0 -0.18906579945286681 -0.023139844473494379 0 -0.19710390405722339 -0.027859138554168359 0 -0.18889423328211599 -0.033330416231643033 0 -0.18906579945286681 -0.023139844473494379 0 -0.19710390405722339 -0.027859138554168359 0 -0.20170682052871 -0.021486575298620591 0 -0.19710390405722339 -0.027859138554168359 0 -0.20170682052871 -0.021486575298620591 0 -0.2037162492346361 -0.026399538964826001 0 -0.19710390405722339 -0.027859138554168359 0 -0.2037162492346361 -0.026399538964826001 0 -0.20407448981349621 -0.034145788729919337 0 -0.21243709067068081 -0.021427231052065811 0 -0.20407448981349621 -0.034145788729919337 0 -0.22728332049333819 -0.024786436695415939 0 -0.21243709067068081 -0.021427231052065811 0 -0.20474847440626631 -0.005022555336773038 0 -0.22728332049333819 -0.024786436695415939 0 -0.20170682052871 -0.021486575298620591 0 -0.2037162492346361 -0.026399538964826001 0 -0.21243709067068081 -0.021427231052065811 0 -0.20170682052871 -0.021486575298620591 0 -0.21243709067068081 -0.021427231052065811 0 -0.2047702849523943 -0.0082775203107786355 0 -0.20407448981349621 -0.034145788729919337 0 -0.22728332049333819 -0.024786436695415939 0 -0.2037162492346361 -0.026399538964826001 0 -0.21243709067068081 -0.021427231052065811 0 -0.20407448981349621 -0.034145788729919337 0 -0.21243709067068081 -0.021427231052065811 0 -0.20474847440626631 -0.005022555336773038 0 -0.2047702849523943 -0.0082775203107786355 0 -0.20474847440626631 -0.005022555336773038 0 -0.22728332049333819 -0.024786436695415939 0 -0.1958912386187483 -0.067162211370313349 0 -0.18088119095441629 -0.055555814657727277 0 -0.2093117214775489 -0.052500439689587258 0 -0.18088119095441629 -0.055555814657727277 0 -0.1920288292455633 -0.049025095406126921 0 -0.2093117214775489 -0.052500439689587258 0 -0.1920288292455633 -0.049025095406126921 0 -0.19705674541663359 -0.044538986512770162 0 -0.2093117214775489 -0.052500439689587258 0 -0.18088119095441629 -0.055555814657727277 0 -0.2093117214775489 -0.052500439689587258 0 -0.18086565913365429 -0.043505140764422988 0 -0.20407448981349621 -0.034145788729919337 0 -0.18086565913365429 -0.043505140764422988 0 -0.1920288292455633 -0.049025095406126921 0 -0.19705674541663359 -0.044538986512770162 0 -0.18086565913365429 -0.043505140764422988 0 -0.18889423328211599 -0.033330416231643033 0 -0.20407448981349621 -0.034145788729919337 0 -0.18086565913365429 -0.043505140764422988 0 -0.19705674541663359 -0.044538986512770162 0 -0.20407448981349621 -0.034145788729919337 0 -0.19705674541663359 -0.044538986512770162 0 -0.20407448981349621 -0.034145788729919337 0 -0.20501463975278911 -0.04268283443856824 0 -0.19710390405722339 -0.027859138554168359 0 -0.18889423328211599 -0.033330416231643033 0 -0.20407448981349621 -0.034145788729919337 0 -0.20407448981349621 -0.034145788729919337 0 -0.2116591617638319 -0.039004479426073248 0 -0.22728332049333819 -0.024786436695415939 0 -0.20407448981349621 -0.034145788729919337 0 -0.2116591617638319 -0.039004479426073248 0 -0.20501463975278911 -0.04268283443856824 0 -0.19705674541663359 -0.044538986512770162 0 -0.20501463975278911 -0.04268283443856824 0 -0.2093117214775489 -0.052500439689587258 0 -0.2116591617638319 -0.039004479426073248 0 -0.20501463975278911 -0.04268283443856824 0 -0.2093117214775489 -0.052500439689587258 0 -0.21217567641734161 -0.067282685836976802 0 -0.2093117214775489 -0.052500439689587258 0 -0.22541814218389769 -0.062223396027771119 0 -0.21217567641734161 -0.067282685836976802 0 -0.1958912386187483 -0.067162211370313349 0 -0.2093117214775489 -0.052500439689587258 0 -0.2093117214775489 -0.052500439689587258 0 -0.22541814218389769 -0.062223396027771119 0 -0.2377422520006815 -0.049445064721447239 0 -0.2093117214775489 -0.052500439689587258 0 -0.2377422520006815 -0.049445064721447239 0 -0.2116591617638319 -0.039004479426073248 0 -0.2093117214775489 -0.052500439689587258 0 -0.2377422520006815 -0.049445064721447239 0 -0.2116591617638319 -0.039004479426073248 0 -0.23853540948456561 -0.034654928851979488 0 -0.2377422520006815 -0.049445064721447239 0 -0.2116591617638319 -0.039004479426073248 0 -0.23853540948456561 -0.034654928851979488 0 -0.22728332049333819 -0.024786436695415939 0 -0.2116591617638319 -0.039004479426073248 0 -0.23853540948456561 -0.034654928851979488 0 -0.23853540948456561 -0.034654928851979488 0 -0.2377422520006815 -0.049445064721447239 0 -0.25597622017961519 -0.04995115550662587 0 -0.23853540948456561 -0.034654928851979488 0 -0.25597622017961519 -0.04995115550662587 0 -0.2377422520006815 -0.049445064721447239 0 -0.25597622017961519 -0.04995115550662587 0 -0.25115992304814089 -0.061119750346517357 0 -0.24072698681413221 -0.06579334866134455 0 -0.2377422520006815 -0.049445064721447239 0 -0.25115992304814089 -0.061119750346517357 0 -0.24072698681413221 -0.06579334866134455 0 -0.22541814218389769 -0.062223396027771119 0 -0.2377422520006815 -0.049445064721447239 0 -0.22551239567807371 -0.01052536391300136 0 -0.23330032490817609 -0.022359978280147741 0 -0.24177990985366549 -0.011629590456526629 0 -0.20474847440626631 -0.005022555336773038 0 -0.22551239567807371 -0.01052536391300136 0 -0.22728332049333819 -0.024786436695415939 0 -0.20474847440626631 -0.005022555336773038 0 -0.22551239567807371 -0.01052536391300136 0 -0.22612747791280821 0.0075226402915801599 0 -0.22551239567807371 -0.01052536391300136 0 -0.24177990985366549 -0.011629590456526629 0 -0.22612747791280821 0.0075226402915801599 0 -0.23853540948456561 -0.034654928851979488 0 -0.22728332049333819 -0.024786436695415939 0 -0.23853540948456561 -0.034654928851979488 0 -0.22728332049333819 -0.024786436695415939 0 -0.23330032490817609 -0.022359978280147741 0 -0.22728332049333819 -0.024786436695415939 0 -0.23330032490817609 -0.022359978280147741 0 -0.22551239567807371 -0.01052536391300136 0 -0.22728332049333819 -0.024786436695415939 0 -0.23330032490817609 -0.022359978280147741 0 -0.23330032490817609 -0.022359978280147741 0 -0.24094002449554741 -0.022773598134729671 0 -0.24177990985366549 -0.011629590456526629 0 -0.23853540948456561 -0.034654928851979488 0 -0.23330032490817609 -0.022359978280147741 0 -0.24094002449554741 -0.022773598134729671 0 -0.23853540948456561 -0.034654928851979488 0 -0.24094002449554741 -0.022773598134729671 0 -0.25014445373578031 -0.022449894950267349 0 -0.24094002449554741 -0.022773598134729671 0 -0.24177990985366549 -0.011629590456526629 0 -0.25014445373578031 -0.022449894950267349 0 -0.24177990985366549 -0.011629590456526629 0 -0.25430018986547698 -0.00612621221049231 0 -0.25014445373578031 -0.022449894950267349 0 -0.24177990985366549 -0.011629590456526629 0 -0.25430018986547698 -0.00612621221049231 0 -0.24726539525988339 0.0072649071471831209 0 -0.25430018986547698 -0.00612621221049231 0 -0.26120824905860612 -0.017048507516713201 0 -0.27394587021700112 -0.010760545891949269 0 -0.25430018986547698 -0.00612621221049231 0 -0.25014445373578031 -0.022449894950267349 0 -0.26120824905860612 -0.017048507516713201 0 -0.25430018986547698 -0.00612621221049231 0 -0.27394587021700112 -0.010760545891949269 0 -0.26559975475773162 0.0065156817321890652 0 -0.23853540948456561 -0.034654928851979488 0 -0.25014445373578031 -0.022449894950267349 0 -0.2651593357470784 -0.030346213031121391 0 -0.25014445373578031 -0.022449894950267349 0 -0.26120824905860612 -0.017048507516713201 0 -0.2651593357470784 -0.030346213031121391 0 -0.2651593357470784 -0.030346213031121391 0 -0.29178326200959093 -0.026037497210261169 0 -0.2651593357470784 -0.030346213031121391 0 -0.27394587021700112 -0.010760545891949269 0 -0.29178326200959093 -0.026037497210261169 0 -0.26120824905860612 -0.017048507516713201 0 -0.2651593357470784 -0.030346213031121391 0 -0.27394587021700112 -0.010760545891949269 0 -0.27394587021700112 -0.010760545891949269 0 -0.29541564460709341 -0.00836752224641313 0 -0.28323680260587852 0.0054691074990878058 0 -0.27394587021700112 -0.010760545891949269 0 -0.29541564460709341 -0.00836752224641313 0 -0.29178326200959093 -0.026037497210261169 0 -0.29178326200959093 -0.026037497210261169 0 -0.31840718827210329 -0.021728781389400969 0 -0.29541564460709341 -0.00836752224641313 0 -0.29178326200959093 -0.026037497210261169 0 -0.31840718827210329 -0.021728781389400969 0 -0.29178326200959093 -0.026037497210261169 0 -0.30662227587362728 -0.041258304735719058 0 -0.31840718827210329 -0.021728781389400969 0 -0.29541564460709341 -0.00836752224641313 0 -0.31840718827210329 -0.021728781389400969 0 -0.30767681351208442 0.0074333571717676034 0 -0.29716587965107888 -0.060543441596536067 0 -0.32091472842749569 -0.055839501031796017 0 -0.29716587965107888 -0.060543441596536067 0 -0.30662227587362728 -0.041258304735719058 0 -0.32091472842749569 -0.055839501031796017 0 -0.29178326200959093 -0.026037497210261169 0 -0.30662227587362728 -0.041258304735719058 0 -0.28173236189955569 -0.045356676553380187 0 -0.29716587965107888 -0.060543441596536067 0 -0.30662227587362728 -0.041258304735719058 0 -0.28173236189955569 -0.045356676553380187 0 -0.29716587965107888 -0.060543441596536067 0 -0.28173236189955569 -0.045356676553380187 0 -0.27341703087466213 -0.065247382161275527 0 -0.28173236189955569 -0.045356676553380187 0 -0.25597622017961519 -0.04995115550662587 0 -0.27341703087466213 -0.065247382161275527 0 -0.2651593357470784 -0.030346213031121391 0 -0.28173236189955569 -0.045356676553380187 0 -0.25597622017961519 -0.04995115550662587 0 -0.2651593357470784 -0.030346213031121391 0 -0.29178326200959093 -0.026037497210261169 0 -0.28173236189955569 -0.045356676553380187 0 -0.23853540948456561 -0.034654928851979488 0 -0.2651593357470784 -0.030346213031121391 0 -0.23853540948456561 -0.034654928851979488 0 -0.2651593357470784 -0.030346213031121391 0 -0.25597622017961519 -0.04995115550662587 0 -0.25597622017961519 -0.04995115550662587 0 -0.26118471259482468 -0.067670240578500823 0 -0.27341703087466213 -0.065247382161275527 0 -0.25597622017961519 -0.04995115550662587 0 -0.25115992304814089 -0.061119750346517357 0 -0.26118471259482468 -0.067670240578500823 0 -0.25597622017961519 -0.04995115550662587 0 -0.27341703087466213 -0.065247382161275527 0 -0.25115992304814089 -0.061119750346517357 0 -0.26118471259482468 -0.067670240578500823 0 -0.25064243141425341 -0.076653782063124593 0 -0.26118471259482468 -0.067670240578500823 0 -0.25064243141425341 -0.076653782063124593 0 -0.27024609911804598 -0.083897849219719059 0 -0.24633196155016651 -0.092845874649040872 0 -0.27024609911804598 -0.083897849219719059 0 -0.26929917699652528 -0.1008556319114474 0 -0.24633196155016651 -0.092845874649040872 0 -0.25064243141425341 -0.076653782063124593 0 -0.27024609911804598 -0.083897849219719059 0 -0.27024609911804598 -0.083897849219719059 0 -0.28299435831094288 -0.091706363135657193 0 -0.28974526839286679 -0.079567841589248289 0 -0.27024609911804598 -0.083897849219719059 0 -0.26929917699652528 -0.1008556319114474 0 -0.28299435831094288 -0.091706363135657193 0 -0.26118471259482468 -0.067670240578500823 0 -0.27024609911804598 -0.083897849219719059 0 -0.27341703087466213 -0.065247382161275527 0 -0.27024609911804598 -0.083897849219719059 0 -0.27341703087466213 -0.065247382161275527 0 -0.28974526839286679 -0.079567841589248289 0 -0.26118471259482468 -0.067670240578500823 0 -0.27341703087466213 -0.065247382161275527 0 -0.24633196155016651 -0.092845874649040872 0 -0.25486108899419019 -0.12099975944446199 0 -0.26929917699652528 -0.1008556319114474 0 -0.26929917699652528 -0.1008556319114474 0 -0.28756478359343252 -0.10418104198269 0 -0.28299435831094288 -0.091706363135657193 0 -0.26929917699652528 -0.1008556319114474 0 -0.27321492624102739 -0.1162814793594084 0 -0.28756478359343252 -0.10418104198269 0 -0.27321492624102739 -0.1162814793594084 0 -0.2887073393948465 -0.1209195385343899 0 -0.27166984226218072 -0.13547092093432969 0 -0.25486108899419019 -0.12099975944446199 0 -0.27321492624102739 -0.1162814793594084 0 -0.27166984226218072 -0.13547092093432969 0 -0.25486108899419019 -0.12099975944446199 0 -0.26929917699652528 -0.1008556319114474 0 -0.27321492624102739 -0.1162814793594084 0 -0.27321492624102739 -0.1162814793594084 0 -0.2887073393948465 -0.1209195385343899 0 -0.28756478359343252 -0.10418104198269 0 -0.2887073393948465 -0.1209195385343899 0 -0.28756478359343252 -0.10418104198269 0 -0.29771167523855008 -0.10996915358668451 0 -0.28756478359343252 -0.10418104198269 0 -0.2993250967517237 -0.1012465425160002 0 -0.29771167523855008 -0.10996915358668451 0 -0.28756478359343252 -0.10418104198269 0 -0.28299435831094288 -0.091706363135657193 0 -0.29787402838244981 -0.092020524442803342 0 -0.28756478359343252 -0.10418104198269 0 -0.2993250967517237 -0.1012465425160002 0 -0.29787402838244981 -0.092020524442803342 0 -0.2993250967517237 -0.1012465425160002 0 -0.30607350591107352 -0.093888301017219011 0 -0.30740149063311489 -0.1061736915506014 0 -0.2993250967517237 -0.1012465425160002 0 -0.30607350591107352 -0.093888301017219011 0 -0.29787402838244981 -0.092020524442803342 0 -0.30607350591107352 -0.093888301017219011 0 -0.30740149063311489 -0.1061736915506014 0 -0.32098247445222661 -0.10696400982342311 0 -0.2993250967517237 -0.1012465425160002 0 -0.30740149063311489 -0.1061736915506014 0 -0.29771167523855008 -0.10996915358668451 0 -0.30740149063311489 -0.1061736915506014 0 -0.29771167523855008 -0.10996915358668451 0 -0.30768842782870498 -0.12219288172221671 0 -0.2887073393948465 -0.1209195385343899 0 -0.29771167523855008 -0.10996915358668451 0 -0.30768842782870498 -0.12219288172221671 0 -0.30740149063311489 -0.1061736915506014 0 -0.30768842782870498 -0.12219288172221671 0 -0.32098247445222661 -0.10696400982342311 0 -0.29716587965107888 -0.060543441596536067 0 -0.27341703087466213 -0.065247382161275527 0 -0.27341703087466213 -0.065247382161275527 0 -0.28974526839286679 -0.079567841589248289 0 -0.29716587965107888 -0.060543441596536067 0 -0.27341703087466213 -0.065247382161275527 0 -0.28974526839286679 -0.079567841589248289 0 -0.28299435831094288 -0.091706363135657193 0 -0.28974526839286679 -0.079567841589248289 0 -0.29787402838244981 -0.092020524442803342 0 -0.30607350591107352 -0.093888301017219011 0 -0.28974526839286679 -0.079567841589248289 0 -0.29787402838244981 -0.092020524442803342 0 -0.30607350591107352 -0.093888301017219011 0 -0.28974526839286679 -0.079567841589248289 0 -0.30671278274277303 -0.07415609460817893 0 -0.30607350591107352 -0.093888301017219011 0 -0.28974526839286679 -0.079567841589248289 0 -0.30607350591107352 -0.093888301017219011 0 -0.30671278274277303 -0.07415609460817893 0 -0.32219395598949591 -0.079786765801874354 0 -0.30607350591107352 -0.093888301017219011 0 -0.29787402838244981 -0.092020524442803342 0 -0.29716587965107888 -0.060543441596536067 0 -0.30671278274277303 -0.07415609460817893 0 -0.32091472842749569 -0.055839501031796017 0 -0.29716587965107888 -0.060543441596536067 0 -0.28974526839286679 -0.079567841589248289 0 -0.30671278274277303 -0.07415609460817893 0 -0.30671278274277303 -0.07415609460817893 0 -0.32219395598949591 -0.079786765801874354 0 -0.32091472842749569 -0.055839501031796017 0 -0.32219395598949591 -0.079786765801874354 0 -0.33606817353421881 -0.06874759710721616 0 -0.32091472842749569 -0.055839501031796017 0 -0.30607350591107352 -0.093888301017219011 0 -0.32219395598949591 -0.079786765801874354 0 -0.32803070219413027 -0.098889977857487529 0 -0.32219395598949591 -0.079786765801874354 0 -0.33882645628649671 -0.086523001813289341 0 -0.33606817353421881 -0.06874759710721616 0 -0.32219395598949591 -0.079786765801874354 0 -0.33882645628649671 -0.086523001813289341 0 -0.32803070219413027 -0.098889977857487529 0 -0.33882645628649671 -0.086523001813289341 0 -0.32803070219413027 -0.098889977857487529 0 -0.33882645628649671 -0.086523001813289341 0 -0.33606817353421881 -0.06874759710721616 0 -0.35374214976369289 -0.070453156422065052 0 -0.30768842782870498 -0.12219288172221671 0 -0.3238099705802196 -0.1228492293216347 0 -0.32098247445222661 -0.10696400982342311 0 -0.30768842782870498 -0.12219288172221671 0 -0.32098247445222661 -0.10696400982342311 0 -0.30607350591107352 -0.093888301017219011 0 -0.32803070219413027 -0.098889977857487529 0 -0.30607350591107352 -0.093888301017219011 0 -0.32098247445222661 -0.10696400982342311 0 -0.32803070219413027 -0.098889977857487529 0 -0.32098247445222661 -0.10696400982342311 0 -0.32803070219413027 -0.098889977857487529 0 -0.30607350591107352 -0.093888301017219011 0 -0.32098247445222661 -0.10696400982342311 0 -0.33882645628649671 -0.086523001813289341 0 -0.32803070219413027 -0.098889977857487529 0 -0.35353323879944332 -0.1046992553746502 0 -0.32803070219413027 -0.098889977857487529 0 -0.35353323879944332 -0.1046992553746502 0 -0.32803070219413027 -0.098889977857487529 0 -0.33992830259558032 -0.1235801916344603 0 -0.35353323879944332 -0.1046992553746502 0 -0.32098247445222661 -0.10696400982342311 0 -0.33992830259558032 -0.1235801916344603 0 -0.3238099705802196 -0.1228492293216347 0 -0.32098247445222661 -0.10696400982342311 0 -0.33992830259558032 -0.1235801916344603 0 -0.32098247445222661 -0.10696400982342311 0 -0.32803070219413027 -0.098889977857487529 0 -0.33992830259558032 -0.1235801916344603 0 -0.33992830259558032 -0.1235801916344603 0 -0.35353323879944332 -0.1046992553746502 0 -0.36537790335604847 -0.12386360089438039 0 -0.35353323879944332 -0.1046992553746502 0 -0.37903577540475702 -0.1105085328918107 0 -0.35353323879944332 -0.1046992553746502 0 -0.36417685103600822 -0.08942548607038682 0 -0.37903577540475702 -0.1105085328918107 0 -0.35353323879944332 -0.1046992553746502 0 -0.36537790335604847 -0.12386360089438039 0 -0.37903577540475702 -0.1105085328918107 0 -0.33606817353421881 -0.06874759710721616 0 -0.35374214976369289 -0.070453156422065052 0 -0.34466357720391239 -0.051135560467055988 0 -0.33882645628649671 -0.086523001813289341 0 -0.35374214976369289 -0.070453156422065052 0 -0.36417685103600822 -0.08942548607038682 0 -0.33882645628649671 -0.086523001813289341 0 -0.35353323879944332 -0.1046992553746502 0 -0.36417685103600822 -0.08942548607038682 0 -0.36417685103600822 -0.08942548607038682 0 -0.37292365156696161 -0.073972163885322448 0 -0.38699983439469787 -0.090396806035183172 0 -0.35374214976369289 -0.070453156422065052 0 -0.37292365156696161 -0.073972163885322448 0 -0.3709610569287099 -0.05534374506564109 0 -0.35374214976369289 -0.070453156422065052 0 -0.36417685103600822 -0.08942548607038682 0 -0.37292365156696161 -0.073972163885322448 0 -0.34466357720391239 -0.051135560467055988 0 -0.36950599403787288 -0.033040856872608187 0 -0.34503111453461582 -0.017420065568540751 0 -0.35374214976369289 -0.070453156422065052 0 -0.3709610569287099 -0.05534374506564109 0 -0.34466357720391239 -0.051135560467055988 0 -0.3709610569287099 -0.05534374506564109 0 -0.34466357720391239 -0.051135560467055988 0 -0.36950599403787288 -0.033040856872608187 0 -0.36950599403787288 -0.033040856872608187 0 -0.37165504079712819 -0.01311134974768053 0 -0.34503111453461582 -0.017420065568540751 0 -0.37165504079712819 -0.01311134974768053 0 -0.34503111453461582 -0.017420065568540751 0 -0.34503111453461582 -0.017420065568540751 0 -0.33587161933075749 0.001795895336300262 0 -0.35899168621924421 0.00086553536704151541 0 -0.37165504079712819 -0.01311134974768053 0 -0.34503111453461582 -0.017420065568540751 0 -0.35899168621924421 0.00086553536704151541 0 -0.34503111453461582 -0.017420065568540751 0 -0.31840718827210329 -0.021728781389400969 0 -0.34503111453461582 -0.017420065568540751 0 -0.31840718827210329 -0.021728781389400969 0 -0.32787133632509052 -0.037638582065484677 0 -0.34503111453461582 -0.017420065568540751 0 -0.31840718827210329 -0.021728781389400969 0 -0.33587161933075749 0.001795895336300262 0 -0.31840718827210329 -0.021728781389400969 0 -0.30767681351208442 0.0074333571717676034 0 -0.33587161933075749 0.001795895336300262 0 -0.30662227587362728 -0.041258304735719058 0 -0.31840718827210329 -0.021728781389400969 0 -0.32787133632509052 -0.037638582065484677 0 -0.30662227587362728 -0.041258304735719058 0 -0.32787133632509052 -0.037638582065484677 0 -0.32091472842749569 -0.055839501031796017 0 -0.34466357720391239 -0.051135560467055988 0 -0.34503111453461582 -0.017420065568540751 0 -0.32787133632509052 -0.037638582065484677 0 -0.33606817353421881 -0.06874759710721616 0 -0.34466357720391239 -0.051135560467055988 0 -0.32091472842749569 -0.055839501031796017 0 -0.34466357720391239 -0.051135560467055988 0 -0.32091472842749569 -0.055839501031796017 0 -0.34466357720391239 -0.051135560467055988 0 -0.32787133632509052 -0.037638582065484677 0 -0.32091472842749569 -0.055839501031796017 0 -0.32430591068617282 -0.25321961163608447 0 -0.29883696260546339 -0.2451232075693866 0 -0.29883696260546339 -0.2451232075693866 0 -0.29726720115739641 -0.22005006094754101 0 -0.32519780166612922 -0.23004945422981371 0 -0.29726720115739641 -0.22005006094754101 0 -0.27336801452475479 -0.23702680350268659 0 -0.29883696260546339 -0.2451232075693866 0 -0.29726720115739641 -0.22005006094754101 0 -0.27336801452475479 -0.23702680350268659 0 -0.27810165793155861 -0.25747132149105112 0 -0.29883696260546339 -0.2451232075693866 0 -0.27336801452475479 -0.23702680350268659 0 -0.29883696260546339 -0.2451232075693866 0 -0.27336801452475479 -0.23702680350268659 0 -0.26725718232416801 -0.25389859205194781 0 -0.27336801452475479 -0.23702680350268659 0 -0.2589589496512007 -0.24726225580399791 0 -0.26725718232416801 -0.25389859205194781 0 -0.27810165793155861 -0.25747132149105112 0 -0.27336801452475479 -0.23702680350268659 0 -0.27336801452475479 -0.23702680350268659 0 -0.2589589496512007 -0.24726225580399791 0 -0.2411477483349829 -0.24160624167899691 0 -0.2589589496512007 -0.24726225580399791 0 -0.25573605463006283 -0.23142172427668981 0 -0.27336801452475479 -0.23702680350268659 0 -0.2589589496512007 -0.24726225580399791 0 -0.25573605463006283 -0.23142172427668981 0 -0.27336801452475479 -0.23702680350268659 0 -0.25573605463006283 -0.23142172427668981 0 -0.25573605463006283 -0.23142172427668981 0 -0.26986488877673831 -0.22286948300605289 0 -0.2563036130072725 -0.21092518831798779 0 -0.2381040947353705 -0.22581664505069379 0 -0.25573605463006283 -0.23142172427668981 0 -0.2563036130072725 -0.21092518831798779 0 -0.29726720115739641 -0.22005006094754101 0 -0.27336801452475479 -0.23702680350268659 0 -0.26986488877673831 -0.22286948300605289 0 -0.27336801452475479 -0.23702680350268659 0 -0.25573605463006283 -0.23142172427668981 0 -0.26986488877673831 -0.22286948300605289 0 -0.26986488877673831 -0.22286948300605289 0 -0.27620469639138789 -0.21058397404029941 0 -0.2563036130072725 -0.21092518831798779 0 -0.29726720115739641 -0.22005006094754101 0 -0.26986488877673831 -0.22286948300605289 0 -0.27620469639138789 -0.21058397404029941 0 -0.27620469639138789 -0.21058397404029941 0 -0.2563036130072725 -0.21092518831798779 0 -0.27330572764080913 -0.19297119590194381 0 -0.24903603404399791 -0.1906553931807439 0 -0.2563036130072725 -0.21092518831798779 0 -0.27330572764080913 -0.19297119590194381 0 -0.27620469639138789 -0.21058397404029941 0 -0.27330572764080913 -0.19297119590194381 0 -0.29466728440124312 -0.19982289239664219 0 -0.27330572764080913 -0.19297119590194381 0 -0.29466728440124312 -0.19982289239664219 0 -0.29002716147511087 -0.18590611311965921 0 -0.29726720115739641 -0.22005006094754101 0 -0.27620469639138789 -0.21058397404029941 0 -0.29466728440124312 -0.19982289239664219 0 -0.29726720115739641 -0.22005006094754101 0 -0.32116638779004009 -0.20307331839239851 0 -0.29726720115739641 -0.22005006094754101 0 -0.29466728440124312 -0.19982289239664219 0 -0.32116638779004009 -0.20307331839239851 0 -0.29466728440124312 -0.19982289239664219 0 -0.31003253195271407 -0.18635269197801169 0 -0.29002716147511087 -0.18590611311965921 0 -0.29466728440124312 -0.19982289239664219 0 -0.31003253195271407 -0.18635269197801169 0 -0.32116638779004009 -0.20307331839239851 0 -0.31003253195271407 -0.18635269197801169 0 -0.29521968983309649 -0.17118225177376289 0 -0.29002716147511087 -0.18590611311965921 0 -0.31003253195271407 -0.18635269197801169 0 -0.29521968983309649 -0.17118225177376289 0 -0.31977327242176312 -0.16735374708015421 0 -0.29521968983309649 -0.17118225177376289 0 -0.30209216641229258 -0.1544849138528917 0 -0.31977327242176312 -0.16735374708015421 0 -0.29521968983309649 -0.17118225177376289 0 -0.28110033458166178 -0.1526506255198038 0 -0.30209216641229258 -0.1544849138528917 0 -0.29521968983309649 -0.17118225177376289 0 -0.27510907434207232 -0.1706445653276058 0 -0.28110033458166178 -0.1526506255198038 0 -0.29521968983309649 -0.17118225177376289 0 -0.29002716147511087 -0.18590611311965921 0 -0.27510907434207232 -0.1706445653276058 0 -0.27330572764080913 -0.19297119590194381 0 -0.29002716147511087 -0.18590611311965921 0 -0.27510907434207232 -0.1706445653276058 0 -0.27330572764080913 -0.19297119590194381 0 -0.26112685513228318 -0.1788474552040632 0 -0.27510907434207232 -0.1706445653276058 0 -0.24903603404399791 -0.1906553931807439 0 -0.2472159042494245 -0.17300239474267201 0 -0.26112685513228318 -0.1788474552040632 0 -0.24903603404399791 -0.1906553931807439 0 -0.27330572764080913 -0.19297119590194381 0 -0.26112685513228318 -0.1788474552040632 0 -0.26112685513228318 -0.1788474552040632 0 -0.25757496885849102 -0.1629027281717142 0 -0.27510907434207232 -0.1706445653276058 0 -0.2472159042494245 -0.17300239474267201 0 -0.26112685513228318 -0.1788474552040632 0 -0.25757496885849102 -0.1629027281717142 0 -0.25757496885849102 -0.1629027281717142 0 -0.27510907434207232 -0.1706445653276058 0 -0.26606625720792049 -0.1501554918897767 0 -0.27510907434207232 -0.1706445653276058 0 -0.26606625720792049 -0.1501554918897767 0 -0.28110033458166178 -0.1526506255198038 0 -0.26606625720792049 -0.1501554918897767 0 -0.28110033458166178 -0.1526506255198038 0 -0.27166984226218072 -0.13547092093432969 0 -0.24079364746494719 -0.1570518795833743 0 -0.25757496885849102 -0.1629027281717142 0 -0.25304542354951343 -0.14448752822611621 0 -0.26606625720792049 -0.1501554918897767 0 -0.25304542354951343 -0.14448752822611621 0 -0.27166984226218072 -0.13547092093432969 0 -0.25757496885849102 -0.1629027281717142 0 -0.26606625720792049 -0.1501554918897767 0 -0.25304542354951343 -0.14448752822611621 0 -0.25486108899419019 -0.12099975944446199 0 -0.25304542354951343 -0.14448752822611621 0 -0.27166984226218072 -0.13547092093432969 0 -0.2887073393948465 -0.1209195385343899 0 -0.27166984226218072 -0.13547092093432969 0 -0.29439438120518352 -0.1374217536210102 0 -0.28110033458166178 -0.1526506255198038 0 -0.29439438120518352 -0.1374217536210102 0 -0.30209216641229258 -0.1544849138528917 0 -0.28110033458166178 -0.1526506255198038 0 -0.29439438120518352 -0.1374217536210102 0 -0.28110033458166178 -0.1526506255198038 0 -0.27166984226218072 -0.13547092093432969 0 -0.29439438120518352 -0.1374217536210102 0 -0.29439438120518352 -0.1374217536210102 0 -0.30209216641229258 -0.1544849138528917 0 -0.31997315401975812 -0.1438161912697275 0 -0.30768842782870498 -0.12219288172221671 0 -0.29439438120518352 -0.1374217536210102 0 -0.31997315401975812 -0.1438161912697275 0 -0.2887073393948465 -0.1209195385343899 0 -0.30768842782870498 -0.12219288172221671 0 -0.29439438120518352 -0.1374217536210102 0 -0.30768842782870498 -0.12219288172221671 0 -0.29439438120518352 -0.1374217536210102 0 -0.30768842782870498 -0.12219288172221671 0 -0.3238099705802196 -0.1228492293216347 0 -0.31997315401975812 -0.1438161912697275 0 -0.3238099705802196 -0.1228492293216347 0 -0.31997315401975812 -0.1438161912697275 0 -0.34002522902931442 -0.14074427561982331 0 -0.30209216641229258 -0.1544849138528917 0 -0.31997315401975812 -0.1438161912697275 0 -0.31977327242176312 -0.16735374708015421 0 -0.31997315401975812 -0.1438161912697275 0 -0.34002522902931442 -0.14074427561982331 0 -0.34532156445787821 -0.1611464124157545 0 -0.3238099705802196 -0.1228492293216347 0 -0.33992830259558032 -0.1235801916344603 0 -0.34002522902931442 -0.14074427561982331 0 -0.33992830259558032 -0.1235801916344603 0 -0.36537790335604847 -0.12386360089438039 0 -0.35887413073893482 -0.14019637344549671 0 -0.33992830259558032 -0.1235801916344603 0 -0.35887413073893482 -0.14019637344549671 0 -0.33992830259558032 -0.1235801916344603 0 -0.34002522902931442 -0.14074427561982331 0 -0.35887413073893482 -0.14019637344549671 0 -0.36537790335604847 -0.12386360089438039 0 -0.35887413073893482 -0.14019637344549671 0 -0.37873696785195698 -0.1386550822919306 0 -0.35887413073893482 -0.14019637344549671 0 -0.3778199588822892 -0.15681255525653309 0 -0.35887413073893482 -0.14019637344549671 0 -0.3778199588822892 -0.15681255525653309 0 -0.37873696785195698 -0.1386550822919306 0 -0.35887413073893482 -0.14019637344549671 0 -0.36260376012634521 -0.15575522843990039 0 -0.3778199588822892 -0.15681255525653309 0 -0.34002522902931442 -0.14074427561982331 0 -0.35887413073893482 -0.14019637344549671 0 -0.34532156445787821 -0.1611464124157545 0 -0.35887413073893482 -0.14019637344549671 0 -0.36260376012634521 -0.15575522843990039 0 -0.34532156445787821 -0.1611464124157545 0 -0.36260376012634521 -0.15575522843990039 0 -0.34532156445787821 -0.1611464124157545 0 -0.36896476105532777 -0.16911983328211361 0 -0.36260376012634521 -0.15575522843990039 0 -0.36896476105532777 -0.16911983328211361 0 -0.3778199588822892 -0.15681255525653309 0 -0.36896476105532777 -0.16911983328211361 0 -0.36593258741712642 -0.18302175734974979 0 -0.34506557442268398 -0.186096575837256 0 -0.36593258741712642 -0.18302175734974979 0 -0.37555005897381838 -0.18807042558473769 0 -0.38067374274451887 -0.1779428610084684 0 -0.36896476105532777 -0.16911983328211361 0 -0.36593258741712642 -0.18302175734974979 0 -0.38067374274451887 -0.1779428610084684 0 -0.34532156445787821 -0.1611464124157545 0 -0.36896476105532777 -0.16911983328211361 0 -0.34506557442268398 -0.186096575837256 0 -0.36896476105532777 -0.16911983328211361 0 -0.34506557442268398 -0.186096575837256 0 -0.31003253195271407 -0.18635269197801169 0 -0.34506557442268398 -0.186096575837256 0 -0.31977327242176312 -0.16735374708015421 0 -0.34532156445787821 -0.1611464124157545 0 -0.34506557442268398 -0.186096575837256 0 -0.31977327242176312 -0.16735374708015421 0 -0.31997315401975812 -0.1438161912697275 0 -0.34532156445787821 -0.1611464124157545 0 -0.31977327242176312 -0.16735374708015421 0 -0.31003253195271407 -0.18635269197801169 0 -0.34506557442268398 -0.186096575837256 0 -0.32116638779004009 -0.20307331839239851 0 -0.29726720115739641 -0.22005006094754101 0 -0.32116638779004009 -0.20307331839239851 0 -0.32519780166612922 -0.23004945422981371 0 -0.32116638779004009 -0.20307331839239851 0 -0.34851368292871032 -0.21027746599299671 0 -0.32519780166612922 -0.23004945422981371 0 -0.34506557442268398 -0.186096575837256 0 -0.32116638779004009 -0.20307331839239851 0 -0.34506557442268398 -0.186096575837256 0 -0.32116638779004009 -0.20307331839239851 0 -0.34851368292871032 -0.21027746599299671 0 -0.36593258741712642 -0.18302175734974979 0 -0.34506557442268398 -0.186096575837256 0 -0.36203034746216722 -0.19515932767125321 0 -0.34506557442268398 -0.186096575837256 0 -0.36203034746216722 -0.19515932767125321 0 -0.34851368292871032 -0.21027746599299671 0 -0.36203034746216722 -0.19515932767125321 0 -0.37179715794766588 -0.21260307556950361 0 -0.38042313710281239 -0.1982608287113353 0 -0.36203034746216722 -0.19515932767125321 0 -0.37555005897381838 -0.18807042558473769 0 -0.38042313710281239 -0.1982608287113353 0 -0.36593258741712642 -0.18302175734974979 0 -0.36203034746216722 -0.19515932767125321 0 -0.37555005897381838 -0.18807042558473769 0 -0.37179715794766588 -0.21260307556950361 0 -0.34851368292871032 -0.21027746599299671 0 -0.36194839204802598 -0.22934084371866439 0 -0.36203034746216722 -0.19515932767125321 0 -0.37179715794766588 -0.21260307556950361 0 -0.34851368292871032 -0.21027746599299671 0 -0.34851368292871032 -0.21027746599299671 0 -0.34553826338372701 -0.231191003860547 0 -0.36194839204802598 -0.22934084371866439 0 -0.37179715794766588 -0.21260307556950361 0 -0.36194839204802598 -0.22934084371866439 0 -0.37780692922792158 -0.23807922274995119 0 -0.36194839204802598 -0.22934084371866439 0 -0.35471287504477877 -0.24494242047594239 0 -0.37780692922792158 -0.23807922274995119 0 -0.36015300461917221 -0.26088545089158299 0 -0.35471287504477877 -0.24494242047594239 0 -0.37780692922792158 -0.23807922274995119 0 -0.36015300461917221 -0.26088545089158299 0 -0.37780692922792158 -0.23807922274995119 0 -0.34553826338372701 -0.231191003860547 0 -0.36194839204802598 -0.22934084371866439 0 -0.35471287504477877 -0.24494242047594239 0 -0.34553826338372701 -0.231191003860547 0 -0.35471287504477877 -0.24494242047594239 0 -0.33990594190953799 -0.24414370118103401 0 -0.34553826338372701 -0.231191003860547 0 -0.33990594190953799 -0.24414370118103401 0 -0.32519780166612922 -0.23004945422981371 0 -0.32430591068617282 -0.25321961163608447 0 -0.33990594190953799 -0.24414370118103401 0 -0.32519780166612922 -0.23004945422981371 0 -0.34851368292871032 -0.21027746599299671 0 -0.34553826338372701 -0.231191003860547 0 -0.32519780166612922 -0.23004945422981371 0 -0.32430591068617282 -0.25321961163608447 0 -0.29883696260546339 -0.2451232075693866 0 -0.32519780166612922 -0.23004945422981371 0 -0.43236564191033428 -0.24645372493203599 0 -0.43393409033962238 -0.22800363522299691 0 -0.40764792715735171 -0.2429427266549983 0 -0.43393409033962238 -0.22800363522299691 0 -0.40711406042337239 -0.22665911610037709 0 -0.4172554354124508 -0.21390790048322439 0 -0.43393409033962238 -0.22800363522299691 0 -0.40711406042337239 -0.22665911610037709 0 -0.40764792715735171 -0.2429427266549983 0 -0.39194677310835552 -0.25566444093544283 0 -0.40764792715735171 -0.2429427266549983 0 -0.37780692922792158 -0.23807922274995119 0 -0.40711406042337239 -0.22665911610037709 0 -0.40764792715735171 -0.2429427266549983 0 -0.37780692922792158 -0.23807922274995119 0 -0.37780692922792158 -0.23807922274995119 0 -0.39546085383667101 -0.21527299460831931 0 -0.37179715794766588 -0.21260307556950361 0 -0.37780692922792158 -0.23807922274995119 0 -0.39546085383667101 -0.21527299460831931 0 -0.40711406042337239 -0.22665911610037709 0 -0.37780692922792158 -0.23807922274995119 0 -0.39546085383667101 -0.21527299460831931 0 -0.39546085383667101 -0.21527299460831931 0 -0.39245596819654338 -0.20253492101809589 0 -0.41311477844542083 -0.19246676646668781 0 -0.39546085383667101 -0.21527299460831931 0 -0.41311477844542083 -0.19246676646668781 0 -0.37179715794766588 -0.21260307556950361 0 -0.39245596819654338 -0.20253492101809589 0 -0.37179715794766588 -0.21260307556950361 0 -0.38042313710281239 -0.1982608287113353 0 -0.39245596819654338 -0.20253492101809589 0 -0.37179715794766588 -0.21260307556950361 0 -0.39546085383667101 -0.21527299460831931 0 -0.39245596819654338 -0.20253492101809589 0 -0.37555005897381838 -0.18807042558473769 0 -0.38042313710281239 -0.1982608287113353 0 -0.39176124494789599 -0.18796226483790041 0 -0.38042313710281239 -0.1982608287113353 0 -0.39176124494789599 -0.18796226483790041 0 -0.39245596819654338 -0.20253492101809589 0 -0.39176124494789599 -0.18796226483790041 0 -0.39245596819654338 -0.20253492101809589 0 -0.41311477844542083 -0.19246676646668781 0 -0.39245596819654338 -0.20253492101809589 0 -0.41311477844542083 -0.19246676646668781 0 -0.41311477844542083 -0.19246676646668781 0 -0.4172554354124508 -0.21390790048322439 0 -0.42720161295005138 -0.20008731353445641 0 -0.39546085383667101 -0.21527299460831931 0 -0.41311477844542083 -0.19246676646668781 0 -0.4172554354124508 -0.21390790048322439 0 -0.40711406042337239 -0.22665911610037709 0 -0.39546085383667101 -0.21527299460831931 0 -0.4172554354124508 -0.21390790048322439 0 -0.43393409033962238 -0.22800363522299691 0 -0.4172554354124508 -0.21390790048322439 0 -0.43255441623373903 -0.21204089354513461 0 -0.4172554354124508 -0.21390790048322439 0 -0.43255441623373903 -0.21204089354513461 0 -0.42720161295005138 -0.20008731353445641 0 -0.43255441623373903 -0.21204089354513461 0 -0.42720161295005138 -0.20008731353445641 0 -0.43752597980690738 -0.20049176963326429 0 -0.42720161295005138 -0.20008731353445641 0 -0.43555745485173891 -0.18152923754397021 0 -0.43752597980690738 -0.20049176963326429 0 -0.41311477844542083 -0.19246676646668781 0 -0.42720161295005138 -0.20008731353445641 0 -0.43555745485173891 -0.18152923754397021 0 -0.41311477844542083 -0.19246676646668781 0 -0.42873256851039238 -0.1722909193854478 0 -0.43555745485173891 -0.18152923754397021 0 -0.41311477844542083 -0.19246676646668781 0 -0.43555745485173891 -0.18152923754397021 0 -0.42873256851039238 -0.1722909193854478 0 -0.43555745485173891 -0.18152923754397021 0 -0.44320929929011371 -0.16873624161648759 0 -0.42873256851039238 -0.1722909193854478 0 -0.42224906627601888 -0.15095784075825311 0 -0.4443503585753647 -0.1521150723042082 0 -0.42873256851039238 -0.1722909193854478 0 -0.4443503585753647 -0.1521150723042082 0 -0.42873256851039238 -0.1722909193854478 0 -0.40935045607677661 -0.16479448686071871 0 -0.42224906627601888 -0.15095784075825311 0 -0.42873256851039238 -0.1722909193854478 0 -0.40935045607677661 -0.16479448686071871 0 -0.40714845677852862 -0.17897088829988569 0 -0.41311477844542083 -0.19246676646668781 0 -0.42873256851039238 -0.1722909193854478 0 -0.40714845677852862 -0.17897088829988569 0 -0.41311477844542083 -0.19246676646668781 0 -0.42873256851039238 -0.1722909193854478 0 -0.39176124494789599 -0.18796226483790041 0 -0.41311477844542083 -0.19246676646668781 0 -0.40714845677852862 -0.17897088829988569 0 -0.40935045607677661 -0.16479448686071871 0 -0.40714845677852862 -0.17897088829988569 0 -0.39278323591215653 -0.1773400039486735 0 -0.39176124494789599 -0.18796226483790041 0 -0.40714845677852862 -0.17897088829988569 0 -0.39278323591215653 -0.1773400039486735 0 -0.39176124494789599 -0.18796226483790041 0 -0.39278323591215653 -0.1773400039486735 0 -0.38067374274451887 -0.1779428610084684 0 -0.37555005897381838 -0.18807042558473769 0 -0.39176124494789599 -0.18796226483790041 0 -0.38067374274451887 -0.1779428610084684 0 -0.39278323591215653 -0.1773400039486735 0 -0.38067374274451887 -0.1779428610084684 0 -0.38817999892682881 -0.16725452194689791 0 -0.36896476105532777 -0.16911983328211361 0 -0.3778199588822892 -0.15681255525653309 0 -0.39286394768797139 -0.15214309072697119 0 -0.36896476105532777 -0.16911983328211361 0 -0.39286394768797139 -0.15214309072697119 0 -0.36896476105532777 -0.16911983328211361 0 -0.38067374274451887 -0.1779428610084684 0 -0.38817999892682881 -0.16725452194689791 0 -0.36896476105532777 -0.16911983328211361 0 -0.38817999892682881 -0.16725452194689791 0 -0.39286394768797139 -0.15214309072697119 0 -0.40935045607677661 -0.16479448686071871 0 -0.39278323591215653 -0.1773400039486735 0 -0.38817999892682881 -0.16725452194689791 0 -0.40935045607677661 -0.16479448686071871 0 -0.38817999892682881 -0.16725452194689791 0 -0.39286394768797139 -0.15214309072697119 0 -0.39286394768797139 -0.15214309072697119 0 -0.40595835273280828 -0.15146854693124739 0 -0.39756382172565929 -0.13583226923904521 0 -0.40935045607677661 -0.16479448686071871 0 -0.39286394768797139 -0.15214309072697119 0 -0.40595835273280828 -0.15146854693124739 0 -0.40595835273280828 -0.15146854693124739 0 -0.39756382172565929 -0.13583226923904521 0 -0.4122254059239468 -0.14188509527303589 0 -0.3778199588822892 -0.15681255525653309 0 -0.39286394768797139 -0.15214309072697119 0 -0.37873696785195698 -0.1386550822919306 0 -0.39286394768797139 -0.15214309072697119 0 -0.37873696785195698 -0.1386550822919306 0 -0.39756382172565929 -0.13583226923904521 0 -0.38505055606969851 -0.1250354591452276 0 -0.37873696785195698 -0.1386550822919306 0 -0.39756382172565929 -0.13583226923904521 0 -0.36537790335604847 -0.12386360089438039 0 -0.38505055606969851 -0.1250354591452276 0 -0.37873696785195698 -0.1386550822919306 0 -0.38505055606969851 -0.1250354591452276 0 -0.39756382172565929 -0.13583226923904521 0 -0.40453831201007068 -0.1163178104089712 0 -0.39756382172565929 -0.13583226923904521 0 -0.41080558721789978 -0.12915370794194569 0 -0.40453831201007068 -0.1163178104089712 0 -0.41080558721789978 -0.12915370794194569 0 -0.42139064099799622 -0.13566441627099399 0 -0.42299669359258091 -0.12321027578527741 0 -0.41080558721789978 -0.12915370794194569 0 -0.42139064099799622 -0.13566441627099399 0 -0.4122254059239468 -0.14188509527303589 0 -0.39756382172565929 -0.13583226923904521 0 -0.41080558721789978 -0.12915370794194569 0 -0.4122254059239468 -0.14188509527303589 0 -0.40935045607677661 -0.16479448686071871 0 -0.40595835273280828 -0.15146854693124739 0 -0.42224906627601888 -0.15095784075825311 0 -0.40595835273280828 -0.15146854693124739 0 -0.4122254059239468 -0.14188509527303589 0 -0.42224906627601888 -0.15095784075825311 0 -0.42139064099799622 -0.13566441627099399 0 -0.4122254059239468 -0.14188509527303589 0 -0.42224906627601888 -0.15095784075825311 0 -0.42224906627601888 -0.15095784075825311 0 -0.4336735260839728 -0.13766267404474281 0 -0.4443503585753647 -0.1521150723042082 0 -0.42139064099799622 -0.13566441627099399 0 -0.42224906627601888 -0.15095784075825311 0 -0.4336735260839728 -0.13766267404474281 0 -0.4336735260839728 -0.13766267404474281 0 -0.44495261903863392 -0.137598772940799 0 -0.4300408486153845 -0.12212708792613181 0 -0.4336735260839728 -0.13766267404474281 0 -0.42299669359258091 -0.12321027578527741 0 -0.4336735260839728 -0.13766267404474281 0 -0.4300408486153845 -0.12212708792613181 0 -0.42299669359258091 -0.12321027578527741 0 -0.42139064099799622 -0.13566441627099399 0 -0.4336735260839728 -0.13766267404474281 0 -0.42299669359258091 -0.12321027578527741 0 -0.44495261903863392 -0.137598772940799 0 -0.45554338522069832 -0.12793636544329229 0 -0.4300408486153845 -0.12212708792613181 0 -0.45554338522069832 -0.12793636544329229 0 -0.4300408486153845 -0.12212708792613181 0 -0.44495261903863392 -0.137598772940799 0 -0.45549992572847908 -0.14088969888477049 0 -0.45554338522069832 -0.12793636544329229 0 -0.4336735260839728 -0.13766267404474281 0 -0.4443503585753647 -0.1521150723042082 0 -0.44612245326357869 -0.14982579121551701 0 -0.4336735260839728 -0.13766267404474281 0 -0.44495261903863392 -0.137598772940799 0 -0.44612245326357869 -0.14982579121551701 0 -0.4336735260839728 -0.13766267404474281 0 -0.4443503585753647 -0.1521150723042082 0 -0.4443503585753647 -0.1521150723042082 0 -0.44612245326357869 -0.14982579121551701 0 -0.4443503585753647 -0.1521150723042082 0 -0.44612245326357869 -0.14982579121551701 0 -0.45293586003260539 -0.15164820374360249 0 -0.44612245326357869 -0.14982579121551701 0 -0.45293586003260539 -0.15164820374360249 0 -0.44957538064363289 -0.14406089592904089 0 -0.44495261903863392 -0.137598772940799 0 -0.44957538064363289 -0.14406089592904089 0 -0.45549992572847908 -0.14088969888477049 0 -0.44495261903863392 -0.137598772940799 0 -0.44612245326357869 -0.14982579121551701 0 -0.44957538064363289 -0.14406089592904089 0 -0.45293586003260539 -0.15164820374360249 0 -0.44957538064363289 -0.14406089592904089 0 -0.45549992572847908 -0.14088969888477049 0 -0.45293586003260539 -0.15164820374360249 0 -0.45549992572847908 -0.14088969888477049 0 -0.46406691072652101 -0.15240605550682759 0 -0.45549992572847908 -0.14088969888477049 0 -0.46406691072652101 -0.15240605550682759 0 -0.46717116980166068 -0.14198865642698191 0 -0.45554338522069832 -0.12793636544329229 0 -0.48104592182601202 -0.13374564296045269 0 -0.46717116980166068 -0.14198865642698191 0 -0.45554338522069832 -0.12793636544329229 0 -0.48104592182601202 -0.13374564296045269 0 -0.45549992572847908 -0.14088969888477049 0 -0.46717116980166068 -0.14198865642698191 0 -0.45554338522069832 -0.12793636544329229 0 -0.45554338522069832 -0.12793636544329229 0 -0.48104592182601202 -0.13374564296045269 0 -0.47882977516266201 -0.1233247422603225 0 -0.48104592182601202 -0.13374564296045269 0 -0.4843612456543559 -0.1219984172751141 0 -0.47882977516266201 -0.1233247422603225 0 -0.48104592182601202 -0.13374564296045269 0 -0.4843612456543559 -0.1219984172751141 0 -0.48104592182601202 -0.13374564296045269 0 -0.49999999999999573 -0.13806323308486651 0 -0.48802127954457791 -0.1494243762145917 0 -0.48104592182601202 -0.13374564296045269 0 -0.49999999999999573 -0.13806323308486651 0 -0.4843612456543559 -0.1219984172751141 0 -0.48104592182601202 -0.13374564296045269 0 -0.49999999999999573 -0.13806323308486651 0 -0.49999999999999573 -0.13806323308486651 0 -0.48802127954457791 -0.1494243762145917 0 -0.5 -0.15690344214396221 0 -0.48802127954457791 -0.1494243762145917 0 -0.48198474540104541 -0.156214820069556 0 -0.48824201778472409 -0.163023706319394 0 -0.48802127954457791 -0.1494243762145917 0 -0.48198474540104541 -0.156214820069556 0 -0.47685499225569028 -0.1485954127093177 0 -0.48104592182601202 -0.13374564296045269 0 -0.48802127954457791 -0.1494243762145917 0 -0.47685499225569028 -0.1485954127093177 0 -0.48198474540104541 -0.156214820069556 0 -0.47685499225569028 -0.1485954127093177 0 -0.47559239561864491 -0.16201804758473409 0 -0.48104592182601202 -0.13374564296045269 0 -0.47685499225569028 -0.1485954127093177 0 -0.46406691072652101 -0.15240605550682759 0 -0.46717116980166068 -0.14198865642698191 0 -0.47685499225569028 -0.1485954127093177 0 -0.46717116980166068 -0.14198865642698191 0 -0.48104592182601202 -0.13374564296045269 0 -0.47685499225569028 -0.1485954127093177 0 -0.47685499225569028 -0.1485954127093177 0 -0.47266406268537248 -0.16344518245818379 0 -0.46406691072652101 -0.15240605550682759 0 -0.47685499225569028 -0.1485954127093177 0 -0.47266406268537248 -0.16344518245818379 0 -0.47685499225569028 -0.1485954127093177 0 -0.47266406268537248 -0.16344518245818379 0 -0.47559239561864491 -0.16201804758473409 0 -0.47266406268537248 -0.16344518245818379 0 -0.47927771162617439 -0.16439530288727769 0 -0.46788584882714618 -0.18037588349120071 0 -0.47266406268537248 -0.16344518245818379 0 -0.47559239561864491 -0.16201804758473409 0 -0.47927771162617439 -0.16439530288727769 0 -0.47266406268537248 -0.16344518245818379 0 -0.47559239561864491 -0.16201804758473409 0 -0.48281605536510602 -0.1687800988527326 0 -0.47927771162617439 -0.16439530288727769 0 -0.48824201778472409 -0.163023706319394 0 -0.48281605536510602 -0.1687800988527326 0 -0.47927771162617439 -0.16439530288727769 0 -0.47735254683038131 -0.17510120923130501 0 -0.48198474540104541 -0.156214820069556 0 -0.47559239561864491 -0.16201804758473409 0 -0.47927771162617439 -0.16439530288727769 0 -0.48198474540104541 -0.156214820069556 0 -0.47927771162617439 -0.16439530288727769 0 -0.48824201778472409 -0.163023706319394 0 -0.48824201778472409 -0.163023706319394 0 -0.5 -0.15690344214396221 0 -0.50000000000000389 -0.17574365120305779 0 -0.48802127954457791 -0.1494243762145917 0 -0.48824201778472409 -0.163023706319394 0 -0.5 -0.15690344214396221 0 -0.48281605536510602 -0.1687800988527326 0 -0.48824201778472409 -0.163023706319394 0 -0.48639194521914442 -0.17260017697295371 0 -0.48824201778472409 -0.163023706319394 0 -0.50000000000000389 -0.17574365120305779 0 -0.48639194521914442 -0.17260017697295371 0 -0.50000000000000389 -0.17574365120305779 0 -0.48522651426139929 -0.1815959394591356 0 -0.49999999999999828 -0.20328420558383731 0 -0.50000000000000389 -0.17574365120305779 0 -0.48522651426139929 -0.1815959394591356 0 -0.50000000000000389 -0.17574365120305779 0 -0.48639194521914442 -0.17260017697295371 0 -0.48522651426139929 -0.1815959394591356 0 -0.48522651426139929 -0.1815959394591356 0 -0.47735254683038131 -0.17510120923130501 0 -0.47045302852279491 -0.18744822771521419 0 -0.47266406268537248 -0.16344518245818379 0 -0.46788584882714618 -0.18037588349120071 0 -0.48522651426139929 -0.1815959394591356 0 -0.47045302852279491 -0.18744822771521419 0 -0.47927771162617439 -0.16439530288727769 0 -0.47735254683038131 -0.17510120923130501 0 -0.46788584882714618 -0.18037588349120071 0 -0.47927771162617439 -0.16439530288727769 0 -0.46788584882714618 -0.18037588349120071 0 -0.48639194521914442 -0.17260017697295371 0 -0.48522651426139929 -0.1815959394591356 0 -0.47735254683038131 -0.17510120923130501 0 -0.48281605536510602 -0.1687800988527326 0 -0.48639194521914442 -0.17260017697295371 0 -0.47735254683038131 -0.17510120923130501 0 -0.47735254683038131 -0.17510120923130501 0 -0.47045302852279491 -0.18744822771521419 0 -0.46788584882714618 -0.18037588349120071 0 -0.47045302852279491 -0.18744822771521419 0 -0.46715123556987193 -0.18297884723515159 0 -0.46715123556987193 -0.18297884723515159 0 -0.45985017058232419 -0.19164838616824931 0 -0.46715123556987193 -0.18297884723515159 0 -0.46531551596157228 -0.1894833739873549 0 -0.47045302852279491 -0.18744822771521419 0 -0.46715123556987193 -0.18297884723515159 0 -0.46531551596157228 -0.1894833739873549 0 -0.47045302852279491 -0.18744822771521419 0 -0.46788584882714618 -0.18037588349120071 0 -0.46715123556987193 -0.18297884723515159 0 -0.46788584882714618 -0.18037588349120071 0 -0.46715123556987193 -0.18297884723515159 0 -0.46715123556987193 -0.18297884723515159 0 -0.4535946190001649 -0.1825497680322293 0 -0.45985017058232419 -0.19164838616824931 0 -0.46715123556987193 -0.18297884723515159 0 -0.4535946190001649 -0.1825497680322293 0 -0.45800013125805622 -0.17059170862125089 0 -0.46715123556987193 -0.18297884723515159 0 -0.45800013125805622 -0.17059170862125089 0 -0.46788584882714618 -0.18037588349120071 0 -0.46715123556987193 -0.18297884723515159 0 -0.45800013125805622 -0.17059170862125089 0 -0.47266406268537248 -0.16344518245818379 0 -0.46788584882714618 -0.18037588349120071 0 -0.45800013125805622 -0.17059170862125089 0 -0.46406691072652101 -0.15240605550682759 0 -0.47266406268537248 -0.16344518245818379 0 -0.45800013125805622 -0.17059170862125089 0 -0.45293586003260539 -0.15164820374360249 0 -0.46406691072652101 -0.15240605550682759 0 -0.45800013125805622 -0.17059170862125089 0 -0.47266406268537248 -0.16344518245818379 0 -0.45800013125805622 -0.17059170862125089 0 -0.4443503585753647 -0.1521150723042082 0 -0.45293586003260539 -0.15164820374360249 0 -0.45800013125805622 -0.17059170862125089 0 -0.4443503585753647 -0.1521150723042082 0 -0.45800013125805622 -0.17059170862125089 0 -0.44320929929011371 -0.16873624161648759 0 -0.4443503585753647 -0.1521150723042082 0 -0.45800013125805622 -0.17059170862125089 0 -0.42873256851039238 -0.1722909193854478 0 -0.4443503585753647 -0.1521150723042082 0 -0.44320929929011371 -0.16873624161648759 0 -0.43555745485173891 -0.18152923754397021 0 -0.4535946190001649 -0.1825497680322293 0 -0.44678233502236919 -0.18880124178857799 0 -0.43555745485173891 -0.18152923754397021 0 -0.4535946190001649 -0.1825497680322293 0 -0.45800013125805622 -0.17059170862125089 0 -0.43555745485173891 -0.18152923754397021 0 -0.45800013125805622 -0.17059170862125089 0 -0.43555745485173891 -0.18152923754397021 0 -0.45800013125805622 -0.17059170862125089 0 -0.44320929929011371 -0.16873624161648759 0 -0.5 -0.27408063401246119 0 -0.49999999999999828 -0.20328420558383731 0 -0.48953722681377398 -0.2293897766599379 0 -0.43555745485173891 -0.18152923754397021 0 -0.44678233502236919 -0.18880124178857799 0 -0.43752597980690738 -0.20049176963326429 0 -0.44678233502236919 -0.18880124178857799 0 -0.43752597980690738 -0.20049176963326429 0 -0.45985017058232419 -0.19164838616824931 0 -0.43752597980690738 -0.20049176963326429 0 -0.45985017058232419 -0.19164838616824931 0 -0.43752597980690738 -0.20049176963326429 0 -0.44689213046097243 -0.20982601069562229 0 -0.45985017058232419 -0.19164838616824931 0 -0.43255441623373903 -0.21204089354513461 0 -0.43752597980690738 -0.20049176963326429 0 -0.44689213046097243 -0.20982601069562229 0 -0.43393409033962238 -0.22800363522299691 0 -0.43255441623373903 -0.21204089354513461 0 -0.44689213046097243 -0.20982601069562229 0 -0.45728873866980307 -0.2179247478182042 0 -0.46531551596157228 -0.1894833739873549 0 -0.44689213046097243 -0.20982601069562229 0 -0.45728873866980307 -0.2179247478182042 0 -0.45985017058232419 -0.19164838616824931 0 -0.45728873866980307 -0.2179247478182042 0 -0.46720727451353761 -0.20721279817847199 0 -0.46531551596157228 -0.1894833739873549 0 -0.45728873866980307 -0.2179247478182042 0 -0.46720727451353761 -0.20721279817847199 0 -0.47274206190495988 -0.21645169862203509 0 -0.44689213046097243 -0.20982601069562229 0 -0.45985017058232419 -0.19164838616824931 0 -0.45728873866980307 -0.2179247478182042 0 -0.45985017058232419 -0.19164838616824931 0 -0.46531551596157228 -0.1894833739873549 0 -0.46720727451353761 -0.20721279817847199 0 -0.46531551596157228 -0.1894833739873549 0 -0.47198270393925751 -0.2004055451021213 0 -0.4535946190001649 -0.1825497680322293 0 -0.44678233502236919 -0.18880124178857799 0 -0.45985017058232419 -0.19164838616824931 0 -0.46715123556987193 -0.18297884723515159 0 -0.45985017058232419 -0.19164838616824931 0 -0.46531551596157228 -0.1894833739873549 0 -0.45985017058232419 -0.19164838616824931 0 -0.46531551596157228 -0.1894833739873549 0 -0.47045302852279491 -0.18744822771521419 0 -0.46531551596157228 -0.1894833739873549 0 -0.48522651426139929 -0.1815959394591356 0 -0.47045302852279491 -0.18744822771521419 0 -0.48583266175667311 -0.2082664418025601 0 -0.47045302852279491 -0.18744822771521419 0 -0.46531551596157228 -0.1894833739873549 0 -0.47198270393925751 -0.2004055451021213 0 -0.47045302852279491 -0.18744822771521419 0 -0.47198270393925751 -0.2004055451021213 0 -0.48583266175667311 -0.2082664418025601 0 -0.47045302852279491 -0.18744822771521419 0 -0.48583266175667311 -0.2082664418025601 0 -0.48522651426139929 -0.1815959394591356 0 -0.49999999999999828 -0.20328420558383731 0 -0.48583266175667311 -0.2082664418025601 0 -0.49999999999999828 -0.20328420558383731 0 -0.48953722681377398 -0.2293897766599379 0 -0.49999999999999828 -0.20328420558383731 0 -0.48583266175667311 -0.2082664418025601 0 -0.48953722681377398 -0.2293897766599379 0 -0.48583266175667311 -0.2082664418025601 0 -0.47274206190495988 -0.21645169862203509 0 -0.48953722681377398 -0.2293897766599379 0 -0.48583266175667311 -0.2082664418025601 0 -0.47350272579132607 -0.20743514229136961 0 -0.47274206190495988 -0.21645169862203509 0 -0.47198270393925751 -0.2004055451021213 0 -0.48583266175667311 -0.2082664418025601 0 -0.47350272579132607 -0.20743514229136961 0 -0.46720727451353761 -0.20721279817847199 0 -0.47350272579132607 -0.20743514229136961 0 -0.47274206190495988 -0.21645169862203509 0 -0.46720727451353761 -0.20721279817847199 0 -0.47198270393925751 -0.2004055451021213 0 -0.47350272579132607 -0.20743514229136961 0 -0.48953722681377398 -0.2293897766599379 0 -0.46631009223088599 -0.24029623575425851 0 -0.46634271519697101 -0.22679596265772889 0 -0.47274206190495988 -0.21645169862203509 0 -0.48953722681377398 -0.2293897766599379 0 -0.46634271519697101 -0.22679596265772889 0 -0.47907445362755119 -0.25549534773603921 0 -0.48953722681377398 -0.2293897766599379 0 -0.47907445362755119 -0.25549534773603921 0 -0.48953722681377398 -0.2293897766599379 0 -0.46631009223088599 -0.24029623575425851 0 -0.44751522815918809 -0.25729726868341207 0 -0.46631009223088599 -0.24029623575425851 0 -0.44996962178643818 -0.2323001666503656 0 -0.46631009223088599 -0.24029623575425851 0 -0.46634271519697101 -0.22679596265772889 0 -0.44996962178643818 -0.2323001666503656 0 -0.45728873866980307 -0.2179247478182042 0 -0.46634271519697101 -0.22679596265772889 0 -0.44996962178643818 -0.2323001666503656 0 -0.45728873866980307 -0.2179247478182042 0 -0.47274206190495988 -0.21645169862203509 0 -0.46634271519697101 -0.22679596265772889 0 -0.43393409033962238 -0.22800363522299691 0 -0.44689213046097243 -0.20982601069562229 0 -0.44996962178643818 -0.2323001666503656 0 -0.43393409033962238 -0.22800363522299691 0 -0.44689213046097243 -0.20982601069562229 0 -0.44689213046097243 -0.20982601069562229 0 -0.45728873866980307 -0.2179247478182042 0 -0.44996962178643818 -0.2323001666503656 0 -0.44751522815918809 -0.25729726868341207 0 -0.43236564191033428 -0.24645372493203599 0 -0.44996962178643818 -0.2323001666503656 0 -0.43236564191033428 -0.24645372493203599 0 -0.43393409033962238 -0.22800363522299691 0 -0.44996962178643818 -0.2323001666503656 0 -0.40812536208672651 -0.046423740149372388 0 -0.42484809942147572 -0.037521298812863979 0 -0.40985202323820902 -0.02943766478405976 0 -0.41660518012472642 -0.062259454704445993 0 -0.42484809942147572 -0.037521298812863979 0 -0.40812536208672651 -0.046423740149372388 0 -0.41660518012472642 -0.062259454704445993 0 -0.42484809942147572 -0.037521298812863979 0 -0.41660518012472642 -0.062259454704445993 0 -0.42632493142515793 -0.043347987604394532 0 -0.42484809942147572 -0.037521298812863979 0 -0.41660518012472642 -0.062259454704445993 0 -0.42632493142515793 -0.043347987604394532 0 -0.43945114235953392 -0.063342176268376488 0 -0.42632493142515793 -0.043347987604394532 0 -0.43945114235953392 -0.063342176268376488 0 -0.42632493142515793 -0.043347987604394532 0 -0.43945114235953392 -0.063342176268376488 0 -0.44132059079266178 -0.047443494017649017 0 -0.42632493142515793 -0.043347987604394532 0 -0.43088060437312781 -0.036433383666498731 0 -0.44132059079266178 -0.047443494017649017 0 -0.42632493142515793 -0.043347987604394532 0 -0.42484809942147572 -0.037521298812863979 0 -0.43088060437312781 -0.036433383666498731 0 -0.42484809942147572 -0.037521298812863979 0 -0.43088060437312781 -0.036433383666498731 0 -0.43309101871822542 -0.012783142921282079 0 -0.42484809942147572 -0.037521298812863979 0 -0.43309101871822542 -0.012783142921282079 0 -0.40985202323820902 -0.02943766478405976 0 -0.43088060437312781 -0.036433383666498731 0 -0.43309101871822542 -0.012783142921282079 0 -0.44531905202557509 -0.023853635415533609 0 -0.43088060437312781 -0.036433383666498731 0 -0.43309101871822542 -0.012783142921282079 0 -0.42484809942147572 -0.037521298812863979 0 -0.43309101871822542 -0.012783142921282079 0 -0.43309101871822542 -0.012783142921282079 0 -0.43529999880527948 0.01085175203679207 0 -0.43309101871822542 -0.012783142921282079 0 -0.42687895349466509 0.0033889345185197238 0 -0.41687937476910147 0.00065271645433373114 0 -0.43309101871822542 -0.012783142921282079 0 -0.44020242259853742 0.0085591766460757848 0 -0.43309101871822542 -0.012783142921282079 0 -0.40945424005836101 -0.0131650957956016 0 -0.41687937476910147 0.00065271645433373114 0 -0.40945424005836101 -0.0131650957956016 0 -0.39697086863403802 -0.0013839557650866629 0 -0.41687937476910147 0.00065271645433373114 0 -0.43309101871822542 -0.012783142921282079 0 -0.40945424005836101 -0.0131650957956016 0 -0.40985202323820902 -0.02943766478405976 0 -0.40945424005836101 -0.0131650957956016 0 -0.40985202323820902 -0.02943766478405976 0 -0.39055724483924908 -0.021714677848960529 0 -0.40985202323820902 -0.02943766478405976 0 -0.39055724483924908 -0.021714677848960529 0 -0.39145111228946261 -0.040135574845569857 0 -0.40945424005836101 -0.0131650957956016 0 -0.39697086863403802 -0.0013839557650866629 0 -0.39055724483924908 -0.021714677848960529 0 -0.37165504079712819 -0.01311134974768053 0 -0.39697086863403802 -0.0013839557650866629 0 -0.38477151518221098 0.013979796897134951 0 -0.37165504079712819 -0.01311134974768053 0 -0.39697086863403802 -0.0013839557650866629 0 -0.39055724483924908 -0.021714677848960529 0 -0.36950599403787288 -0.033040856872608187 0 -0.37165504079712819 -0.01311134974768053 0 -0.39055724483924908 -0.021714677848960529 0 -0.36950599403787288 -0.033040856872608187 0 -0.39055724483924908 -0.021714677848960529 0 -0.39145111228946261 -0.040135574845569857 0 -0.3709610569287099 -0.05534374506564109 0 -0.36950599403787288 -0.033040856872608187 0 -0.39145111228946261 -0.040135574845569857 0 -0.40812536208672651 -0.046423740149372388 0 -0.40985202323820902 -0.02943766478405976 0 -0.39145111228946261 -0.040135574845569857 0 -0.40812536208672651 -0.046423740149372388 0 -0.41660518012472642 -0.062259454704445993 0 -0.3934798567103574 -0.063325157901225046 0 -0.40812536208672651 -0.046423740149372388 0 -0.39145111228946261 -0.040135574845569857 0 -0.3934798567103574 -0.063325157901225046 0 -0.3709610569287099 -0.05534374506564109 0 -0.39145111228946261 -0.040135574845569857 0 -0.3934798567103574 -0.063325157901225046 0 -0.37292365156696161 -0.073972163885322448 0 -0.3709610569287099 -0.05534374506564109 0 -0.3934798567103574 -0.063325157901225046 0 -0.37292365156696161 -0.073972163885322448 0 -0.38699983439469787 -0.090396806035183172 0 -0.3934798567103574 -0.063325157901225046 0 -0.38699983439469787 -0.090396806035183172 0 -0.3934798567103574 -0.063325157901225046 0 -0.408362260827977 -0.08699761059602798 0 -0.41660518012472642 -0.062259454704445993 0 -0.3934798567103574 -0.063325157901225046 0 -0.408362260827977 -0.08699761059602798 0 -0.38505055606969851 -0.1250354591452276 0 -0.37903577540475702 -0.1105085328918107 0 -0.40453831201007068 -0.1163178104089712 0 -0.36537790335604847 -0.12386360089438039 0 -0.38505055606969851 -0.1250354591452276 0 -0.37903577540475702 -0.1105085328918107 0 -0.38699983439469787 -0.090396806035183172 0 -0.37903577540475702 -0.1105085328918107 0 -0.40453831201007068 -0.1163178104089712 0 -0.36417685103600822 -0.08942548607038682 0 -0.38699983439469787 -0.090396806035183172 0 -0.37903577540475702 -0.1105085328918107 0 -0.38699983439469787 -0.090396806035183172 0 -0.40453831201007068 -0.1163178104089712 0 -0.408362260827977 -0.08699761059602798 0 -0.37903577540475702 -0.1105085328918107 0 -0.40453831201007068 -0.1163178104089712 0 -0.40453831201007068 -0.1163178104089712 0 -0.4300408486153845 -0.12212708792613181 0 -0.42299669359258091 -0.12321027578527741 0 -0.40453831201007068 -0.1163178104089712 0 -0.43062095932428818 -0.097650514213204337 0 -0.4300408486153845 -0.12212708792613181 0 -0.41080558721789978 -0.12915370794194569 0 -0.40453831201007068 -0.1163178104089712 0 -0.42299669359258091 -0.12321027578527741 0 -0.40453831201007068 -0.1163178104089712 0 -0.4300408486153845 -0.12212708792613181 0 -0.40453831201007068 -0.1163178104089712 0 -0.43062095932428818 -0.097650514213204337 0 -0.408362260827977 -0.08699761059602798 0 -0.43062095932428818 -0.097650514213204337 0 -0.4300408486153845 -0.12212708792613181 0 -0.44795717950667763 -0.10946507071292121 0 -0.41660518012472642 -0.062259454704445993 0 -0.408362260827977 -0.08699761059602798 0 -0.42729670709380652 -0.078234860956448493 0 -0.41660518012472642 -0.062259454704445993 0 -0.408362260827977 -0.08699761059602798 0 -0.43062095932428818 -0.097650514213204337 0 -0.42729670709380652 -0.078234860956448493 0 -0.45257735329390991 -0.083336364932358464 0 -0.43062095932428818 -0.097650514213204337 0 -0.408362260827977 -0.08699761059602798 0 -0.42729670709380652 -0.078234860956448493 0 -0.41660518012472642 -0.062259454704445993 0 -0.42729670709380652 -0.078234860956448493 0 -0.43945114235953392 -0.063342176268376488 0 -0.43945114235953392 -0.063342176268376488 0 -0.45257735329390991 -0.083336364932358464 0 -0.42729670709380652 -0.078234860956448493 0 -0.43945114235953392 -0.063342176268376488 0 -0.45257735329390991 -0.083336364932358464 0 -0.43945114235953392 -0.063342176268376488 0 -0.45257735329390991 -0.083336364932358464 0 -0.45770866765466139 -0.058197002599428442 0 -0.45257735329390991 -0.083336364932358464 0 -0.4657035642282859 -0.1033305535963405 0 -0.4799229302115412 -0.090236590882390597 0 -0.45257735329390991 -0.083336364932358464 0 -0.4657035642282859 -0.1033305535963405 0 -0.45257735329390991 -0.083336364932358464 0 -0.47628021905693518 -0.067875433292304277 0 -0.45770866765466139 -0.058197002599428442 0 -0.45554338522069832 -0.12793636544329229 0 -0.4300408486153845 -0.12212708792613181 0 -0.44795717950667763 -0.10946507071292121 0 -0.43062095932428818 -0.097650514213204337 0 -0.45257735329390991 -0.083336364932358464 0 -0.44795717950667763 -0.10946507071292121 0 -0.45257735329390991 -0.083336364932358464 0 -0.44795717950667763 -0.10946507071292121 0 -0.4657035642282859 -0.1033305535963405 0 -0.44795717950667763 -0.10946507071292121 0 -0.4657035642282859 -0.1033305535963405 0 -0.46561493298890511 -0.11769452175140591 0 -0.45554338522069832 -0.12793636544329229 0 -0.46561493298890511 -0.11769452175140591 0 -0.47882977516266201 -0.1233247422603225 0 -0.45554338522069832 -0.12793636544329229 0 -0.44795717950667763 -0.10946507071292121 0 -0.46561493298890511 -0.11769452175140591 0 -0.4657035642282859 -0.1033305535963405 0 -0.46561493298890511 -0.11769452175140591 0 -0.47882977516266201 -0.1233247422603225 0 -0.4657035642282859 -0.1033305535963405 0 -0.47882977516266201 -0.1233247422603225 0 -0.48085676120359572 -0.10947627112675 0 -0.4657035642282859 -0.1033305535963405 0 -0.47882977516266201 -0.1233247422603225 0 -0.4843612456543559 -0.1219984172751141 0 -0.47882977516266201 -0.1233247422603225 0 -0.48085676120359572 -0.10947627112675 0 -0.4657035642282859 -0.1033305535963405 0 -0.48085676120359572 -0.10947627112675 0 -0.4799229302115412 -0.090236590882390597 0 -0.48085676120359572 -0.10947627112675 0 -0.5 -0.1103103709303124 0 -0.4799229302115412 -0.090236590882390597 0 -0.5 -0.1103103709303124 0 -0.4799229302115412 -0.090236590882390597 0 -0.5 -0.082557508775758293 0 -0.49999999999999573 -0.13806323308486651 0 -0.4843612456543559 -0.1219984172751141 0 -0.5 -0.1103103709303124 0 -0.4843612456543559 -0.1219984172751141 0 -0.48085676120359572 -0.10947627112675 0 -0.5 -0.1103103709303124 0 -0.45257735329390991 -0.083336364932358464 0 -0.47628021905693518 -0.067875433292304277 0 -0.4799229302115412 -0.090236590882390597 0 -0.47628021905693518 -0.067875433292304277 0 -0.4799229302115412 -0.090236590882390597 0 -0.5 -0.082557508775758293 0 -0.47628021905693518 -0.067875433292304277 0 -0.5 -0.082557508775758293 0 -0.5 -0.054804646621204323 0 -0.5 -0.054804646621204323 0 -0.48088147048937269 -0.032334653584909188 0 -0.47466756939388421 -0.050197909335259999 0 -0.5 -0.054804646621204323 0 -0.48088147048937269 -0.032334653584909188 0 -0.49999999999999889 -0.027051784466650231 0 -0.48088147048937269 -0.032334653584909188 0 -0.47466756939388421 -0.050197909335259999 0 -0.45846748976845147 -0.037777810578453787 0 -0.47628021905693518 -0.067875433292304277 0 -0.5 -0.054804646621204323 0 -0.47466756939388421 -0.050197909335259999 0 -0.47628021905693518 -0.067875433292304277 0 -0.47466756939388421 -0.050197909335259999 0 -0.45770866765466139 -0.058197002599428442 0 -0.47466756939388421 -0.050197909335259999 0 -0.45770866765466139 -0.058197002599428442 0 -0.45846748976845147 -0.037777810578453787 0 -0.45846748976845147 -0.037777810578453787 0 -0.44399693423995412 -0.036377080919533802 0 -0.44132059079266178 -0.047443494017649017 0 -0.45846748976845147 -0.037777810578453787 0 -0.44399693423995412 -0.036377080919533802 0 -0.44531905202557509 -0.023853635415533609 0 -0.43088060437312781 -0.036433383666498731 0 -0.44399693423995412 -0.036377080919533802 0 -0.44531905202557509 -0.023853635415533609 0 -0.43088060437312781 -0.036433383666498731 0 -0.44399693423995412 -0.036377080919533802 0 -0.44132059079266178 -0.047443494017649017 0 -0.45770866765466139 -0.058197002599428442 0 -0.45846748976845147 -0.037777810578453787 0 -0.44132059079266178 -0.047443494017649017 0 -0.43945114235953392 -0.063342176268376488 0 -0.45770866765466139 -0.058197002599428442 0 -0.44132059079266178 -0.047443494017649017 0 -0.43309101871822542 -0.012783142921282079 0 -0.44727723845421241 -0.0047854449167336697 0 -0.44020242259853742 0.0085591766460757848 0 -0.44727723845421241 -0.0047854449167336697 0 -0.44531905202557509 -0.023853635415533609 0 -0.46174760831026901 -0.014883627051564031 0 -0.43309101871822542 -0.012783142921282079 0 -0.44727723845421241 -0.0047854449167336697 0 -0.44531905202557509 -0.023853635415533609 0 -0.45846748976845147 -0.037777810578453787 0 -0.44531905202557509 -0.023853635415533609 0 -0.46174760831026901 -0.014883627051564031 0 -0.48088147048937269 -0.032334653584909188 0 -0.45846748976845147 -0.037777810578453787 0 -0.46174760831026901 -0.014883627051564031 0 -0.44727723845421241 -0.0047854449167336697 0 -0.46174760831026901 -0.014883627051564031 0 -0.45763199243228309 0.001836789750403772 0 -0.47881599621614079 -0.012607497358123471 0 -0.45763199243228309 0.001836789750403772 0 -0.46174760831026901 -0.014883627051564031 0 -0.47881599621614079 -0.012607497358123471 0 -0.45763199243228309 0.001836789750403772 0 -0.48088147048937269 -0.032334653584909188 0 -0.46174760831026901 -0.014883627051564031 0 -0.47881599621614079 -0.012607497358123471 0 -0.48088147048937269 -0.032334653584909188 0 -0.47881599621614079 -0.012607497358123471 0 -0.49999999999999889 -0.027051784466650231 0 -0.47881599621614079 -0.012607497358123471 0 -0.49999999999999889 -0.027051784466650231 0 -0.47881599621614079 -0.012607497358123471 0 -0.5 -0.0040069193672711556 0 -0.47775097267246908 0.013474204748758069 0 -0.47881599621614079 -0.012607497358123471 0 -0.49999999999999889 -0.027051784466650231 0 -0.5 -0.0040069193672711556 0 -0.5 -0.0040069193672711556 0 -0.49999999999999889 0.01903794573210792 0 -0.47775097267246908 0.013474204748758069 0 -0.49999999999999889 0.01903794573210792 0 -0.47775097267246908 0.013474204748758069 0 -0.4806423130221445 0.039944109458409219 0 -0.49999999999999889 0.01903794573210792 0 -0.4806423130221445 0.039944109458409219 0 -0.47775097267246908 0.013474204748758069 0 -0.4806423130221445 0.039944109458409219 0 -0.45747161957522098 0.02384943145660871 0 -0.47881599621614079 -0.012607497358123471 0 -0.47775097267246908 0.013474204748758069 0 -0.45763199243228309 0.001836789750403772 0 -0.5 0.047174046864672643 0 -0.4806423130221445 0.039944109458409219 0 -0.48300989969222008 0.062501640771811751 0 -0.5 0.047174046864672643 0 -0.48300989969222008 0.062501640771811751 0 -0.5 0.075310147997237231 0 -0.49999999999999889 0.01903794573210792 0 -0.5 0.047174046864672643 0 -0.4806423130221445 0.039944109458409219 0 -0.4806423130221445 0.039944109458409219 0 -0.46128462604429082 0.060850273184711083 0 -0.48300989969222008 0.062501640771811751 0 -0.4806423130221445 0.039944109458409219 0 -0.46128462604429082 0.060850273184711083 0 -0.4806423130221445 0.039944109458409219 0 -0.46128462604429082 0.060850273184711083 0 -0.45511238625408229 0.042807647713116147 0 -0.4806423130221445 0.039944109458409219 0 -0.45511238625408229 0.042807647713116147 0 -0.45747161957522098 0.02384943145660871 0 -0.45511238625408229 0.042807647713116147 0 -0.43750897889233331 0.034486646994866213 0 -0.43971795897938698 0.058121541952940468 0 -0.43750897889233331 0.034486646994866213 0 -0.43971795897938698 0.058121541952940468 0 -0.45511238625408229 0.042807647713116147 0 -0.43750897889233331 0.034486646994866213 0 -0.45747161957522098 0.02384943145660871 0 -0.46128462604429082 0.060850273184711083 0 -0.45511238625408229 0.042807647713116147 0 -0.43971795897938698 0.058121541952940468 0 -0.45763199243228309 0.001836789750403772 0 -0.45747161957522098 0.02384943145660871 0 -0.45108498147595061 0.01269278190717388 0 -0.47775097267246908 0.013474204748758069 0 -0.45763199243228309 0.001836789750403772 0 -0.45747161957522098 0.02384943145660871 0 -0.45747161957522098 0.02384943145660871 0 -0.44431360026946443 0.018087957808303329 0 -0.45108498147595061 0.01269278190717388 0 -0.43750897889233331 0.034486646994866213 0 -0.45747161957522098 0.02384943145660871 0 -0.44431360026946443 0.018087957808303329 0 -0.43750897889233331 0.034486646994866213 0 -0.44431360026946443 0.018087957808303329 0 -0.43529999880527948 0.01085175203679207 0 -0.44727723845421241 -0.0047854449167336697 0 -0.44020242259853742 0.0085591766460757848 0 -0.45108498147595061 0.01269278190717388 0 -0.44431360026946443 0.018087957808303329 0 -0.44020242259853742 0.0085591766460757848 0 -0.43529999880527948 0.01085175203679207 0 -0.44431360026946443 0.018087957808303329 0 -0.44020242259853742 0.0085591766460757848 0 -0.45108498147595061 0.01269278190717388 0 -0.44727723845421241 -0.0047854449167336697 0 -0.45763199243228309 0.001836789750403772 0 -0.45108498147595061 0.01269278190717388 0 -0.43309101871822542 -0.012783142921282079 0 -0.43529999880527948 0.01085175203679207 0 -0.42687895349466509 0.0033889345185197238 0 -0.43309101871822542 -0.012783142921282079 0 -0.44020242259853742 0.0085591766460757848 0 -0.43529999880527948 0.01085175203679207 0 -0.43529999880527948 0.01085175203679207 0 -0.42224542168605422 0.01483441250423518 0 -0.42687895349466509 0.0033889345185197238 0 -0.42224542168605422 0.01483441250423518 0 -0.42687895349466509 0.0033889345185197238 0 -0.41687937476910147 0.00065271645433373114 0 -0.39697086863403802 -0.0013839557650866629 0 -0.41687937476910147 0.00065271645433373114 0 -0.41081855033300091 0.025060529318235901 0 -0.42224542168605422 0.01483441250423518 0 -0.41687937476910147 0.00065271645433373114 0 -0.41081855033300091 0.025060529318235901 0 -0.43750897889233331 0.034486646994866213 0 -0.42224542168605422 0.01483441250423518 0 -0.41081855033300091 0.025060529318235901 0 -0.43750897889233331 0.034486646994866213 0 -0.43529999880527948 0.01085175203679207 0 -0.42224542168605422 0.01483441250423518 0 -0.43750897889233331 0.034486646994866213 0 -0.43529999880527948 0.01085175203679207 0 -0.43750897889233331 0.034486646994866213 0 -0.41081855033300091 0.025060529318235901 0 -0.41913126794802941 0.052115785886590792 0 -0.43971795897938698 0.058121541952940468 0 -0.41913126794802941 0.052115785886590792 0 -0.42685111483214461 0.068911131057969921 0 -0.43750897889233331 0.034486646994866213 0 -0.43971795897938698 0.058121541952940468 0 -0.41913126794802941 0.052115785886590792 0 -0.41081855033300091 0.025060529318235901 0 -0.41913126794802941 0.052115785886590792 0 -0.4006588763320682 0.044054105292646882 0 -0.4006588763320682 0.044054105292646882 0 -0.38719491227297392 0.048538692389980882 0 -0.3903673529800058 0.032490181149013302 0 -0.41081855033300091 0.025060529318235901 0 -0.4006588763320682 0.044054105292646882 0 -0.3903673529800058 0.032490181149013302 0 -0.41913126794802941 0.052115785886590792 0 -0.4006588763320682 0.044054105292646882 0 -0.39607554369056902 0.063583142763957601 0 -0.4006588763320682 0.044054105292646882 0 -0.38719491227297392 0.048538692389980882 0 -0.39607554369056902 0.063583142763957601 0 -0.38719491227297392 0.048538692389980882 0 -0.39607554369056902 0.063583142763957601 0 -0.37387060686406048 0.058432376402733743 0 -0.38719491227297392 0.048538692389980882 0 -0.36980048948811522 0.038103246060879649 0 -0.37387060686406048 0.058432376402733743 0 -0.38719491227297392 0.048538692389980882 0 -0.3903673529800058 0.032490181149013302 0 -0.36980048948811522 0.038103246060879649 0 -0.3903673529800058 0.032490181149013302 0 -0.38477151518221098 0.013979796897134951 0 -0.36980048948811522 0.038103246060879649 0 -0.39697086863403802 -0.0013839557650866629 0 -0.41081855033300091 0.025060529318235901 0 -0.38477151518221098 0.013979796897134951 0 -0.41081855033300091 0.025060529318235901 0 -0.3903673529800058 0.032490181149013302 0 -0.38477151518221098 0.013979796897134951 0 -0.405497862122634 0.10463525111446351 0 -0.38909295680209299 0.1138408871445845 0 -0.3898647542866609 0.095950060648990296 0 -0.405497862122634 0.10463525111446351 0 -0.3898647542866609 0.095950060648990296 0 -0.40480037535211377 0.085923817887024759 0 -0.405497862122634 0.10463525111446351 0 -0.38909295680209299 0.1138408871445845 0 -0.40754496010928237 0.12123071753263551 0 -0.38909295680209299 0.1138408871445845 0 -0.37942854020962169 0.12909692076765031 0 -0.36677967939422651 0.1100567331138379 0 -0.38909295680209299 0.1138408871445845 0 -0.3898647542866609 0.095950060648990296 0 -0.37375598061089299 0.094714931940517666 0 -0.38909295680209299 0.1138408871445845 0 -0.37375598061089299 0.094714931940517666 0 -0.36677967939422651 0.1100567331138379 0 -0.3898647542866609 0.095950060648990296 0 -0.38261101992331892 0.078710495489690821 0 -0.37375598061089299 0.094714931940517666 0 -0.38261101992331892 0.078710495489690821 0 -0.39607554369056902 0.063583142763957601 0 -0.37387060686406048 0.058432376402733743 0 -0.38261101992331892 0.078710495489690821 0 -0.39607554369056902 0.063583142763957601 0 -0.40480037535211377 0.085923817887024759 0 -0.39607554369056902 0.063583142763957601 0 -0.40480037535211377 0.085923817887024759 0 -0.41385234454780062 0.071929274976868546 0 -0.3898647542866609 0.095950060648990296 0 -0.38261101992331892 0.078710495489690821 0 -0.40480037535211377 0.085923817887024759 0 -0.40480037535211377 0.085923817887024759 0 -0.4268485809086322 0.083870423005604294 0 -0.42109116684587927 0.097310472281470009 0 -0.40480037535211377 0.085923817887024759 0 -0.41385234454780062 0.071929274976868546 0 -0.4268485809086322 0.083870423005604294 0 -0.41913126794802941 0.052115785886590792 0 -0.39607554369056902 0.063583142763957601 0 -0.41385234454780062 0.071929274976868546 0 -0.41913126794802941 0.052115785886590792 0 -0.41385234454780062 0.071929274976868546 0 -0.42685111483214461 0.068911131057969921 0 -0.43971795897938698 0.058121541952940468 0 -0.42685111483214461 0.068911131057969921 0 -0.43512855616081031 0.076740080273831501 0 -0.42685111483214461 0.068911131057969921 0 -0.43512855616081031 0.076740080273831501 0 -0.4268485809086322 0.083870423005604294 0 -0.41385234454780062 0.071929274976868546 0 -0.42685111483214461 0.068911131057969921 0 -0.4268485809086322 0.083870423005604294 0 -0.4268485809086322 0.083870423005604294 0 -0.43523417079297239 0.092165075322982529 0 -0.42109116684587927 0.097310472281470009 0 -0.43512855616081031 0.076740080273831501 0 -0.43450414944878002 0.08467848207419143 0 -0.44192693906643887 0.081756436911014793 0 -0.43512855616081031 0.076740080273831501 0 -0.4268485809086322 0.083870423005604294 0 -0.43450414944878002 0.08467848207419143 0 -0.4268485809086322 0.083870423005604294 0 -0.43450414944878002 0.08467848207419143 0 -0.43523417079297239 0.092165075322982529 0 -0.43450414944878002 0.08467848207419143 0 -0.43523417079297239 0.092165075322982529 0 -0.44192693906643887 0.081756436911014793 0 -0.43523417079297239 0.092165075322982529 0 -0.43161463604474182 0.1039212648120658 0 -0.44356254797460087 0.099256569648012702 0 -0.43161463604474182 0.1039212648120658 0 -0.42109116684587927 0.097310472281470009 0 -0.42079518517337072 0.1120863694994795 0 -0.43523417079297239 0.092165075322982529 0 -0.43161463604474182 0.1039212648120658 0 -0.42109116684587927 0.097310472281470009 0 -0.405497862122634 0.10463525111446351 0 -0.40480037535211377 0.085923817887024759 0 -0.42109116684587927 0.097310472281470009 0 -0.405497862122634 0.10463525111446351 0 -0.42109116684587927 0.097310472281470009 0 -0.42079518517337072 0.1120863694994795 0 -0.405497862122634 0.10463525111446351 0 -0.40754496010928237 0.12123071753263551 0 -0.42079518517337072 0.1120863694994795 0 -0.40754496010928237 0.12123071753263551 0 -0.42079518517337072 0.1120863694994795 0 -0.42225570663011269 0.1264240119052959 0 -0.43161463604474182 0.1039212648120658 0 -0.42079518517337072 0.1120863694994795 0 -0.43739010943688628 0.1187878373083841 0 -0.42079518517337072 0.1120863694994795 0 -0.43739010943688628 0.1187878373083841 0 -0.42225570663011269 0.1264240119052959 0 -0.43739010943688628 0.1187878373083841 0 -0.4383903128495083 0.1228793927855118 0 -0.44190260392207609 0.1248777748948318 0 -0.44590527586449658 0.124322493925726 0 -0.45173341364778308 0.11537440782104 0 -0.44356254797460087 0.099256569648012702 0 -0.44590527586449658 0.124322493925726 0 -0.44356254797460087 0.099256569648012702 0 -0.43739010943688628 0.1187878373083841 0 -0.44190260392207609 0.1248777748948318 0 -0.44590527586449658 0.124322493925726 0 -0.43739010943688628 0.1187878373083841 0 -0.44590527586449658 0.124322493925726 0 -0.44356254797460087 0.099256569648012702 0 -0.44590527586449658 0.124322493925726 0 -0.45252020252842878 0.12227293068149681 0 -0.45389997760751277 0.1279227448572712 0 -0.44590527586449658 0.124322493925726 0 -0.45252020252842878 0.12227293068149681 0 -0.45173341364778308 0.11537440782104 0 -0.43161463604474182 0.1039212648120658 0 -0.43739010943688628 0.1187878373083841 0 -0.44356254797460087 0.099256569648012702 0 -0.43739010943688628 0.1187878373083841 0 -0.44356254797460087 0.099256569648012702 0 -0.45173341364778308 0.11537440782104 0 -0.44356254797460087 0.099256569648012702 0 -0.45932183496424878 0.1088158955143517 0 -0.44356254797460087 0.099256569648012702 0 -0.45775996791876677 0.095727011115660565 0 -0.4476602404910367 0.086290360452190434 0 -0.45932183496424878 0.1088158955143517 0 -0.47111983781386391 0.11689200283102801 0 -0.47464186755803017 0.10120896639026219 0 -0.44356254797460087 0.099256569648012702 0 -0.45932183496424878 0.1088158955143517 0 -0.45775996791876677 0.095727011115660565 0 -0.45932183496424878 0.1088158955143517 0 -0.45775996791876677 0.095727011115660565 0 -0.47464186755803017 0.10120896639026219 0 -0.45932183496424878 0.1088158955143517 0 -0.45854214299392271 0.12147207612195 0 -0.47111983781386391 0.11689200283102801 0 -0.45854214299392271 0.12147207612195 0 -0.47111983781386391 0.11689200283102801 0 -0.46670045356141671 0.13201057763429661 0 -0.45252020252842878 0.12227293068149681 0 -0.45854214299392271 0.12147207612195 0 -0.45389997760751277 0.1279227448572712 0 -0.45252020252842878 0.12227293068149681 0 -0.45173341364778308 0.11537440782104 0 -0.45854214299392271 0.12147207612195 0 -0.45173341364778308 0.11537440782104 0 -0.45932183496424878 0.1088158955143517 0 -0.45854214299392271 0.12147207612195 0 -0.43971795897938698 0.058121541952940468 0 -0.44192693906643887 0.081756436911014793 0 -0.43971795897938698 0.058121541952940468 0 -0.43512855616081031 0.076740080273831501 0 -0.44192693906643887 0.081756436911014793 0 -0.46128462604429082 0.060850273184711083 0 -0.43971795897938698 0.058121541952940468 0 -0.44192693906643887 0.081756436911014793 0 -0.46128462604429082 0.060850273184711083 0 -0.44192693906643887 0.081756436911014793 0 -0.44356254797460087 0.099256569648012702 0 -0.44192693906643887 0.081756436911014793 0 -0.4476602404910367 0.086290360452190434 0 -0.44356254797460087 0.099256569648012702 0 -0.44192693906643887 0.081756436911014793 0 -0.43523417079297239 0.092165075322982529 0 -0.44356254797460087 0.099256569648012702 0 -0.44192693906643887 0.081756436911014793 0 -0.44192693906643887 0.081756436911014793 0 -0.4476602404910367 0.086290360452190434 0 -0.46518927966344648 0.079309701502000896 0 -0.44356254797460087 0.099256569648012702 0 -0.4476602404910367 0.086290360452190434 0 -0.45775996791876677 0.095727011115660565 0 -0.46518927966344648 0.079309701502000896 0 -0.47464186755803017 0.10120896639026219 0 -0.45775996791876677 0.095727011115660565 0 -0.4476602404910367 0.086290360452190434 0 -0.46518927966344648 0.079309701502000896 0 -0.46128462604429082 0.060850273184711083 0 -0.44192693906643887 0.081756436911014793 0 -0.46518927966344648 0.079309701502000896 0 -0.46518927966344648 0.079309701502000896 0 -0.48300989969222008 0.062501640771811751 0 -0.48354728623302867 0.085601427142565273 0 -0.46128462604429082 0.060850273184711083 0 -0.46518927966344648 0.079309701502000896 0 -0.48300989969222008 0.062501640771811751 0 -0.46518927966344648 0.079309701502000896 0 -0.48354728623302867 0.085601427142565273 0 -0.47464186755803017 0.10120896639026219 0 -0.48354728623302867 0.085601427142565273 0 -0.5 0.075310147997237231 0 -0.5 0.1034462491298017 0 -0.48300989969222008 0.062501640771811751 0 -0.48354728623302867 0.085601427142565273 0 -0.5 0.075310147997237231 0 -0.47111983781386391 0.11689200283102801 0 -0.47464186755803017 0.10120896639026219 0 -0.4866263181884728 0.11752248394676371 0 -0.47111983781386391 0.11689200283102801 0 -0.4866263181884728 0.11752248394676371 0 -0.48338727032833828 0.13467702090337169 0 -0.47464186755803017 0.10120896639026219 0 -0.5 0.1034462491298017 0 -0.4866263181884728 0.11752248394676371 0 -0.48354728623302867 0.085601427142565273 0 -0.47464186755803017 0.10120896639026219 0 -0.5 0.1034462491298017 0 -0.5 0.1034462491298017 0 -0.4866263181884728 0.11752248394676371 0 -0.5 0.13158235026236609 0 -0.4866263181884728 0.11752248394676371 0 -0.5 0.13158235026236609 0 -0.48338727032833828 0.13467702090337169 0 -0.47111983781386391 0.11689200283102801 0 -0.48338727032833828 0.13467702090337169 0 -0.46670045356141671 0.13201057763429661 0 -0.48338727032833828 0.13467702090337169 0 -0.47780030237427762 0.15062523593202951 0 -0.46670045356141671 0.13201057763429661 0 -0.47780030237427762 0.15062523593202951 0 -0.46670045356141671 0.13201057763429661 0 -0.48338727032833828 0.13467702090337169 0 -0.47780030237427762 0.15062523593202951 0 -0.5 0.15971845139493071 0 -0.5 0.13158235026236609 0 -0.48338727032833828 0.13467702090337169 0 -0.5 0.15971845139493071 0 -0.47780030237427762 0.15062523593202951 0 -0.48890015118713859 0.16923989422976241 0 -0.5 0.15971845139493071 0 -0.48890015118713859 0.16923989422976241 0 -0.5 0.15971845139493071 0 -0.49999999999999978 0.18785455252749519 0 -0.48890015118713859 0.16923989422976241 0 -0.48460647859778438 0.18497160000197771 0 -0.49999999999999978 0.18785455252749519 0 -0.48890015118713859 0.16923989422976241 0 -0.49999999999999978 0.18785455252749519 0 -0.47892834534892781 0.17510410458052469 0 -0.47217195426650849 0.18302762704864711 0 -0.47097765588107438 0.1664326687731103 0 -0.48890015118713859 0.16923989422976241 0 -0.48460647859778438 0.18497160000197771 0 -0.47892834534892781 0.17510410458052469 0 -0.48460647859778438 0.18497160000197771 0 -0.47217195426650849 0.18302762704864711 0 -0.47696477462648368 0.19404324920352159 0 -0.48460647859778438 0.18497160000197771 0 -0.47892834534892781 0.17510410458052469 0 -0.47217195426650849 0.18302762704864711 0 -0.47780030237427762 0.15062523593202951 0 -0.48890015118713859 0.16923989422976241 0 -0.47097765588107438 0.1664326687731103 0 -0.47780030237427762 0.15062523593202951 0 -0.48890015118713859 0.16923989422976241 0 -0.47780030237427762 0.15062523593202951 0 -0.47097765588107438 0.1664326687731103 0 -0.45984628043234632 0.15329813723156119 0 -0.48890015118713859 0.16923989422976241 0 -0.47892834534892781 0.17510410458052469 0 -0.47097765588107438 0.1664326687731103 0 -0.47097765588107438 0.1664326687731103 0 -0.4575180098643607 0.16467322463258471 0 -0.45984628043234632 0.15329813723156119 0 -0.47097765588107438 0.1664326687731103 0 -0.4575180098643607 0.16467322463258471 0 -0.46097995079085718 0.17787986957600729 0 -0.4575180098643607 0.16467322463258471 0 -0.44678216916891222 0.15500701995285401 0 -0.45984628043234632 0.15329813723156119 0 -0.47217195426650849 0.18302762704864711 0 -0.46097995079085718 0.17787986957600729 0 -0.46525488432422879 0.19437157521637949 0 -0.46097995079085718 0.17787986957600729 0 -0.44854964376868622 0.17330819237939971 0 -0.45031711836846078 0.19160936480594529 0 -0.47217195426650849 0.18302762704864711 0 -0.47097765588107438 0.1664326687731103 0 -0.46097995079085718 0.17787986957600729 0 -0.4575180098643607 0.16467322463258471 0 -0.46097995079085718 0.17787986957600729 0 -0.44854964376868622 0.17330819237939971 0 -0.44854964376868622 0.17330819237939971 0 -0.45031711836846078 0.19160936480594529 0 -0.4427643242345744 0.17417605560603061 0 -0.45031711836846078 0.19160936480594529 0 -0.44854964376868622 0.17330819237939971 0 -0.4427643242345744 0.17417605560603061 0 -0.45031711836846078 0.19160936480594529 0 -0.4427643242345744 0.17417605560603061 0 -0.45031711836846078 0.19160936480594529 0 -0.43536651813670701 0.1774903283182232 0 -0.4427643242345744 0.17417605560603061 0 -0.44237755444746901 0.1657503625861593 0 -0.43536651813670701 0.1774903283182232 0 -0.44854964376868622 0.17330819237939971 0 -0.44678216916891222 0.15500701995285401 0 -0.44854964376868622 0.17330819237939971 0 -0.44237755444746901 0.1657503625861593 0 -0.44678216916891222 0.15500701995285401 0 -0.44237755444746901 0.1657503625861593 0 -0.43653721172069038 0.15634713643001391 0 -0.43536651813670701 0.1774903283182232 0 -0.4575180098643607 0.16467322463258471 0 -0.44854964376868622 0.17330819237939971 0 -0.44678216916891222 0.15500701995285401 0 -0.44854964376868622 0.17330819237939971 0 -0.4427643242345744 0.17417605560603061 0 -0.44237755444746901 0.1657503625861593 0 -0.44237755444746901 0.1657503625861593 0 -0.44678216916891222 0.15500701995285401 0 -0.43653721172069038 0.15634713643001391 0 -0.44678216916891222 0.15500701995285401 0 -0.44124424706966447 0.14479346232220719 0 -0.43653721172069038 0.15634713643001391 0 -0.44678216916891222 0.15500701995285401 0 -0.44419384510395721 0.12820642829819739 0 -0.44678216916891222 0.15500701995285401 0 -0.43653721172069038 0.15634713643001391 0 -0.44824800375439361 0.14938841820343909 0 -0.44678216916891222 0.15500701995285401 0 -0.44419384510395721 0.12820642829819739 0 -0.44678216916891222 0.15500701995285401 0 -0.44124424706966447 0.14479346232220719 0 -0.44419384510395721 0.12820642829819739 0 -0.44124424706966447 0.14479346232220719 0 -0.43746376228509792 0.1396132646077628 0 -0.43653721172069038 0.15634713643001391 0 -0.44824800375439361 0.14938841820343909 0 -0.44678216916891222 0.15500701995285401 0 -0.45984628043234632 0.15329813723156119 0 -0.44124424706966447 0.14479346232220719 0 -0.44419384510395721 0.12820642829819739 0 -0.43746376228509792 0.1396132646077628 0 -0.44590527586449658 0.124322493925726 0 -0.44824800375439361 0.14938841820343909 0 -0.44419384510395721 0.12820642829819739 0 -0.44590527586449658 0.124322493925726 0 -0.44824800375439361 0.14938841820343909 0 -0.44590527586449658 0.124322493925726 0 -0.44824800375439361 0.14938841820343909 0 -0.45330576523076582 0.13627326545024421 0 -0.4383903128495083 0.1228793927855118 0 -0.44190260392207609 0.1248777748948318 0 -0.43746376228509792 0.1396132646077628 0 -0.4383903128495083 0.1228793927855118 0 -0.43746376228509792 0.1396132646077628 0 -0.44190260392207609 0.1248777748948318 0 -0.44419384510395721 0.12820642829819739 0 -0.43746376228509792 0.1396132646077628 0 -0.44190260392207609 0.1248777748948318 0 -0.44590527586449658 0.124322493925726 0 -0.44419384510395721 0.12820642829819739 0 -0.44590527586449658 0.124322493925726 0 -0.45330576523076582 0.13627326545024421 0 -0.45389997760751277 0.1279227448572712 0 -0.45330576523076582 0.13627326545024421 0 -0.46670045356141671 0.13201057763429661 0 -0.46118016107064003 0.14431912689031409 0 -0.45330576523076582 0.13627326545024421 0 -0.45389997760751277 0.1279227448572712 0 -0.46670045356141671 0.13201057763429661 0 -0.45854214299392271 0.12147207612195 0 -0.45389997760751277 0.1279227448572712 0 -0.46670045356141671 0.13201057763429661 0 -0.47780030237427762 0.15062523593202951 0 -0.46670045356141671 0.13201057763429661 0 -0.46118016107064003 0.14431912689031409 0 -0.47780030237427762 0.15062523593202951 0 -0.46118016107064003 0.14431912689031409 0 -0.45984628043234632 0.15329813723156119 0 -0.44678216916891222 0.15500701995285401 0 -0.45984628043234632 0.15329813723156119 0 -0.44824800375439361 0.14938841820343909 0 -0.46118016107064003 0.14431912689031409 0 -0.45984628043234632 0.15329813723156119 0 -0.44824800375439361 0.14938841820343909 0 -0.45330576523076582 0.13627326545024421 0 -0.46118016107064003 0.14431912689031409 0 -0.4697365897889314 0.23643325961502171 0 -0.48062243783764003 0.26155990169903698 0 -0.4697365897889314 0.23643325961502171 0 -0.49031121891882018 0.2481922865444724 0 -0.48612746505593768 0.23563308980592679 0 -0.4697365897889314 0.23643325961502171 0 -0.49031121891882018 0.2481922865444724 0 -0.48062243783764003 0.26155990169903698 0 -0.49031121891882018 0.2481922865444724 0 -0.50000000000000044 0.23482467138990781 0 -0.50000000000000155 0.25678152655825781 0 -0.49031121891882018 0.2481922865444724 0 -0.50000000000000044 0.23482467138990781 0 -0.49031121891882018 0.2481922865444724 0 -0.50000000000000044 0.23482467138990781 0 -0.48612746505593768 0.23563308980592679 0 -0.50000000000000044 0.23482467138990781 0 -0.48446205151599858 0.22308214167430529 0 -0.5 0.21133961195870149 0 -0.50000000000000044 0.23482467138990781 0 -0.48612746505593768 0.23563308980592679 0 -0.48446205151599858 0.22308214167430529 0 -0.4697365897889314 0.23643325961502171 0 -0.48612746505593768 0.23563308980592679 0 -0.48446205151599858 0.22308214167430529 0 -0.4697365897889314 0.23643325961502171 0 -0.48446205151599858 0.22308214167430529 0 -0.45885074174022261 0.21130661753100641 0 -0.48446205151599858 0.22308214167430529 0 -0.47522332285416408 0.20593685836004311 0 -0.48792932920033999 0.21070227577839229 0 -0.47522332285416408 0.20593685836004311 0 -0.49159590396810549 0.2005670991890795 0 -0.48446205151599858 0.22308214167430529 0 -0.47522332285416408 0.20593685836004311 0 -0.45885074174022261 0.21130661753100641 0 -0.47522332285416408 0.20593685836004311 0 -0.48792932920033999 0.21070227577839229 0 -0.49159590396810549 0.2005670991890795 0 -0.48446205151599858 0.22308214167430529 0 -0.5 0.21133961195870149 0 -0.48792932920033999 0.21070227577839229 0 -0.5 0.21133961195870149 0 -0.48792932920033999 0.21070227577839229 0 -0.49159590396810549 0.2005670991890795 0 -0.5 0.21133961195870149 0 -0.49159590396810549 0.2005670991890795 0 -0.49999999999999978 0.18785455252749519 0 -0.48460647859778438 0.18497160000197771 0 -0.49159590396810549 0.2005670991890795 0 -0.47696477462648368 0.19404324920352159 0 -0.48460647859778438 0.18497160000197771 0 -0.49159590396810549 0.2005670991890795 0 -0.49999999999999978 0.18785455252749519 0 -0.47522332285416408 0.20593685836004311 0 -0.49159590396810549 0.2005670991890795 0 -0.47696477462648368 0.19404324920352159 0 -0.47522332285416408 0.20593685836004311 0 -0.47696477462648368 0.19404324920352159 0 -0.46525488432422879 0.19437157521637949 0 -0.47217195426650849 0.18302762704864711 0 -0.47696477462648368 0.19404324920352159 0 -0.46525488432422879 0.19437157521637949 0 -0.46097995079085718 0.17787986957600729 0 -0.46525488432422879 0.19437157521637949 0 -0.45031711836846078 0.19160936480594529 0 -0.46525488432422879 0.19437157521637949 0 -0.45031711836846078 0.19160936480594529 0 -0.45885074174022261 0.21130661753100641 0 -0.45031711836846078 0.19160936480594529 0 -0.45885074174022261 0.21130661753100641 0 -0.44458297458665968 0.20302514772602559 0 -0.45031711836846078 0.19160936480594529 0 -0.43419582455272671 0.19863352020643271 0 -0.44458297458665968 0.20302514772602559 0 -0.45031711836846078 0.19160936480594529 0 -0.45224915515475189 0.2116144830491582 0 -0.45031711836846078 0.19160936480594529 0 -0.43419582455272671 0.19863352020643271 0 -0.43536651813670701 0.1774903283182232 0 -0.45031711836846078 0.19160936480594529 0 -0.45224915515475189 0.2116144830491582 0 -0.45885074174022261 0.21130661753100641 0 -0.43302513096874617 0.21977671209464211 0 -0.45224915515475189 0.2116144830491582 0 -0.45885074174022261 0.21130661753100641 0 -0.43302513096874617 0.21977671209464211 0 -0.44458297458665968 0.20302514772602559 0 -0.45224915515475189 0.2116144830491582 0 -0.43302513096874617 0.21977671209464211 0 -0.47522332285416408 0.20593685836004311 0 -0.45885074174022261 0.21130661753100641 0 -0.45031711836846078 0.19160936480594529 0 -0.45224915515475189 0.2116144830491582 0 -0.45885074174022261 0.21130661753100641 0 -0.47522332285416408 0.20593685836004311 0 -0.46525488432422879 0.19437157521637949 0 -0.45885074174022261 0.21130661753100641 0 -0.4697365897889314 0.23643325961502171 0 -0.45885074174022261 0.21130661753100641 0 -0.44879083695949729 0.23430571940343839 0 -0.4697365897889314 0.23643325961502171 0 -0.45885074174022261 0.21130661753100641 0 -0.44879083695949729 0.23430571940343839 0 -0.43201259650787383 0.23806348729576859 0 -0.43302513096874617 0.21977671209464211 0 -0.45885074174022261 0.21130661753100641 0 -0.44879083695949729 0.23430571940343839 0 -0.43302513096874617 0.21977671209464211 0 -0.44879083695949729 0.23430571940343839 0 -0.44230676710507749 0.24892234785503201 0 -0.43201259650787383 0.23806348729576859 0 -0.44879083695949729 0.23430571940343839 0 -0.44230676710507749 0.24892234785503201 0 -0.4554628298288993 0.2523745778352644 0 -0.4697365897889314 0.23643325961502171 0 -0.46741984697533462 0.25942055182262658 0 -0.4554628298288993 0.2523745778352644 0 -0.4697365897889314 0.23643325961502171 0 -0.44879083695949729 0.23430571940343839 0 -0.4554628298288993 0.2523745778352644 0 -0.41576896288443632 0.2432695896099219 0 -0.40717224716406619 0.22825575146784269 0 -0.39855375553480937 0.2441149483090749 0 -0.41576896288443632 0.2432695896099219 0 -0.39855375553480937 0.2441149483090749 0 -0.40886652545920688 0.25038766517731692 0 -0.41576896288443632 0.2432695896099219 0 -0.41450278511812078 0.25474354136917932 0 -0.40886652545920688 0.25038766517731692 0 -0.41576896288443632 0.2432695896099219 0 -0.4219947343812806 0.23234138511704369 0 -0.40717224716406619 0.22825575146784269 0 -0.43201259650787383 0.23806348729576859 0 -0.43100006204700142 0.25635026249689502 0 -0.41576896288443632 0.2432695896099219 0 -0.43201259650787383 0.23806348729576859 0 -0.43100006204700142 0.25635026249689502 0 -0.41576896288443632 0.2432695896099219 0 -0.43201259650787383 0.23806348729576859 0 -0.4219947343812806 0.23234138511704369 0 -0.44230676710507749 0.24892234785503201 0 -0.43201259650787383 0.23806348729576859 0 -0.43100006204700142 0.25635026249689502 0 -0.43201259650787383 0.23806348729576859 0 -0.4219947343812806 0.23234138511704369 0 -0.43302513096874617 0.21977671209464211 0 -0.43201259650787383 0.23806348729576859 0 -0.43302513096874617 0.21977671209464211 0 -0.43302513096874617 0.21977671209464211 0 -0.40717224716406619 0.22825575146784269 0 -0.43302513096874617 0.21977671209464211 0 -0.40717224716406619 0.22825575146784269 0 -0.42051688788721081 0.21066859622728659 0 -0.4219947343812806 0.23234138511704369 0 -0.43302513096874617 0.21977671209464211 0 -0.40717224716406619 0.22825575146784269 0 -0.40717224716406619 0.22825575146784269 0 -0.4066448692943358 0.2092459981661903 0 -0.42051688788721081 0.21066859622728659 0 -0.4066448692943358 0.2092459981661903 0 -0.42051688788721081 0.21066859622728659 0 -0.42154636745617891 0.1974309992013252 0 -0.43302513096874617 0.21977671209464211 0 -0.43419582455272671 0.19863352020643271 0 -0.44458297458665968 0.20302514772602559 0 -0.43302513096874617 0.21977671209464211 0 -0.43419582455272671 0.19863352020643271 0 -0.43302513096874617 0.21977671209464211 0 -0.42051688788721081 0.21066859622728659 0 -0.43419582455272671 0.19863352020643271 0 -0.42051688788721081 0.21066859622728659 0 -0.43419582455272671 0.19863352020643271 0 -0.42154636745617891 0.1974309992013252 0 -0.43419582455272671 0.19863352020643271 0 -0.43536651813670701 0.1774903283182232 0 -0.43419582455272671 0.19863352020643271 0 -0.42154636745617891 0.1974309992013252 0 -0.42515529799588192 0.18622688850674421 0 -0.42154636745617891 0.1974309992013252 0 -0.42515529799588192 0.18622688850674421 0 -0.41218490035635041 0.18207679055558501 0 -0.4066448692943358 0.2092459981661903 0 -0.42154636745617891 0.1974309992013252 0 -0.393719202587831 0.19529694844230139 0 -0.42154636745617891 0.1974309992013252 0 -0.393719202587831 0.19529694844230139 0 -0.41218490035635041 0.18207679055558501 0 -0.42154636745617891 0.1974309992013252 0 -0.393719202587831 0.19529694844230139 0 -0.393719202587831 0.19529694844230139 0 -0.3797792264903237 0.18103179122971449 0 -0.36589203771948298 0.19316289768327849 0 -0.393719202587831 0.19529694844230139 0 -0.38082772306226442 0.20303477576094431 0 -0.36589203771948298 0.19316289768327849 0 -0.393719202587831 0.19529694844230139 0 -0.36589203771948298 0.19316289768327849 0 -0.38082772306226442 0.20303477576094431 0 -0.39018802207025283 0.21455856416722649 0 -0.37144472695363318 0.21478312032503671 0 -0.393719202587831 0.19529694844230139 0 -0.38082772306226442 0.20303477576094431 0 -0.39018802207025283 0.21455856416722649 0 -0.4066448692943358 0.2092459981661903 0 -0.393719202587831 0.19529694844230139 0 -0.39018802207025283 0.21455856416722649 0 -0.40717224716406619 0.22825575146784269 0 -0.4066448692943358 0.2092459981661903 0 -0.39018802207025283 0.21455856416722649 0 -0.40717224716406619 0.22825575146784269 0 -0.39018802207025283 0.21455856416722649 0 -0.38131936335938638 0.23673479084104379 0 -0.40717224716406619 0.22825575146784269 0 -0.38131936335938638 0.23673479084104379 0 -0.39018802207025283 0.21455856416722649 0 -0.38131936335938638 0.23673479084104379 0 -0.37144472695363318 0.21478312032503671 0 -0.38131936335938638 0.23673479084104379 0 -0.37144472695363318 0.21478312032503671 0 -0.38131936335938638 0.23673479084104379 0 -0.38950991029832149 0.25494267013518612 0 -0.38131936335938638 0.23673479084104379 0 -0.39855375553480937 0.2441149483090749 0 -0.38950991029832149 0.25494267013518612 0 -0.38131936335938638 0.23673479084104379 0 -0.37846566630958589 0.24350627134364061 0 -0.38950991029832149 0.25494267013518612 0 -0.37846566630958589 0.24350627134364061 0 -0.38950991029832149 0.25494267013518612 0 -0.40717224716406619 0.22825575146784269 0 -0.38131936335938638 0.23673479084104379 0 -0.39855375553480937 0.2441149483090749 0 -0.41433060753185419 0.14169603021722499 0 -0.42504523236145458 0.15785037262912621 0 -0.40212314273478611 0.160848752090921 0 -0.40754496010928237 0.12123071753263551 0 -0.41433060753185419 0.14169603021722499 0 -0.42225570663011269 0.1264240119052959 0 -0.40754496010928237 0.12123071753263551 0 -0.41433060753185419 0.14169603021722499 0 -0.39765346939520968 0.1400570559680121 0 -0.43739010943688628 0.1187878373083841 0 -0.4312176708991704 0.13831910496875521 0 -0.43739010943688628 0.1187878373083841 0 -0.4312176708991704 0.13831910496875521 0 -0.42225570663011269 0.1264240119052959 0 -0.43739010943688628 0.1187878373083841 0 -0.4383903128495083 0.1228793927855118 0 -0.4312176708991704 0.13831910496875521 0 -0.41433060753185419 0.14169603021722499 0 -0.4312176708991704 0.13831910496875521 0 -0.42225570663011269 0.1264240119052959 0 -0.4383903128495083 0.1228793927855118 0 -0.4312176708991704 0.13831910496875521 0 -0.43746376228509792 0.1396132646077628 0 -0.4312176708991704 0.13831910496875521 0 -0.43653721172069038 0.15634713643001391 0 -0.42504523236145458 0.15785037262912621 0 -0.4312176708991704 0.13831910496875521 0 -0.42504523236145458 0.15785037262912621 0 -0.43746376228509792 0.1396132646077628 0 -0.43653721172069038 0.15634713643001391 0 -0.4312176708991704 0.13831910496875521 0 -0.43746376228509792 0.1396132646077628 0 -0.43653721172069038 0.15634713643001391 0 -0.41433060753185419 0.14169603021722499 0 -0.4312176708991704 0.13831910496875521 0 -0.42504523236145458 0.15785037262912621 0 -0.43653721172069038 0.15634713643001391 0 -0.42504523236145458 0.15785037262912621 0 -0.43653721172069038 0.15634713643001391 0 -0.42351665148891032 0.16268721660574259 0 -0.43536651813670701 0.1774903283182232 0 -0.43653721172069038 0.15634713643001391 0 -0.43536651813670701 0.1774903283182232 0 -0.42351665148891032 0.16268721660574259 0 -0.42504523236145458 0.15785037262912621 0 -0.43653721172069038 0.15634713643001391 0 -0.42351665148891032 0.16268721660574259 0 -0.42504523236145458 0.15785037262912621 0 -0.43419582455272671 0.19863352020643271 0 -0.43536651813670701 0.1774903283182232 0 -0.42515529799588192 0.18622688850674421 0 -0.42351665148891032 0.16268721660574259 0 -0.43536651813670701 0.1774903283182232 0 -0.422482879477447 0.1755028042521547 0 -0.43536651813670701 0.1774903283182232 0 -0.422482879477447 0.1755028042521547 0 -0.42515529799588192 0.18622688850674421 0 -0.41218490035635041 0.18207679055558501 0 -0.41199528894772319 0.17056997004330129 0 -0.39650046903752201 0.1756118973190898 0 -0.422482879477447 0.1755028042521547 0 -0.42515529799588192 0.18622688850674421 0 -0.41218490035635041 0.18207679055558501 0 -0.422482879477447 0.1755028042521547 0 -0.41218490035635041 0.18207679055558501 0 -0.41199528894772319 0.17056997004330129 0 -0.42504523236145458 0.15785037262912621 0 -0.40212314273478611 0.160848752090921 0 -0.42351665148891032 0.16268721660574259 0 -0.41199528894772319 0.17056997004330129 0 -0.40212314273478611 0.160848752090921 0 -0.42351665148891032 0.16268721660574259 0 -0.42504523236145458 0.15785037262912621 0 -0.40212314273478611 0.160848752090921 0 -0.42351665148891032 0.16268721660574259 0 -0.422482879477447 0.1755028042521547 0 -0.41199528894772319 0.17056997004330129 0 -0.40212314273478611 0.160848752090921 0 -0.39650046903752201 0.1756118973190898 0 -0.37920105310811758 0.16384713155271549 0 -0.40212314273478611 0.160848752090921 0 -0.37920105310811758 0.16384713155271549 0 -0.41199528894772319 0.17056997004330129 0 -0.40212314273478611 0.160848752090921 0 -0.39650046903752201 0.1756118973190898 0 -0.393719202587831 0.19529694844230139 0 -0.41218490035635041 0.18207679055558501 0 -0.39650046903752201 0.1756118973190898 0 -0.39650046903752201 0.1756118973190898 0 -0.3797792264903237 0.18103179122971449 0 -0.37920105310811758 0.16384713155271549 0 -0.393719202587831 0.19529694844230139 0 -0.39650046903752201 0.1756118973190898 0 -0.3797792264903237 0.18103179122971449 0 -0.40212314273478611 0.160848752090921 0 -0.37920105310811758 0.16384713155271549 0 -0.38176044276497662 0.14614432012409839 0 -0.37920105310811758 0.16384713155271549 0 -0.38176044276497662 0.14614432012409839 0 -0.36748761140952052 0.15020939905325309 0 -0.40212314273478611 0.160848752090921 0 -0.38176044276497662 0.14614432012409839 0 -0.39765346939520968 0.1400570559680121 0 -0.41433060753185419 0.14169603021722499 0 -0.40212314273478611 0.160848752090921 0 -0.39765346939520968 0.1400570559680121 0 -0.38909295680209299 0.1138408871445845 0 -0.40754496010928237 0.12123071753263551 0 -0.39765346939520968 0.1400570559680121 0 -0.38176044276497662 0.14614432012409839 0 -0.39765346939520968 0.1400570559680121 0 -0.37942854020962169 0.12909692076765031 0 -0.38176044276497662 0.14614432012409839 0 -0.37942854020962169 0.12909692076765031 0 -0.36466883973260389 0.1328066613120388 0 -0.38909295680209299 0.1138408871445845 0 -0.39765346939520968 0.1400570559680121 0 -0.37942854020962169 0.12909692076765031 0 -0.36466883973260389 0.1328066613120388 0 -0.3524623415529396 0.13124526941364309 0 -0.35326190658380729 0.119425874385125 0 -0.3524623415529396 0.13124526941364309 0 -0.34750916333052911 0.14283672715778031 0 -0.33873936317960901 0.1188279433010534 0 -0.3524623415529396 0.13124526941364309 0 -0.34750916333052911 0.14283672715778031 0 -0.35813243493814872 0.14232914091221799 0 -0.36466883973260389 0.1328066613120388 0 -0.3524623415529396 0.13124526941364309 0 -0.35813243493814872 0.14232914091221799 0 -0.34750916333052911 0.14283672715778031 0 -0.35627896348144861 0.16684551101450729 0 -0.34750916333052911 0.14283672715778031 0 -0.35627896348144861 0.16684551101450729 0 -0.34247542659702468 0.15038332772738949 0 -0.34750916333052911 0.14283672715778031 0 -0.35813243493814872 0.14232914091221799 0 -0.35627896348144861 0.16684551101450729 0 -0.36466883973260389 0.1328066613120388 0 -0.35813243493814872 0.14232914091221799 0 -0.36748761140952052 0.15020939905325309 0 -0.38176044276497662 0.14614432012409839 0 -0.36466883973260389 0.1328066613120388 0 -0.36748761140952052 0.15020939905325309 0 -0.35813243493814872 0.14232914091221799 0 -0.36748761140952052 0.15020939905325309 0 -0.35627896348144861 0.16684551101450729 0 -0.37920105310811758 0.16384713155271549 0 -0.36748761140952052 0.15020939905325309 0 -0.35627896348144861 0.16684551101450729 0 -0.37920105310811758 0.16384713155271549 0 -0.35627896348144861 0.16684551101450729 0 -0.3797792264903237 0.18103179122971449 0 -0.37920105310811758 0.16384713155271549 0 -0.35627896348144861 0.16684551101450729 0 -0.3797792264903237 0.18103179122971449 0 -0.35627896348144861 0.16684551101450729 0 -0.36589203771948298 0.19316289768327849 0 -0.35627896348144861 0.16684551101450729 0 -0.36589203771948298 0.19316289768327849 0 -0.36157009054788308 0.19283144980902819 0 -0.35627896348144861 0.16684551101450729 0 -0.36589203771948298 0.19316289768327849 0 -0.35023626129416169 0.16763594131240761 0 -0.36157009054788308 0.19283144980902819 0 -0.35627896348144861 0.16684551101450729 0 -0.35023626129416169 0.16763594131240761 0 -0.36157009054788308 0.19283144980902819 0 -0.35023626129416169 0.16763594131240761 0 -0.36157009054788308 0.19283144980902819 0 -0.33167946679984339 0.19053915346482639 0 -0.35023626129416169 0.16763594131240761 0 -0.34247542659702468 0.15038332772738949 0 -0.35627896348144861 0.16684551101450729 0 -0.35023626129416169 0.16763594131240761 0 -0.34247542659702468 0.15038332772738949 0 -0.35627896348144861 0.16684551101450729 0 -0.35023626129416169 0.16763594131240761 0 -0.35023626129416169 0.16763594131240761 0 -0.3260996131898522 0.15337480904988651 0 -0.34247542659702468 0.15038332772738949 0 -0.35023626129416169 0.16763594131240761 0 -0.32148732869443131 0.17139651508467471 0 -0.3260996131898522 0.15337480904988651 0 -0.35023626129416169 0.16763594131240761 0 -0.32148732869443131 0.17139651508467471 0 -0.35023626129416169 0.16763594131240761 0 -0.32148732869443131 0.17139651508467471 0 -0.33167946679984339 0.19053915346482639 0 -0.32148732869443131 0.17139651508467471 0 -0.33167946679984339 0.19053915346482639 0 -0.30975566326764081 0.18992744529650321 0 -0.32148732869443131 0.17139651508467471 0 -0.3260996131898522 0.15337480904988651 0 -0.30882154103795439 0.15343685859886089 0 -0.3260996131898522 0.15337480904988651 0 -0.32157288655929073 0.13654814841481749 0 -0.30882154103795439 0.15343685859886089 0 -0.3260996131898522 0.15337480904988651 0 -0.32157288655929073 0.13654814841481749 0 -0.33527929057126121 0.14039419113018539 0 -0.32157288655929073 0.13654814841481749 0 -0.30308742685941698 0.13385559147552939 0 -0.31422211074626649 0.12037480233927041 0 -0.32157288655929073 0.13654814841481749 0 -0.33873936317960901 0.1188279433010534 0 -0.31422211074626649 0.12037480233927041 0 -0.34750916333052911 0.14283672715778031 0 -0.33873936317960901 0.1188279433010534 0 -0.34750916333052911 0.14283672715778031 0 -0.33527929057126121 0.14039419113018539 0 -0.33873936317960901 0.1188279433010534 0 -0.32157288655929073 0.13654814841481749 0 -0.33527929057126121 0.14039419113018539 0 -0.33873936317960901 0.1188279433010534 0 -0.3260996131898522 0.15337480904988651 0 -0.33527929057126121 0.14039419113018539 0 -0.34247542659702468 0.15038332772738949 0 -0.34750916333052911 0.14283672715778031 0 -0.33527929057126121 0.14039419113018539 0 -0.34247542659702468 0.15038332772738949 0 -0.34489530339443891 0.24868088710279659 0 -0.36248554374363001 0.24291176897920599 0 -0.35959237541122341 0.25823807042808739 0 -0.34489530339443891 0.24868088710279659 0 -0.36248554374363001 0.24291176897920599 0 -0.34489530339443891 0.24868088710279659 0 -0.36248554374363001 0.24291176897920599 0 -0.33717775683804913 0.22749781043162901 0 -0.36248554374363001 0.24291176897920599 0 -0.33717775683804913 0.22749781043162901 0 -0.37846566630958589 0.24350627134364061 0 -0.36248554374363001 0.24291176897920599 0 -0.37736966733706678 0.251977092033426 0 -0.38131936335938638 0.23673479084104379 0 -0.36248554374363001 0.24291176897920599 0 -0.36706985717971341 0.23018976971881239 0 -0.38131936335938638 0.23673479084104379 0 -0.37846566630958589 0.24350627134364061 0 -0.36248554374363001 0.24291176897920599 0 -0.38131936335938638 0.23673479084104379 0 -0.36248554374363001 0.24291176897920599 0 -0.36248554374363001 0.24291176897920599 0 -0.37736966733706678 0.251977092033426 0 -0.38131936335938638 0.23673479084104379 0 -0.36706985717971341 0.23018976971881239 0 -0.37199198282964929 0.21837259320825311 0 -0.38131936335938638 0.23673479084104379 0 -0.37199198282964929 0.21837259320825311 0 -0.37144472695363318 0.21478312032503671 0 -0.36248554374363001 0.24291176897920599 0 -0.36706985717971341 0.23018976971881239 0 -0.35458486983384901 0.22293520181994031 0 -0.35458486983384901 0.22293520181994031 0 -0.37199198282964929 0.21837259320825311 0 -0.36706985717971341 0.23018976971881239 0 -0.35458486983384901 0.22293520181994031 0 -0.37199198282964929 0.21837259320825311 0 -0.35458486983384901 0.22293520181994031 0 -0.34136513809815389 0.20798654419748749 0 -0.33717775683804913 0.22749781043162901 0 -0.36248554374363001 0.24291176897920599 0 -0.35458486983384901 0.22293520181994031 0 -0.33717775683804913 0.22749781043162901 0 -0.35458486983384901 0.22293520181994031 0 -0.33717775683804913 0.22749781043162901 0 -0.35458486983384901 0.22293520181994031 0 -0.35724120635837953 0.20963407903787329 0 -0.34136513809815389 0.20798654419748749 0 -0.35724120635837953 0.20963407903787329 0 -0.36157009054788308 0.19283144980902819 0 -0.34136513809815389 0.20798654419748749 0 -0.38082772306226442 0.20303477576094431 0 -0.37144472695363318 0.21478312032503671 0 -0.36718752151817718 0.19670949965567211 0 -0.37144472695363318 0.21478312032503671 0 -0.36157009054788308 0.19283144980902819 0 -0.35458486983384901 0.22293520181994031 0 -0.37199198282964929 0.21837259320825311 0 -0.37144472695363318 0.21478312032503671 0 -0.35458486983384901 0.22293520181994031 0 -0.35724120635837953 0.20963407903787329 0 -0.37144472695363318 0.21478312032503671 0 -0.35724120635837953 0.20963407903787329 0 -0.37144472695363318 0.21478312032503671 0 -0.36157009054788308 0.19283144980902819 0 -0.37144472695363318 0.21478312032503671 0 -0.36718752151817718 0.19670949965567211 0 -0.36157009054788308 0.19283144980902819 0 -0.38082772306226442 0.20303477576094431 0 -0.36718752151817718 0.19670949965567211 0 -0.36589203771948298 0.19316289768327849 0 -0.36718752151817718 0.19670949965567211 0 -0.36589203771948298 0.19316289768327849 0 -0.36157009054788308 0.19283144980902819 0 -0.36589203771948298 0.19316289768327849 0 -0.36157009054788308 0.19283144980902819 0 -0.36718752151817718 0.19670949965567211 0 -0.36589203771948298 0.19316289768327849 0 -0.36157009054788308 0.19283144980902819 0 -0.33167946679984339 0.19053915346482639 0 -0.36157009054788308 0.19283144980902819 0 -0.33167946679984339 0.19053915346482639 0 -0.34136513809815389 0.20798654419748749 0 -0.33167946679984339 0.19053915346482639 0 -0.31337310652876399 0.21299935213198051 0 -0.30975566326764081 0.18992744529650321 0 -0.33167946679984339 0.19053915346482639 0 -0.31337310652876399 0.21299935213198051 0 -0.34136513809815389 0.20798654419748749 0 -0.31337310652876399 0.21299935213198051 0 -0.34136513809815389 0.20798654419748749 0 -0.33717775683804913 0.22749781043162901 0 -0.31337310652876399 0.21299935213198051 0 -0.33717775683804913 0.22749781043162901 0 -0.3086989084840418 0.23496245082215511 0 -0.31337310652876399 0.21299935213198051 0 -0.33717775683804913 0.22749781043162901 0 -0.33717775683804913 0.22749781043162901 0 -0.3086989084840418 0.23496245082215511 0 -0.32281112578858923 0.24248600309469809 0 -0.3086989084840418 0.23496245082215511 0 -0.30672249530042373 0.26120052496061291 0 -0.33717775683804913 0.22749781043162901 0 -0.32281112578858923 0.24248600309469809 0 -0.3086989084840418 0.23496245082215511 0 -0.32281112578858923 0.24248600309469809 0 -0.33674762913257789 0.2432231596817393 0 -0.32730506304524992 0.25445000522639338 0 -0.34489530339443891 0.24868088710279659 0 -0.33717775683804913 0.22749781043162901 0 -0.33674762913257789 0.2432231596817393 0 -0.33717775683804913 0.22749781043162901 0 -0.32281112578858923 0.24248600309469809 0 -0.33674762913257789 0.2432231596817393 0 -0.34489530339443891 0.24868088710279659 0 -0.33674762913257789 0.2432231596817393 0 -0.32730506304524992 0.25445000522639338 0 -0.33674762913257789 0.2432231596817393 0 -0.32730506304524992 0.25445000522639338 0 -0.3086989084840418 0.23496245082215511 0 -0.28022006013003492 0.2424270912126826 0 -0.29464196701413958 0.25202419192521758 0 -0.3086989084840418 0.23496245082215511 0 -0.28022006013003492 0.2424270912126826 0 -0.3086989084840418 0.23496245082215511 0 -0.30672249530042373 0.26120052496061291 0 -0.29464196701413958 0.25202419192521758 0 -0.31337310652876399 0.21299935213198051 0 -0.3086989084840418 0.23496245082215511 0 -0.29495251041298148 0.22082307582945651 0 -0.29495251041298148 0.22082307582945651 0 -0.2765571970512265 0.21514763067515119 0 -0.28022006013003492 0.2424270912126826 0 -0.3086989084840418 0.23496245082215511 0 -0.29495251041298148 0.22082307582945651 0 -0.28022006013003492 0.2424270912126826 0 -0.29495251041298148 0.22082307582945651 0 -0.28956845621947969 0.1985008938323311 0 -0.2765571970512265 0.21514763067515119 0 -0.31337310652876399 0.21299935213198051 0 -0.28956845621947969 0.1985008938323311 0 -0.31337310652876399 0.21299935213198051 0 -0.29495251041298148 0.22082307582945651 0 -0.28956845621947969 0.1985008938323311 0 -0.31337310652876399 0.21299935213198051 0 -0.30975566326764081 0.18992744529650321 0 -0.28956845621947969 0.1985008938323311 0 -0.30975566326764081 0.18992744529650321 0 -0.28956845621947969 0.1985008938323311 0 -0.29273839609470059 0.17515708885693931 0 -0.28956845621947969 0.1985008938323311 0 -0.26576380591019277 0.18400243553268561 0 -0.28956845621947969 0.1985008938323311 0 -0.27026864743477858 0.1969120610492972 0 -0.26576380591019277 0.18400243553268561 0 -0.27026864743477858 0.1969120610492972 0 -0.26576380591019277 0.18400243553268561 0 -0.25616115666541911 0.1940366335829137 0 -0.26576380591019277 0.18400243553268561 0 -0.25501052529300627 0.18594619292738371 0 -0.27026864743477858 0.1969120610492972 0 -0.25616115666541911 0.1940366335829137 0 -0.26576380591019277 0.18400243553268561 0 -0.25616115666541911 0.1940366335829137 0 -0.25501052529300627 0.18594619292738371 0 -0.24335811083150821 0.18966417318239151 0 -0.25616115666541911 0.1940366335829137 0 -0.25888613326370691 0.2079192455447646 0 -0.2444599245728549 0.2000208166052404 0 -0.27026864743477858 0.1969120610492972 0 -0.25616115666541911 0.1940366335829137 0 -0.25888613326370691 0.2079192455447646 0 -0.25888613326370691 0.2079192455447646 0 -0.25880771652771423 0.22585694761766101 0 -0.24593220940753249 0.2120454216302779 0 -0.25888613326370691 0.2079192455447646 0 -0.2765571970512265 0.21514763067515119 0 -0.25880771652771423 0.22585694761766101 0 -0.28956845621947969 0.1985008938323311 0 -0.27026864743477858 0.1969120610492972 0 -0.2765571970512265 0.21514763067515119 0 -0.27026864743477858 0.1969120610492972 0 -0.25888613326370691 0.2079192455447646 0 -0.2765571970512265 0.21514763067515119 0 -0.2765571970512265 0.21514763067515119 0 -0.25880771652771423 0.22585694761766101 0 -0.28022006013003492 0.2424270912126826 0 -0.25880771652771423 0.22585694761766101 0 -0.25174121177602782 0.2498917316032101 0 -0.28022006013003492 0.2424270912126826 0 -0.25174121177602782 0.2498917316032101 0 -0.28022006013003492 0.2424270912126826 0 -0.28205656039087851 0.1329494398256803 0 -0.30308742685941698 0.13385559147552939 0 -0.29627674518641439 0.1163352043027806 0 -0.2879435948300349 0.15028899871131829 0 -0.28205656039087851 0.1329494398256803 0 -0.30308742685941698 0.13385559147552939 0 -0.2879435948300349 0.15028899871131829 0 -0.30308742685941698 0.13385559147552939 0 -0.30882154103795439 0.15343685859886089 0 -0.32157288655929073 0.13654814841481749 0 -0.30308742685941698 0.13385559147552939 0 -0.30882154103795439 0.15343685859886089 0 -0.32148732869443131 0.17139651508467471 0 -0.30882154103795439 0.15343685859886089 0 -0.29273839609470059 0.17515708885693931 0 -0.32148732869443131 0.17139651508467471 0 -0.29273839609470059 0.17515708885693931 0 -0.32148732869443131 0.17139651508467471 0 -0.30975566326764081 0.18992744529650321 0 -0.29273839609470059 0.17515708885693931 0 -0.28956845621947969 0.1985008938323311 0 -0.29273839609470059 0.17515708885693931 0 -0.26576380591019277 0.18400243553268561 0 -0.2879435948300349 0.15028899871131829 0 -0.30882154103795439 0.15343685859886089 0 -0.29273839609470059 0.17515708885693931 0 -0.2879435948300349 0.15028899871131829 0 -0.29273839609470059 0.17515708885693931 0 -0.27450002891978198 0.1624969790205075 0 -0.27450002891978198 0.1624969790205075 0 -0.25708097535247759 0.15911985302399939 0 -0.26690871603921562 0.1475665964140119 0 -0.29273839609470059 0.17515708885693931 0 -0.27450002891978198 0.1624969790205075 0 -0.26398946349496999 0.17891766262920439 0 -0.29273839609470059 0.17515708885693931 0 -0.26398946349496999 0.17891766262920439 0 -0.29273839609470059 0.17515708885693931 0 -0.26576380591019277 0.18400243553268561 0 -0.26398946349496999 0.17891766262920439 0 -0.26102458568641801 0.1811159664648925 0 -0.26398946349496999 0.17891766262920439 0 -0.24874496737149099 0.18091175587403899 0 -0.26576380591019277 0.18400243553268561 0 -0.26102458568641801 0.1811159664648925 0 -0.25501052529300627 0.18594619292738371 0 -0.26576380591019277 0.18400243553268561 0 -0.26398946349496999 0.17891766262920439 0 -0.26576380591019277 0.18400243553268561 0 -0.26102458568641801 0.1811159664648925 0 -0.26398946349496999 0.17891766262920439 0 -0.26576380591019277 0.18400243553268561 0 -0.26102458568641801 0.1811159664648925 0 -0.26398946349496999 0.17891766262920439 0 -0.25091590707393119 0.16862937619473481 0 -0.24874496737149099 0.18091175587403899 0 -0.26398946349496999 0.17891766262920439 0 -0.24874496737149099 0.18091175587403899 0 -0.26102458568641801 0.1811159664648925 0 -0.25501052529300627 0.18594619292738371 0 -0.24874496737149099 0.18091175587403899 0 -0.26398946349496999 0.17891766262920439 0 -0.25708097535247759 0.15911985302399939 0 -0.26398946349496999 0.17891766262920439 0 -0.25091590707393119 0.16862937619473481 0 -0.25708097535247759 0.15911985302399939 0 -0.27450002891978198 0.1624969790205075 0 -0.26398946349496999 0.17891766262920439 0 -0.25708097535247759 0.15911985302399939 0 -0.25091590707393119 0.16862937619473481 0 -0.25708097535247759 0.15911985302399939 0 -0.24738686583330791 0.15920414664019819 0 -0.26690871603921562 0.1475665964140119 0 -0.25017248720998547 0.13932204341879451 0 -0.25708097535247759 0.15911985302399939 0 -0.25017248720998547 0.13932204341879451 0 -0.26690871603921562 0.1475665964140119 0 -0.26965355027485838 0.13525360621275451 0 -0.25017248720998547 0.13932204341879451 0 -0.25708097535247759 0.15911985302399939 0 -0.26690871603921562 0.1475665964140119 0 -0.25017248720998547 0.13932204341879451 0 -0.2879435948300349 0.15028899871131829 0 -0.27450002891978198 0.1624969790205075 0 -0.26690871603921562 0.1475665964140119 0 -0.2879435948300349 0.15028899871131829 0 -0.28205656039087851 0.1329494398256803 0 -0.26690871603921562 0.1475665964140119 0 -0.28205656039087851 0.1329494398256803 0 -0.26965355027485838 0.13525360621275451 0 -0.2626695927740173 0.12474798008653699 0 -0.28205656039087851 0.1329494398256803 0 -0.26690871603921562 0.1475665964140119 0 -0.26965355027485838 0.13525360621275451 0 -0.26965355027485838 0.13525360621275451 0 -0.25017248720998547 0.13932204341879451 0 -0.2626695927740173 0.12474798008653699 0 -0.25017248720998547 0.13932204341879451 0 -0.2626695927740173 0.12474798008653699 0 -0.24359769406687889 0.1204805110666855 0 -0.2626695927740173 0.12474798008653699 0 -0.25580746141146998 0.10565197628936319 0 -0.24359769406687889 0.1204805110666855 0 -0.25580746141146998 0.10565197628936319 0 -0.26124107249611112 0.092657754098691036 0 -0.24494597820556269 0.089809247836881045 0 -0.25580746141146998 0.10565197628936319 0 -0.27886552314661839 0.1036862336175509 0 -0.26124107249611112 0.092657754098691036 0 -0.2626695927740173 0.12474798008653699 0 -0.25580746141146998 0.10565197628936319 0 -0.27886552314661839 0.1036862336175509 0 -0.28205656039087851 0.1329494398256803 0 -0.2626695927740173 0.12474798008653699 0 -0.27886552314661839 0.1036862336175509 0 -0.2626695927740173 0.12474798008653699 0 -0.27886552314661839 0.1036862336175509 0 -0.28205656039087851 0.1329494398256803 0 -0.27886552314661839 0.1036862336175509 0 -0.29627674518641439 0.1163352043027806 0 -0.27886552314661839 0.1036862336175509 0 -0.29627674518641439 0.1163352043027806 0 -0.29675438003372462 0.10067252645159951 0 -0.27886552314661839 0.1036862336175509 0 -0.29675438003372462 0.10067252645159951 0 -0.29506145351921942 0.08262448714856499 0 -0.30637790420260769 0.1077636754307314 0 -0.30719027411376298 0.092953031758369609 0 -0.32216942755927719 0.1044725849499384 0 -0.29627674518641439 0.1163352043027806 0 -0.29675438003372462 0.10067252645159951 0 -0.30637790420260769 0.1077636754307314 0 -0.29675438003372462 0.10067252645159951 0 -0.30637790420260769 0.1077636754307314 0 -0.30719027411376298 0.092953031758369609 0 -0.30308742685941698 0.13385559147552939 0 -0.29627674518641439 0.1163352043027806 0 -0.31422211074626649 0.12037480233927041 0 -0.29627674518641439 0.1163352043027806 0 -0.30637790420260769 0.1077636754307314 0 -0.31422211074626649 0.12037480233927041 0 -0.29506145351921942 0.08262448714856499 0 -0.31125738389182023 0.061562740679578828 0 -0.31055651192684891 0.073595079064825167 0 -0.29506145351921942 0.08262448714856499 0 -0.31125738389182023 0.061562740679578828 0 -0.29506145351921942 0.08262448714856499 0 -0.29290202345586208 0.066495089441865149 0 -0.31125738389182023 0.061562740679578828 0 -0.30719027411376298 0.092953031758369609 0 -0.29506145351921942 0.08262448714856499 0 -0.31265464133648069 0.080427248753396671 0 -0.31055651192684891 0.073595079064825167 0 -0.29506145351921942 0.08262448714856499 0 -0.31265464133648069 0.080427248753396671 0 -0.29675438003372462 0.10067252645159951 0 -0.30719027411376298 0.092953031758369609 0 -0.29506145351921942 0.08262448714856499 0 -0.27886552314661839 0.1036862336175509 0 -0.29506145351921942 0.08262448714856499 0 -0.29290202345586208 0.066495089441865149 0 -0.28133596540213768 0.065024048024287781 0 -0.31125738389182023 0.061562740679578828 0 -0.29506145351921942 0.08262448714856499 0 -0.29290202345586208 0.066495089441865149 0 -0.26892400083071238 0.078152168639373104 0 -0.28133596540213768 0.065024048024287781 0 -0.31125738389182023 0.061562740679578828 0 -0.28133596540213768 0.065024048024287781 0 -0.26892400083071238 0.078152168639373104 0 -0.25141454691245541 0.068485355368996928 0 -0.28133596540213768 0.065024048024287781 0 -0.25141454691245541 0.068485355368996928 0 -0.29290202345586208 0.066495089441865149 0 -0.26892400083071238 0.078152168639373104 0 -0.28133596540213768 0.065024048024287781 0 -0.25141454691245541 0.068485355368996928 0 -0.26862975897200131 0.05475102726905965 0 -0.29290202345586208 0.066495089441865149 0 -0.28133596540213768 0.065024048024287781 0 -0.26892400083071238 0.078152168639373104 0 -0.27886552314661839 0.1036862336175509 0 -0.29506145351921942 0.08262448714856499 0 -0.26892400083071238 0.078152168639373104 0 -0.27886552314661839 0.1036862336175509 0 -0.26892400083071238 0.078152168639373104 0 -0.26124107249611112 0.092657754098691036 0 -0.26892400083071238 0.078152168639373104 0 -0.25141454691245541 0.068485355368996928 0 -0.24494597820556269 0.089809247836881045 0 -0.26892400083071238 0.078152168639373104 0 -0.24494597820556269 0.089809247836881045 0 -0.26892400083071238 0.078152168639373104 0 -0.26124107249611112 0.092657754098691036 0 -0.24494597820556269 0.089809247836881045 0 -0.25141454691245541 0.068485355368996928 0 -0.25831488650504308 0.049396768163404943 0 -0.26862975897200131 0.05475102726905965 0 -0.25141454691245541 0.068485355368996928 0 -0.25831488650504308 0.049396768163404943 0 -0.24432076280216031 0.047166806547741247 0 -0.25831488650504308 0.049396768163404943 0 -0.25691003956320763 0.034789260552451219 0 -0.24432076280216031 0.047166806547741247 0 -0.25831488650504308 0.049396768163404943 0 -0.25691003956320763 0.034789260552451219 0 -0.27029932427539122 0.041791391078775678 0 -0.25691003956320763 0.034789260552451219 0 -0.27029932427539122 0.041791391078775678 0 -0.27250550689054442 0.02367887077947143 0 -0.27029932427539122 0.041791391078775678 0 -0.27250550689054442 0.02367887077947143 0 -0.2845133909026481 0.035556283978607862 0 -0.27029932427539122 0.041791391078775678 0 -0.28206476338735631 0.05050574821153804 0 -0.2845133909026481 0.035556283978607862 0 -0.27029932427539122 0.041791391078775678 0 -0.26862975897200131 0.05475102726905965 0 -0.28206476338735631 0.05050574821153804 0 -0.28133596540213768 0.065024048024287781 0 -0.26862975897200131 0.05475102726905965 0 -0.28206476338735631 0.05050574821153804 0 -0.25831488650504308 0.049396768163404943 0 -0.27029932427539122 0.041791391078775678 0 -0.26862975897200131 0.05475102726905965 0 -0.25430018986547698 -0.00612621221049231 0 -0.26559975475773162 0.0065156817321890652 0 -0.24726539525988339 0.0072649071471831209 0 -0.26559975475773162 0.0065156817321890652 0 -0.25647799655420422 0.01978384053654646 0 -0.24726539525988339 0.0072649071471831209 0 -0.25691003956320763 0.034789260552451219 0 -0.25647799655420422 0.01978384053654646 0 -0.2393070426154143 0.027523082989801981 0 -0.26559975475773162 0.0065156817321890652 0 -0.25647799655420422 0.01978384053654646 0 -0.27250550689054442 0.02367887077947143 0 -0.25691003956320763 0.034789260552451219 0 -0.25647799655420422 0.01978384053654646 0 -0.27250550689054442 0.02367887077947143 0 -0.26559975475773162 0.0065156817321890652 0 -0.27250550689054442 0.02367887077947143 0 -0.28323680260587852 0.0054691074990878058 0 -0.27394587021700112 -0.010760545891949269 0 -0.26559975475773162 0.0065156817321890652 0 -0.28323680260587852 0.0054691074990878058 0 -0.29541564460709341 -0.00836752224641313 0 -0.28323680260587852 0.0054691074990878058 0 -0.30767681351208442 0.0074333571717676034 0 -0.28323680260587852 0.0054691074990878058 0 -0.29025606444785468 0.02060122701397216 0 -0.30767681351208442 0.0074333571717676034 0 -0.29025606444785468 0.02060122701397216 0 -0.30334439339010377 0.029290605959711068 0 -0.2845133909026481 0.035556283978607862 0 -0.27250550689054442 0.02367887077947143 0 -0.28323680260587852 0.0054691074990878058 0 -0.29025606444785468 0.02060122701397216 0 -0.27250550689054442 0.02367887077947143 0 -0.29025606444785468 0.02060122701397216 0 -0.2845133909026481 0.035556283978607862 0 -0.29025606444785468 0.02060122701397216 0 -0.30334439339010377 0.029290605959711068 0 -0.30767681351208442 0.0074333571717676034 0 -0.28133596540213768 0.065024048024287781 0 -0.29361301396587453 0.059026254262775663 0 -0.31125738389182023 0.061562740679578828 0 -0.29361301396587453 0.059026254262775663 0 -0.28206476338735631 0.05050574821153804 0 -0.29510297401756652 0.04561825647331081 0 -0.28133596540213768 0.065024048024287781 0 -0.29361301396587453 0.059026254262775663 0 -0.28206476338735631 0.05050574821153804 0 -0.28206476338735631 0.05050574821153804 0 -0.2845133909026481 0.035556283978607862 0 -0.29510297401756652 0.04561825647331081 0 -0.30334439339010377 0.029290605959711068 0 -0.2845133909026481 0.035556283978607862 0 -0.29510297401756652 0.04561825647331081 0 -0.30334439339010377 0.029290605959711068 0 -0.29510297401756652 0.04561825647331081 0 -0.30643337412749611 0.042972084774278982 0 -0.30334439339010377 0.029290605959711068 0 -0.30643337412749611 0.042972084774278982 0 -0.32038008998278489 0.039822968651431923 0 -0.29361301396587453 0.059026254262775663 0 -0.30616363148391262 0.057568931414519998 0 -0.31125738389182023 0.061562740679578828 0 -0.30643337412749611 0.042972084774278982 0 -0.30460761822932131 0.052272067154587043 0 -0.3137467778328123 0.048212531167617811 0 -0.31212316015327879 0.054558334174799279 0 -0.30460761822932131 0.052272067154587043 0 -0.3137467778328123 0.048212531167617811 0 -0.29361301396587453 0.059026254262775663 0 -0.29510297401756652 0.04561825647331081 0 -0.30460761822932131 0.052272067154587043 0 -0.29510297401756652 0.04561825647331081 0 -0.30643337412749611 0.042972084774278982 0 -0.30460761822932131 0.052272067154587043 0 -0.29361301396587453 0.059026254262775663 0 -0.30460761822932131 0.052272067154587043 0 -0.30616363148391262 0.057568931414519998 0 -0.31212316015327879 0.054558334174799279 0 -0.30460761822932131 0.052272067154587043 0 -0.30616363148391262 0.057568931414519998 0 -0.31212316015327879 0.054558334174799279 0 -0.30616363148391262 0.057568931414519998 0 -0.31036158438828482 0.058603563806559317 0 -0.31212316015327879 0.054558334174799279 0 -0.31036158438828482 0.058603563806559317 0 -0.31125738389182023 0.061562740679578828 0 -0.30616363148391262 0.057568931414519998 0 -0.31036158438828482 0.058603563806559317 0 -0.31125738389182023 0.061562740679578828 0 -0.31125738389182023 0.061562740679578828 0 -0.33305815184862242 0.059040829551762292 0 -0.31125738389182023 0.061562740679578828 0 -0.32215634056565923 0.05056463961039482 0 -0.33305815184862242 0.059040829551762292 0 -0.31212316015327879 0.054558334174799279 0 -0.31125738389182023 0.061562740679578828 0 -0.32215634056565923 0.05056463961039482 0 -0.31212316015327879 0.054558334174799279 0 -0.32215634056565923 0.05056463961039482 0 -0.3137467778328123 0.048212531167617811 0 -0.32215634056565923 0.05056463961039482 0 -0.32038008998278489 0.039822968651431923 0 -0.34172770155232918 0.041028925159418431 0 -0.30643337412749611 0.042972084774278982 0 -0.3137467778328123 0.048212531167617811 0 -0.32038008998278489 0.039822968651431923 0 -0.32215634056565923 0.05056463961039482 0 -0.3137467778328123 0.048212531167617811 0 -0.32038008998278489 0.039822968651431923 0 -0.32038008998278489 0.039822968651431923 0 -0.34172770155232918 0.041028925159418431 0 -0.33048676732080629 0.024187002938852339 0 -0.34172770155232918 0.041028925159418431 0 -0.33305815184862242 0.059040829551762292 0 -0.35485891980542461 0.056518918423945949 0 -0.32215634056565923 0.05056463961039482 0 -0.34172770155232918 0.041028925159418431 0 -0.33305815184862242 0.059040829551762292 0 -0.30767681351208442 0.0074333571717676034 0 -0.33048676732080629 0.024187002938852339 0 -0.33587161933075749 0.001795895336300262 0 -0.30334439339010377 0.029290605959711068 0 -0.32038008998278489 0.039822968651431923 0 -0.33048676732080629 0.024187002938852339 0 -0.30334439339010377 0.029290605959711068 0 -0.33048676732080629 0.024187002938852339 0 -0.30334439339010377 0.029290605959711068 0 -0.30767681351208442 0.0074333571717676034 0 -0.33048676732080629 0.024187002938852339 0 -0.34172770155232918 0.041028925159418431 0 -0.33048676732080629 0.024187002938852339 0 -0.35762914125150858 0.019083399917993651 0 -0.33048676732080629 0.024187002938852339 0 -0.33587161933075749 0.001795895336300262 0 -0.35762914125150858 0.019083399917993651 0 -0.33587161933075749 0.001795895336300262 0 -0.35899168621924421 0.00086553536704151541 0 -0.35762914125150858 0.019083399917993651 0 -0.33048676732080629 0.024187002938852339 0 -0.35762914125150858 0.019083399917993651 0 -0.38477151518221098 0.013979796897134951 0 -0.35762914125150858 0.019083399917993651 0 -0.36980048948811522 0.038103246060879649 0 -0.38477151518221098 0.013979796897134951 0 -0.35762914125150858 0.019083399917993651 0 -0.38477151518221098 0.013979796897134951 0 -0.35899168621924421 0.00086553536704151541 0 -0.35762914125150858 0.019083399917993651 0 -0.37165504079712819 -0.01311134974768053 0 -0.38477151518221098 0.013979796897134951 0 -0.35899168621924421 0.00086553536704151541 0 -0.33305815184862242 0.059040829551762292 0 -0.35485891980542461 0.056518918423945949 0 -0.34172770155232918 0.041028925159418431 0 -0.35485891980542461 0.056518918423945949 0 -0.36980048948811522 0.038103246060879649 0 -0.34172770155232918 0.041028925159418431 0 -0.35762914125150858 0.019083399917993651 0 -0.36980048948811522 0.038103246060879649 0 -0.35485891980542461 0.056518918423945949 0 -0.36980048948811522 0.038103246060879649 0 -0.37387060686406048 0.058432376402733743 0 -0.38261101992331892 0.078710495489690821 0 -0.37387060686406048 0.058432376402733743 0 -0.36303312648867658 0.074713566469028825 0 -0.35485891980542461 0.056518918423945949 0 -0.37387060686406048 0.058432376402733743 0 -0.36303312648867658 0.074713566469028825 0 -0.35485891980542461 0.056518918423945949 0 -0.36303312648867658 0.074713566469028825 0 -0.34229222433897522 0.076467181869680517 0 -0.36303312648867658 0.074713566469028825 0 -0.35707152359327982 0.090788977974794363 0 -0.34229222433897522 0.076467181869680517 0 -0.35707152359327982 0.090788977974794363 0 -0.34368916637424479 0.1009821419135776 0 -0.34229222433897522 0.076467181869680517 0 -0.38261101992331892 0.078710495489690821 0 -0.36303312648867658 0.074713566469028825 0 -0.37375598061089299 0.094714931940517666 0 -0.36303312648867658 0.074713566469028825 0 -0.35707152359327982 0.090788977974794363 0 -0.37375598061089299 0.094714931940517666 0 -0.35707152359327982 0.090788977974794363 0 -0.37375598061089299 0.094714931940517666 0 -0.36677967939422651 0.1100567331138379 0 -0.36466883973260389 0.1328066613120388 0 -0.36677967939422651 0.1100567331138379 0 -0.35326190658380729 0.119425874385125 0 -0.37942854020962169 0.12909692076765031 0 -0.36466883973260389 0.1328066613120388 0 -0.36677967939422651 0.1100567331138379 0 -0.35326190658380729 0.119425874385125 0 -0.34368916637424479 0.1009821419135776 0 -0.33873936317960901 0.1188279433010534 0 -0.36677967939422651 0.1100567331138379 0 -0.35326190658380729 0.119425874385125 0 -0.34368916637424479 0.1009821419135776 0 -0.3524623415529396 0.13124526941364309 0 -0.35326190658380729 0.119425874385125 0 -0.33873936317960901 0.1188279433010534 0 -0.35707152359327982 0.090788977974794363 0 -0.36677967939422651 0.1100567331138379 0 -0.34368916637424479 0.1009821419135776 0 -0.34368916637424479 0.1009821419135776 0 -0.33873936317960901 0.1188279433010534 0 -0.32216942755927719 0.1044725849499384 0 -0.34368916637424479 0.1009821419135776 0 -0.32216942755927719 0.1044725849499384 0 -0.3245804420316436 0.08724138646484994 0 -0.33873936317960901 0.1188279433010534 0 -0.31422211074626649 0.12037480233927041 0 -0.32216942755927719 0.1044725849499384 0 -0.30637790420260769 0.1077636754307314 0 -0.31422211074626649 0.12037480233927041 0 -0.32216942755927719 0.1044725849499384 0 -0.30719027411376298 0.092953031758369609 0 -0.32216942755927719 0.1044725849499384 0 -0.3245804420316436 0.08724138646484994 0 -0.30719027411376298 0.092953031758369609 0 -0.3245804420316436 0.08724138646484994 0 -0.31265464133648069 0.080427248753396671 0 -0.3245804420316436 0.08724138646484994 0 -0.31265464133648069 0.080427248753396671 0 -0.32325256895987531 0.069765839677760191 0 -0.31125738389182023 0.061562740679578828 0 -0.33305815184862242 0.059040829551762292 0 -0.32325256895987531 0.069765839677760191 0 -0.31055651192684891 0.073595079064825167 0 -0.31265464133648069 0.080427248753396671 0 -0.32325256895987531 0.069765839677760191 0 -0.31055651192684891 0.073595079064825167 0 -0.31125738389182023 0.061562740679578828 0 -0.32325256895987531 0.069765839677760191 0 -0.33305815184862242 0.059040829551762292 0 -0.35485891980542461 0.056518918423945949 0 -0.34229222433897522 0.076467181869680517 0 -0.33305815184862242 0.059040829551762292 0 -0.32325256895987531 0.069765839677760191 0 -0.34229222433897522 0.076467181869680517 0 -0.3245804420316436 0.08724138646484994 0 -0.32325256895987531 0.069765839677760191 0 -0.34229222433897522 0.076467181869680517 0 -0.34368916637424479 0.1009821419135776 0 -0.3245804420316436 0.08724138646484994 0 -0.34229222433897522 0.076467181869680517 0 -0.40241568386225568 0.5 0 -0.39086688444112011 0.48982142911543458 0 -0.37931808501998387 0.5 0 -0.40241568386225568 0.5 0 -0.39086688444112011 0.48982142911543458 0 -0.41112826349235609 0.48722131872349089 0 -0.39999697554550279 0.47685321090741528 0 -0.39086688444112011 0.48982142911543458 0 -0.41112826349235609 0.48722131872349089 0 -0.39086688444112011 0.48982142911543458 0 -0.37931808501998387 0.5 0 -0.37675931517958722 0.4836607016541048 0 -0.39999697554550279 0.47685321090741528 0 -0.37675931517958722 0.4836607016541048 0 -0.39999697554550279 0.47685321090741528 0 -0.39086688444112011 0.48982142911543458 0 -0.37675931517958722 0.4836607016541048 0 -0.38512292233541201 0.4695355333618999 0 -0.37675931517958722 0.4836607016541048 0 -0.37122999671224072 0.46302722280341402 0 -0.39999697554550279 0.47685321090741528 0 -0.38512292233541201 0.4695355333618999 0 -0.37675931517958722 0.4836607016541048 0 -0.38512292233541201 0.4695355333618999 0 -0.39156604637086451 0.45517317899655158 0 -0.37122999671224072 0.46302722280341402 0 -0.37540822384494321 0.44069128622214743 0 -0.39156604637086451 0.45517317899655158 0 -0.37122999671224072 0.46302722280341402 0 -0.37540822384494321 0.44069128622214743 0 -0.39750880605519823 0.43960840544293289 0 -0.39156604637086451 0.45517317899655158 0 -0.39750880605519823 0.43960840544293289 0 -0.40631210271995322 0.45660020059294409 0 -0.41288742864083933 0.44246414379781218 0 -0.39750880605519823 0.43960840544293289 0 -0.39156604637086451 0.45517317899655158 0 -0.40631210271995322 0.45660020059294409 0 -0.39999697554550279 0.47685321090741528 0 -0.38512292233541201 0.4695355333618999 0 -0.39156604637086451 0.45517317899655158 0 -0.39999697554550279 0.47685321090741528 0 -0.39156604637086451 0.45517317899655158 0 -0.40631210271995322 0.45660020059294409 0 -0.39999697554550279 0.47685321090741528 0 -0.41300056109271321 0.46583561056334433 0 -0.40631210271995322 0.45660020059294409 0 -0.41300056109271321 0.46583561056334433 0 -0.40631210271995322 0.45660020059294409 0 -0.42245853019397761 0.45984331059229039 0 -0.41300056109271321 0.46583561056334433 0 -0.42245853019397761 0.45984331059229039 0 -0.42323463591141891 0.4700457201607271 0 -0.42245853019397761 0.45984331059229039 0 -0.42051294316752891 0.43426731591942358 0 -0.40631210271995322 0.45660020059294409 0 -0.41288742864083933 0.44246414379781218 0 -0.42245853019397761 0.45984331059229039 0 -0.41288742864083933 0.44246414379781218 0 -0.42245853019397761 0.45984331059229039 0 -0.41288742864083933 0.44246414379781218 0 -0.42245853019397761 0.45984331059229039 0 -0.42051294316752891 0.43426731591942358 0 -0.42922775237878191 0.44470602859230918 0 -0.42741703422537558 0.45287885104583908 0 -0.42051294316752891 0.43426731591942358 0 -0.42741703422537558 0.45287885104583908 0 -0.42245853019397761 0.45984331059229039 0 -0.42051294316752891 0.43426731591942358 0 -0.42922775237878191 0.44470602859230918 0 -0.43433239479241093 0.43998749689086469 0 -0.42051294316752891 0.43426731591942358 0 -0.43464863732981229 0.45169045051310958 0 -0.43433239479241093 0.43998749689086469 0 -0.4378162008392934 0.45199725620000031 0 -0.42922775237878191 0.44470602859230918 0 -0.43464863732981229 0.45169045051310958 0 -0.43433239479241093 0.43998749689086469 0 -0.43433239479241093 0.43998749689086469 0 -0.4378162008392934 0.45199725620000031 0 -0.42922775237878191 0.44470602859230918 0 -0.42741703422537558 0.45287885104583908 0 -0.43464863732981229 0.45169045051310958 0 -0.43464863732981229 0.45169045051310958 0 -0.43525474808763481 0.45560964969055773 0 -0.4378162008392934 0.45199725620000031 0 -0.43464863732981229 0.45169045051310958 0 -0.4378162008392934 0.45199725620000031 0 -0.42245853019397761 0.45984331059229039 0 -0.42740448720456348 0.46882415896884089 0 -0.42323463591141891 0.4700457201607271 0 -0.42245853019397761 0.45984331059229039 0 -0.42977549821711653 0.46393208031867161 0 -0.42740448720456348 0.46882415896884089 0 -0.42245853019397761 0.45984331059229039 0 -0.42323463591141891 0.4700457201607271 0 -0.42245853019397761 0.45984331059229039 0 -0.43202410459076213 0.4592645560980867 0 -0.42977549821711653 0.46393208031867161 0 -0.42245853019397761 0.45984331059229039 0 -0.42740448720456348 0.46882415896884089 0 -0.42741703422537558 0.45287885104583908 0 -0.42245853019397761 0.45984331059229039 0 -0.43202410459076213 0.4592645560980867 0 -0.43202410459076213 0.4592645560980867 0 -0.43525474808763481 0.45560964969055773 0 -0.4402038630498919 0.46022826793683791 0 -0.42741703422537558 0.45287885104583908 0 -0.43202410459076213 0.4592645560980867 0 -0.43212036064983 0.45486283137057121 0 -0.43202410459076213 0.4592645560980867 0 -0.43212036064983 0.45486283137057121 0 -0.43525474808763481 0.45560964969055773 0 -0.42741703422537558 0.45287885104583908 0 -0.43464863732981229 0.45169045051310958 0 -0.43212036064983 0.45486283137057121 0 -0.43464863732981229 0.45169045051310958 0 -0.43212036064983 0.45486283137057121 0 -0.43525474808763481 0.45560964969055773 0 -0.43202410459076213 0.4592645560980867 0 -0.43441144731253412 0.46677146453462098 0 -0.4402038630498919 0.46022826793683791 0 -0.43441144731253412 0.46677146453462098 0 -0.4402038630498919 0.46022826793683791 0 -0.43202410459076213 0.4592645560980867 0 -0.42977549821711653 0.46393208031867161 0 -0.43441144731253412 0.46677146453462098 0 -0.43441144731253412 0.46677146453462098 0 -0.42740448720456348 0.46882415896884089 0 -0.42977549821711653 0.46393208031867161 0 -0.43441144731253412 0.46677146453462098 0 -0.42740448720456348 0.46882415896884089 0 -0.42607692588275231 0.47618626049130158 0 -0.42323463591141891 0.4700457201607271 0 -0.42551328270452748 0.49999999999999439 0 -0.43441144731253412 0.46677146453462098 0 -0.42939486150271178 0.47243827242474051 0 -0.43833759496566199 0.4751403111646002 0 -0.43441144731253412 0.46677146453462098 0 -0.42939486150271178 0.47243827242474051 0 -0.43441144731253412 0.46677146453462098 0 -0.42740448720456348 0.46882415896884089 0 -0.42939486150271178 0.47243827242474051 0 -0.42939486150271178 0.47243827242474051 0 -0.42607692588275231 0.47618626049130158 0 -0.43698429593079291 0.48621913621236862 0 -0.42939486150271178 0.47243827242474051 0 -0.43698429593079291 0.48621913621236862 0 -0.42939486150271178 0.47243827242474051 0 -0.43698429593079291 0.48621913621236862 0 -0.43833759496566199 0.4751403111646002 0 -0.42740448720456348 0.46882415896884089 0 -0.42939486150271178 0.47243827242474051 0 -0.42323463591141891 0.4700457201607271 0 -0.42740448720456348 0.46882415896884089 0 -0.42939486150271178 0.47243827242474051 0 -0.42939486150271178 0.47243827242474051 0 -0.42607692588275231 0.47618626049130158 0 -0.42939486150271178 0.47243827242474051 0 -0.42607692588275231 0.47618626049130158 0 -0.42323463591141891 0.4700457201607271 0 -0.42740448720456348 0.46882415896884089 0 -0.42323463591141891 0.4700457201607271 0 -0.39999697554550279 0.47685321090741528 0 -0.41300056109271321 0.46583561056334433 0 -0.42323463591141891 0.4700457201607271 0 -0.39999697554550279 0.47685321090741528 0 -0.42323463591141891 0.4700457201607271 0 -0.39999697554550279 0.47685321090741528 0 -0.42323463591141891 0.4700457201607271 0 -0.41112826349235609 0.48722131872349089 0 -0.42323463591141891 0.4700457201607271 0 -0.41112826349235609 0.48722131872349089 0 -0.42551328270452748 0.49999999999999439 0 -0.40241568386225568 0.5 0 -0.41112826349235609 0.48722131872349089 0 -0.42551328270452748 0.49999999999999439 0 -0.42607692588275231 0.47618626049130158 0 -0.42551328270452748 0.49999999999999439 0 -0.43698429593079291 0.48621913621236862 0 -0.42323463591141891 0.4700457201607271 0 -0.42551328270452748 0.49999999999999439 0 -0.42551328270452748 0.49999999999999439 0 -0.43698429593079291 0.48621913621236862 0 -0.44457373035887188 0.49999999999999778 0 -0.444979789926923 0.49214165801974252 0 -0.45174089698123732 0.50000000000000089 0 -0.44662023643678911 0.48234749586660319 0 -0.45174089698123732 0.50000000000000089 0 -0.44662023643678911 0.48234749586660319 0 -0.45637898416887102 0.48036115820764269 0 -0.45174089698123732 0.50000000000000089 0 -0.44662023643678911 0.48234749586660319 0 -0.43698429593079291 0.48621913621236862 0 -0.44457373035887188 0.49999999999999778 0 -0.43698429593079291 0.48621913621236862 0 -0.44457373035887188 0.49999999999999778 0 -0.444979789926923 0.49214165801974252 0 -0.43698429593079291 0.48621913621236862 0 -0.444979789926923 0.49214165801974252 0 -0.44662023643678911 0.48234749586660319 0 -0.44457373035887188 0.49999999999999778 0 -0.444979789926923 0.49214165801974252 0 -0.45174089698123732 0.50000000000000089 0 -0.44662023643678911 0.48234749586660319 0 -0.44149957589233868 0.46469499173320622 0 -0.44662023643678911 0.48234749586660319 0 -0.44957933915045689 0.47192015975511359 0 -0.44149957589233868 0.46469499173320622 0 -0.43833759496566199 0.4751403111646002 0 -0.44662023643678911 0.48234749586660319 0 -0.44149957589233868 0.46469499173320622 0 -0.43441144731253412 0.46677146453462098 0 -0.43833759496566199 0.4751403111646002 0 -0.44149957589233868 0.46469499173320622 0 -0.43698429593079291 0.48621913621236862 0 -0.43833759496566199 0.4751403111646002 0 -0.44662023643678911 0.48234749586660319 0 -0.44662023643678911 0.48234749586660319 0 -0.44957933915045689 0.47192015975511359 0 -0.45637898416887102 0.48036115820764269 0 -0.45637898416887102 0.48036115820764269 0 -0.45506047273626388 0.4607223164152896 0 -0.44957933915045689 0.47192015975511359 0 -0.45637898416887102 0.48036115820764269 0 -0.45506047273626388 0.4607223164152896 0 -0.45637898416887102 0.48036115820764269 0 -0.47119458431486022 0.4718514551131095 0 -0.45506047273626388 0.4607223164152896 0 -0.45637898416887102 0.48036115820764269 0 -0.47174100035252781 0.48662923889743648 0 -0.47119458431486022 0.4718514551131095 0 -0.45174089698123732 0.50000000000000089 0 -0.45637898416887102 0.48036115820764269 0 -0.45769749560147732 0.49999999999999573 0 -0.45637898416887102 0.48036115820764269 0 -0.45769749560147732 0.49999999999999573 0 -0.47174100035252781 0.48662923889743648 0 -0.45637898416887102 0.48036115820764269 0 -0.45769749560147732 0.49999999999999573 0 -0.45769749560147732 0.49999999999999573 0 -0.47174100035252781 0.48662923889743648 0 -0.5 0.5 0 -0.47174100035252781 0.48662923889743648 0 -0.47119458431486022 0.4718514551131095 0 -0.48299048472039952 0.47888654630796162 0 -0.47119458431486022 0.4718514551131095 0 -0.48299048472039952 0.47888654630796162 0 -0.48363723662257219 0.46687873190582391 0 -0.48299048472039952 0.47888654630796162 0 -0.49999999999999961 0.47110187817444121 0 -0.5 0.5 0 -0.48299048472039952 0.47888654630796162 0 -0.49999999999999961 0.47110187817444121 0 -0.48363723662257219 0.46687873190582391 0 -0.47174100035252781 0.48662923889743648 0 -0.48299048472039952 0.47888654630796162 0 -0.5 0.5 0 -0.48705149562881911 0.45135052128234909 0 -0.50000000000000067 0.43807222344947888 0 -0.48523152003193532 0.43206064960988622 0 -0.48705149562881911 0.45135052128234909 0 -0.50000000000000067 0.43807222344947888 0 -0.49999999999999389 0.4475572468174418 0 -0.49999999999999389 0.4475572468174418 0 -0.500000000000004 0.45802029035794201 0 -0.49447351185859062 0.45351534285885048 0 -0.48705149562881911 0.45135052128234909 0 -0.49999999999999389 0.4475572468174418 0 -0.49447351185859062 0.45351534285885048 0 -0.48705149562881911 0.45135052128234909 0 -0.49999999999999389 0.4475572468174418 0 -0.500000000000004 0.45802029035794201 0 -0.49447351185859062 0.45351534285885048 0 -0.49084255180554548 0.45713331297767151 0 -0.49999999999999961 0.47110187817444121 0 -0.49084255180554548 0.45713331297767151 0 -0.48363723662257219 0.46687873190582391 0 -0.500000000000004 0.45802029035794201 0 -0.49084255180554548 0.45713331297767151 0 -0.49999999999999961 0.47110187817444121 0 -0.49084255180554548 0.45713331297767151 0 -0.49999999999999961 0.47110187817444121 0 -0.500000000000004 0.45802029035794201 0 -0.49084255180554548 0.45713331297767151 0 -0.48705149562881911 0.45135052128234909 0 -0.49447351185859062 0.45351534285885048 0 -0.49084255180554548 0.45713331297767151 0 -0.48705149562881911 0.45135052128234909 0 -0.49084255180554548 0.45713331297767151 0 -0.48705149562881911 0.45135052128234909 0 -0.47315856227205633 0.45542046695593541 0 -0.48705149562881911 0.45135052128234909 0 -0.49084255180554548 0.45713331297767151 0 -0.47315856227205633 0.45542046695593541 0 -0.49084255180554548 0.45713331297767151 0 -0.47315856227205633 0.45542046695593541 0 -0.47119458431486022 0.4718514551131095 0 -0.48363723662257219 0.46687873190582391 0 -0.47315856227205633 0.45542046695593541 0 -0.49084255180554548 0.45713331297767151 0 -0.48363723662257219 0.46687873190582391 0 -0.47315856227205633 0.45542046695593541 0 -0.48705149562881911 0.45135052128234909 0 -0.47315856227205633 0.45542046695593541 0 -0.47046328765258272 0.42604846752542402 0 -0.48705149562881911 0.45135052128234909 0 -0.47046328765258272 0.42604846752542402 0 -0.47315856227205633 0.45542046695593541 0 -0.46052331725354068 0.44432637442317718 0 -0.47046328765258272 0.42604846752542402 0 -0.45549521298930418 0.44295493787287338 0 -0.46052331725354068 0.44432637442317718 0 -0.47046328765258272 0.42604846752542402 0 -0.47315856227205633 0.45542046695593541 0 -0.46052331725354068 0.44432637442317718 0 -0.45458372744898001 0.45362133492914281 0 -0.45398234350404187 0.44466389712540583 0 -0.46052331725354068 0.44432637442317718 0 -0.45458372744898001 0.45362133492914281 0 -0.45398234350404187 0.44466389712540583 0 -0.45458372744898001 0.45362133492914281 0 -0.45398234350404187 0.44466389712540583 0 -0.45549521298930418 0.44295493787287338 0 -0.46052331725354068 0.44432637442317718 0 -0.45398234350404187 0.44466389712540583 0 -0.45549521298930418 0.44295493787287338 0 -0.47119458431486022 0.4718514551131095 0 -0.47315856227205633 0.45542046695593541 0 -0.45506047273626388 0.4607223164152896 0 -0.47315856227205633 0.45542046695593541 0 -0.45458372744898001 0.45362133492914281 0 -0.45506047273626388 0.4607223164152896 0 -0.47315856227205633 0.45542046695593541 0 -0.45506047273626388 0.4607223164152896 0 -0.47315856227205633 0.45542046695593541 0 -0.45458372744898001 0.45362133492914281 0 -0.45458372744898001 0.45362133492914281 0 -0.45506047273626388 0.4607223164152896 0 -0.45506047273626388 0.4607223164152896 0 -0.44761481279347742 0.45842543976233802 0 -0.44149957589233868 0.46469499173320622 0 -0.45506047273626388 0.4607223164152896 0 -0.44149957589233868 0.46469499173320622 0 -0.44957933915045689 0.47192015975511359 0 -0.45506047273626388 0.4607223164152896 0 -0.44149957589233868 0.46469499173320622 0 -0.45458372744898001 0.45362133492914281 0 -0.44761481279347742 0.45842543976233802 0 -0.44672642483991359 0.45286028779721499 0 -0.45458372744898001 0.45362133492914281 0 -0.44672642483991359 0.45286028779721499 0 -0.45458372744898001 0.45362133492914281 0 -0.45506047273626388 0.4607223164152896 0 -0.44761481279347742 0.45842543976233802 0 -0.4402038630498919 0.46022826793683791 0 -0.4378162008392934 0.45199725620000031 0 -0.43525474808763481 0.45560964969055773 0 -0.4402038630498919 0.46022826793683791 0 -0.4378162008392934 0.45199725620000031 0 -0.4402038630498919 0.46022826793683791 0 -0.44672642483991359 0.45286028779721499 0 -0.4378162008392934 0.45199725620000031 0 -0.4402038630498919 0.46022826793683791 0 -0.44672642483991359 0.45286028779721499 0 -0.44761481279347742 0.45842543976233802 0 -0.4402038630498919 0.46022826793683791 0 -0.44672642483991359 0.45286028779721499 0 -0.44761481279347742 0.45842543976233802 0 -0.4402038630498919 0.46022826793683791 0 -0.44149957589233868 0.46469499173320622 0 -0.4402038630498919 0.46022826793683791 0 -0.44149957589233868 0.46469499173320622 0 -0.43441144731253412 0.46677146453462098 0 -0.4402038630498919 0.46022826793683791 0 -0.44149957589233868 0.46469499173320622 0 -0.43441144731253412 0.46677146453462098 0 -0.44149957589233868 0.46469499173320622 0 -0.45398234350404187 0.44466389712540583 0 -0.44309190565253048 0.44395670006043703 0 -0.44347307696730559 0.43237620358290357 0 -0.45398234350404187 0.44466389712540583 0 -0.45458372744898001 0.45362133492914281 0 -0.44672642483991359 0.45286028779721499 0 -0.45398234350404187 0.44466389712540583 0 -0.44672642483991359 0.45286028779721499 0 -0.45398234350404187 0.44466389712540583 0 -0.44672642483991359 0.45286028779721499 0 -0.44309190565253048 0.44395670006043703 0 -0.44672642483991359 0.45286028779721499 0 -0.4378162008392934 0.45199725620000031 0 -0.43433239479241093 0.43998749689086469 0 -0.4378162008392934 0.45199725620000031 0 -0.44309190565253048 0.44395670006043703 0 -0.44672642483991359 0.45286028779721499 0 -0.4378162008392934 0.45199725620000031 0 -0.44309190565253048 0.44395670006043703 0 -0.43433239479241093 0.43998749689086469 0 -0.44309190565253048 0.44395670006043703 0 -0.44347307696730559 0.43237620358290357 0 -0.44347307696730559 0.43237620358290357 0 -0.45223441645586798 0.41862903545127578 0 -0.43277461268066131 0.42468235539065963 0 -0.45398234350404187 0.44466389712540583 0 -0.44347307696730559 0.43237620358290357 0 -0.45223441645586798 0.41862903545127578 0 -0.45398234350404187 0.44466389712540583 0 -0.45223441645586798 0.41862903545127578 0 -0.45223441645586798 0.41862903545127578 0 -0.43161238306822519 0.4102347472983715 0 -0.45183145026142951 0.41262697195407111 0 -0.43161238306822519 0.4102347472983715 0 -0.45183145026142951 0.41262697195407111 0 -0.44199866353467238 0.39989291193395199 0 -0.43161238306822519 0.4102347472983715 0 -0.45223441645586798 0.41862903545127578 0 -0.45183145026142951 0.41262697195407111 0 -0.43161238306822519 0.4102347472983715 0 -0.45223441645586798 0.41862903545127578 0 -0.43161238306822519 0.4102347472983715 0 -0.43277461268066131 0.42468235539065963 0 -0.45223441645586798 0.41862903545127578 0 -0.45183145026142951 0.41262697195407111 0 -0.45183145026142951 0.41262697195407111 0 -0.45924987534489758 0.41350861390642291 0 -0.46156557065170672 0.39534753635699349 0 -0.45183145026142951 0.41262697195407111 0 -0.45924987534489758 0.41350861390642291 0 -0.45924987534489758 0.41350861390642291 0 -0.4582830357802774 0.42109115218738541 0 -0.45223441645586798 0.41862903545127578 0 -0.45183145026142951 0.41262697195407111 0 -0.45924987534489758 0.41350861390642291 0 -0.45223441645586798 0.41862903545127578 0 -0.45924987534489758 0.41350861390642291 0 -0.4582830357802774 0.42109115218738541 0 -0.45223441645586798 0.41862903545127578 0 -0.4582830357802774 0.42109115218738541 0 -0.45924987534489758 0.41350861390642291 0 -0.4582830357802774 0.42109115218738541 0 -0.47017522805361017 0.40974581560838241 0 -0.4582830357802774 0.42109115218738541 0 -0.46642872852377398 0.41989301688509728 0 -0.47017522805361017 0.40974581560838241 0 -0.45549521298930418 0.44295493787287338 0 -0.4582830357802774 0.42109115218738541 0 -0.47046328765258272 0.42604846752542402 0 -0.45549521298930418 0.44295493787287338 0 -0.47046328765258272 0.42604846752542402 0 -0.45549521298930418 0.44295493787287338 0 -0.45223441645586798 0.41862903545127578 0 -0.4582830357802774 0.42109115218738541 0 -0.45398234350404187 0.44466389712540583 0 -0.45549521298930418 0.44295493787287338 0 -0.45223441645586798 0.41862903545127578 0 -0.45549521298930418 0.44295493787287338 0 -0.4582830357802774 0.42109115218738541 0 -0.4582830357802774 0.42109115218738541 0 -0.47046328765258272 0.42604846752542402 0 -0.4582830357802774 0.42109115218738541 0 -0.46642872852377398 0.41989301688509728 0 -0.47046328765258272 0.42604846752542402 0 -0.46642872852377398 0.41989301688509728 0 -0.47046328765258272 0.42604846752542402 0 -0.48705149562881911 0.45135052128234909 0 -0.47046328765258272 0.42604846752542402 0 -0.48523152003193532 0.43206064960988622 0 -0.47046328765258272 0.42604846752542402 0 -0.48523152003193532 0.43206064960988622 0 -0.48253452394279739 0.42278856272906479 0 -0.47046328765258272 0.42604846752542402 0 -0.48523152003193532 0.43206064960988622 0 -0.47046328765258272 0.42604846752542402 0 -0.47310822639329808 0.41585221972783981 0 -0.48259873776272799 0.41233840426641688 0 -0.48259873776272799 0.41233840426641688 0 -0.49184479791265651 0.42070612126966189 0 -0.47834645171789503 0.39515502089813209 0 -0.47046328765258272 0.42604846752542402 0 -0.48259873776272799 0.41233840426641688 0 -0.46642872852377398 0.41989301688509728 0 -0.47310822639329808 0.41585221972783981 0 -0.47017522805361017 0.40974581560838241 0 -0.46642872852377398 0.41989301688509728 0 -0.47046328765258272 0.42604846752542402 0 -0.47310822639329808 0.41585221972783981 0 -0.47310822639329808 0.41585221972783981 0 -0.47017522805361017 0.40974581560838241 0 -0.48259873776272799 0.41233840426641688 0 -0.48253452394279739 0.42278856272906479 0 -0.47046328765258272 0.42604846752542402 0 -0.48259873776272799 0.41233840426641688 0 -0.49406477637929819 0.41084019873899208 0 -0.5 0.41616275482818649 0 -0.50000000000000178 0.39425328620689409 0 -0.49184479791265651 0.42070612126966189 0 -0.48961064614273458 0.40520802051753851 0 -0.47834645171789503 0.39515502089813209 0 -0.48253452394279739 0.42278856272906479 0 -0.48259873776272799 0.41233840426641688 0 -0.49184479791265651 0.42070612126966189 0 -0.49184479791265651 0.42070612126966189 0 -0.47834645171789503 0.39515502089813209 0 -0.49184479791265651 0.42070612126966189 0 -0.49406477637929819 0.41084019873899208 0 -0.48961064614273458 0.40520802051753851 0 -0.49184479791265651 0.42070612126966189 0 -0.49406477637929819 0.41084019873899208 0 -0.5 0.41616275482818649 0 -0.50000000000000067 0.43807222344947888 0 -0.49184479791265651 0.42070612126966189 0 -0.48523152003193532 0.43206064960988622 0 -0.50000000000000067 0.43807222344947888 0 -0.49184479791265651 0.42070612126966189 0 -0.5 0.41616275482818649 0 -0.50000000000000067 0.43807222344947888 0 -0.48523152003193532 0.43206064960988622 0 -0.48253452394279739 0.42278856272906479 0 -0.49184479791265651 0.42070612126966189 0 -0.48523152003193532 0.43206064960988622 0 -0.48521753258708428 0.38050210387831462 0 -0.50000000000000178 0.39425328620689409 0 -0.5 0.36418318580067188 0 -0.48521753258708428 0.38050210387831462 0 -0.50000000000000178 0.39425328620689409 0 -0.47834645171789503 0.39515502089813209 0 -0.48521753258708428 0.38050210387831462 0 -0.50000000000000178 0.39425328620689409 0 -0.49406477637929819 0.41084019873899208 0 -0.50000000000000178 0.39425328620689409 0 -0.48961064614273458 0.40520802051753851 0 -0.50000000000000178 0.39425328620689409 0 -0.48961064614273458 0.40520802051753851 0 -0.47834645171789503 0.39515502089813209 0 -0.47017522805361017 0.40974581560838241 0 -0.47834645171789503 0.39515502089813209 0 -0.46156557065170672 0.39534753635699349 0 -0.47017522805361017 0.40974581560838241 0 -0.48259873776272799 0.41233840426641688 0 -0.47834645171789503 0.39515502089813209 0 -0.48521753258708428 0.38050210387831462 0 -0.47834645171789503 0.39515502089813209 0 -0.46488706187617601 0.36929840133910941 0 -0.47834645171789503 0.39515502089813209 0 -0.46488706187617601 0.36929840133910941 0 -0.46156557065170672 0.39534753635699349 0 -0.46488706187617601 0.36929840133910941 0 -0.47834645171789503 0.39515502089813209 0 -0.46156557065170672 0.39534753635699349 0 -0.46488706187617601 0.36929840133910941 0 -0.46156557065170672 0.39534753635699349 0 -0.45010281114608969 0.38687939839297231 0 -0.46488706187617601 0.36929840133910941 0 -0.45183145026142951 0.41262697195407111 0 -0.46156557065170672 0.39534753635699349 0 -0.45010281114608969 0.38687939839297231 0 -0.45924987534489758 0.41350861390642291 0 -0.47017522805361017 0.40974581560838241 0 -0.46156557065170672 0.39534753635699349 0 -0.45924987534489758 0.41350861390642291 0 -0.46156557065170672 0.39534753635699349 0 -0.45183145026142951 0.41262697195407111 0 -0.45010281114608969 0.38687939839297231 0 -0.45183145026142951 0.41262697195407111 0 -0.44199866353467238 0.39989291193395199 0 -0.45010281114608969 0.38687939839297231 0 -0.44199866353467238 0.39989291193395199 0 -0.4416095308026235 0.39016558755977621 0 -0.43384168556913028 0.3925858435927993 0 -0.44199866353467238 0.39989291193395199 0 -0.45010281114608969 0.38687939839297231 0 -0.4416095308026235 0.39016558755977621 0 -0.45010281114608969 0.38687939839297231 0 -0.44098048884084362 0.38027559590255661 0 -0.46488706187617601 0.36929840133910941 0 -0.4416095308026235 0.39016558755977621 0 -0.44098048884084362 0.38027559590255661 0 -0.43384168556913028 0.3925858435927993 0 -0.45010281114608969 0.38687939839297231 0 -0.4416095308026235 0.39016558755977621 0 -0.44098048884084362 0.38027559590255661 0 -0.44098048884084362 0.38027559590255661 0 -0.41723516051552478 0.39117875164196708 0 -0.41599930271150931 0.37493260475561468 0 -0.44098048884084362 0.38027559590255661 0 -0.41723516051552478 0.39117875164196708 0 -0.44098048884084362 0.38027559590255661 0 -0.41723516051552478 0.39117875164196708 0 -0.43384168556913028 0.3925858435927993 0 -0.41723516051552478 0.39117875164196708 0 -0.41599930271150931 0.37493260475561468 0 -0.41723516051552478 0.39117875164196708 0 -0.40589757753042321 0.38451988535499532 0 -0.41599930271150931 0.37493260475561468 0 -0.40589757753042321 0.38451988535499532 0 -0.39799048491698358 0.37322022787675768 0 -0.41599930271150931 0.37493260475561468 0 -0.41827167123306042 0.40480435267122011 0 -0.40287495883516811 0.40683467081933827 0 -0.40199236981515368 0.39817779240622569 0 -0.41723516051552478 0.39117875164196708 0 -0.41827167123306042 0.40480435267122011 0 -0.40199236981515368 0.39817779240622569 0 -0.41827167123306042 0.40480435267122011 0 -0.40199236981515368 0.39817779240622569 0 -0.41723516051552478 0.39117875164196708 0 -0.40589757753042321 0.38451988535499532 0 -0.40199236981515368 0.39817779240622569 0 -0.41723516051552478 0.39117875164196708 0 -0.40199236981515368 0.39817779240622569 0 -0.41723516051552478 0.39117875164196708 0 -0.41827167123306042 0.40480435267122011 0 -0.41723516051552478 0.39117875164196708 0 -0.41827167123306042 0.40480435267122011 0 -0.42768803782714038 0.40077349566522902 0 -0.41827167123306042 0.40480435267122011 0 -0.42768803782714038 0.40077349566522902 0 -0.43161238306822519 0.4102347472983715 0 -0.41723516051552478 0.39117875164196708 0 -0.42768803782714038 0.40077349566522902 0 -0.43384168556913028 0.3925858435927993 0 -0.44199866353467238 0.39989291193395199 0 -0.42768803782714038 0.40077349566522902 0 -0.43384168556913028 0.3925858435927993 0 -0.44199866353467238 0.39989291193395199 0 -0.42768803782714038 0.40077349566522902 0 -0.43161238306822519 0.4102347472983715 0 -0.43161238306822519 0.4102347472983715 0 -0.43277461268066131 0.42468235539065963 0 -0.41856735614107909 0.40869132124655683 0 -0.41827167123306042 0.40480435267122011 0 -0.43161238306822519 0.4102347472983715 0 -0.41827167123306042 0.40480435267122011 0 -0.43161238306822519 0.4102347472983715 0 -0.41856735614107909 0.40869132124655683 0 -0.43161238306822519 0.4102347472983715 0 -0.41856735614107909 0.40869132124655683 0 -0.43277461268066131 0.42468235539065963 0 -0.42051294316752891 0.43426731591942358 0 -0.41856735614107909 0.40869132124655683 0 -0.43433239479241093 0.43998749689086469 0 -0.44347307696730559 0.43237620358290357 0 -0.43277461268066131 0.42468235539065963 0 -0.43433239479241093 0.43998749689086469 0 -0.43277461268066131 0.42468235539065963 0 -0.42051294316752891 0.43426731591942358 0 -0.42051294316752891 0.43426731591942358 0 -0.41856735614107909 0.40869132124655683 0 -0.40331632708770121 0.42508497700333392 0 -0.41288742864083933 0.44246414379781218 0 -0.40331632708770121 0.42508497700333392 0 -0.41288742864083933 0.44246414379781218 0 -0.42051294316752891 0.43426731591942358 0 -0.40331632708770121 0.42508497700333392 0 -0.42051294316752891 0.43426731591942358 0 -0.41856735614107909 0.40869132124655683 0 -0.41856735614107909 0.40869132124655683 0 -0.40287495883516811 0.40683467081933827 0 -0.41856735614107909 0.40869132124655683 0 -0.40287495883516811 0.40683467081933827 0 -0.40331632708770121 0.42508497700333392 0 -0.41827167123306042 0.40480435267122011 0 -0.41856735614107909 0.40869132124655683 0 -0.40287495883516811 0.40683467081933827 0 -0.41827167123306042 0.40480435267122011 0 -0.41856735614107909 0.40869132124655683 0 -0.40287495883516811 0.40683467081933827 0 -0.40331632708770121 0.42508497700333392 0 -0.38848096371081342 0.41512690372330902 0 -0.40287495883516811 0.40683467081933827 0 -0.38848096371081342 0.41512690372330902 0 -0.38718256152925717 0.40497802039211939 0 -0.39750880605519823 0.43960840544293289 0 -0.41288742864083933 0.44246414379781218 0 -0.40331632708770121 0.42508497700333392 0 -0.39750880605519823 0.43960840544293289 0 -0.40331632708770121 0.42508497700333392 0 -0.38544620999635032 0.42683703415050261 0 -0.40331632708770121 0.42508497700333392 0 -0.38544620999635032 0.42683703415050261 0 -0.38848096371081342 0.41512690372330902 0 -0.38544620999635032 0.42683703415050261 0 -0.37891176172755592 0.41697357292417009 0 -0.3691173145196136 0.42358498303286118 0 -0.37540822384494321 0.44069128622214743 0 -0.38544620999635032 0.42683703415050261 0 -0.3691173145196136 0.42358498303286118 0 -0.37540822384494321 0.44069128622214743 0 -0.39750880605519823 0.43960840544293289 0 -0.38544620999635032 0.42683703415050261 0 -0.38848096371081342 0.41512690372330902 0 -0.38162993207116641 0.40752762437802342 0 -0.38718256152925717 0.40497802039211939 0 -0.38848096371081342 0.41512690372330902 0 -0.37891176172755592 0.41697357292417009 0 -0.38162993207116641 0.40752762437802342 0 -0.38162993207116641 0.40752762437802342 0 -0.38718256152925717 0.40497802039211939 0 -0.38544620999635032 0.42683703415050261 0 -0.38848096371081342 0.41512690372330902 0 -0.37891176172755592 0.41697357292417009 0 -0.37891176172755592 0.41697357292417009 0 -0.38162993207116641 0.40752762437802342 0 -0.37001666227528401 0.41188716622763172 0 -0.38718256152925717 0.40497802039211939 0 -0.36444456493596261 0.40228776789174941 0 -0.38160066567761758 0.38987726077378859 0 -0.38121752492647332 0.3877539978842538 0 -0.36444456493596261 0.40228776789174941 0 -0.38718256152925717 0.40497802039211939 0 -0.38160066567761758 0.38987726077378859 0 -0.40199236981515368 0.39817779240622569 0 -0.38162993207116641 0.40752762437802342 0 -0.38718256152925717 0.40497802039211939 0 -0.36444456493596261 0.40228776789174941 0 -0.38718256152925717 0.40497802039211939 0 -0.38160066567761758 0.38987726077378859 0 -0.36444456493596261 0.40228776789174941 0 -0.38121752492647332 0.3877539978842538 0 -0.39799048491698358 0.37322022787675768 0 -0.38121752492647332 0.3877539978842538 0 -0.39799048491698358 0.37322022787675768 0 -0.38609030369329911 0.36428115600637268 0 -0.38160066567761758 0.38987726077378859 0 -0.38121752492647332 0.3877539978842538 0 -0.39396980140238641 0.38656257988058668 0 -0.38121752492647332 0.3877539978842538 0 -0.39396980140238641 0.38656257988058668 0 -0.39799048491698358 0.37322022787675768 0 -0.39396980140238641 0.38656257988058668 0 -0.40589757753042321 0.38451988535499532 0 -0.39799048491698358 0.37322022787675768 0 -0.39396980140238641 0.38656257988058668 0 -0.40589757753042321 0.38451988535499532 0 -0.40199236981515368 0.39817779240622569 0 -0.40287495883516811 0.40683467081933827 0 -0.38718256152925717 0.40497802039211939 0 -0.38160066567761758 0.38987726077378859 0 -0.40199236981515368 0.39817779240622569 0 -0.38160066567761758 0.38987726077378859 0 -0.39396980140238641 0.38656257988058668 0 -0.40199236981515368 0.39817779240622569 0 -0.40287495883516811 0.40683467081933827 0 -0.38718256152925717 0.40497802039211939 0 -0.40199236981515368 0.39817779240622569 0 -0.38718256152925717 0.40497802039211939 0 -0.40199236981515368 0.39817779240622569 0 -0.39630596794106882 0.35676272185002378 0 -0.401253975524963 0.3452238429762714 0 -0.38748042427921309 0.34922993683042852 0 -0.39630596794106882 0.35676272185002378 0 -0.401253975524963 0.3452238429762714 0 -0.40487052423866099 0.35661061990319959 0 -0.39630596794106882 0.35676272185002378 0 -0.40487052423866099 0.35661061990319959 0 -0.39799048491698358 0.37322022787675768 0 -0.39630596794106882 0.35676272185002378 0 -0.39799048491698358 0.37322022787675768 0 -0.38609030369329911 0.36428115600637268 0 -0.40487052423866099 0.35661061990319959 0 -0.39799048491698358 0.37322022787675768 0 -0.41476344490749451 0.35868645786926229 0 -0.38121752492647332 0.3877539978842538 0 -0.38609030369329911 0.36428115600637268 0 -0.37152002063395262 0.36738923688210778 0 -0.38609030369329911 0.36428115600637268 0 -0.37747726966035172 0.35364443284564578 0 -0.37152002063395262 0.36738923688210778 0 -0.39630596794106882 0.35676272185002378 0 -0.38609030369329911 0.36428115600637268 0 -0.38748042427921309 0.34922993683042852 0 -0.38609030369329911 0.36428115600637268 0 -0.37747726966035172 0.35364443284564578 0 -0.38748042427921309 0.34922993683042852 0 -0.37747726966035172 0.35364443284564578 0 -0.38748042427921309 0.34922993683042852 0 -0.37484601571869303 0.34469356705824539 0 -0.38799654952662488 0.3352384451105857 0 -0.36990695184998529 0.33384226322567229 0 -0.38799654952662488 0.3352384451105857 0 -0.36990695184998529 0.33384226322567229 0 -0.37484601571869303 0.34469356705824539 0 -0.38799654952662488 0.3352384451105857 0 -0.38113662950125132 0.32451627236920882 0 -0.36990695184998529 0.33384226322567229 0 -0.38748042427921309 0.34922993683042852 0 -0.38799654952662488 0.3352384451105857 0 -0.37484601571869303 0.34469356705824539 0 -0.37664807892601448 0.31283338722814757 0 -0.38399633920924459 0.31277574571808647 0 -0.36528823441057068 0.32180602728869567 0 -0.38113662950125132 0.32451627236920882 0 -0.38399633920924459 0.31277574571808647 0 -0.39798386260752899 0.31988450885775238 0 -0.38799654952662488 0.3352384451105857 0 -0.38113662950125132 0.32451627236920882 0 -0.39798386260752899 0.31988450885775238 0 -0.38113662950125132 0.32451627236920882 0 -0.38399633920924459 0.31277574571808647 0 -0.36528823441057068 0.32180602728869567 0 -0.401253975524963 0.3452238429762714 0 -0.38799654952662488 0.3352384451105857 0 -0.40608836707912083 0.33271356244537542 0 -0.38799654952662488 0.3352384451105857 0 -0.39798386260752899 0.31988450885775238 0 -0.40608836707912083 0.33271356244537542 0 -0.401253975524963 0.3452238429762714 0 -0.38748042427921309 0.34922993683042852 0 -0.38799654952662488 0.3352384451105857 0 -0.401253975524963 0.3452238429762714 0 -0.40608836707912083 0.33271356244537542 0 -0.4140387479027956 0.34915984894368313 0 -0.40608836707912083 0.33271356244537542 0 -0.42063154590332508 0.32042189845987462 0 -0.42428213150912408 0.33434935909881519 0 -0.40608836707912083 0.33271356244537542 0 -0.42428213150912408 0.33434935909881519 0 -0.4140387479027956 0.34915984894368313 0 -0.39798386260752899 0.31988450885775238 0 -0.42063154590332508 0.32042189845987462 0 -0.40270444400791677 0.30374546414747372 0 -0.39798386260752899 0.31988450885775238 0 -0.40608836707912083 0.33271356244537542 0 -0.42063154590332508 0.32042189845987462 0 -0.42063154590332508 0.32042189845987462 0 -0.43569661669569248 0.31442289269827928 0 -0.43807194666911131 0.33848964084863292 0 -0.42063154590332508 0.32042189845987462 0 -0.43569661669569248 0.31442289269827928 0 -0.4212325785775452 0.30557034876373151 0 -0.42063154590332508 0.32042189845987462 0 -0.42428213150912408 0.33434935909881519 0 -0.43807194666911131 0.33848964084863292 0 -0.42063154590332508 0.32042189845987462 0 -0.43807194666911131 0.33848964084863292 0 -0.42428213150912408 0.33434935909881519 0 -0.43183260544131757 0.33963134551966789 0 -0.42641769578830258 0.34858804935894733 0 -0.42428213150912408 0.33434935909881519 0 -0.43183260544131757 0.33963134551966789 0 -0.43807194666911131 0.33848964084863292 0 -0.42641769578830258 0.34858804935894733 0 -0.43807194666911131 0.33848964084863292 0 -0.43183260544131757 0.33963134551966789 0 -0.42641769578830258 0.34858804935894733 0 -0.43807194666911131 0.33848964084863292 0 -0.42641769578830258 0.34858804935894733 0 -0.41476344490749451 0.35868645786926229 0 -0.43186121793089799 0.36143773323464939 0 -0.43518150285165808 0.34692797561440247 0 -0.42641769578830258 0.34858804935894733 0 -0.43807194666911131 0.33848964084863292 0 -0.43518150285165808 0.34692797561440247 0 -0.42641769578830258 0.34858804935894733 0 -0.43186121793089799 0.36143773323464939 0 -0.43518150285165808 0.34692797561440247 0 -0.43186121793089799 0.36143773323464939 0 -0.44102261255486291 0.35366901385166011 0 -0.42428213150912408 0.33434935909881519 0 -0.42641769578830258 0.34858804935894733 0 -0.4140387479027956 0.34915984894368313 0 -0.41476344490749451 0.35868645786926229 0 -0.4140387479027956 0.34915984894368313 0 -0.42641769578830258 0.34858804935894733 0 -0.41476344490749451 0.35868645786926229 0 -0.42641769578830258 0.34858804935894733 0 -0.41476344490749451 0.35868645786926229 0 -0.4140387479027956 0.34915984894368313 0 -0.40487052423866099 0.35661061990319959 0 -0.41476344490749451 0.35868645786926229 0 -0.4140387479027956 0.34915984894368313 0 -0.401253975524963 0.3452238429762714 0 -0.40487052423866099 0.35661061990319959 0 -0.4140387479027956 0.34915984894368313 0 -0.39799048491698358 0.37322022787675768 0 -0.41476344490749451 0.35868645786926229 0 -0.41476344490749451 0.35868645786926229 0 -0.41599930271150931 0.37493260475561468 0 -0.41476344490749451 0.35868645786926229 0 -0.41599930271150931 0.37493260475561468 0 -0.43186121793089799 0.36143773323464939 0 -0.39799048491698358 0.37322022787675768 0 -0.41476344490749451 0.35868645786926229 0 -0.41599930271150931 0.37493260475561468 0 -0.44098048884084362 0.38027559590255661 0 -0.41599930271150931 0.37493260475561468 0 -0.43186121793089799 0.36143773323464939 0 -0.44098048884084362 0.38027559590255661 0 -0.46488706187617601 0.36929840133910941 0 -0.44098048884084362 0.38027559590255661 0 -0.44701517723738088 0.36370591004733699 0 -0.46488706187617601 0.36929840133910941 0 -0.44098048884084362 0.38027559590255661 0 -0.43186121793089799 0.36143773323464939 0 -0.44701517723738088 0.36370591004733699 0 -0.43186121793089799 0.36143773323464939 0 -0.44701517723738088 0.36370591004733699 0 -0.44102261255486291 0.35366901385166011 0 -0.45648574969413952 0.35377476708467881 0 -0.44609118319491592 0.33409882989147921 0 -0.44102261255486291 0.35366901385166011 0 -0.45648574969413952 0.35377476708467881 0 -0.43807194666911131 0.33848964084863292 0 -0.45648574969413952 0.35377476708467881 0 -0.43807194666911131 0.33848964084863292 0 -0.43518150285165808 0.34692797561440247 0 -0.44102261255486291 0.35366901385166011 0 -0.43807194666911131 0.33848964084863292 0 -0.44701517723738088 0.36370591004733699 0 -0.44102261255486291 0.35366901385166011 0 -0.45648574969413952 0.35377476708467881 0 -0.45648574969413952 0.35377476708467881 0 -0.46299596762533679 0.34595274107585111 0 -0.45392980946013922 0.34034391045538592 0 -0.45648574969413952 0.35377476708467881 0 -0.46675707930341548 0.35463259819349691 0 -0.46576573209866312 0.36240734015154308 0 -0.45648574969413952 0.35377476708467881 0 -0.46576573209866312 0.36240734015154308 0 -0.46675707930341548 0.35463259819349691 0 -0.46576573209866312 0.36240734015154308 0 -0.46675707930341548 0.35463259819349691 0 -0.46576573209866312 0.36240734015154308 0 -0.47285959591950011 0.35886567852731571 0 -0.45648574969413952 0.35377476708467881 0 -0.46675707930341548 0.35463259819349691 0 -0.46299596762533679 0.34595274107585111 0 -0.46675707930341548 0.35463259819349691 0 -0.46299596762533679 0.34595274107585111 0 -0.47119212729776888 0.34687571183247379 0 -0.44701517723738088 0.36370591004733699 0 -0.45648574969413952 0.35377476708467881 0 -0.46488706187617601 0.36929840133910941 0 -0.45648574969413952 0.35377476708467881 0 -0.46488706187617601 0.36929840133910941 0 -0.45648574969413952 0.35377476708467881 0 -0.46576573209866312 0.36240734015154308 0 -0.46488706187617601 0.36929840133910941 0 -0.46576573209866312 0.36240734015154308 0 -0.46488706187617601 0.36929840133910941 0 -0.46576573209866312 0.36240734015154308 0 -0.46488706187617601 0.36929840133910941 0 -0.47043506517416639 0.36675092154973549 0 -0.46576573209866312 0.36240734015154308 0 -0.47043506517416639 0.36675092154973549 0 -0.46488706187617601 0.36929840133910941 0 -0.47043506517416639 0.36675092154973549 0 -0.48521753258708428 0.38050210387831462 0 -0.48328954548900349 0.3608485226061714 0 -0.47043506517416639 0.36675092154973549 0 -0.48521753258708428 0.38050210387831462 0 -0.46488706187617601 0.36929840133910941 0 -0.47043506517416639 0.36675092154973549 0 -0.48521753258708428 0.38050210387831462 0 -0.47043506517416639 0.36675092154973549 0 -0.48328954548900349 0.3608485226061714 0 -0.47043506517416639 0.36675092154973549 0 -0.48328954548900349 0.3608485226061714 0 -0.47043506517416639 0.36675092154973549 0 -0.47285959591950011 0.35886567852731571 0 -0.46576573209866312 0.36240734015154308 0 -0.47043506517416639 0.36675092154973549 0 -0.47285959591950011 0.35886567852731571 0 -0.46675707930341548 0.35463259819349691 0 -0.47285959591950011 0.35886567852731571 0 -0.47805055753225367 0.34968901013562959 0 -0.47119212729776888 0.34687571183247379 0 -0.47805055753225367 0.34968901013562959 0 -0.47696490473006992 0.33722849792491771 0 -0.46675707930341548 0.35463259819349691 0 -0.47119212729776888 0.34687571183247379 0 -0.47805055753225367 0.34968901013562959 0 -0.47805055753225367 0.34968901013562959 0 -0.48766100155026548 0.34921246037236803 0 -0.47696490473006992 0.33722849792491771 0 -0.48328954548900349 0.3608485226061714 0 -0.47285959591950011 0.35886567852731571 0 -0.47805055753225367 0.34968901013562959 0 -0.48328954548900349 0.3608485226061714 0 -0.47805055753225367 0.34968901013562959 0 -0.48766100155026548 0.34921246037236803 0 -0.48328954548900349 0.3608485226061714 0 -0.48766100155026548 0.34921246037236803 0 -0.5 0.36418318580067188 0 -0.48766100155026548 0.34921246037236803 0 -0.5 0.36418318580067188 0 -0.50000000000000056 0.3341130853944495 0 -0.48521753258708428 0.38050210387831462 0 -0.48328954548900349 0.3608485226061714 0 -0.5 0.36418318580067188 0 -0.50000000000000755 0.32666631205076191 0 -0.47517163521236871 0.31154435029769317 0 -0.50000000000000655 0.29974477158378898 0 -0.50000000000000755 0.32666631205076191 0 -0.47517163521236871 0.31154435029769317 0 -0.48766100155026548 0.34921246037236803 0 -0.50000000000000056 0.3341130853944495 0 -0.47696490473006992 0.33722849792491771 0 -0.50000000000000755 0.32666631205076191 0 -0.50000000000000056 0.3341130853944495 0 -0.47696490473006992 0.33722849792491771 0 -0.50000000000000056 0.3341130853944495 0 -0.47696490473006992 0.33722849792491771 0 -0.46299596762533679 0.34595274107585111 0 -0.47119212729776888 0.34687571183247379 0 -0.47696490473006992 0.33722849792491771 0 -0.47696490473006992 0.33722849792491771 0 -0.45918714963957757 0.32676441404630052 0 -0.47517163521236871 0.31154435029769317 0 -0.50000000000000755 0.32666631205076191 0 -0.47696490473006992 0.33722849792491771 0 -0.47517163521236871 0.31154435029769317 0 -0.45918714963957757 0.32676441404630052 0 -0.45519143335761852 0.31406751330861921 0 -0.47517163521236871 0.31154435029769317 0 -0.45918714963957757 0.32676441404630052 0 -0.45519143335761852 0.31406751330861921 0 -0.44817316110765743 0.32023777365078471 0 -0.46299596762533679 0.34595274107585111 0 -0.47696490473006992 0.33722849792491771 0 -0.45392980946013922 0.34034391045538592 0 -0.47696490473006992 0.33722849792491771 0 -0.45918714963957757 0.32676441404630052 0 -0.45392980946013922 0.34034391045538592 0 -0.47696490473006992 0.33722849792491771 0 -0.45392980946013922 0.34034391045538592 0 -0.43569661669569248 0.31442289269827928 0 -0.44609118319491592 0.33409882989147921 0 -0.43807194666911131 0.33848964084863292 0 -0.45648574969413952 0.35377476708467881 0 -0.44609118319491592 0.33409882989147921 0 -0.43807194666911131 0.33848964084863292 0 -0.45648574969413952 0.35377476708467881 0 -0.45392980946013922 0.34034391045538592 0 -0.44609118319491592 0.33409882989147921 0 -0.45918714963957757 0.32676441404630052 0 -0.45392980946013922 0.34034391045538592 0 -0.44609118319491592 0.33409882989147921 0 -0.43569661669569248 0.31442289269827928 0 -0.44609118319491592 0.33409882989147921 0 -0.43569661669569248 0.31442289269827928 0 -0.44609118319491592 0.33409882989147921 0 -0.44817316110765743 0.32023777365078471 0 -0.45519143335761852 0.31406751330861921 0 -0.44817316110765743 0.32023777365078471 0 -0.44549393950722782 0.31007452545233322 0 -0.45918714963957757 0.32676441404630052 0 -0.44609118319491592 0.33409882989147921 0 -0.44817316110765743 0.32023777365078471 0 -0.43569661669569248 0.31442289269827928 0 -0.44817316110765743 0.32023777365078471 0 -0.44549393950722782 0.31007452545233322 0 -0.43569661669569248 0.31442289269827928 0 -0.43806521595044262 0.30522205905935429 0 -0.44549393950722782 0.31007452545233322 0 -0.45519143335761852 0.31406751330861921 0 -0.44549393950722782 0.31007452545233322 0 -0.45034327042472772 0.29642238854462821 0 -0.43806521595044262 0.30522205905935429 0 -0.45034327042472772 0.29642238854462821 0 -0.42813216591358738 0.2949363100706745 0 -0.43806521595044262 0.30522205905935429 0 -0.44549393950722782 0.31007452545233322 0 -0.45034327042472772 0.29642238854462821 0 -0.45034327042472772 0.29642238854462821 0 -0.42813216591358738 0.2949363100706745 0 -0.45034327042472772 0.29642238854462821 0 -0.43598849232798098 0.28767946861375709 0 -0.42813216591358738 0.2949363100706745 0 -0.45034327042472772 0.29642238854462821 0 -0.45575528991639369 0.27813816285918791 0 -0.43598849232798098 0.28767946861375709 0 -0.45575528991639369 0.27813816285918791 0 -0.43598849232798098 0.28767946861375709 0 -0.45034327042472772 0.29642238854462821 0 -0.43598849232798098 0.28767946861375709 0 -0.45034327042472772 0.29642238854462821 0 -0.46559671492988869 0.28768840136391333 0 -0.45575528991639369 0.27813816285918791 0 -0.45034327042472772 0.29642238854462821 0 -0.46559671492988869 0.28768840136391333 0 -0.47517163521236699 0.29808358006420871 0 -0.46559671492988869 0.28768840136391333 0 -0.4697518506737815 0.27989689020938407 0 -0.45575528991639369 0.27813816285918791 0 -0.45519143335761852 0.31406751330861921 0 -0.45034327042472772 0.29642238854462821 0 -0.47517163521236871 0.31154435029769317 0 -0.45034327042472772 0.29642238854462821 0 -0.47517163521236699 0.29808358006420871 0 -0.45034327042472772 0.29642238854462821 0 -0.47517163521236871 0.31154435029769317 0 -0.47517163521236699 0.29808358006420871 0 -0.45034327042472772 0.29642238854462821 0 -0.47517163521236871 0.31154435029769317 0 -0.47517163521236871 0.31154435029769317 0 -0.47517163521236699 0.29808358006420871 0 -0.50000000000000655 0.29974477158378898 0 -0.46559671492988869 0.28768840136391333 0 -0.47517163521236699 0.29808358006420871 0 -0.4769615284221736 0.28590098514215678 0 -0.46559671492988869 0.28768840136391333 0 -0.4769615284221736 0.28590098514215678 0 -0.4697518506737815 0.27989689020938407 0 -0.48405861800905658 0.28314258118166202 0 -0.4769615284221736 0.28590098514215678 0 -0.48951003035239249 0.28968487738166021 0 -0.48405861800905658 0.28314258118166202 0 -0.4769615284221736 0.28590098514215678 0 -0.47861757801082522 0.27529556816306983 0 -0.47517163521236699 0.29808358006420871 0 -0.4769615284221736 0.28590098514215678 0 -0.48951003035239249 0.28968487738166021 0 -0.48405861800905658 0.28314258118166202 0 -0.48951003035239249 0.28968487738166021 0 -0.5 0.2782631490710234 0 -0.48951003035239249 0.28968487738166021 0 -0.50000000000000655 0.29974477158378898 0 -0.5 0.2782631490710234 0 -0.47517163521236699 0.29808358006420871 0 -0.48951003035239249 0.28968487738166021 0 -0.50000000000000655 0.29974477158378898 0 -0.47517163521236699 0.29808358006420871 0 -0.50000000000000655 0.29974477158378898 0 -0.49031121891882018 0.2481922865444724 0 -0.50000000000000155 0.25678152655825781 0 -0.48062243783764003 0.26155990169903698 0 -0.50000000000000155 0.25678152655825781 0 -0.48062243783764003 0.26155990169903698 0 -0.48226171930665102 0.26534368028592248 0 -0.50000000000000155 0.25678152655825781 0 -0.48226171930665102 0.26534368028592248 0 -0.49031121891882018 0.2481922865444724 0 -0.48062243783764003 0.26155990169903698 0 -0.48405861800905658 0.28314258118166202 0 -0.5 0.2782631490710234 0 -0.48663495436051651 0.27543795235880669 0 -0.50000000000000155 0.25678152655825781 0 -0.5 0.2782631490710234 0 -0.48663495436051651 0.27543795235880669 0 -0.50000000000000155 0.25678152655825781 0 -0.48663495436051651 0.27543795235880669 0 -0.48226171930665102 0.26534368028592248 0 -0.48663495436051651 0.27543795235880669 0 -0.48226171930665102 0.26534368028592248 0 -0.47861757801082522 0.27529556816306983 0 -0.47552208750480779 0.268596857104622 0 -0.48226171930665102 0.26534368028592248 0 -0.48663495436051651 0.27543795235880669 0 -0.47861757801082522 0.27529556816306983 0 -0.48226171930665102 0.26534368028592248 0 -0.47552208750480779 0.268596857104622 0 -0.48226171930665102 0.26534368028592248 0 -0.48405861800905658 0.28314258118166202 0 -0.48663495436051651 0.27543795235880669 0 -0.47861757801082522 0.27529556816306983 0 -0.4769615284221736 0.28590098514215678 0 -0.47861757801082522 0.27529556816306983 0 -0.4697518506737815 0.27989689020938407 0 -0.47861757801082522 0.27529556816306983 0 -0.4697518506737815 0.27989689020938407 0 -0.47406908638521139 0.27060156333373159 0 -0.47552208750480779 0.268596857104622 0 -0.47406908638521139 0.27060156333373159 0 -0.47861757801082522 0.27529556816306983 0 -0.47552208750480779 0.268596857104622 0 -0.47406908638521139 0.27060156333373159 0 -0.47552208750480779 0.268596857104622 0 -0.48062243783764003 0.26155990169903698 0 -0.46741984697533462 0.25942055182262658 0 -0.4697365897889314 0.23643325961502171 0 -0.48062243783764003 0.26155990169903698 0 -0.46741984697533462 0.25942055182262658 0 -0.47552208750480779 0.268596857104622 0 -0.48062243783764003 0.26155990169903698 0 -0.48226171930665102 0.26534368028592248 0 -0.47552208750480779 0.268596857104622 0 -0.48062243783764003 0.26155990169903698 0 -0.48062243783764003 0.26155990169903698 0 -0.48226171930665102 0.26534368028592248 0 -0.46741984697533462 0.25942055182262658 0 -0.4554628298288993 0.2523745778352644 0 -0.45575528991639369 0.27813816285918791 0 -0.47552208750480779 0.268596857104622 0 -0.46741984697533462 0.25942055182262658 0 -0.45575528991639369 0.27813816285918791 0 -0.4697518506737815 0.27989689020938407 0 -0.47406908638521139 0.27060156333373159 0 -0.45575528991639369 0.27813816285918791 0 -0.47552208750480779 0.268596857104622 0 -0.47406908638521139 0.27060156333373159 0 -0.45575528991639369 0.27813816285918791 0 -0.47552208750480779 0.268596857104622 0 -0.45575528991639369 0.27813816285918791 0 -0.45575528991639369 0.27813816285918791 0 -0.44426751018211558 0.2635176922437934 0 -0.43197792827469611 0.27225630802293671 0 -0.45575528991639369 0.27813816285918791 0 -0.43197792827469611 0.27225630802293671 0 -0.43598849232798098 0.28767946861375709 0 -0.4554628298288993 0.2523745778352644 0 -0.45575528991639369 0.27813816285918791 0 -0.44426751018211558 0.2635176922437934 0 -0.44230676710507749 0.24892234785503201 0 -0.4554628298288993 0.2523745778352644 0 -0.44426751018211558 0.2635176922437934 0 -0.44230676710507749 0.24892234785503201 0 -0.44426751018211558 0.2635176922437934 0 -0.43100006204700142 0.25635026249689502 0 -0.43100006204700142 0.25635026249689502 0 -0.41976976296067819 0.26350058156864259 0 -0.43197792827469611 0.27225630802293671 0 -0.44426751018211558 0.2635176922437934 0 -0.43100006204700142 0.25635026249689502 0 -0.43197792827469611 0.27225630802293671 0 -0.43100006204700142 0.25635026249689502 0 -0.41450278511812078 0.25474354136917932 0 -0.41976976296067819 0.26350058156864259 0 -0.41576896288443632 0.2432695896099219 0 -0.43100006204700142 0.25635026249689502 0 -0.41450278511812078 0.25474354136917932 0 -0.41450278511812078 0.25474354136917932 0 -0.41976976296067819 0.26350058156864259 0 -0.40664059829946109 0.25942258142109181 0 -0.41450278511812078 0.25474354136917932 0 -0.40664059829946109 0.25942258142109181 0 -0.40886652545920688 0.25038766517731692 0 -0.40664059829946109 0.25942258142109181 0 -0.41472744106411191 0.2747302145331092 0 -0.40664059829946109 0.25942258142109181 0 -0.41472744106411191 0.2747302145331092 0 -0.39989467075716051 0.26569616870721008 0 -0.41976976296067819 0.26350058156864259 0 -0.40664059829946109 0.25942258142109181 0 -0.41472744106411191 0.2747302145331092 0 -0.41099977345405508 0.27719558715471032 0 -0.41472744106411191 0.2747302145331092 0 -0.39989467075716051 0.26569616870721008 0 -0.41472744106411191 0.2747302145331092 0 -0.39989467075716051 0.26569616870721008 0 -0.41099977345405508 0.27719558715471032 0 -0.41472744106411191 0.2747302145331092 0 -0.42210487615095038 0.28869500560221001 0 -0.41472744106411191 0.2747302145331092 0 -0.43598849232798098 0.28767946861375709 0 -0.41976976296067819 0.26350058156864259 0 -0.41472744106411191 0.2747302145331092 0 -0.43197792827469611 0.27225630802293671 0 -0.41472744106411191 0.2747302145331092 0 -0.43197792827469611 0.27225630802293671 0 -0.43598849232798098 0.28767946861375709 0 -0.41472744106411191 0.2747302145331092 0 -0.43598849232798098 0.28767946861375709 0 -0.42210487615095038 0.28869500560221001 0 -0.43598849232798098 0.28767946861375709 0 -0.4258500945953676 0.29257320783456692 0 -0.43598849232798098 0.28767946861375709 0 -0.4258500945953676 0.29257320783456692 0 -0.42813216591358738 0.2949363100706745 0 -0.43598849232798098 0.28767946861375709 0 -0.4258500945953676 0.29257320783456692 0 -0.42210487615095038 0.28869500560221001 0 -0.4258500945953676 0.29257320783456692 0 -0.42813216591358738 0.2949363100706745 0 -0.42813216591358738 0.2949363100706745 0 -0.42530205019646672 0.29474695550508068 0 -0.4258500945953676 0.29257320783456692 0 -0.42813216591358738 0.2949363100706745 0 -0.42530205019646672 0.29474695550508068 0 -0.4258500945953676 0.29257320783456692 0 -0.42530205019646672 0.29474695550508068 0 -0.42182823608432451 0.29451453300794661 0 -0.4258500945953676 0.29257320783456692 0 -0.42182823608432451 0.29451453300794661 0 -0.4258500945953676 0.29257320783456692 0 -0.42530205019646672 0.29474695550508068 0 -0.42530205019646672 0.29474695550508068 0 -0.42182823608432451 0.29451453300794661 0 -0.4258500945953676 0.29257320783456692 0 -0.42210487615095038 0.28869500560221001 0 -0.42182823608432451 0.29451453300794661 0 -0.4258500945953676 0.29257320783456692 0 -0.42210487615095038 0.28869500560221001 0 -0.43569661669569248 0.31442289269827928 0 -0.42813216591358738 0.2949363100706745 0 -0.42530205019646672 0.29474695550508068 0 -0.43569661669569248 0.31442289269827928 0 -0.43806521595044262 0.30522205905935429 0 -0.42813216591358738 0.2949363100706745 0 -0.43569661669569248 0.31442289269827928 0 -0.42530205019646672 0.29474695550508068 0 -0.43569661669569248 0.31442289269827928 0 -0.42530205019646672 0.29474695550508068 0 -0.4212325785775452 0.30557034876373151 0 -0.43806521595044262 0.30522205905935429 0 -0.42813216591358738 0.2949363100706745 0 -0.42530205019646672 0.29474695550508068 0 -0.4212325785775452 0.30557034876373151 0 -0.42182823608432451 0.29451453300794661 0 -0.42063154590332508 0.32042189845987462 0 -0.40270444400791677 0.30374546414747372 0 -0.42182823608432451 0.29451453300794661 0 -0.40270444400791677 0.30374546414747372 0 -0.42063154590332508 0.32042189845987462 0 -0.4212325785775452 0.30557034876373151 0 -0.40270444400791677 0.30374546414747372 0 -0.42182823608432451 0.29451453300794661 0 -0.40617917762626549 0.29346750138011951 0 -0.40270444400791677 0.30374546414747372 0 -0.4212325785775452 0.30557034876373151 0 -0.42182823608432451 0.29451453300794661 0 -0.40270444400791677 0.30374546414747372 0 -0.42182823608432451 0.29451453300794661 0 -0.40617917762626549 0.29346750138011951 0 -0.42182823608432451 0.29451453300794661 0 -0.41318847192927238 0.28749385670168248 0 -0.40617917762626549 0.29346750138011951 0 -0.41472744106411191 0.2747302145331092 0 -0.42210487615095038 0.28869500560221001 0 -0.41099977345405508 0.27719558715471032 0 -0.42210487615095038 0.28869500560221001 0 -0.41318847192927238 0.28749385670168248 0 -0.41099977345405508 0.27719558715471032 0 -0.42210487615095038 0.28869500560221001 0 -0.42210487615095038 0.28869500560221001 0 -0.42182823608432451 0.29451453300794661 0 -0.41318847192927238 0.28749385670168248 0 -0.41099977345405508 0.27719558715471032 0 -0.41318847192927238 0.28749385670168248 0 -0.40483029633076689 0.28359665636342379 0 -0.41318847192927238 0.28749385670168248 0 -0.40483029633076689 0.28359665636342379 0 -0.40617917762626549 0.29346750138011951 0 -0.40483029633076689 0.28359665636342379 0 -0.40617917762626549 0.29346750138011951 0 -0.39556593582814448 0.28556112396911598 0 -0.40617917762626549 0.29346750138011951 0 -0.39556593582814448 0.28556112396911598 0 -0.3905301191682064 0.29242046975229152 0 -0.40617917762626549 0.29346750138011951 0 -0.3905301191682064 0.29242046975229152 0 -0.40483029633076689 0.28359665636342379 0 -0.39556593582814448 0.28556112396911598 0 -0.39861449440329561 0.2751824867973241 0 -0.40617917762626549 0.29346750138011951 0 -0.40270444400791677 0.30374546414747372 0 -0.3905301191682064 0.29242046975229152 0 -0.39556593582814448 0.28556112396911598 0 -0.3905301191682064 0.29242046975229152 0 -0.38693774423736471 0.28907871351588571 0 -0.38399633920924459 0.31277574571808647 0 -0.39798386260752899 0.31988450885775238 0 -0.40270444400791677 0.30374546414747372 0 -0.40270444400791677 0.30374546414747372 0 -0.38371724063200968 0.30419107011209101 0 -0.3905301191682064 0.29242046975229152 0 -0.38399633920924459 0.31277574571808647 0 -0.40270444400791677 0.30374546414747372 0 -0.40270444400791677 0.30374546414747372 0 -0.3905301191682064 0.29242046975229152 0 -0.38399633920924459 0.31277574571808647 0 -0.40270444400791677 0.30374546414747372 0 -0.38371724063200968 0.30419107011209101 0 -0.38371724063200968 0.30419107011209101 0 -0.37673304526526707 0.29871586455996751 0 -0.3905301191682064 0.29242046975229152 0 -0.38371724063200968 0.30419107011209101 0 -0.37673304526526707 0.29871586455996751 0 -0.37169141721540822 0.30465548926658131 0 -0.37664807892601448 0.31283338722814757 0 -0.38371724063200968 0.30419107011209101 0 -0.37169141721540822 0.30465548926658131 0 -0.37664807892601448 0.31283338722814757 0 -0.38399633920924459 0.31277574571808647 0 -0.38371724063200968 0.30419107011209101 0 -0.3905301191682064 0.29242046975229152 0 -0.36443308080077208 0.29067439508354209 0 -0.3905301191682064 0.29242046975229152 0 -0.38693774423736471 0.28907871351588571 0 -0.36443308080077208 0.29067439508354209 0 -0.37673304526526707 0.29871586455996751 0 -0.3905301191682064 0.29242046975229152 0 -0.36443308080077208 0.29067439508354209 0 -0.38693774423736471 0.28907871351588571 0 -0.37525666586104772 0.28047146640703069 0 -0.36443308080077208 0.29067439508354209 0 -0.38693774423736471 0.28907871351588571 0 -0.37525666586104772 0.28047146640703069 0 -0.38777837890217692 0.28012999487236168 0 -0.39556593582814448 0.28556112396911598 0 -0.38693774423736471 0.28907871351588571 0 -0.38777837890217692 0.28012999487236168 0 -0.3905301191682064 0.29242046975229152 0 -0.38693774423736471 0.28907871351588571 0 -0.38189551508356179 0.27346041218127531 0 -0.37525666586104772 0.28047146640703069 0 -0.37207647213159151 0.2665672382974883 0 -0.38189551508356179 0.27346041218127531 0 -0.37525666586104772 0.28047146640703069 0 -0.38777837890217692 0.28012999487236168 0 -0.38189551508356179 0.27346041218127531 0 -0.38777837890217692 0.28012999487236168 0 -0.38884027355026601 0.27087055384281528 0 -0.38189551508356179 0.27346041218127531 0 -0.38884027355026601 0.27087055384281528 0 -0.38253513582856707 0.26510726171892179 0 -0.38884027355026601 0.27087055384281528 0 -0.38253513582856707 0.26510726171892179 0 -0.39225379093050972 0.26104241508763598 0 -0.38189551508356179 0.27346041218127531 0 -0.38253513582856707 0.26510726171892179 0 -0.37207647213159151 0.2665672382974883 0 -0.38253513582856707 0.26510726171892179 0 -0.37736966733706678 0.251977092033426 0 -0.37207647213159151 0.2665672382974883 0 -0.37846566630958589 0.24350627134364061 0 -0.37736966733706678 0.251977092033426 0 -0.38950991029832149 0.25494267013518612 0 -0.37736966733706678 0.251977092033426 0 -0.38950991029832149 0.25494267013518612 0 -0.39225379093050972 0.26104241508763598 0 -0.37736966733706678 0.251977092033426 0 -0.39225379093050972 0.26104241508763598 0 -0.38253513582856707 0.26510726171892179 0 -0.37736966733706678 0.251977092033426 0 -0.39225379093050972 0.26104241508763598 0 -0.38950991029832149 0.25494267013518612 0 -0.39225379093050972 0.26104241508763598 0 -0.39989467075716051 0.26569616870721008 0 -0.38950991029832149 0.25494267013518612 0 -0.39811741784161192 0.25702139702844501 0 -0.39989467075716051 0.26569616870721008 0 -0.38950991029832149 0.25494267013518612 0 -0.39989467075716051 0.26569616870721008 0 -0.38950991029832149 0.25494267013518612 0 -0.39225379093050972 0.26104241508763598 0 -0.39225379093050972 0.26104241508763598 0 -0.39989467075716051 0.26569616870721008 0 -0.39855375553480937 0.2441149483090749 0 -0.38950991029832149 0.25494267013518612 0 -0.39811741784161192 0.25702139702844501 0 -0.39855375553480937 0.2441149483090749 0 -0.40664059829946109 0.25942258142109181 0 -0.40886652545920688 0.25038766517731692 0 -0.39855375553480937 0.2441149483090749 0 -0.40664059829946109 0.25942258142109181 0 -0.39811741784161192 0.25702139702844501 0 -0.39855375553480937 0.2441149483090749 0 -0.40664059829946109 0.25942258142109181 0 -0.40664059829946109 0.25942258142109181 0 -0.39811741784161192 0.25702139702844501 0 -0.39989467075716051 0.26569616870721008 0 -0.41099977345405508 0.27719558715471032 0 -0.39989467075716051 0.26569616870721008 0 -0.41099977345405508 0.27719558715471032 0 -0.39989467075716051 0.26569616870721008 0 -0.39861449440329561 0.2751824867973241 0 -0.41099977345405508 0.27719558715471032 0 -0.40483029633076689 0.28359665636342379 0 -0.39861449440329561 0.2751824867973241 0 -0.38777837890217692 0.28012999487236168 0 -0.38884027355026601 0.27087055384281528 0 -0.39861449440329561 0.2751824867973241 0 -0.39556593582814448 0.28556112396911598 0 -0.38777837890217692 0.28012999487236168 0 -0.39861449440329561 0.2751824867973241 0 -0.39225379093050972 0.26104241508763598 0 -0.39861449440329561 0.2751824867973241 0 -0.38884027355026601 0.27087055384281528 0 -0.39225379093050972 0.26104241508763598 0 -0.39861449440329561 0.2751824867973241 0 -0.39225379093050972 0.26104241508763598 0 -0.39989467075716051 0.26569616870721008 0 -0.39861449440329561 0.2751824867973241 0 -0.35870323351154509 0.2734187893549051 0 -0.33833604243333781 0.28892832041479399 0 -0.34202403234907031 0.26587264680069922 0 -0.35870323351154509 0.2734187893549051 0 -0.35959237541122341 0.25823807042808739 0 -0.34202403234907031 0.26587264680069922 0 -0.34489530339443891 0.24868088710279659 0 -0.35959237541122341 0.25823807042808739 0 -0.34202403234907031 0.26587264680069922 0 -0.36248554374363001 0.24291176897920599 0 -0.37736966733706678 0.251977092033426 0 -0.35959237541122341 0.25823807042808739 0 -0.37736966733706678 0.251977092033426 0 -0.35959237541122341 0.25823807042808739 0 -0.37207647213159151 0.2665672382974883 0 -0.37525666586104772 0.28047146640703069 0 -0.35870323351154509 0.2734187893549051 0 -0.37207647213159151 0.2665672382974883 0 -0.35870323351154509 0.2734187893549051 0 -0.35959237541122341 0.25823807042808739 0 -0.37207647213159151 0.2665672382974883 0 -0.37525666586104772 0.28047146640703069 0 -0.35870323351154509 0.2734187893549051 0 -0.36443308080077208 0.29067439508354209 0 -0.36443308080077208 0.29067439508354209 0 -0.37169141721540822 0.30465548926658131 0 -0.3622730926336486 0.30631128890899062 0 -0.37664807892601448 0.31283338722814757 0 -0.37169141721540822 0.30465548926658131 0 -0.3622730926336486 0.30631128890899062 0 -0.37673304526526707 0.29871586455996751 0 -0.36443308080077208 0.29067439508354209 0 -0.37169141721540822 0.30465548926658131 0 -0.3622730926336486 0.30631128890899062 0 -0.33813031461590309 0.31086307628954662 0 -0.35228611051670222 0.31734254440379922 0 -0.3622730926336486 0.30631128890899062 0 -0.33833604243333781 0.28892832041479399 0 -0.33813031461590309 0.31086307628954662 0 -0.35870323351154509 0.2734187893549051 0 -0.36443308080077208 0.29067439508354209 0 -0.33833604243333781 0.28892832041479399 0 -0.36443308080077208 0.29067439508354209 0 -0.33833604243333781 0.28892832041479399 0 -0.36443308080077208 0.29067439508354209 0 -0.3622730926336486 0.30631128890899062 0 -0.33833604243333781 0.28892832041479399 0 -0.33833604243333781 0.28892832041479399 0 -0.31963463618300492 0.28786686796775979 0 -0.32734729786941069 0.27456252387129421 0 -0.33833604243333781 0.28892832041479399 0 -0.33813031461590309 0.31086307628954662 0 -0.31813900368459491 0.30344643112691588 0 -0.33813031461590309 0.31086307628954662 0 -0.31813900368459491 0.30344643112691588 0 -0.31501136540368713 0.3167455420151275 0 -0.33833604243333781 0.28892832041479399 0 -0.31813900368459491 0.30344643112691588 0 -0.31963463618300492 0.28786686796775979 0 -0.31813900368459491 0.30344643112691588 0 -0.31963463618300492 0.28786686796775979 0 -0.30605548291861068 0.29647533873432808 0 -0.32734729786941069 0.27456252387129421 0 -0.32730506304524992 0.25445000522639338 0 -0.309436715336391 0.27569477894682509 0 -0.31963463618300492 0.28786686796775979 0 -0.32734729786941069 0.27456252387129421 0 -0.309436715336391 0.27569477894682509 0 -0.33833604243333781 0.28892832041479399 0 -0.32734729786941069 0.27456252387129421 0 -0.34202403234907031 0.26587264680069922 0 -0.32734729786941069 0.27456252387129421 0 -0.34202403234907031 0.26587264680069922 0 -0.32730506304524992 0.25445000522639338 0 -0.34489530339443891 0.24868088710279659 0 -0.34202403234907031 0.26587264680069922 0 -0.32730506304524992 0.25445000522639338 0 -0.34489530339443891 0.24868088710279659 0 -0.32730506304524992 0.25445000522639338 0 -0.32730506304524992 0.25445000522639338 0 -0.309436715336391 0.27569477894682509 0 -0.32730506304524992 0.25445000522639338 0 -0.30672249530042373 0.26120052496061291 0 -0.309436715336391 0.27569477894682509 0 -0.32281112578858923 0.24248600309469809 0 -0.32730506304524992 0.25445000522639338 0 -0.30672249530042373 0.26120052496061291 0 -0.32730506304524992 0.25445000522639338 0 -0.30672249530042373 0.26120052496061291 0 -0.30672249530042373 0.26120052496061291 0 -0.309436715336391 0.27569477894682509 0 -0.2949739843164278 0.27714499929669673 0 -0.2949739843164278 0.27714499929669673 0 -0.28613992755559742 0.26795104469483172 0 -0.2810024157621942 0.28393909521395638 0 -0.30672249530042373 0.26120052496061291 0 -0.2949739843164278 0.27714499929669673 0 -0.28613992755559742 0.26795104469483172 0 -0.30672249530042373 0.26120052496061291 0 -0.28613992755559742 0.26795104469483172 0 -0.30672249530042373 0.26120052496061291 0 -0.28613992755559742 0.26795104469483172 0 -0.29464196701413958 0.25202419192521758 0 -0.28022006013003492 0.2424270912126826 0 -0.28613992755559742 0.26795104469483172 0 -0.29464196701413958 0.25202419192521758 0 -0.25174121177602782 0.2498917316032101 0 -0.28022006013003492 0.2424270912126826 0 -0.26635440818287431 0.26616950301443332 0 -0.28022006013003492 0.2424270912126826 0 -0.28613992755559742 0.26795104469483172 0 -0.26635440818287431 0.26616950301443332 0 -0.26635440818287431 0.26616950301443332 0 -0.26428974193144439 0.28539926069844812 0 -0.2810024157621942 0.28393909521395638 0 -0.28613992755559742 0.26795104469483172 0 -0.26635440818287431 0.26616950301443332 0 -0.2810024157621942 0.28393909521395638 0 -0.26635440818287431 0.26616950301443332 0 -0.25054407516362542 0.2726922845681235 0 -0.26428974193144439 0.28539926069844812 0 -0.25174121177602782 0.2498917316032101 0 -0.26635440818287431 0.26616950301443332 0 -0.25054407516362542 0.2726922845681235 0 -0.25285694186177771 0.30306157520117899 0 -0.26428974193144439 0.28539926069844812 0 -0.27035635001288322 0.31073058921889629 0 -0.25054407516362542 0.2726922845681235 0 -0.26428974193144439 0.28539926069844812 0 -0.24851661436511269 0.28729547001918732 0 -0.25285694186177771 0.30306157520117899 0 -0.26428974193144439 0.28539926069844812 0 -0.24851661436511269 0.28729547001918732 0 -0.26428974193144439 0.28539926069844812 0 -0.2810024157621942 0.28393909521395638 0 -0.27035635001288322 0.31073058921889629 0 -0.2810024157621942 0.28393909521395638 0 -0.27035635001288322 0.31073058921889629 0 -0.29156836762753319 0.29693955266725791 0 -0.27035635001288322 0.31073058921889629 0 -0.29156836762753319 0.29693955266725791 0 -0.27235777459866722 0.31978020411323438 0 -0.27035635001288322 0.31073058921889629 0 -0.29156836762753319 0.29693955266725791 0 -0.29156836762753319 0.29693955266725791 0 -0.27235777459866722 0.31978020411323438 0 -0.29156836762753319 0.29693955266725791 0 -0.28882449948623712 0.31427578396411487 0 -0.27235777459866722 0.31978020411323438 0 -0.29604197520022418 0.30305882639943688 0 -0.29156836762753319 0.29693955266725791 0 -0.28882449948623712 0.31427578396411487 0 -0.29604197520022418 0.30305882639943688 0 -0.30139567070877282 0.31118239217634042 0 -0.28882449948623712 0.31427578396411487 0 -0.2949739843164278 0.27714499929669673 0 -0.2810024157621942 0.28393909521395638 0 -0.29156836762753319 0.29693955266725791 0 -0.309436715336391 0.27569477894682509 0 -0.2949739843164278 0.27714499929669673 0 -0.29156836762753319 0.29693955266725791 0 -0.309436715336391 0.27569477894682509 0 -0.29156836762753319 0.29693955266725791 0 -0.31963463618300492 0.28786686796775979 0 -0.309436715336391 0.27569477894682509 0 -0.30605548291861068 0.29647533873432808 0 -0.309436715336391 0.27569477894682509 0 -0.29156836762753319 0.29693955266725791 0 -0.30605548291861068 0.29647533873432808 0 -0.31813900368459491 0.30344643112691588 0 -0.30139567070877282 0.31118239217634042 0 -0.31501136540368713 0.3167455420151275 0 -0.31813900368459491 0.30344643112691588 0 -0.30605548291861068 0.29647533873432808 0 -0.30139567070877282 0.31118239217634042 0 -0.29604197520022418 0.30305882639943688 0 -0.29156836762753319 0.29693955266725791 0 -0.30605548291861068 0.29647533873432808 0 -0.29604197520022418 0.30305882639943688 0 -0.30605548291861068 0.29647533873432808 0 -0.30139567070877282 0.31118239217634042 0 -0.30139567070877282 0.31118239217634042 0 -0.29678560168331258 0.32819864934724108 0 -0.31501136540368713 0.3167455420151275 0 -0.29678560168331258 0.32819864934724108 0 -0.32060623632585228 0.33003716113559362 0 -0.31501136540368713 0.3167455420151275 0 -0.29678560168331258 0.32819864934724108 0 -0.31301113831277272 0.33966216808485311 0 -0.32060623632585228 0.33003716113559362 0 -0.29678560168331258 0.32819864934724108 0 -0.32060623632585228 0.33003716113559362 0 -0.29678560168331258 0.32819864934724108 0 -0.3001322027208112 0.34375261349654779 0 -0.31301113831277272 0.33966216808485311 0 -0.29678560168331258 0.32819864934724108 0 -0.27296496704077289 0.3263601375588886 0 -0.28123962808681141 0.34392964929720993 0 -0.29678560168331258 0.32819864934724108 0 -0.28123962808681141 0.34392964929720993 0 -0.3001322027208112 0.34375261349654779 0 -0.29678560168331258 0.32819864934724108 0 -0.27296496704077289 0.3263601375588886 0 -0.29678560168331258 0.32819864934724108 0 -0.28882449948623712 0.31427578396411487 0 -0.27296496704077289 0.3263601375588886 0 -0.30139567070877282 0.31118239217634042 0 -0.29678560168331258 0.32819864934724108 0 -0.28882449948623712 0.31427578396411487 0 -0.28882449948623712 0.31427578396411487 0 -0.27235777459866722 0.31978020411323438 0 -0.27296496704077289 0.3263601375588886 0 -0.27296496704077289 0.3263601375588886 0 -0.2602889594106963 0.34444789059950742 0 -0.28123962808681141 0.34392964929720993 0 -0.27296496704077289 0.3263601375588886 0 -0.2602889594106963 0.34444789059950742 0 -0.2491443323982333 0.32452162577053489 0 -0.2602889594106963 0.34444789059950742 0 -0.2491443323982333 0.32452162577053489 0 -0.2452349654202535 0.3403825380020008 0 -0.27035635001288322 0.31073058921889629 0 -0.27235777459866722 0.31978020411323438 0 -0.2491443323982333 0.32452162577053489 0 -0.27296496704077289 0.3263601375588886 0 -0.2491443323982333 0.32452162577053489 0 -0.27035635001288322 0.31073058921889629 0 -0.2491443323982333 0.32452162577053489 0 -0.27235777459866722 0.31978020411323438 0 -0.27296496704077289 0.3263601375588886 0 -0.2491443323982333 0.32452162577053489 0 -0.25285694186177771 0.30306157520117899 0 -0.27035635001288322 0.31073058921889629 0 -0.2491443323982333 0.32452162577053489 0 -0.25813422169331651 0.36974106450526412 0 -0.2602889594106963 0.34444789059950742 0 -0.24588572141265019 0.35751467364249551 0 -0.25813422169331651 0.36974106450526412 0 -0.2602889594106963 0.34444789059950742 0 -0.27735647815332531 0.36235763433781942 0 -0.2602889594106963 0.34444789059950742 0 -0.24588572141265019 0.35751467364249551 0 -0.2452349654202535 0.3403825380020008 0 -0.2602889594106963 0.34444789059950742 0 -0.28123962808681141 0.34392964929720993 0 -0.27735647815332531 0.36235763433781942 0 -0.27735647815332531 0.36235763433781942 0 -0.28929605554961652 0.37644323247135042 0 -0.27333495145172421 0.38202568583444391 0 -0.25813422169331651 0.36974106450526412 0 -0.27735647815332531 0.36235763433781942 0 -0.27333495145172421 0.38202568583444391 0 -0.27735647815332531 0.36235763433781942 0 -0.29563083522492628 0.3655188385579356 0 -0.28929605554961652 0.37644323247135042 0 -0.27735647815332531 0.36235763433781942 0 -0.29563083522492628 0.3655188385579356 0 -0.29106947125727289 0.35444575806889822 0 -0.28123962808681141 0.34392964929720993 0 -0.29106947125727289 0.35444575806889822 0 -0.3001322027208112 0.34375261349654779 0 -0.28123962808681141 0.34392964929720993 0 -0.27735647815332531 0.36235763433781942 0 -0.29106947125727289 0.35444575806889822 0 -0.29563083522492628 0.3655188385579356 0 -0.29106947125727289 0.35444575806889822 0 -0.30127591230758383 0.35630116371320281 0 -0.31028373276122972 0.35035550480454852 0 -0.30858670073025379 0.36659206744116962 0 -0.31780258503418291 0.34929008796637628 0 -0.30127591230758383 0.35630116371320281 0 -0.31028373276122972 0.35035550480454852 0 -0.30858670073025379 0.36659206744116962 0 -0.3001322027208112 0.34375261349654779 0 -0.30127591230758383 0.35630116371320281 0 -0.31028373276122972 0.35035550480454852 0 -0.29106947125727289 0.35444575806889822 0 -0.3001322027208112 0.34375261349654779 0 -0.30127591230758383 0.35630116371320281 0 -0.3001322027208112 0.34375261349654779 0 -0.31028373276122972 0.35035550480454852 0 -0.31301113831277272 0.33966216808485311 0 -0.29563083522492628 0.3655188385579356 0 -0.30620039335150567 0.37697317531517349 0 -0.28929605554961652 0.37644323247135042 0 -0.29563083522492628 0.3655188385579356 0 -0.30858670073025379 0.36659206744116962 0 -0.30620039335150567 0.37697317531517349 0 -0.29563083522492628 0.3655188385579356 0 -0.30127591230758383 0.35630116371320281 0 -0.30858670073025379 0.36659206744116962 0 -0.30858670073025379 0.36659206744116962 0 -0.31956128590582761 0.370526017894862 0 -0.30620039335150567 0.37697317531517349 0 -0.30858670073025379 0.36659206744116962 0 -0.32787567570861048 0.36269730519864518 0 -0.33020202745179977 0.34951907439096491 0 -0.30858670073025379 0.36659206744116962 0 -0.31956128590582761 0.370526017894862 0 -0.32787567570861048 0.36269730519864518 0 -0.31956128590582761 0.370526017894862 0 -0.32787567570861048 0.36269730519864518 0 -0.33152838589182931 0.37217334966736931 0 -0.32787567570861048 0.36269730519864518 0 -0.33152838589182931 0.37217334966736931 0 -0.33904843443025312 0.36502979575935401 0 -0.32787567570861048 0.36269730519864518 0 -0.33904843443025312 0.36502979575935401 0 -0.33993185095458373 0.35380491306876399 0 -0.33904843443025312 0.36502979575935401 0 -0.33993185095458373 0.35380491306876399 0 -0.34863075307060259 0.35976581052907403 0 -0.33152838589182931 0.37217334966736931 0 -0.33904843443025312 0.36502979575935401 0 -0.34099014648273829 0.37713836633591391 0 -0.33904843443025312 0.36502979575935401 0 -0.34925927733784051 0.36920378962632627 0 -0.34099014648273829 0.37713836633591391 0 -0.33993185095458373 0.35380491306876399 0 -0.33020202745179977 0.34951907439096491 0 -0.34882848466541311 0.34572779669569431 0 -0.32787567570861048 0.36269730519864518 0 -0.33993185095458373 0.35380491306876399 0 -0.33020202745179977 0.34951907439096491 0 -0.30858670073025379 0.36659206744116962 0 -0.33020202745179977 0.34951907439096491 0 -0.33020202745179977 0.34951907439096491 0 -0.31780258503418291 0.34929008796637628 0 -0.32692932591485829 0.34032162511034519 0 -0.30858670073025379 0.36659206744116962 0 -0.33020202745179977 0.34951907439096491 0 -0.31780258503418291 0.34929008796637628 0 -0.31028373276122972 0.35035550480454852 0 -0.31780258503418291 0.34929008796637628 0 -0.31301113831277272 0.33966216808485311 0 -0.31780258503418291 0.34929008796637628 0 -0.31301113831277272 0.33966216808485311 0 -0.32692932591485829 0.34032162511034519 0 -0.31301113831277272 0.33966216808485311 0 -0.32060623632585228 0.33003716113559362 0 -0.32692932591485829 0.34032162511034519 0 -0.33813031461590309 0.31086307628954662 0 -0.32060623632585228 0.33003716113559362 0 -0.31501136540368713 0.3167455420151275 0 -0.33813031461590309 0.31086307628954662 0 -0.32060623632585228 0.33003716113559362 0 -0.3444268709683922 0.3318756729239436 0 -0.32060623632585228 0.33003716113559362 0 -0.32692932591485829 0.34032162511034519 0 -0.3444268709683922 0.3318756729239436 0 -0.32692932591485829 0.34032162511034519 0 -0.3444268709683922 0.3318756729239436 0 -0.33020202745179977 0.34951907439096491 0 -0.32692932591485829 0.34032162511034519 0 -0.3444268709683922 0.3318756729239436 0 -0.33020202745179977 0.34951907439096491 0 -0.35181735417334559 0.33244608134075959 0 -0.33020202745179977 0.34951907439096491 0 -0.3444268709683922 0.3318756729239436 0 -0.35181735417334559 0.33244608134075959 0 -0.32060623632585228 0.33003716113559362 0 -0.3444268709683922 0.3318756729239436 0 -0.33020202745179977 0.34951907439096491 0 -0.35181735417334559 0.33244608134075959 0 -0.34882848466541311 0.34572779669569431 0 -0.3444268709683922 0.3318756729239436 0 -0.35181735417334559 0.33244608134075959 0 -0.36528823441057068 0.32180602728869567 0 -0.3444268709683922 0.3318756729239436 0 -0.35181735417334559 0.33244608134075959 0 -0.35181735417334559 0.33244608134075959 0 -0.36006708161898859 0.34344549603849311 0 -0.34882848466541311 0.34572779669569431 0 -0.3444268709683922 0.3318756729239436 0 -0.35228611051670222 0.31734254440379922 0 -0.36528823441057068 0.32180602728869567 0 -0.3444268709683922 0.3318756729239436 0 -0.36528823441057068 0.32180602728869567 0 -0.33813031461590309 0.31086307628954662 0 -0.3444268709683922 0.3318756729239436 0 -0.35228611051670222 0.31734254440379922 0 -0.35181735417334559 0.33244608134075959 0 -0.36528823441057068 0.32180602728869567 0 -0.38399633920924459 0.31277574571808647 0 -0.36528823441057068 0.32180602728869567 0 -0.38113662950125132 0.32451627236920882 0 -0.36528823441057068 0.32180602728869567 0 -0.36990695184998529 0.33384226322567229 0 -0.3622730926336486 0.30631128890899062 0 -0.35228611051670222 0.31734254440379922 0 -0.36528823441057068 0.32180602728869567 0 -0.37664807892601448 0.31283338722814757 0 -0.3622730926336486 0.30631128890899062 0 -0.36528823441057068 0.32180602728869567 0 -0.37664807892601448 0.31283338722814757 0 -0.36528823441057068 0.32180602728869567 0 -0.35181735417334559 0.33244608134075959 0 -0.36990695184998529 0.33384226322567229 0 -0.35181735417334559 0.33244608134075959 0 -0.36528823441057068 0.32180602728869567 0 -0.36990695184998529 0.33384226322567229 0 -0.35181735417334559 0.33244608134075959 0 -0.36006708161898859 0.34344549603849311 0 -0.36990695184998529 0.33384226322567229 0 -0.36006708161898859 0.34344549603849311 0 -0.36990695184998529 0.33384226322567229 0 -0.37484601571869303 0.34469356705824539 0 -0.37747726966035172 0.35364443284564578 0 -0.37484601571869303 0.34469356705824539 0 -0.36576762420604497 0.35462105532555288 0 -0.36006708161898859 0.34344549603849311 0 -0.36576762420604497 0.35462105532555288 0 -0.35511701972220189 0.35336402702334491 0 -0.36006708161898859 0.34344549603849311 0 -0.37484601571869303 0.34469356705824539 0 -0.36576762420604497 0.35462105532555288 0 -0.36576762420604497 0.35462105532555288 0 -0.35877890363496912 0.36489330840245621 0 -0.35511701972220189 0.35336402702334491 0 -0.37747726966035172 0.35364443284564578 0 -0.36576762420604497 0.35462105532555288 0 -0.37152002063395262 0.36738923688210778 0 -0.37152002063395262 0.36738923688210778 0 -0.35877890363496912 0.36489330840245621 0 -0.35946759354481661 0.37999947741353313 0 -0.36576762420604497 0.35462105532555288 0 -0.37152002063395262 0.36738923688210778 0 -0.35877890363496912 0.36489330840245621 0 -0.35877890363496912 0.36489330840245621 0 -0.34925927733784051 0.36920378962632627 0 -0.34863075307060259 0.35976581052907403 0 -0.35877890363496912 0.36489330840245621 0 -0.34925927733784051 0.36920378962632627 0 -0.35946759354481661 0.37999947741353313 0 -0.33904843443025312 0.36502979575935401 0 -0.34925927733784051 0.36920378962632627 0 -0.34863075307060259 0.35976581052907403 0 -0.34863075307060259 0.35976581052907403 0 -0.34862927113719328 0.35173069514879951 0 -0.35511701972220189 0.35336402702334491 0 -0.33993185095458373 0.35380491306876399 0 -0.34863075307060259 0.35976581052907403 0 -0.34862927113719328 0.35173069514879951 0 -0.33993185095458373 0.35380491306876399 0 -0.34862927113719328 0.35173069514879951 0 -0.34882848466541311 0.34572779669569431 0 -0.34862927113719328 0.35173069514879951 0 -0.34882848466541311 0.34572779669569431 0 -0.35511701972220189 0.35336402702334491 0 -0.36006708161898859 0.34344549603849311 0 -0.34882848466541311 0.34572779669569431 0 -0.35511701972220189 0.35336402702334491 0 -0.35877890363496912 0.36489330840245621 0 -0.34863075307060259 0.35976581052907403 0 -0.35511701972220189 0.35336402702334491 0 -0.36444456493596261 0.40228776789174941 0 -0.34139441332069997 0.39956058268163358 0 -0.36444456493596261 0.40228776789174941 0 -0.3500347405820361 0.41477388084538941 0 -0.34139441332069997 0.39956058268163358 0 -0.34795687649688861 0.38822751055866972 0 -0.36444456493596261 0.40228776789174941 0 -0.34139441332069997 0.39956058268163358 0 -0.34795687649688861 0.38822751055866972 0 -0.35946759354481661 0.37999947741353313 0 -0.34099014648273829 0.37713836633591391 0 -0.34795687649688861 0.38822751055866972 0 -0.35946759354481661 0.37999947741353313 0 -0.36444456493596261 0.40228776789174941 0 -0.34925927733784051 0.36920378962632627 0 -0.35946759354481661 0.37999947741353313 0 -0.34099014648273829 0.37713836633591391 0 -0.38121752492647332 0.3877539978842538 0 -0.35946759354481661 0.37999947741353313 0 -0.36444456493596261 0.40228776789174941 0 -0.38121752492647332 0.3877539978842538 0 -0.37152002063395262 0.36738923688210778 0 -0.35946759354481661 0.37999947741353313 0 -0.38121752492647332 0.3877539978842538 0 -0.36444456493596261 0.40228776789174941 0 -0.37001666227528401 0.41188716622763172 0 -0.3691173145196136 0.42358498303286118 0 -0.3500347405820361 0.41477388084538941 0 -0.36444456493596261 0.40228776789174941 0 -0.37001666227528401 0.41188716622763172 0 -0.3500347405820361 0.41477388084538941 0 -0.38162993207116641 0.40752762437802342 0 -0.36444456493596261 0.40228776789174941 0 -0.37001666227528401 0.41188716622763172 0 -0.37891176172755592 0.41697357292417009 0 -0.37001666227528401 0.41188716622763172 0 -0.3691173145196136 0.42358498303286118 0 -0.37540822384494321 0.44069128622214743 0 -0.3691173145196136 0.42358498303286118 0 -0.35523311191340301 0.43401431113530697 0 -0.3691173145196136 0.42358498303286118 0 -0.35523311191340301 0.43401431113530697 0 -0.3500347405820361 0.41477388084538941 0 -0.35523311191340301 0.43401431113530697 0 -0.33562491622810992 0.42725999379902979 0 -0.34159049575663158 0.44832939333294991 0 -0.35523311191340301 0.43401431113530697 0 -0.3500347405820361 0.41477388084538941 0 -0.33562491622810992 0.42725999379902979 0 -0.36444456493596261 0.40228776789174941 0 -0.3500347405820361 0.41477388084538941 0 -0.33562491622810992 0.42725999379902979 0 -0.32301886870039193 0.42169434411953949 0 -0.32759310106696993 0.39889300584694548 0 -0.3500347405820361 0.41477388084538941 0 -0.33562491622810992 0.42725999379902979 0 -0.34139441332069997 0.39956058268163358 0 -0.33562491622810992 0.42725999379902979 0 -0.32759310106696993 0.39889300584694548 0 -0.34139441332069997 0.39956058268163358 0 -0.33562491622810992 0.42725999379902979 0 -0.32759310106696993 0.39889300584694548 0 -0.3500347405820361 0.41477388084538941 0 -0.33562491622810992 0.42725999379902979 0 -0.33562491622810992 0.42725999379902979 0 -0.32529510572114301 0.43621077471153352 0 -0.34159049575663158 0.44832939333294991 0 -0.33562491622810992 0.42725999379902979 0 -0.32529510572114301 0.43621077471153352 0 -0.33562491622810992 0.42725999379902979 0 -0.32529510572114301 0.43621077471153352 0 -0.32301886870039193 0.42169434411953949 0 -0.32301886870039193 0.42169434411953949 0 -0.31459322571245579 0.41542946698109467 0 -0.31198799477328137 0.43067847925909492 0 -0.32529510572114301 0.43621077471153352 0 -0.32301886870039193 0.42169434411953949 0 -0.31198799477328137 0.43067847925909492 0 -0.32301886870039193 0.42169434411953949 0 -0.31459322571245579 0.41542946698109467 0 -0.32759310106696993 0.39889300584694548 0 -0.31459322571245579 0.41542946698109467 0 -0.32759310106696993 0.39889300584694548 0 -0.30986941372015558 0.40303133620121101 0 -0.32759310106696993 0.39889300584694548 0 -0.31373120800086363 0.38785015960031621 0 -0.30986941372015558 0.40303133620121101 0 -0.32759310106696993 0.39889300584694548 0 -0.34139441332069997 0.39956058268163358 0 -0.33483736819415888 0.3844198054975656 0 -0.34795687649688861 0.38822751055866972 0 -0.34139441332069997 0.39956058268163358 0 -0.33483736819415888 0.3844198054975656 0 -0.34795687649688861 0.38822751055866972 0 -0.34099014648273829 0.37713836633591391 0 -0.33483736819415888 0.3844198054975656 0 -0.33152838589182931 0.37217334966736931 0 -0.34099014648273829 0.37713836633591391 0 -0.33483736819415888 0.3844198054975656 0 -0.31956128590582761 0.370526017894862 0 -0.33152838589182931 0.37217334966736931 0 -0.33483736819415888 0.3844198054975656 0 -0.31956128590582761 0.370526017894862 0 -0.32759310106696993 0.39889300584694548 0 -0.31956128590582761 0.370526017894862 0 -0.32759310106696993 0.39889300584694548 0 -0.31373120800086363 0.38785015960031621 0 -0.31956128590582761 0.370526017894862 0 -0.32759310106696993 0.39889300584694548 0 -0.33483736819415888 0.3844198054975656 0 -0.31956128590582761 0.370526017894862 0 -0.31373120800086363 0.38785015960031621 0 -0.30620039335150567 0.37697317531517349 0 -0.30620039335150567 0.37697317531517349 0 -0.30543184595985889 0.38982726274338869 0 -0.28929605554961652 0.37644323247135042 0 -0.31373120800086363 0.38785015960031621 0 -0.30620039335150567 0.37697317531517349 0 -0.30543184595985889 0.38982726274338869 0 -0.31373120800086363 0.38785015960031621 0 -0.30543184595985889 0.38982726274338869 0 -0.30986941372015558 0.40303133620121101 0 -0.30543184595985889 0.38982726274338869 0 -0.30986941372015558 0.40303133620121101 0 -0.29681070249528918 0.40275786339330311 0 -0.30543184595985889 0.38982726274338869 0 -0.28758259683695692 0.39108747688376422 0 -0.29681070249528918 0.40275786339330311 0 -0.28758259683695692 0.39108747688376422 0 -0.29681070249528918 0.40275786339330311 0 -0.27303942872829567 0.4043833399763348 0 -0.30543184595985889 0.38982726274338869 0 -0.28758259683695692 0.39108747688376422 0 -0.28929605554961652 0.37644323247135042 0 -0.28758259683695692 0.39108747688376422 0 -0.28929605554961652 0.37644323247135042 0 -0.27333495145172421 0.38202568583444391 0 -0.28758259683695692 0.39108747688376422 0 -0.27333495145172421 0.38202568583444391 0 -0.27303942872829567 0.4043833399763348 0 -0.27333495145172421 0.38202568583444391 0 -0.27303942872829567 0.4043833399763348 0 -0.24931026826535799 0.38957685829555622 0 -0.27303942872829567 0.4043833399763348 0 -0.24831374600229081 0.41630343703640338 0 -0.24931026826535799 0.38957685829555622 0 -0.27303942872829567 0.4043833399763348 0 -0.24931026826535799 0.38957685829555622 0 -0.25813422169331651 0.36974106450526412 0 -0.27333495145172421 0.38202568583444391 0 -0.24931026826535799 0.38957685829555622 0 -0.26679603721513739 0.43546690496235008 0 -0.24714121616327059 0.44756089042196051 0 -0.24831374600229081 0.41630343703640338 0 -0.27303942872829567 0.4043833399763348 0 -0.26679603721513739 0.43546690496235008 0 -0.24831374600229081 0.41630343703640338 0 -0.27303942872829567 0.4043833399763348 0 -0.26679603721513739 0.43546690496235008 0 -0.2833591309930093 0.43014539565738957 0 -0.2833591309930093 0.43014539565738957 0 -0.29676858919123339 0.41918982165711338 0 -0.2976247755646636 0.43996015779412351 0 -0.27303942872829567 0.4043833399763348 0 -0.2833591309930093 0.43014539565738957 0 -0.29676858919123339 0.41918982165711338 0 -0.27303942872829567 0.4043833399763348 0 -0.29676858919123339 0.41918982165711338 0 -0.29681070249528918 0.40275786339330311 0 -0.27303942872829567 0.4043833399763348 0 -0.29676858919123339 0.41918982165711338 0 -0.31459322571245579 0.41542946698109467 0 -0.30986941372015558 0.40303133620121101 0 -0.29676858919123339 0.41918982165711338 0 -0.30986941372015558 0.40303133620121101 0 -0.29681070249528918 0.40275786339330311 0 -0.29676858919123339 0.41918982165711338 0 -0.31459322571245579 0.41542946698109467 0 -0.29676858919123339 0.41918982165711338 0 -0.31198799477328137 0.43067847925909492 0 -0.29676858919123339 0.41918982165711338 0 -0.31198799477328137 0.43067847925909492 0 -0.2976247755646636 0.43996015779412351 0 -0.31198799477328137 0.43067847925909492 0 -0.2976247755646636 0.43996015779412351 0 -0.3127793853734217 0.4480001158914092 0 -0.2976247755646636 0.43996015779412351 0 -0.30145939262527188 0.46152869426428089 0 -0.3127793853734217 0.4480001158914092 0 -0.30145939262527188 0.46152869426428089 0 -0.31435352455014498 0.46900688698580378 0 -0.3127793853734217 0.4480001158914092 0 -0.2976247755646636 0.43996015779412351 0 -0.30145939262527188 0.46152869426428089 0 -0.28559314826490911 0.45997343852941658 0 -0.30145939262527188 0.46152869426428089 0 -0.28559314826490911 0.45997343852941658 0 -0.29703886585751649 0.48159870574114788 0 -0.2976247755646636 0.43996015779412351 0 -0.28559314826490911 0.45997343852941658 0 -0.2833591309930093 0.43014539565738957 0 -0.2976247755646636 0.43996015779412351 0 -0.28559314826490911 0.45997343852941658 0 -0.26679603721513739 0.43546690496235008 0 -0.28559314826490911 0.45997343852941658 0 -0.26213955226542451 0.46150107751228869 0 -0.26679603721513739 0.43546690496235008 0 -0.2833591309930093 0.43014539565738957 0 -0.28559314826490911 0.45997343852941658 0 -0.28559314826490911 0.45997343852941658 0 -0.26213955226542451 0.46150107751228869 0 -0.27356152096515463 0.4799867192647097 0 -0.26213955226542451 0.46150107751228869 0 -0.24456503960329731 0.46881549659886551 0 -0.24714121616327059 0.44756089042196051 0 -0.26679603721513739 0.43546690496235008 0 -0.26213955226542451 0.46150107751228869 0 -0.24714121616327059 0.44756089042196051 0 -0.2528578460704462 0.48496417058977648 0 -0.26152989366539919 0.50000000000000222 0 -0.2441857984754934 0.5 0 -0.2528578460704462 0.48496417058977648 0 -0.26152989366539919 0.50000000000000222 0 -0.27356152096515463 0.4799867192647097 0 -0.26213955226542451 0.46150107751228869 0 -0.2528578460704462 0.48496417058977648 0 -0.24456503960329731 0.46881549659886551 0 -0.26213955226542451 0.46150107751228869 0 -0.2528578460704462 0.48496417058977648 0 -0.27356152096515463 0.4799867192647097 0 -0.28559314826490911 0.45997343852941658 0 -0.27356152096515463 0.4799867192647097 0 -0.26152989366539919 0.50000000000000222 0 -0.27356152096515463 0.4799867192647097 0 -0.28520254179347748 0.5 0 -0.26152989366539919 0.50000000000000222 0 -0.27356152096515463 0.4799867192647097 0 -0.27356152096515463 0.4799867192647097 0 -0.28520254179347748 0.5 0 -0.29703886585751649 0.48159870574114788 0 -0.28559314826490911 0.45997343852941658 0 -0.27356152096515463 0.4799867192647097 0 -0.29703886585751649 0.48159870574114788 0 -0.29703886585751649 0.48159870574114788 0 -0.31069956827544681 0.48459962179195792 0 -0.31435352455014498 0.46900688698580378 0 -0.30145939262527188 0.46152869426428089 0 -0.29703886585751649 0.48159870574114788 0 -0.31435352455014498 0.46900688698580378 0 -0.28520254179347748 0.5 0 -0.29703886585751649 0.48159870574114788 0 -0.3088751899215556 0.5 0 -0.29703886585751649 0.48159870574114788 0 -0.31069956827544681 0.48459962179195792 0 -0.3088751899215556 0.5 0 -0.3088751899215556 0.5 0 -0.32798688286451949 0.49794862377923221 0 -0.33254783804963378 0.5 0 -0.3088751899215556 0.5 0 -0.31830903897969037 0.49179065664437749 0 -0.32798688286451949 0.49794862377923221 0 -0.31069956827544681 0.48459962179195792 0 -0.3088751899215556 0.5 0 -0.31830903897969037 0.49179065664437749 0 -0.31069956827544681 0.48459962179195792 0 -0.31830903897969037 0.49179065664437749 0 -0.32108782619813392 0.48223398213182089 0 -0.31830903897969037 0.49179065664437749 0 -0.32589081577028689 0.48992424705444559 0 -0.32108782619813392 0.48223398213182089 0 -0.32589081577028689 0.48992424705444559 0 -0.33038164667094583 0.48252618059539931 0 -0.32108782619813392 0.48223398213182089 0 -0.31830903897969037 0.49179065664437749 0 -0.32589081577028689 0.48992424705444559 0 -0.32798688286451949 0.49794862377923221 0 -0.33525374362498689 0.4888777398969249 0 -0.33893516860736311 0.4814021432862301 0 -0.35352165481367059 0.49046819240079131 0 -0.32798688286451949 0.49794862377923221 0 -0.35352165481367059 0.49046819240079131 0 -0.32589081577028689 0.48992424705444559 0 -0.32798688286451949 0.49794862377923221 0 -0.33525374362498689 0.4888777398969249 0 -0.32798688286451949 0.49794862377923221 0 -0.33254783804963378 0.5 0 -0.35352165481367059 0.49046819240079131 0 -0.32798688286451949 0.49794862377923221 0 -0.33525374362498689 0.4888777398969249 0 -0.35352165481367059 0.49046819240079131 0 -0.32589081577028689 0.48992424705444559 0 -0.33525374362498689 0.4888777398969249 0 -0.33038164667094583 0.48252618059539931 0 -0.33893516860736311 0.4814021432862301 0 -0.33074067915395811 0.47019279060757491 0 -0.34755607528515109 0.46939879286687058 0 -0.33893516860736311 0.4814021432862301 0 -0.33038164667094583 0.48252618059539931 0 -0.33074067915395811 0.47019279060757491 0 -0.33525374362498689 0.4888777398969249 0 -0.33893516860736311 0.4814021432862301 0 -0.33038164667094583 0.48252618059539931 0 -0.33074067915395811 0.47019279060757491 0 -0.32108782619813392 0.48223398213182089 0 -0.31435352455014498 0.46900688698580378 0 -0.33038164667094583 0.48252618059539931 0 -0.33074067915395811 0.47019279060757491 0 -0.32108782619813392 0.48223398213182089 0 -0.31069956827544681 0.48459962179195792 0 -0.32108782619813392 0.48223398213182089 0 -0.31435352455014498 0.46900688698580378 0 -0.33074067915395811 0.47019279060757491 0 -0.31435352455014498 0.46900688698580378 0 -0.32495183811105988 0.45434799230585421 0 -0.31435352455014498 0.46900688698580378 0 -0.32495183811105988 0.45434799230585421 0 -0.3127793853734217 0.4480001158914092 0 -0.32529510572114301 0.43621077471153352 0 -0.31198799477328137 0.43067847925909492 0 -0.3127793853734217 0.4480001158914092 0 -0.32529510572114301 0.43621077471153352 0 -0.32495183811105988 0.45434799230585421 0 -0.3127793853734217 0.4480001158914092 0 -0.32529510572114301 0.43621077471153352 0 -0.32495183811105988 0.45434799230585421 0 -0.34159049575663158 0.44832939333294991 0 -0.33562491622810992 0.42725999379902979 0 -0.34159049575663158 0.44832939333294991 0 -0.33074067915395811 0.47019279060757491 0 -0.32495183811105988 0.45434799230585421 0 -0.34159049575663158 0.44832939333294991 0 -0.33074067915395811 0.47019279060757491 0 -0.34159049575663158 0.44832939333294991 0 -0.34755607528515109 0.46939879286687058 0 -0.35820358070247388 0.45109220127213778 0 -0.37122999671224072 0.46302722280341402 0 -0.34755607528515109 0.46939879286687058 0 -0.34159049575663158 0.44832939333294991 0 -0.34755607528515109 0.46939879286687058 0 -0.34159049575663158 0.44832939333294991 0 -0.35820358070247388 0.45109220127213778 0 -0.34755607528515109 0.46939879286687058 0 -0.35523311191340301 0.43401431113530697 0 -0.34159049575663158 0.44832939333294991 0 -0.35820358070247388 0.45109220127213778 0 -0.37540822384494321 0.44069128622214743 0 -0.35523311191340301 0.43401431113530697 0 -0.35820358070247388 0.45109220127213778 0 -0.37540822384494321 0.44069128622214743 0 -0.35820358070247388 0.45109220127213778 0 -0.37122999671224072 0.46302722280341402 0 -0.37122999671224072 0.46302722280341402 0 -0.36221714042755337 0.47664538671775403 0 -0.34755607528515109 0.46939879286687058 0 -0.37675931517958722 0.4836607016541048 0 -0.37122999671224072 0.46302722280341402 0 -0.36221714042755337 0.47664538671775403 0 -0.37675931517958722 0.4836607016541048 0 -0.36221714042755337 0.47664538671775403 0 -0.35352165481367059 0.49046819240079131 0 -0.37931808501998387 0.5 0 -0.37675931517958722 0.4836607016541048 0 -0.36729027674275722 0.49347269621394352 0 -0.37675931517958722 0.4836607016541048 0 -0.36729027674275722 0.49347269621394352 0 -0.35352165481367059 0.49046819240079131 0 -0.37675931517958722 0.4836607016541048 0 -0.35352165481367059 0.49046819240079131 0 -0.37931808501998387 0.5 0 -0.36729027674275722 0.49347269621394352 0 -0.35622048617771213 0.50000000000000333 0 -0.33254783804963378 0.5 0 -0.35352165481367059 0.49046819240079131 0 -0.35622048617771213 0.50000000000000333 0 -0.35352165481367059 0.49046819240079131 0 -0.35622048617771213 0.50000000000000333 0 -0.36729027674275722 0.49347269621394352 0 -0.35352165481367059 0.49046819240079131 0 -0.35622048617771213 0.50000000000000333 0 -0.35352165481367059 0.49046819240079131 0 -0.34755607528515109 0.46939879286687058 0 -0.33893516860736311 0.4814021432862301 0 -0.35352165481367059 0.49046819240079131 0 -0.34755607528515109 0.46939879286687058 0 -0.36221714042755337 0.47664538671775403 0 -0.35352165481367059 0.49046819240079131 0 -0.34755607528515109 0.46939879286687058 0 -0.15491225581548379 0.48193817945415368 0 -0.13761562375468361 0.47935159652930909 0 -0.1489239236336497 0.46387635890830792 0 -0.15491225581548379 0.48193817945415368 0 -0.1489239236336497 0.46387635890830792 0 -0.15491225581548379 0.48193817945415368 0 -0.13140634013213731 0.5 0 -0.13761562375468361 0.47935159652930909 0 -0.15491225581548379 0.48193817945415368 0 -0.13140634013213731 0.5 0 -0.16090058799731941 0.49999999999999922 0 -0.13140634013213731 0.5 0 -0.13761562375468361 0.47935159652930909 0 -0.1229361870542558 0.48388316375613249 0 -0.13761562375468361 0.47935159652930909 0 -0.12989941213789141 0.46706028052795168 0 -0.1229361870542558 0.48388316375613249 0 -0.13761562375468361 0.47935159652930909 0 -0.12989941213789141 0.46706028052795168 0 -0.1489239236336497 0.46387635890830792 0 -0.12989941213789141 0.46706028052795168 0 -0.1489239236336497 0.46387635890830792 0 -0.12989941213789141 0.46706028052795168 0 -0.12747559360914409 0.44888736527933948 0 -0.1459315942879808 0.45485098856906042 0 -0.12747559360914409 0.44888736527933948 0 -0.14504970932237241 0.4433212652195897 0 -0.1459315942879808 0.45485098856906042 0 -0.12747559360914409 0.44888736527933948 0 -0.14504970932237241 0.4433212652195897 0 -0.14040457642331541 0.43104711843710608 0 -0.14504970932237241 0.4433212652195897 0 -0.15584184971867271 0.43916892283553338 0 -0.14040457642331541 0.43104711843710608 0 -0.14504970932237241 0.4433212652195897 0 -0.15558764584037321 0.45119457431348498 0 -0.1459315942879808 0.45485098856906042 0 -0.14504970932237241 0.4433212652195897 0 -0.15558764584037321 0.45119457431348498 0 -0.15584184971867271 0.43916892283553338 0 -0.12989941213789141 0.46706028052795168 0 -0.1459315942879808 0.45485098856906042 0 -0.1489239236336497 0.46387635890830792 0 -0.1459315942879808 0.45485098856906042 0 -0.1489239236336497 0.46387635890830792 0 -0.15558764584037321 0.45119457431348498 0 -0.1459315942879808 0.45485098856906042 0 -0.1489239236336497 0.46387635890830792 0 -0.15558764584037321 0.45119457431348498 0 -0.1489239236336497 0.46387635890830792 0 -0.1705594998223636 0.46025545233227999 0 -0.1489239236336497 0.46387635890830792 0 -0.1705594998223636 0.46025545233227999 0 -0.15491225581548379 0.48193817945415368 0 -0.1489239236336497 0.46387635890830792 0 -0.1705594998223636 0.46025545233227999 0 -0.15558764584037321 0.45119457431348498 0 -0.15584184971867271 0.43916892283553338 0 -0.16676819039987931 0.44500032349213742 0 -0.15558764584037321 0.45119457431348498 0 -0.1705594998223636 0.46025545233227999 0 -0.16676819039987931 0.44500032349213742 0 -0.1792125640640842 0.44038498347287519 0 -0.19219507601107769 0.45663454575625301 0 -0.1908113195008545 0.44653755969868358 0 -0.1705594998223636 0.46025545233227999 0 -0.1792125640640842 0.44038498347287519 0 -0.19219507601107769 0.45663454575625301 0 -0.1705594998223636 0.46025545233227999 0 -0.16676819039987931 0.44500032349213742 0 -0.1792125640640842 0.44038498347287519 0 -0.1792125640640842 0.44038498347287519 0 -0.19219507601107769 0.45663454575625301 0 -0.1792125640640842 0.44038498347287519 0 -0.1908113195008545 0.44653755969868358 0 -0.1900094668747063 0.43637778893885371 0 -0.1705594998223636 0.46025545233227999 0 -0.18845978083780049 0.48032004950359453 0 -0.19219507601107769 0.45663454575625301 0 -0.1705594998223636 0.46025545233227999 0 -0.19219507601107769 0.45663454575625301 0 -0.1705594998223636 0.46025545233227999 0 -0.1715426168466086 0.4845027362580055 0 -0.18845978083780049 0.48032004950359453 0 -0.15491225581548379 0.48193817945415368 0 -0.1705594998223636 0.46025545233227999 0 -0.1715426168466086 0.4845027362580055 0 -0.15491225581548379 0.48193817945415368 0 -0.1715426168466086 0.4845027362580055 0 -0.16090058799731941 0.49999999999999922 0 -0.15491225581548379 0.48193817945415368 0 -0.16090058799731941 0.49999999999999922 0 -0.1715426168466086 0.4845027362580055 0 -0.16090058799731941 0.49999999999999922 0 -0.1828809597600756 0.5 0 -0.1715426168466086 0.4845027362580055 0 -0.1828809597600756 0.5 0 -0.18845978083780049 0.48032004950359453 0 -0.18845978083780049 0.48032004950359453 0 -0.20951838964833239 0.47831727287812609 0 -0.20486133152283159 0.5 0 -0.1828809597600756 0.5 0 -0.18845978083780049 0.48032004950359453 0 -0.20486133152283159 0.5 0 -0.18845978083780049 0.48032004950359453 0 -0.20951838964833239 0.47831727287812609 0 -0.19219507601107769 0.45663454575625301 0 -0.20951838964833239 0.47831727287812609 0 -0.20486133152283159 0.5 0 -0.22684170328558759 0.49999999999999889 0 -0.20951838964833239 0.47831727287812609 0 -0.22684170328558759 0.49999999999999889 0 -0.20951838964833239 0.47831727287812609 0 -0.22684170328558759 0.49999999999999889 0 -0.23551375088054219 0.48428377542076961 0 -0.20951838964833239 0.47831727287812609 0 -0.23551375088054219 0.48428377542076961 0 -0.22999388822988329 0.46317747209507693 0 -0.2528578460704462 0.48496417058977648 0 -0.23551375088054219 0.48428377542076961 0 -0.24456503960329731 0.46881549659886551 0 -0.23551375088054219 0.48428377542076961 0 -0.24456503960329731 0.46881549659886551 0 -0.22999388822988329 0.46317747209507693 0 -0.22684170328558759 0.49999999999999889 0 -0.23551375088054219 0.48428377542076961 0 -0.2441857984754934 0.5 0 -0.2528578460704462 0.48496417058977648 0 -0.23551375088054219 0.48428377542076961 0 -0.2441857984754934 0.5 0 -0.24714121616327059 0.44756089042196051 0 -0.22999388822988329 0.46317747209507693 0 -0.23103903366359041 0.44010095432677881 0 -0.24456503960329731 0.46881549659886551 0 -0.24714121616327059 0.44756089042196051 0 -0.22999388822988329 0.46317747209507693 0 -0.22999388822988329 0.46317747209507693 0 -0.23103903366359041 0.44010095432677881 0 -0.2130018931162348 0.45719517610839477 0 -0.23103903366359041 0.44010095432677881 0 -0.21168048483946519 0.44376366997851668 0 -0.2130018931162348 0.45719517610839477 0 -0.23103903366359041 0.44010095432677881 0 -0.21168048483946519 0.44376366997851668 0 -0.21239711190930419 0.43090878827088408 0 -0.21168048483946519 0.44376366997851668 0 -0.2130018931162348 0.45719517610839477 0 -0.19955833648725901 0.45176762694164457 0 -0.21168048483946519 0.44376366997851668 0 -0.20240604902093801 0.43884580424488112 0 -0.19955833648725901 0.45176762694164457 0 -0.21168048483946519 0.44376366997851668 0 -0.20240604902093801 0.43884580424488112 0 -0.21239711190930419 0.43090878827088408 0 -0.20951838964833239 0.47831727287812609 0 -0.2130018931162348 0.45719517610839477 0 -0.1975208198221125 0.45574323504562408 0 -0.20951838964833239 0.47831727287812609 0 -0.22999388822988329 0.46317747209507693 0 -0.2130018931162348 0.45719517610839477 0 -0.2130018931162348 0.45719517610839477 0 -0.1975208198221125 0.45574323504562408 0 -0.19955833648725901 0.45176762694164457 0 -0.20951838964833239 0.47831727287812609 0 -0.1975208198221125 0.45574323504562408 0 -0.19219507601107769 0.45663454575625301 0 -0.20951838964833239 0.47831727287812609 0 -0.19219507601107769 0.45663454575625301 0 -0.1975208198221125 0.45574323504562408 0 -0.19219507601107769 0.45663454575625301 0 -0.19955833648725901 0.45176762694164457 0 -0.1975208198221125 0.45574323504562408 0 -0.19219507601107769 0.45663454575625301 0 -0.20240604902093801 0.43884580424488112 0 -0.19955833648725901 0.45176762694164457 0 -0.1900094668747063 0.43637778893885371 0 -0.19219507601107769 0.45663454575625301 0 -0.19955833648725901 0.45176762694164457 0 -0.1908113195008545 0.44653755969868358 0 -0.19955833648725901 0.45176762694164457 0 -0.1900094668747063 0.43637778893885371 0 -0.19955833648725901 0.45176762694164457 0 -0.1908113195008545 0.44653755969868358 0 -0.1900094668747063 0.43637778893885371 0 -0.1900094668747063 0.43637778893885371 0 -0.1976800249370079 0.42766843791186959 0 -0.18683042567933841 0.42598225539144502 0 -0.1976800249370079 0.42766843791186959 0 -0.19010134173526619 0.41834884166842712 0 -0.18683042567933841 0.42598225539144502 0 -0.20240604902093801 0.43884580424488112 0 -0.1900094668747063 0.43637778893885371 0 -0.1976800249370079 0.42766843791186959 0 -0.1976800249370079 0.42766843791186959 0 -0.19010134173526619 0.41834884166842712 0 -0.20425326146149639 0.41689118642884521 0 -0.19421970323706439 0.40755984987473898 0 -0.19010134173526619 0.41834884166842712 0 -0.20425326146149639 0.41689118642884521 0 -0.19421970323706439 0.40755984987473898 0 -0.20425326146149639 0.41689118642884521 0 -0.20746086692550211 0.40307828501388709 0 -0.20425326146149639 0.41689118642884521 0 -0.22366052002483361 0.41378291583326482 0 -0.20746086692550211 0.40307828501388709 0 -0.20425326146149639 0.41689118642884521 0 -0.21239711190930419 0.43090878827088408 0 -0.22366052002483361 0.41378291583326482 0 -0.20240604902093801 0.43884580424488112 0 -0.1976800249370079 0.42766843791186959 0 -0.21239711190930419 0.43090878827088408 0 -0.1976800249370079 0.42766843791186959 0 -0.20425326146149639 0.41689118642884521 0 -0.21239711190930419 0.43090878827088408 0 -0.23103903366359041 0.44010095432677881 0 -0.21239711190930419 0.43090878827088408 0 -0.22366052002483361 0.41378291583326482 0 -0.23103903366359041 0.44010095432677881 0 -0.22366052002483361 0.41378291583326482 0 -0.24831374600229081 0.41630343703640338 0 -0.24714121616327059 0.44756089042196051 0 -0.23103903366359041 0.44010095432677881 0 -0.24831374600229081 0.41630343703640338 0 -0.23103903366359041 0.44010095432677881 0 -0.22366052002483361 0.41378291583326482 0 -0.22366052002483361 0.41378291583326482 0 -0.24831374600229081 0.41630343703640338 0 -0.23262952969619599 0.3963796930239506 0 -0.25813422169331651 0.36974106450526412 0 -0.24931026826535799 0.38957685829555622 0 -0.2408686093908321 0.37033117574588781 0 -0.24931026826535799 0.38957685829555622 0 -0.22558110780242041 0.37477037661477769 0 -0.24931026826535799 0.38957685829555622 0 -0.22558110780242041 0.37477037661477769 0 -0.2408686093908321 0.37033117574588781 0 -0.24931026826535799 0.38957685829555622 0 -0.23262952969619599 0.3963796930239506 0 -0.22558110780242041 0.37477037661477769 0 -0.24831374600229081 0.41630343703640338 0 -0.24931026826535799 0.38957685829555622 0 -0.23262952969619599 0.3963796930239506 0 -0.22366052002483361 0.41378291583326482 0 -0.23262952969619599 0.3963796930239506 0 -0.21628200638607689 0.38746487733975082 0 -0.22366052002483361 0.41378291583326482 0 -0.21628200638607689 0.38746487733975082 0 -0.21628200638607689 0.38746487733975082 0 -0.21904958367905819 0.37085874961802762 0 -0.22558110780242041 0.37477037661477769 0 -0.23262952969619599 0.3963796930239506 0 -0.21628200638607689 0.38746487733975082 0 -0.22558110780242041 0.37477037661477769 0 -0.21628200638607689 0.38746487733975082 0 -0.1896060573305316 0.39030635246560019 0 -0.20445512631951351 0.36881721560378072 0 -0.21628200638607689 0.38746487733975082 0 -0.20746086692550211 0.40307828501388709 0 -0.1896060573305316 0.39030635246560019 0 -0.22366052002483361 0.41378291583326482 0 -0.21628200638607689 0.38746487733975082 0 -0.20746086692550211 0.40307828501388709 0 -0.19421970323706439 0.40755984987473898 0 -0.20746086692550211 0.40307828501388709 0 -0.1896060573305316 0.39030635246560019 0 -0.1896060573305316 0.39030635246560019 0 -0.20445512631951351 0.36881721560378072 0 -0.1896060573305316 0.39030635246560019 0 -0.188371579815448 0.37357837634673241 0 -0.20445512631951351 0.36881721560378072 0 -0.1896060573305316 0.39030635246560019 0 -0.1753554203671342 0.38337835790722052 0 -0.188371579815448 0.37357837634673241 0 -0.1753554203671342 0.38337835790722052 0 -0.1603229614140079 0.388532281727347 0 -0.16696365906671501 0.39928114460234221 0 -0.1603229614140079 0.388532281727347 0 -0.1714921903254169 0.36520644942442698 0 -0.1753554203671342 0.38337835790722052 0 -0.1603229614140079 0.388532281727347 0 -0.1714921903254169 0.36520644942442698 0 -0.15699228210333119 0.40258746927757039 0 -0.16696365906671501 0.39928114460234221 0 -0.17264133145595581 0.4148572058835871 0 -0.15699228210333119 0.40258746927757039 0 -0.16696365906671501 0.39928114460234221 0 -0.15699228210333119 0.40258746927757039 0 -0.15723838443338989 0.39836907544825312 0 -0.16696365906671501 0.39928114460234221 0 -0.15723838443338989 0.39836907544825312 0 -0.15762751091724209 0.39416146407888508 0 -0.16696365906671501 0.39928114460234221 0 -0.1603229614140079 0.388532281727347 0 -0.15762751091724209 0.39416146407888508 0 -0.16696365906671501 0.39928114460234221 0 -0.1603229614140079 0.388532281727347 0 -0.16696365906671501 0.39928114460234221 0 -0.1603229614140079 0.388532281727347 0 -0.15762751091724209 0.39416146407888508 0 -0.15215954302866061 0.38986806377370481 0 -0.1603229614140079 0.388532281727347 0 -0.15762751091724209 0.39416146407888508 0 -0.16696365906671501 0.39928114460234221 0 -0.17475698834155201 0.41179548932742149 0 -0.1896060573305316 0.39030635246560019 0 -0.16696365906671501 0.39928114460234221 0 -0.17475698834155201 0.41179548932742149 0 -0.1896060573305316 0.39030635246560019 0 -0.1753554203671342 0.38337835790722052 0 -0.16696365906671501 0.39928114460234221 0 -0.19421970323706439 0.40755984987473898 0 -0.1896060573305316 0.39030635246560019 0 -0.17475698834155201 0.41179548932742149 0 -0.1896060573305316 0.39030635246560019 0 -0.17475698834155201 0.41179548932742149 0 -0.19421970323706439 0.40755984987473898 0 -0.19010134173526619 0.41834884166842712 0 -0.17475698834155201 0.41179548932742149 0 -0.19010134173526619 0.41834884166842712 0 -0.1804605972621551 0.42098795093606178 0 -0.18683042567933841 0.42598225539144502 0 -0.19010134173526619 0.41834884166842712 0 -0.1804605972621551 0.42098795093606178 0 -0.17475698834155201 0.41179548932742149 0 -0.1804605972621551 0.42098795093606178 0 -0.17264133145595581 0.4148572058835871 0 -0.1804605972621551 0.42098795093606178 0 -0.17475698834155201 0.41179548932742149 0 -0.1804605972621551 0.42098795093606178 0 -0.17264133145595581 0.4148572058835871 0 -0.17475698834155201 0.41179548932742149 0 -0.1804605972621551 0.42098795093606178 0 -0.17264133145595581 0.4148572058835871 0 -0.1759075585830463 0.42630237136452792 0 -0.17264133145595581 0.4148572058835871 0 -0.17475698834155201 0.41179548932742149 0 -0.1792125640640842 0.44038498347287519 0 -0.16623005211709219 0.42413542118949638 0 -0.1792125640640842 0.44038498347287519 0 -0.1759075585830463 0.42630237136452792 0 -0.16623005211709219 0.42413542118949638 0 -0.1792125640640842 0.44038498347287519 0 -0.1900094668747063 0.43637778893885371 0 -0.18099324801594591 0.43114629534061771 0 -0.1900094668747063 0.43637778893885371 0 -0.1804605972621551 0.42098795093606178 0 -0.18683042567933841 0.42598225539144502 0 -0.1900094668747063 0.43637778893885371 0 -0.1804605972621551 0.42098795093606178 0 -0.18099324801594591 0.43114629534061771 0 -0.1900094668747063 0.43637778893885371 0 -0.1804605972621551 0.42098795093606178 0 -0.1804605972621551 0.42098795093606178 0 -0.18683042567933841 0.42598225539144502 0 -0.1804605972621551 0.42098795093606178 0 -0.18099324801594591 0.43114629534061771 0 -0.1759075585830463 0.42630237136452792 0 -0.1792125640640842 0.44038498347287519 0 -0.18099324801594591 0.43114629534061771 0 -0.1759075585830463 0.42630237136452792 0 -0.16676819039987931 0.44500032349213742 0 -0.1792125640640842 0.44038498347287519 0 -0.16623005211709219 0.42413542118949638 0 -0.15584184971867271 0.43916892283553338 0 -0.16623005211709219 0.42413542118949638 0 -0.1510055222617506 0.42036093601010799 0 -0.15584184971867271 0.43916892283553338 0 -0.16676819039987931 0.44500032349213742 0 -0.16623005211709219 0.42413542118949638 0 -0.15584184971867271 0.43916892283553338 0 -0.16623005211709219 0.42413542118949638 0 -0.16623005211709219 0.42413542118949638 0 -0.1506852478591435 0.40467876549730408 0 -0.15699228210333119 0.40258746927757039 0 -0.16623005211709219 0.42413542118949638 0 -0.1506852478591435 0.40467876549730408 0 -0.15699228210333119 0.40258746927757039 0 -0.17264133145595581 0.4148572058835871 0 -0.15699228210333119 0.40258746927757039 0 -0.17264133145595581 0.4148572058835871 0 -0.16623005211709219 0.42413542118949638 0 -0.16696365906671501 0.39928114460234221 0 -0.17264133145595581 0.4148572058835871 0 -0.17475698834155201 0.41179548932742149 0 -0.17264133145595581 0.4148572058835871 0 -0.16623005211709219 0.42413542118949638 0 -0.17264133145595581 0.4148572058835871 0 -0.1759075585830463 0.42630237136452792 0 -0.16623005211709219 0.42413542118949638 0 -0.1510055222617506 0.42036093601010799 0 -0.14189267121727969 0.40759422172933762 0 -0.14040457642331541 0.43104711843710608 0 -0.16623005211709219 0.42413542118949638 0 -0.1510055222617506 0.42036093601010799 0 -0.1506852478591435 0.40467876549730408 0 -0.1510055222617506 0.42036093601010799 0 -0.14189267121727969 0.40759422172933762 0 -0.1506852478591435 0.40467876549730408 0 -0.15584184971867271 0.43916892283553338 0 -0.1510055222617506 0.42036093601010799 0 -0.14040457642331541 0.43104711843710608 0 -0.12747559360914409 0.44888736527933948 0 -0.14040457642331541 0.43104711843710608 0 -0.12116211241067321 0.42694999954873031 0 -0.14189267121727969 0.40759422172933762 0 -0.12761258966157971 0.40489462466678222 0 -0.1172037481399819 0.41578061322521931 0 -0.14189267121727969 0.40759422172933762 0 -0.12116211241067321 0.42694999954873031 0 -0.14189267121727969 0.40759422172933762 0 -0.1172037481399819 0.41578061322521931 0 -0.14189267121727969 0.40759422172933762 0 -0.14040457642331541 0.43104711843710608 0 -0.12116211241067321 0.42694999954873031 0 -0.14189267121727969 0.40759422172933762 0 -0.1172037481399819 0.41578061322521931 0 -0.12116211241067321 0.42694999954873031 0 -0.12761258966157971 0.40489462466678222 0 -0.12985170513361649 0.39912666318680418 0 -0.1356398696418758 0.40134804196484059 0 -0.12761258966157971 0.40489462466678222 0 -0.12985170513361649 0.39912666318680418 0 -0.1214527679362529 0.39858533832456861 0 -0.14189267121727969 0.40759422172933762 0 -0.12761258966157971 0.40489462466678222 0 -0.1356398696418758 0.40134804196484059 0 -0.12985170513361649 0.39912666318680418 0 -0.1356398696418758 0.40134804196484059 0 -0.13392726716418249 0.39681997364725491 0 -0.1356398696418758 0.40134804196484059 0 -0.1391344995045295 0.39812738750512672 0 -0.13392726716418249 0.39681997364725491 0 -0.1356398696418758 0.40134804196484059 0 -0.1391344995045295 0.39812738750512672 0 -0.14139695851022741 0.4024312980837127 0 -0.14189267121727969 0.40759422172933762 0 -0.1356398696418758 0.40134804196484059 0 -0.14139695851022741 0.4024312980837127 0 -0.13623470220051229 0.39281529696084311 0 -0.13602937467669091 0.38615136847518738 0 -0.14826272224010539 0.40164661108139538 0 -0.1391344995045295 0.39812738750512672 0 -0.13392726716418249 0.39681997364725491 0 -0.13623470220051229 0.39281529696084311 0 -0.13392726716418249 0.39681997364725491 0 -0.13623470220051229 0.39281529696084311 0 -0.12877555934037871 0.39268247861865951 0 -0.12985170513361649 0.39912666318680418 0 -0.12877555934037871 0.39268247861865951 0 -0.1214527679362529 0.39858533832456861 0 -0.13623470220051229 0.39281529696084311 0 -0.12877555934037871 0.39268247861865951 0 -0.13187857293199851 0.38816229786335288 0 -0.12985170513361649 0.39912666318680418 0 -0.13392726716418249 0.39681997364725491 0 -0.12877555934037871 0.39268247861865951 0 -0.13187857293199851 0.38816229786335288 0 -0.13311774989947939 0.38386849056312122 0 -0.1240609952911563 0.38466335496570819 0 -0.12877555934037871 0.39268247861865951 0 -0.13187857293199851 0.38816229786335288 0 -0.1240609952911563 0.38466335496570819 0 -0.12702382644332569 0.37909051114600772 0 -0.1346793501128162 0.37581591978074791 0 -0.13311774989947939 0.38386849056312122 0 -0.12702382644332569 0.37909051114600772 0 -0.13311774989947939 0.38386849056312122 0 -0.1240609952911563 0.38466335496570819 0 -0.12702382644332569 0.37909051114600772 0 -0.13311774989947939 0.38386849056312122 0 -0.1346793501128162 0.37581591978074791 0 -0.13311774989947939 0.38386849056312122 0 -0.14068621464753689 0.38116736900183718 0 -0.1346793501128162 0.37581591978074791 0 -0.14245341152628899 0.37700704569669169 0 -0.14068621464753689 0.38116736900183718 0 -0.13311774989947939 0.38386849056312122 0 -0.13602937467669091 0.38615136847518738 0 -0.14828039505772331 0.39269656106804918 0 -0.13311774989947939 0.38386849056312122 0 -0.14449199418568071 0.38672123236852107 0 -0.14068621464753689 0.38116736900183718 0 -0.13623470220051229 0.39281529696084311 0 -0.13187857293199851 0.38816229786335288 0 -0.13602937467669091 0.38615136847518738 0 -0.13311774989947939 0.38386849056312122 0 -0.13602937467669091 0.38615136847518738 0 -0.13187857293199851 0.38816229786335288 0 -0.13311774989947939 0.38386849056312122 0 -0.13602937467669091 0.38615136847518738 0 -0.13311774989947939 0.38386849056312122 0 -0.14449199418568071 0.38672123236852107 0 -0.14828039505772331 0.39269656106804918 0 -0.14449199418568071 0.38672123236852107 0 -0.14803236681221141 0.38183050759156478 0 -0.15215954302866061 0.38986806377370481 0 -0.1603229614140079 0.388532281727347 0 -0.14803236681221141 0.38183050759156478 0 -0.14650519438819479 0.36626229536079202 0 -0.1603229614140079 0.388532281727347 0 -0.14650519438819479 0.36626229536079202 0 -0.14449199418568071 0.38672123236852107 0 -0.14068621464753689 0.38116736900183718 0 -0.14803236681221141 0.38183050759156478 0 -0.14449199418568071 0.38672123236852107 0 -0.15215954302866061 0.38986806377370481 0 -0.14828039505772331 0.39269656106804918 0 -0.14245341152628899 0.37700704569669169 0 -0.14803236681221141 0.38183050759156478 0 -0.14650519438819479 0.36626229536079202 0 -0.14245341152628899 0.37700704569669169 0 -0.14068621464753689 0.38116736900183718 0 -0.14803236681221141 0.38183050759156478 0 -0.1603229614140079 0.388532281727347 0 -0.14803236681221141 0.38183050759156478 0 -0.15215954302866061 0.38986806377370481 0 -0.13602937467669091 0.38615136847518738 0 -0.15169956930152359 0.39843768416627329 0 -0.14826272224010539 0.40164661108139538 0 -0.13602937467669091 0.38615136847518738 0 -0.15169956930152359 0.39843768416627329 0 -0.15762751091724209 0.39416146407888508 0 -0.15215954302866061 0.38986806377370481 0 -0.15243229730324179 0.39394186112247848 0 -0.13602937467669091 0.38615136847518738 0 -0.15169956930152359 0.39843768416627329 0 -0.14828039505772331 0.39269656106804918 0 -0.15215954302866061 0.38986806377370481 0 -0.15243229730324179 0.39394186112247848 0 -0.14828039505772331 0.39269656106804918 0 -0.15243229730324179 0.39394186112247848 0 -0.15141341718856119 0.39551855055829099 0 -0.14828039505772331 0.39269656106804918 0 -0.15141341718856119 0.39551855055829099 0 -0.15169956930152359 0.39843768416627329 0 -0.14828039505772331 0.39269656106804918 0 -0.15141341718856119 0.39551855055829099 0 -0.15324140709175621 0.39699809587636331 0 -0.15169956930152359 0.39843768416627329 0 -0.15762751091724209 0.39416146407888508 0 -0.15243229730324179 0.39394186112247848 0 -0.15324140709175621 0.39699809587636331 0 -0.15324140709175621 0.39699809587636331 0 -0.15169956930152359 0.39843768416627329 0 -0.15723838443338989 0.39836907544825312 0 -0.15762751091724209 0.39416146407888508 0 -0.15324140709175621 0.39699809587636331 0 -0.15723838443338989 0.39836907544825312 0 -0.15324140709175621 0.39699809587636331 0 -0.15169956930152359 0.39843768416627329 0 -0.15243229730324179 0.39394186112247848 0 -0.15141341718856119 0.39551855055829099 0 -0.15324140709175621 0.39699809587636331 0 -0.15699228210333119 0.40258746927757039 0 -0.15723838443338989 0.39836907544825312 0 -0.15169956930152359 0.39843768416627329 0 -0.15699228210333119 0.40258746927757039 0 -0.15169956930152359 0.39843768416627329 0 -0.15155732148387041 0.4016599071586387 0 -0.15699228210333119 0.40258746927757039 0 -0.15169956930152359 0.39843768416627329 0 -0.15699228210333119 0.40258746927757039 0 -0.1506852478591435 0.40467876549730408 0 -0.15155732148387041 0.4016599071586387 0 -0.15699228210333119 0.40258746927757039 0 -0.1506852478591435 0.40467876549730408 0 -0.1506852478591435 0.40467876549730408 0 -0.14826272224010539 0.40164661108139538 0 -0.1506852478591435 0.40467876549730408 0 -0.15155732148387041 0.4016599071586387 0 -0.14826272224010539 0.40164661108139538 0 -0.15169956930152359 0.39843768416627329 0 -0.15155732148387041 0.4016599071586387 0 -0.14826272224010539 0.40164661108139538 0 -0.15169956930152359 0.39843768416627329 0 -0.14826272224010539 0.40164661108139538 0 -0.14189267121727969 0.40759422172933762 0 -0.1506852478591435 0.40467876549730408 0 -0.14826272224010539 0.40164661108139538 0 -0.14189267121727969 0.40759422172933762 0 -0.1506852478591435 0.40467876549730408 0 -0.1391344995045295 0.39812738750512672 0 -0.14826272224010539 0.40164661108139538 0 -0.14139695851022741 0.4024312980837127 0 -0.14189267121727969 0.40759422172933762 0 -0.14826272224010539 0.40164661108139538 0 -0.14189267121727969 0.40759422172933762 0 -0.14826272224010539 0.40164661108139538 0 -0.14139695851022741 0.4024312980837127 0 -0.13602937467669091 0.38615136847518738 0 -0.14826272224010539 0.40164661108139538 0 -0.1391344995045295 0.39812738750512672 0 -0.13623470220051229 0.39281529696084311 0 -0.14826272224010539 0.40164661108139538 0 -0.14650519438819479 0.36626229536079202 0 -0.13268742736238209 0.34399230899423672 0 -0.1445754076443119 0.33798892316378748 0 -0.14650519438819479 0.36626229536079202 0 -0.1445754076443119 0.33798892316378748 0 -0.1617558446689798 0.34243425521360138 0 -0.1346793501128162 0.37581591978074791 0 -0.14245341152628899 0.37700704569669169 0 -0.14650519438819479 0.36626229536079202 0 -0.12702382644332569 0.37909051114600772 0 -0.1346793501128162 0.37581591978074791 0 -0.13156439878461751 0.36344481374619281 0 -0.12702382644332569 0.37909051114600772 0 -0.13156439878461751 0.36344481374619281 0 -0.11683882443665 0.35217446827026139 0 -0.1346793501128162 0.37581591978074791 0 -0.14650519438819479 0.36626229536079202 0 -0.13156439878461751 0.36344481374619281 0 -0.14650519438819479 0.36626229536079202 0 -0.13156439878461751 0.36344481374619281 0 -0.13268742736238209 0.34399230899423672 0 -0.14650519438819479 0.36626229536079202 0 -0.13268742736238209 0.34399230899423672 0 -0.13156439878461751 0.36344481374619281 0 -0.13268742736238209 0.34399230899423672 0 -0.11683882443665 0.35217446827026139 0 -0.13268742736238209 0.34399230899423672 0 -0.13120664270144941 0.32824522234790859 0 -0.1203056521179815 0.32244533505273071 0 -0.13268742736238209 0.34399230899423672 0 -0.13120664270144941 0.32824522234790859 0 -0.1445754076443119 0.33798892316378748 0 -0.13268742736238209 0.34399230899423672 0 -0.1188696603365713 0.32172232262768019 0 -0.13120664270144941 0.32824522234790859 0 -0.1403346950909343 0.32484058888549849 0 -0.1445754076443119 0.33798892316378748 0 -0.13277592790491721 0.3181536782393099 0 -0.12710701658386739 0.32150240061104129 0 -0.1241398436111214 0.31716536680421598 0 -0.13277592790491721 0.3181536782393099 0 -0.13295253633619991 0.30581545730715359 0 -0.1241398436111214 0.31716536680421598 0 -0.13120664270144941 0.32824522234790859 0 -0.13277592790491721 0.3181536782393099 0 -0.12710701658386739 0.32150240061104129 0 -0.13120664270144941 0.32824522234790859 0 -0.12710701658386739 0.32150240061104129 0 -0.1203056521179815 0.32244533505273071 0 -0.13120664270144941 0.32824522234790859 0 -0.13277592790491721 0.3181536782393099 0 -0.1403346950909343 0.32484058888549849 0 -0.13277592790491721 0.3181536782393099 0 -0.1403346950909343 0.32484058888549849 0 -0.14445376569293991 0.31576879184118939 0 -0.13277592790491721 0.3181536782393099 0 -0.14445376569293991 0.31576879184118939 0 -0.13295253633619991 0.30581545730715359 0 -0.1403346950909343 0.32484058888549849 0 -0.14445376569293991 0.31576879184118939 0 -0.15185552377363809 0.32616466368477981 0 -0.14445376569293991 0.31576879184118939 0 -0.15185552377363809 0.32616466368477981 0 -0.15703039605946431 0.31443555683800078 0 -0.15185552377363809 0.32616466368477981 0 -0.1445754076443119 0.33798892316378748 0 -0.1617558446689798 0.34243425521360138 0 -0.1403346950909343 0.32484058888549849 0 -0.15185552377363809 0.32616466368477981 0 -0.1445754076443119 0.33798892316378748 0 -0.1617558446689798 0.34243425521360138 0 -0.17109439186515371 0.3336882876392 0 -0.18266141923682561 0.34188061712150702 0 -0.15185552377363809 0.32616466368477981 0 -0.1617558446689798 0.34243425521360138 0 -0.16410364628811039 0.32496666431553961 0 -0.1617558446689798 0.34243425521360138 0 -0.17109439186515371 0.3336882876392 0 -0.16410364628811039 0.32496666431553961 0 -0.15703039605946431 0.31443555683800078 0 -0.16410364628811039 0.32496666431553961 0 -0.16923728750897621 0.31277737485627077 0 -0.15185552377363809 0.32616466368477981 0 -0.15703039605946431 0.31443555683800078 0 -0.16410364628811039 0.32496666431553961 0 -0.17109439186515371 0.3336882876392 0 -0.16410364628811039 0.32496666431553961 0 -0.17700487575700971 0.32414224009001008 0 -0.16410364628811039 0.32496666431553961 0 -0.16923728750897621 0.31277737485627077 0 -0.17700487575700971 0.32414224009001008 0 -0.17700487575700971 0.32414224009001008 0 -0.19383064814823431 0.3185547848185869 0 -0.1813010189365323 0.31172357823186891 0 -0.16923728750897621 0.31277737485627077 0 -0.17700487575700971 0.32414224009001008 0 -0.1813010189365323 0.31172357823186891 0 -0.17700487575700971 0.32414224009001008 0 -0.18266141923682561 0.34188061712150702 0 -0.19383064814823431 0.3185547848185869 0 -0.17109439186515371 0.3336882876392 0 -0.17700487575700971 0.32414224009001008 0 -0.18266141923682561 0.34188061712150702 0 -0.18266141923682561 0.34188061712150702 0 -0.1714921903254169 0.36520644942442698 0 -0.19636850033244141 0.35883394071787461 0 -0.1617558446689798 0.34243425521360138 0 -0.18266141923682561 0.34188061712150702 0 -0.1714921903254169 0.36520644942442698 0 -0.18266141923682561 0.34188061712150702 0 -0.1714921903254169 0.36520644942442698 0 -0.14650519438819479 0.36626229536079202 0 -0.1617558446689798 0.34243425521360138 0 -0.1714921903254169 0.36520644942442698 0 -0.1603229614140079 0.388532281727347 0 -0.14650519438819479 0.36626229536079202 0 -0.1714921903254169 0.36520644942442698 0 -0.1714921903254169 0.36520644942442698 0 -0.188371579815448 0.37357837634673241 0 -0.19636850033244141 0.35883394071787461 0 -0.1753554203671342 0.38337835790722052 0 -0.1714921903254169 0.36520644942442698 0 -0.188371579815448 0.37357837634673241 0 -0.188371579815448 0.37357837634673241 0 -0.19636850033244141 0.35883394071787461 0 -0.20445512631951351 0.36881721560378072 0 -0.18266141923682561 0.34188061712150702 0 -0.19636850033244141 0.35883394071787461 0 -0.20104815538446569 0.33689738456464058 0 -0.19636850033244141 0.35883394071787461 0 -0.21396044435437181 0.34739650240209441 0 -0.20104815538446569 0.33689738456464058 0 -0.21396044435437181 0.34739650240209441 0 -0.20890349274732009 0.36114683884623677 0 -0.2254317277804154 0.36005290567134501 0 -0.19636850033244141 0.35883394071787461 0 -0.21396044435437181 0.34739650240209441 0 -0.20890349274732009 0.36114683884623677 0 -0.19636850033244141 0.35883394071787461 0 -0.21396044435437181 0.34739650240209441 0 -0.21628200638607689 0.38746487733975082 0 -0.20890349274732009 0.36114683884623677 0 -0.21904958367905819 0.37085874961802762 0 -0.21628200638607689 0.38746487733975082 0 -0.20890349274732009 0.36114683884623677 0 -0.21628200638607689 0.38746487733975082 0 -0.20445512631951351 0.36881721560378072 0 -0.20890349274732009 0.36114683884623677 0 -0.20890349274732009 0.36114683884623677 0 -0.21904958367905819 0.37085874961802762 0 -0.2254317277804154 0.36005290567134501 0 -0.19636850033244141 0.35883394071787461 0 -0.20445512631951351 0.36881721560378072 0 -0.20890349274732009 0.36114683884623677 0 -0.21904958367905819 0.37085874961802762 0 -0.22558110780242041 0.37477037661477769 0 -0.2254317277804154 0.36005290567134501 0 -0.22558110780242041 0.37477037661477769 0 -0.2254317277804154 0.36005290567134501 0 -0.2408686093908321 0.37033117574588781 0 -0.21396044435437181 0.34739650240209441 0 -0.2254317277804154 0.36005290567134501 0 -0.23509533331270999 0.34967556927436122 0 -0.21396044435437181 0.34739650240209441 0 -0.23509533331270999 0.34967556927436122 0 -0.23155238837630229 0.33595906408631421 0 -0.24588572141265019 0.35751467364249551 0 -0.23509533331270999 0.34967556927436122 0 -0.2452349654202535 0.3403825380020008 0 -0.2254317277804154 0.36005290567134501 0 -0.24588572141265019 0.35751467364249551 0 -0.23509533331270999 0.34967556927436122 0 -0.2254317277804154 0.36005290567134501 0 -0.24588572141265019 0.35751467364249551 0 -0.2408686093908321 0.37033117574588781 0 -0.25813422169331651 0.36974106450526412 0 -0.24588572141265019 0.35751467364249551 0 -0.2408686093908321 0.37033117574588781 0 -0.2491443323982333 0.32452162577053489 0 -0.23155238837630229 0.33595906408631421 0 -0.22787935912161639 0.32288036370364559 0 -0.2491443323982333 0.32452162577053489 0 -0.22787935912161639 0.32288036370364559 0 -0.25285694186177771 0.30306157520117899 0 -0.2491443323982333 0.32452162577053489 0 -0.23909060735699619 0.31088571866457387 0 -0.2491443323982333 0.32452162577053489 0 -0.22787935912161639 0.32288036370364559 0 -0.23909060735699619 0.31088571866457387 0 -0.2491443323982333 0.32452162577053489 0 -0.23155238837630229 0.33595906408631421 0 -0.2491443323982333 0.32452162577053489 0 -0.2452349654202535 0.3403825380020008 0 -0.23155238837630229 0.33595906408631421 0 -0.23509533331270999 0.34967556927436122 0 -0.2452349654202535 0.3403825380020008 0 -0.23155238837630229 0.33595906408631421 0 -0.21396044435437181 0.34739650240209441 0 -0.23155238837630229 0.33595906408631421 0 -0.2164340082069855 0.33259158950295198 0 -0.21396044435437181 0.34739650240209441 0 -0.23155238837630229 0.33595906408631421 0 -0.23155238837630229 0.33595906408631421 0 -0.22787935912161639 0.32288036370364559 0 -0.2164340082069855 0.33259158950295198 0 -0.22787935912161639 0.32288036370364559 0 -0.21662452450714201 0.31215653403978327 0 -0.2251482534093715 0.30458120574903602 0 -0.22787935912161639 0.32288036370364559 0 -0.2251482534093715 0.30458120574903602 0 -0.23909060735699619 0.31088571866457387 0 -0.22787935912161639 0.32288036370364559 0 -0.20661438584499961 0.32123910163675501 0 -0.22787935912161639 0.32288036370364559 0 -0.20661438584499961 0.32123910163675501 0 -0.21662452450714201 0.31215653403978327 0 -0.22787935912161639 0.32288036370364559 0 -0.20661438584499961 0.32123910163675501 0 -0.2164340082069855 0.33259158950295198 0 -0.20661438584499961 0.32123910163675501 0 -0.2164340082069855 0.33259158950295198 0 -0.20104815538446569 0.33689738456464058 0 -0.21396044435437181 0.34739650240209441 0 -0.2164340082069855 0.33259158950295198 0 -0.20104815538446569 0.33689738456464058 0 -0.18266141923682561 0.34188061712150702 0 -0.19383064814823431 0.3185547848185869 0 -0.18266141923682561 0.34188061712150702 0 -0.20104815538446569 0.33689738456464058 0 -0.19383064814823431 0.3185547848185869 0 -0.20661438584499961 0.32123910163675501 0 -0.20104815538446569 0.33689738456464058 0 -0.19383064814823431 0.3185547848185869 0 -0.19383064814823431 0.3185547848185869 0 -0.20499987705964301 0.29522895251566678 0 -0.19383064814823431 0.3185547848185869 0 -0.1904943322068017 0.30263584753036948 0 -0.20499987705964301 0.29522895251566678 0 -0.19383064814823431 0.3185547848185869 0 -0.1904943322068017 0.30263584753036948 0 -0.1813010189365323 0.31172357823186891 0 -0.20661438584499961 0.32123910163675501 0 -0.19383064814823431 0.3185547848185869 0 -0.20499987705964301 0.29522895251566678 0 -0.19109124795916571 0.28389627039827359 0 -0.20499987705964301 0.29522895251566678 0 -0.21279963803529331 0.27412223910997358 0 -0.1904943322068017 0.30263584753036948 0 -0.19109124795916571 0.28389627039827359 0 -0.20499987705964301 0.29522895251566678 0 -0.20499987705964301 0.29522895251566678 0 -0.2251482534093715 0.30458120574903602 0 -0.22280256617849231 0.28660402599452312 0 -0.20499987705964301 0.29522895251566678 0 -0.22280256617849231 0.28660402599452312 0 -0.21279963803529331 0.27412223910997358 0 -0.20661438584499961 0.32123910163675501 0 -0.20499987705964301 0.29522895251566678 0 -0.21662452450714201 0.31215653403978327 0 -0.20499987705964301 0.29522895251566678 0 -0.21662452450714201 0.31215653403978327 0 -0.2251482534093715 0.30458120574903602 0 -0.2251482534093715 0.30458120574903602 0 -0.23800441873502151 0.29572984607510172 0 -0.23909060735699619 0.31088571866457387 0 -0.22280256617849231 0.28660402599452312 0 -0.23800441873502151 0.29572984607510172 0 -0.23688789413369471 0.27959438355308419 0 -0.2251482534093715 0.30458120574903602 0 -0.22280256617849231 0.28660402599452312 0 -0.23800441873502151 0.29572984607510172 0 -0.23800441873502151 0.29572984607510172 0 -0.24851661436511269 0.28729547001918732 0 -0.23688789413369471 0.27959438355308419 0 -0.25285694186177771 0.30306157520117899 0 -0.23800441873502151 0.29572984607510172 0 -0.24851661436511269 0.28729547001918732 0 -0.25285694186177771 0.30306157520117899 0 -0.23800441873502151 0.29572984607510172 0 -0.23909060735699619 0.31088571866457387 0 -0.25174121177602782 0.2498917316032101 0 -0.23790562174692839 0.26643831730606798 0 -0.22326236342202119 0.25735637199373929 0 -0.25174121177602782 0.2498917316032101 0 -0.22326236342202119 0.25735637199373929 0 -0.25174121177602782 0.2498917316032101 0 -0.22326236342202119 0.25735637199373929 0 -0.23481477815490251 0.24337266251761661 0 -0.25174121177602782 0.2498917316032101 0 -0.25054407516362542 0.2726922845681235 0 -0.23790562174692839 0.26643831730606798 0 -0.25054407516362542 0.2726922845681235 0 -0.24851661436511269 0.28729547001918732 0 -0.23688789413369471 0.27959438355308419 0 -0.25054407516362542 0.2726922845681235 0 -0.23688789413369471 0.27959438355308419 0 -0.23790562174692839 0.26643831730606798 0 -0.22280256617849231 0.28660402599452312 0 -0.23688789413369471 0.27959438355308419 0 -0.22728435128482929 0.26733647037326852 0 -0.23688789413369471 0.27959438355308419 0 -0.23790562174692839 0.26643831730606798 0 -0.22728435128482929 0.26733647037326852 0 -0.22280256617849231 0.28660402599452312 0 -0.22728435128482929 0.26733647037326852 0 -0.21279963803529331 0.27412223910997358 0 -0.22728435128482929 0.26733647037326852 0 -0.22326236342202119 0.25735637199373929 0 -0.21279963803529331 0.27412223910997358 0 -0.22728435128482929 0.26733647037326852 0 -0.22326236342202119 0.25735637199373929 0 -0.23790562174692839 0.26643831730606798 0 -0.22728435128482929 0.26733647037326852 0 -0.22326236342202119 0.25735637199373929 0 -0.22326236342202119 0.25735637199373929 0 -0.2011614305910375 0.2631492858724086 0 -0.20641207343396001 0.24978112053115251 0 -0.22326236342202119 0.25735637199373929 0 -0.21279963803529331 0.27412223910997358 0 -0.2011614305910375 0.2631492858724086 0 -0.22326236342202119 0.25735637199373929 0 -0.2011614305910375 0.2631492858724086 0 -0.19109124795916571 0.28389627039827359 0 -0.2011614305910375 0.2631492858724086 0 -0.18186973577830931 0.26802493286933632 0 -0.19109124795916571 0.28389627039827359 0 -0.21279963803529331 0.27412223910997358 0 -0.2011614305910375 0.2631492858724086 0 -0.2011614305910375 0.2631492858724086 0 -0.20641207343396001 0.24978112053115251 0 -0.18712984602200741 0.2463238735196033 0 -0.2011614305910375 0.2631492858724086 0 -0.18186973577830931 0.26802493286933632 0 -0.18712984602200741 0.2463238735196033 0 -0.16293891616313869 0.26233422470847761 0 -0.18186973577830931 0.26802493286933632 0 -0.18712984602200741 0.2463238735196033 0 -0.16293891616313869 0.26233422470847761 0 -0.16159497141770501 0.24185108205389069 0 -0.18712984602200741 0.2463238735196033 0 -0.16293891616313869 0.26233422470847761 0 -0.18186973577830931 0.26802493286933632 0 -0.16788677417465661 0.28456109792525641 0 -0.16293891616313869 0.26233422470847761 0 -0.16788677417465661 0.28456109792525641 0 -0.14955093742279349 0.27698895644913729 0 -0.19109124795916571 0.28389627039827359 0 -0.18186973577830931 0.26802493286933632 0 -0.16788677417465661 0.28456109792525641 0 -0.1904943322068017 0.30263584753036948 0 -0.19109124795916571 0.28389627039827359 0 -0.1768426729021336 0.30064839517124131 0 -0.19109124795916571 0.28389627039827359 0 -0.1768426729021336 0.30064839517124131 0 -0.16788677417465661 0.28456109792525641 0 -0.1904943322068017 0.30263584753036948 0 -0.1813010189365323 0.31172357823186891 0 -0.1768426729021336 0.30064839517124131 0 -0.16923728750897621 0.31277737485627077 0 -0.1813010189365323 0.31172357823186891 0 -0.1768426729021336 0.30064839517124131 0 -0.16923728750897621 0.31277737485627077 0 -0.1768426729021336 0.30064839517124131 0 -0.16184325076958209 0.30181280226811819 0 -0.15703039605946431 0.31443555683800078 0 -0.16923728750897621 0.31277737485627077 0 -0.16184325076958209 0.30181280226811819 0 -0.16184325076958209 0.30181280226811819 0 -0.16788677417465661 0.28456109792525641 0 -0.1491935808202699 0.29339233403268122 0 -0.1768426729021336 0.30064839517124131 0 -0.16184325076958209 0.30181280226811819 0 -0.16788677417465661 0.28456109792525641 0 -0.16788677417465661 0.28456109792525641 0 -0.1491935808202699 0.29339233403268122 0 -0.14955093742279349 0.27698895644913729 0 -0.1491935808202699 0.29339233403268122 0 -0.12696886211886321 0.28573174560856418 0 -0.14955093742279349 0.27698895644913729 0 -0.1491935808202699 0.29339233403268122 0 -0.14909470593569121 0.30624498845742859 0 -0.13295253633619991 0.30581545730715359 0 -0.14445376569293991 0.31576879184118939 0 -0.14909470593569121 0.30624498845742859 0 -0.13295253633619991 0.30581545730715359 0 -0.14445376569293991 0.31576879184118939 0 -0.15703039605946431 0.31443555683800078 0 -0.14909470593569121 0.30624498845742859 0 -0.15703039605946431 0.31443555683800078 0 -0.16184325076958209 0.30181280226811819 0 -0.14909470593569121 0.30624498845742859 0 -0.16184325076958209 0.30181280226811819 0 -0.1491935808202699 0.29339233403268122 0 -0.14909470593569121 0.30624498845742859 0 -0.1491935808202699 0.29339233403268122 0 -0.13295253633619991 0.30581545730715359 0 -0.12696886211886321 0.28573174560856418 0 -0.12696886211886321 0.28573174560856418 0 -0.1407665538370397 0.25892537997070791 0 -0.12696886211886321 0.28573174560856418 0 -0.1407665538370397 0.25892537997070791 0 -0.1221090405403145 0.27422005798364202 0 -0.1407665538370397 0.25892537997070791 0 -0.1221090405403145 0.27422005798364202 0 -0.12696886211886321 0.28573174560856418 0 -0.1407665538370397 0.25892537997070791 0 -0.14955093742279349 0.27698895644913729 0 -0.1407665538370397 0.25892537997070791 0 -0.1244632804639286 0.25002572834587927 0 -0.1216495403749083 0.26109728814910171 0 -0.1407665538370397 0.25892537997070791 0 -0.1216495403749083 0.26109728814910171 0 -0.1221090405403145 0.27422005798364202 0 -0.16293891616313869 0.26233422470847761 0 -0.1407665538370397 0.25892537997070791 0 -0.16159497141770501 0.24185108205389069 0 -0.1407665538370397 0.25892537997070791 0 -0.16159497141770501 0.24185108205389069 0 -0.16293891616313869 0.26233422470847761 0 -0.1407665538370397 0.25892537997070791 0 -0.14955093742279349 0.27698895644913729 0 -0.096888951041182503 0.27230625009205689 0 -0.11129177293266759 0.26773887815388853 0 -0.093844956570145188 0.29217454375050472 0 -0.11129177293266759 0.26773887815388853 0 -0.093844956570145188 0.29217454375050472 0 -0.096888951041182503 0.27230625009205689 0 -0.099589176557763406 0.26175454890912442 0 -0.11129177293266759 0.26773887815388853 0 -0.099589176557763406 0.26175454890912442 0 -0.11094461912570321 0.25403907144483029 0 -0.0958811938507039 0.24696951446888271 0 -0.099589176557763406 0.26175454890912442 0 -0.11094461912570321 0.25403907144483029 0 -0.11129177293266759 0.26773887815388853 0 -0.11094461912570321 0.25403907144483029 0 -0.1216495403749083 0.26109728814910171 0 -0.11129177293266759 0.26773887815388853 0 -0.11094461912570321 0.25403907144483029 0 -0.1244632804639286 0.25002572834587927 0 -0.1216495403749083 0.26109728814910171 0 -0.11129177293266759 0.26773887815388853 0 -0.1147797013673406 0.2818459390907278 0 -0.1070529792807621 0.2864401619431321 0 -0.1216495403749083 0.26109728814910171 0 -0.11129177293266759 0.26773887815388853 0 -0.1221090405403145 0.27422005798364202 0 -0.11129177293266759 0.26773887815388853 0 -0.1221090405403145 0.27422005798364202 0 -0.1147797013673406 0.2818459390907278 0 -0.12696886211886321 0.28573174560856418 0 -0.1221090405403145 0.27422005798364202 0 -0.1147797013673406 0.2818459390907278 0 -0.12696886211886321 0.28573174560856418 0 -0.11217647391061999 0.2925918151292547 0 -0.1147797013673406 0.2818459390907278 0 -0.11217647391061999 0.2925918151292547 0 -0.1147797013673406 0.2818459390907278 0 -0.1070529792807621 0.2864401619431321 0 -0.13295253633619991 0.30581545730715359 0 -0.12696886211886321 0.28573174560856418 0 -0.1131711704006856 0.31253811124641989 0 -0.12696886211886321 0.28573174560856418 0 -0.1131711704006856 0.31253811124641989 0 -0.12696886211886321 0.28573174560856418 0 -0.11217647391061999 0.2925918151292547 0 -0.1131711704006856 0.31253811124641989 0 -0.13295253633619991 0.30581545730715359 0 -0.1131711704006856 0.31253811124641989 0 -0.1241398436111214 0.31716536680421598 0 -0.11217647391061999 0.2925918151292547 0 -0.10429365879082279 0.29823029565282527 0 -0.1131711704006856 0.31253811124641989 0 -0.093844956570145188 0.29217454375050472 0 -0.101892844931111 0.31317460763732041 0 -0.10429365879082279 0.29823029565282527 0 -0.093844956570145188 0.29217454375050472 0 -0.101892844931111 0.31317460763732041 0 -0.10429365879082279 0.29823029565282527 0 -0.1131711704006856 0.31253811124641989 0 -0.10429365879082279 0.29823029565282527 0 -0.101892844931111 0.31317460763732041 0 -0.1131711704006856 0.31253811124641989 0 -0.11129177293266759 0.26773887815388853 0 -0.1070529792807621 0.2864401619431321 0 -0.093844956570145188 0.29217454375050472 0 -0.10429365879082279 0.29823029565282527 0 -0.1070529792807621 0.2864401619431321 0 -0.093844956570145188 0.29217454375050472 0 -0.11217647391061999 0.2925918151292547 0 -0.10429365879082279 0.29823029565282527 0 -0.1070529792807621 0.2864401619431321 0 -0.093844956570145188 0.29217454375050472 0 -0.078824955954994877 0.28988768490876782 0 -0.084944037661520214 0.30464099455931742 0 -0.078824955954994877 0.28988768490876782 0 -0.084944037661520214 0.30464099455931742 0 -0.071740274413793645 0.29202560420132062 0 -0.093844956570145188 0.29217454375050472 0 -0.078824955954994877 0.28988768490876782 0 -0.078370884190656048 0.27998712221539729 0 -0.084944037661520214 0.30464099455931742 0 -0.101892844931111 0.31317460763732041 0 -0.093844956570145188 0.29217454375050472 0 -0.084944037661520214 0.30464099455931742 0 -0.101892844931111 0.31317460763732041 0 -0.093844956570145188 0.29217454375050472 0 -0.084944037661520214 0.30464099455931742 0 -0.084944037661520214 0.30464099455931742 0 -0.063240678986031917 0.3028203012424347 0 -0.066427709146053671 0.31030108620235058 0 -0.084944037661520214 0.30464099455931742 0 -0.063240678986031917 0.3028203012424347 0 -0.063316063383384469 0.29524679985427221 0 -0.084944037661520214 0.30464099455931742 0 -0.060785412900551283 0.29247728575505699 0 -0.084944037661520214 0.30464099455931742 0 -0.063316063383384469 0.29524679985427221 0 -0.060785412900551283 0.29247728575505699 0 -0.084944037661520214 0.30464099455931742 0 -0.071740274413793645 0.29202560420132062 0 -0.060785412900551283 0.29247728575505699 0 -0.078824955954994877 0.28988768490876782 0 -0.071740274413793645 0.29202560420132062 0 -0.069528556480935255 0.28410635636677239 0 -0.078824955954994877 0.28988768490876782 0 -0.069528556480935255 0.28410635636677239 0 -0.078370884190656048 0.27998712221539729 0 -0.071740274413793645 0.29202560420132062 0 -0.066162952882078241 0.28812545930409611 0 -0.060785412900551283 0.29247728575505699 0 -0.066162952882078241 0.28812545930409611 0 -0.069528556480935255 0.28410635636677239 0 -0.062597567733032752 0.28389259089323471 0 -0.071740274413793645 0.29202560420132062 0 -0.066162952882078241 0.28812545930409611 0 -0.069528556480935255 0.28410635636677239 0 -0.066162952882078241 0.28812545930409611 0 -0.062597567733032752 0.28389259089323471 0 -0.060785412900551283 0.29247728575505699 0 -0.065188897378049809 0.27103717989152842 0 -0.078370884190656048 0.27998712221539729 0 -0.08426691086367287 0.26718170553940368 0 -0.069528556480935255 0.28410635636677239 0 -0.062597567733032752 0.28389259089323471 0 -0.065188897378049809 0.27103717989152842 0 -0.069528556480935255 0.28410635636677239 0 -0.065188897378049809 0.27103717989152842 0 -0.078370884190656048 0.27998712221539729 0 -0.093844956570145188 0.29217454375050472 0 -0.08426691086367287 0.26718170553940368 0 -0.096888951041182503 0.27230625009205689 0 -0.093844956570145188 0.29217454375050472 0 -0.08426691086367287 0.26718170553940368 0 -0.093844956570145188 0.29217454375050472 0 -0.078370884190656048 0.27998712221539729 0 -0.08426691086367287 0.26718170553940368 0 -0.096888951041182503 0.27230625009205689 0 -0.099589176557763406 0.26175454890912442 0 -0.08426691086367287 0.26718170553940368 0 -0.099589176557763406 0.26175454890912442 0 -0.08426691086367287 0.26718170553940368 0 -0.0958811938507039 0.24696951446888271 0 -0.08426691086367287 0.26718170553940368 0 -0.074688865157201911 0.2421888673283023 0 -0.08426691086367287 0.26718170553940368 0 -0.0958811938507039 0.24696951446888271 0 -0.074688865157201911 0.2421888673283023 0 -0.065188897378049809 0.27103717989152842 0 -0.08426691086367287 0.26718170553940368 0 -0.074688865157201911 0.2421888673283023 0 -0.065188897378049809 0.27103717989152842 0 -0.052274387013596317 0.25132234308298201 0 -0.074688865157201911 0.2421888673283023 0 -0.065188897378049809 0.27103717989152842 0 -0.052274387013596317 0.25132234308298201 0 -0.05255945574620853 0.26758137132638993 0 -0.052274387013596317 0.25132234308298201 0 -0.05255945574620853 0.26758137132638993 0 -0.044910246323626599 0.26176617221068349 0 -0.062597567733032752 0.28389259089323471 0 -0.065188897378049809 0.27103717989152842 0 -0.056147602553746158 0.27986550906555219 0 -0.065188897378049809 0.27103717989152842 0 -0.056147602553746158 0.27986550906555219 0 -0.05255945574620853 0.26758137132638993 0 -0.05255945574620853 0.26758137132638993 0 -0.043945762137155009 0.27404817018518052 0 -0.044910246323626599 0.26176617221068349 0 -0.056147602553746158 0.27986550906555219 0 -0.05255945574620853 0.26758137132638993 0 -0.043945762137155009 0.27404817018518052 0 -0.043945762137155009 0.27404817018518052 0 -0.032125639109106437 0.27804727799408951 0 -0.023826080601362279 0.26881243960906981 0 -0.043945762137155009 0.27404817018518052 0 -0.027106111373758499 0.25561905461530432 0 -0.023826080601362279 0.26881243960906981 0 -0.043945762137155009 0.27404817018518052 0 -0.032125639109106437 0.27804727799408951 0 -0.046455526004828808 0.28526228187457342 0 -0.052274387013596317 0.25132234308298201 0 -0.044910246323626599 0.26176617221068349 0 -0.027106111373758499 0.25561905461530432 0 -0.043945762137155009 0.27404817018518052 0 -0.044910246323626599 0.26176617221068349 0 -0.027106111373758499 0.25561905461530432 0 -0.043945762137155009 0.27404817018518052 0 -0.027106111373758499 0.25561905461530432 0 -0.027106111373758499 0.25561905461530432 0 -0.023826080601362279 0.26881243960906981 0 -0.0062925107982489464 0.25777225113449648 0 -0.023826080601362279 0.26881243960906981 0 -0.020455589145643039 0.28038801725128287 0 -0.0054341861972371976 0.27585211339001769 0 -0.032125639109106437 0.27804727799408951 0 -0.023826080601362279 0.26881243960906981 0 -0.020455589145643039 0.28038801725128287 0 -0.023826080601362279 0.26881243960906981 0 -0.0054341861972371976 0.27585211339001769 0 -0.0062925107982489464 0.25777225113449648 0 -0.027106111373758499 0.25561905461530432 0 -0.0062925107982489464 0.25777225113449648 0 -0.010266460610361971 0.23718993904542809 0 -0.0050053426515477024 0.30421368897024309 0 -0.0129239886894199 0.29039819187035648 0 -0.017130372708049079 0.30133817412552732 0 -0.0050053426515477024 0.30421368897024309 0 -0.017130372708049079 0.30133817412552732 0 -0.01194344365753823 0.31495148552421148 0 -0.0054341861972371976 0.27585211339001769 0 -0.00026070856359705023 0.29209679303363628 0 -0.0129239886894199 0.29039819187035648 0 -0.0050053426515477024 0.30421368897024309 0 -0.00026070856359705023 0.29209679303363628 0 -0.0129239886894199 0.29039819187035648 0 -0.020455589145643039 0.28038801725128287 0 -0.0054341861972371976 0.27585211339001769 0 -0.0129239886894199 0.29039819187035648 0 -0.0129239886894199 0.29039819187035648 0 -0.025845117855334179 0.29046896448288678 0 -0.017130372708049079 0.30133817412552732 0 -0.020455589145643039 0.28038801725128287 0 -0.0129239886894199 0.29039819187035648 0 -0.025845117855334179 0.29046896448288678 0 -0.032125639109106437 0.27804727799408951 0 -0.020455589145643039 0.28038801725128287 0 -0.025845117855334179 0.29046896448288678 0 -0.025845117855334179 0.29046896448288678 0 -0.028103883571396551 0.30167899291972139 0 -0.037187462429321277 0.29769751371889869 0 -0.025845117855334179 0.29046896448288678 0 -0.028103883571396551 0.30167899291972139 0 -0.017130372708049079 0.30133817412552732 0 -0.028103883571396551 0.30167899291972139 0 -0.017130372708049079 0.30133817412552732 0 -0.024975685264553311 0.31216309571236228 0 -0.017130372708049079 0.30133817412552732 0 -0.024975685264553311 0.31216309571236228 0 -0.01194344365753823 0.31495148552421148 0 -0.028103883571396551 0.30167899291972139 0 -0.024975685264553311 0.31216309571236228 0 -0.0351108318525548 0.30810233717132007 0 -0.028103883571396551 0.30167899291972139 0 -0.0351108318525548 0.30810233717132007 0 -0.037187462429321277 0.29769751371889869 0 -0.0351108318525548 0.30810233717132007 0 -0.037187462429321277 0.29769751371889869 0 -0.043834804217362133 0.30412580660292399 0 -0.037187462429321277 0.29769751371889869 0 -0.043834804217362133 0.30412580660292399 0 -0.047534804102799359 0.29488537375429141 0 -0.0351108318525548 0.30810233717132007 0 -0.043834804217362133 0.30412580660292399 0 -0.04348359715273642 0.3140316268289034 0 -0.043834804217362133 0.30412580660292399 0 -0.04950979824228894 0.30885553273132521 0 -0.04348359715273642 0.3140316268289034 0 -0.032125639109106437 0.27804727799408951 0 -0.036359684941801002 0.28747590380675048 0 -0.046455526004828808 0.28526228187457342 0 -0.032125639109106437 0.27804727799408951 0 -0.025845117855334179 0.29046896448288678 0 -0.036359684941801002 0.28747590380675048 0 -0.025845117855334179 0.29046896448288678 0 -0.037187462429321277 0.29769751371889869 0 -0.036359684941801002 0.28747590380675048 0 -0.036359684941801002 0.28747590380675048 0 -0.046455526004828808 0.28526228187457342 0 -0.047534804102799359 0.29488537375429141 0 -0.037187462429321277 0.29769751371889869 0 -0.036359684941801002 0.28747590380675048 0 -0.047534804102799359 0.29488537375429141 0 -0.032125639109106437 0.27804727799408951 0 -0.046455526004828808 0.28526228187457342 0 -0.056147602553746158 0.27986550906555219 0 -0.043945762137155009 0.27404817018518052 0 -0.060785412900551283 0.29247728575505699 0 -0.043945762137155009 0.27404817018518052 0 -0.046455526004828808 0.28526228187457342 0 -0.060785412900551283 0.29247728575505699 0 -0.043945762137155009 0.27404817018518052 0 -0.060785412900551283 0.29247728575505699 0 -0.046455526004828808 0.28526228187457342 0 -0.060785412900551283 0.29247728575505699 0 -0.046455526004828808 0.28526228187457342 0 -0.047534804102799359 0.29488537375429141 0 -0.05407631117892614 0.29344771942809661 0 -0.046455526004828808 0.28526228187457342 0 -0.05407631117892614 0.29344771942809661 0 -0.060785412900551283 0.29247728575505699 0 -0.047534804102799359 0.29488537375429141 0 -0.05407631117892614 0.29344771942809661 0 -0.055835591722596063 0.29866778481995038 0 -0.05407631117892614 0.29344771942809661 0 -0.059542071499885753 0.29636451899614757 0 -0.060785412900551283 0.29247728575505699 0 -0.05407631117892614 0.29344771942809661 0 -0.059542071499885753 0.29636451899614757 0 -0.055835591722596063 0.29866778481995038 0 -0.063316063383384469 0.29524679985427221 0 -0.059542071499885753 0.29636451899614757 0 -0.060785412900551283 0.29247728575505699 0 -0.063316063383384469 0.29524679985427221 0 -0.060785412900551283 0.29247728575505699 0 -0.062597567733032752 0.28389259089323471 0 -0.056147602553746158 0.27986550906555219 0 -0.060785412900551283 0.29247728575505699 0 -0.04950979824228894 0.30885553273132521 0 -0.056626508971964119 0.30660747617712608 0 -0.054832891957512252 0.31644257604150322 0 -0.04950979824228894 0.30885553273132521 0 -0.051053578642734028 0.30204497404421737 0 -0.056626508971964119 0.30660747617712608 0 -0.043834804217362133 0.30412580660292399 0 -0.04950979824228894 0.30885553273132521 0 -0.051053578642734028 0.30204497404421737 0 -0.051053578642734028 0.30204497404421737 0 -0.055835591722596063 0.29866778481995038 0 -0.056626508971964119 0.30660747617712608 0 -0.047534804102799359 0.29488537375429141 0 -0.051053578642734028 0.30204497404421737 0 -0.055835591722596063 0.29866778481995038 0 -0.043834804217362133 0.30412580660292399 0 -0.047534804102799359 0.29488537375429141 0 -0.051053578642734028 0.30204497404421737 0 -0.063240678986031917 0.3028203012424347 0 -0.055835591722596063 0.29866778481995038 0 -0.056626508971964119 0.30660747617712608 0 -0.063240678986031917 0.3028203012424347 0 -0.059542071499885753 0.29636451899614757 0 -0.055835591722596063 0.29866778481995038 0 -0.063240678986031917 0.3028203012424347 0 -0.063316063383384469 0.29524679985427221 0 -0.059542071499885753 0.29636451899614757 0 -0.063240678986031917 0.3028203012424347 0 -0.066427709146053671 0.31030108620235058 0 -0.056626508971964119 0.30660747617712608 0 -0.066427709146053671 0.31030108620235058 0 -0.056626508971964119 0.30660747617712608 0 -0.054832891957512252 0.31644257604150322 0 -0.054832891957512252 0.31644257604150322 0 -0.058039855835844228 0.34232245899285402 0 -0.071491946748682506 0.32348172677608578 0 -0.04950979824228894 0.30885553273132521 0 -0.054832891957512252 0.31644257604150322 0 -0.04348359715273642 0.3140316268289034 0 -0.054832891957512252 0.31644257604150322 0 -0.04348359715273642 0.3140316268289034 0 -0.044287734711705481 0.32733478287155682 0 -0.058039855835844228 0.34232245899285402 0 -0.039249366383208917 0.33966055590497812 0 -0.044287734711705481 0.32733478287155682 0 -0.054832891957512252 0.31644257604150322 0 -0.058039855835844228 0.34232245899285402 0 -0.044287734711705481 0.32733478287155682 0 -0.039249366383208917 0.33966055590497812 0 -0.044287734711705481 0.32733478287155682 0 -0.029463818158455921 0.32993777717513312 0 -0.039249366383208917 0.33966055590497812 0 -0.025870527424596449 0.34123830348924178 0 -0.032056630806542717 0.34778139203465752 0 -0.039249366383208917 0.33966055590497812 0 -0.029463818158455921 0.32993777717513312 0 -0.025870527424596449 0.34123830348924178 0 -0.04348359715273642 0.3140316268289034 0 -0.044287734711705481 0.32733478287155682 0 -0.033079558479959081 0.31891698724511058 0 -0.044287734711705481 0.32733478287155682 0 -0.033079558479959081 0.31891698724511058 0 -0.029463818158455921 0.32993777717513312 0 -0.0351108318525548 0.30810233717132007 0 -0.04348359715273642 0.3140316268289034 0 -0.033079558479959081 0.31891698724511058 0 -0.024975685264553311 0.31216309571236228 0 -0.033079558479959081 0.31891698724511058 0 -0.020895699531528741 0.32298508569763928 0 -0.024975685264553311 0.31216309571236228 0 -0.0351108318525548 0.30810233717132007 0 -0.033079558479959081 0.31891698724511058 0 -0.024975685264553311 0.31216309571236228 0 -0.020895699531528741 0.32298508569763928 0 -0.01194344365753823 0.31495148552421148 0 -0.033079558479959081 0.31891698724511058 0 -0.020895699531528741 0.32298508569763928 0 -0.029463818158455921 0.32993777717513312 0 -0.029463818158455921 0.32993777717513312 0 -0.025870527424596449 0.34123830348924178 0 -0.017739930991149979 0.33407521428199122 0 -0.025870527424596449 0.34123830348924178 0 -0.017739930991149979 0.33407521428199122 0 -0.015063392225833741 0.34619652719092109 0 -0.020895699531528741 0.32298508569763928 0 -0.029463818158455921 0.32993777717513312 0 -0.017739930991149979 0.33407521428199122 0 -0.017739930991149979 0.33407521428199122 0 -0.0062846136565366129 0.34047471164903848 0 -0.0081717606375159482 0.32786595424702758 0 -0.020895699531528741 0.32298508569763928 0 -0.017739930991149979 0.33407521428199122 0 -0.0081717606375159482 0.32786595424702758 0 -0.017739930991149979 0.33407521428199122 0 -0.0062846136565366129 0.34047471164903848 0 -0.015063392225833741 0.34619652719092109 0 -0.0062846136565366129 0.34047471164903848 0 -0.0081717606375159482 0.32786595424702758 0 0.003770448595607732 0.33559415332684722 0 -0.0050053426515477024 0.30421368897024309 0 -0.01194344365753823 0.31495148552421148 0 0.0033326920966838072 0.32037137025536772 0 -0.0081717606375159482 0.32786595424702758 0 0.0033326920966838072 0.32037137025536772 0 0.003770448595607732 0.33559415332684722 0 -0.01194344365753823 0.31495148552421148 0 -0.0081717606375159482 0.32786595424702758 0 0.0033326920966838072 0.32037137025536772 0 -0.020895699531528741 0.32298508569763928 0 -0.01194344365753823 0.31495148552421148 0 -0.0081717606375159482 0.32786595424702758 0 -0.01423612219986691 0.36130000468842333 0 -0.0117792008684973 0.3676100834088612 0 -0.0064208538966585588 0.36109924297982282 0 -0.01423612219986691 0.36130000468842333 0 -0.0117792008684973 0.3676100834088612 0 -0.019589513471480718 0.36764057658788363 0 -0.0117792008684973 0.3676100834088612 0 -0.01354183183877598 0.37227968639449871 0 -0.019589513471480718 0.36764057658788363 0 -0.01354183183877598 0.37227968639449871 0 -0.019589513471480718 0.36764057658788363 0 -0.01245216641673403 0.38090294662415569 0 -0.01354183183877598 0.37227968639449871 0 -0.0082575591188790622 0.37245372226547102 0 -0.01119354177156966 0.37563255343349922 0 -0.0117792008684973 0.3676100834088612 0 -0.0082575591188790622 0.37245372226547102 0 -0.0048727612147018333 0.36791950834428089 0 -0.0117792008684973 0.3676100834088612 0 -0.01354183183877598 0.37227968639449871 0 -0.0082575591188790622 0.37245372226547102 0 -0.0048727612147018333 0.36791950834428089 0 -0.0015244919297118539 0.37331443520947022 0 0.0037963498076175142 0.36529258077041171 0 -0.0082575591188790622 0.37245372226547102 0 -0.0048727612147018333 0.36791950834428089 0 -0.0015244919297118539 0.37331443520947022 0 -0.0082575591188790622 0.37245372226547102 0 -0.0015244919297118539 0.37331443520947022 0 -0.0066335270900177538 0.37796606680221551 0 -0.0064208538966585588 0.36109924297982282 0 0.001436009402799204 0.35658407481376719 0 0.0037963498076175142 0.36529258077041171 0 -0.0048727612147018333 0.36791950834428089 0 -0.0064208538966585588 0.36109924297982282 0 0.0037963498076175142 0.36529258077041171 0 -0.0117792008684973 0.3676100834088612 0 -0.0048727612147018333 0.36791950834428089 0 -0.0064208538966585588 0.36109924297982282 0 -0.0060495494478987558 0.35111415297640919 0 0.0029978092564315341 0.34765306343151398 0 0.001436009402799204 0.35658407481376719 0 -0.0064208538966585588 0.36109924297982282 0 -0.0060495494478987558 0.35111415297640919 0 0.001436009402799204 0.35658407481376719 0 -0.0062846136565366129 0.34047471164903848 0 -0.0060495494478987558 0.35111415297640919 0 0.0029978092564315341 0.34765306343151398 0 -0.0060495494478987558 0.35111415297640919 0 -0.015063392225833741 0.34619652719092109 0 -0.01402421119723582 0.35453179594359152 0 -0.0062846136565366129 0.34047471164903848 0 -0.0060495494478987558 0.35111415297640919 0 -0.015063392225833741 0.34619652719092109 0 -0.0064208538966585588 0.36109924297982282 0 -0.0060495494478987558 0.35111415297640919 0 -0.01402421119723582 0.35453179594359152 0 -0.01423612219986691 0.36130000468842333 0 -0.0064208538966585588 0.36109924297982282 0 -0.01402421119723582 0.35453179594359152 0 -0.01423612219986691 0.36130000468842333 0 -0.01402421119723582 0.35453179594359152 0 -0.020999706971562161 0.36162784142028331 0 -0.01402421119723582 0.35453179594359152 0 -0.022723174425472038 0.35200446639130212 0 -0.020999706971562161 0.36162784142028331 0 -0.025870527424596449 0.34123830348924178 0 -0.015063392225833741 0.34619652719092109 0 -0.022723174425472038 0.35200446639130212 0 -0.015063392225833741 0.34619652719092109 0 -0.01402421119723582 0.35453179594359152 0 -0.022723174425472038 0.35200446639130212 0 -0.025870527424596449 0.34123830348924178 0 -0.022723174425472038 0.35200446639130212 0 -0.032056630806542717 0.34778139203465752 0 -0.022723174425472038 0.35200446639130212 0 -0.020999706971562161 0.36162784142028331 0 -0.031586250537993701 0.35649138122521667 0 -0.022723174425472038 0.35200446639130212 0 -0.032056630806542717 0.34778139203465752 0 -0.031586250537993701 0.35649138122521667 0 -0.020999706971562161 0.36162784142028331 0 -0.039197856109377073 0.38285384555958801 0 -0.020999706971562161 0.36162784142028331 0 -0.019589513471480718 0.36764057658788363 0 -0.039197856109377073 0.38285384555958801 0 -0.020999706971562161 0.36162784142028331 0 -0.039362524162694618 0.36429855870061872 0 -0.031586250537993701 0.35649138122521667 0 -0.01423612219986691 0.36130000468842333 0 -0.020999706971562161 0.36162784142028331 0 -0.019589513471480718 0.36764057658788363 0 -0.039362524162694618 0.36429855870061872 0 -0.060104724598026897 0.36717298899478129 0 -0.039197856109377073 0.38285384555958801 0 -0.020999706971562161 0.36162784142028331 0 -0.039362524162694618 0.36429855870061872 0 -0.039197856109377073 0.38285384555958801 0 -0.039249366383208917 0.33966055590497812 0 -0.032056630806542717 0.34778139203465752 0 -0.044492097645343051 0.35141498497824869 0 -0.032056630806542717 0.34778139203465752 0 -0.031586250537993701 0.35649138122521667 0 -0.044492097645343051 0.35141498497824869 0 -0.039362524162694618 0.36429855870061872 0 -0.031586250537993701 0.35649138122521667 0 -0.044492097645343051 0.35141498497824869 0 -0.058039855835844228 0.34232245899285402 0 -0.044492097645343051 0.35141498497824869 0 -0.060104724598026897 0.36717298899478129 0 -0.058039855835844228 0.34232245899285402 0 -0.039249366383208917 0.33966055590497812 0 -0.044492097645343051 0.35141498497824869 0 -0.039362524162694618 0.36429855870061872 0 -0.044492097645343051 0.35141498497824869 0 -0.060104724598026897 0.36717298899478129 0 -0.060104724598026897 0.36717298899478129 0 -0.084084002887773304 0.37101978279954562 0 -0.075601181398862224 0.35525574262113258 0 -0.084084002887773304 0.37101978279954562 0 -0.075601181398862224 0.35525574262113258 0 -0.095954111095390454 0.35473010335681782 0 -0.084084002887773304 0.37101978279954562 0 -0.099049883017736332 0.36925368591151242 0 -0.095954111095390454 0.35473010335681782 0 -0.075601181398862224 0.35525574262113258 0 -0.085944681416957158 0.33992759595701921 0 -0.095954111095390454 0.35473010335681782 0 -0.058039855835844228 0.34232245899285402 0 -0.060104724598026897 0.36717298899478129 0 -0.075601181398862224 0.35525574262113258 0 -0.058039855835844228 0.34232245899285402 0 -0.075601181398862224 0.35525574262113258 0 -0.085944681416957158 0.33992759595701921 0 -0.058039855835844228 0.34232245899285402 0 -0.071491946748682506 0.32348172677608578 0 -0.058039855835844228 0.34232245899285402 0 -0.071491946748682506 0.32348172677608578 0 -0.085944681416957158 0.33992759595701921 0 -0.066427709146053671 0.31030108620235058 0 -0.054832891957512252 0.31644257604150322 0 -0.071491946748682506 0.32348172677608578 0 -0.084944037661520214 0.30464099455931742 0 -0.066427709146053671 0.31030108620235058 0 -0.071491946748682506 0.32348172677608578 0 -0.084944037661520214 0.30464099455931742 0 -0.092810262700463858 0.32364850341148649 0 -0.101892844931111 0.31317460763732041 0 -0.084944037661520214 0.30464099455931742 0 -0.071491946748682506 0.32348172677608578 0 -0.084944037661520214 0.30464099455931742 0 -0.071491946748682506 0.32348172677608578 0 -0.092810262700463858 0.32364850341148649 0 -0.092810262700463858 0.32364850341148649 0 -0.085944681416957158 0.33992759595701921 0 -0.10220501333141439 0.33384332823817009 0 -0.071491946748682506 0.32348172677608578 0 -0.092810262700463858 0.32364850341148649 0 -0.085944681416957158 0.33992759595701921 0 -0.085944681416957158 0.33992759595701921 0 -0.10220501333141439 0.33384332823817009 0 -0.1055103988080425 0.34621130830258828 0 -0.10220501333141439 0.33384332823817009 0 -0.10656645125025629 0.32536986021559711 0 -0.1055103988080425 0.34621130830258828 0 -0.10220501333141439 0.33384332823817009 0 -0.10656645125025629 0.32536986021559711 0 -0.092810262700463858 0.32364850341148649 0 -0.10656645125025629 0.32536986021559711 0 -0.101892844931111 0.31317460763732041 0 -0.092810262700463858 0.32364850341148649 0 -0.10220501333141439 0.33384332823817009 0 -0.10656645125025629 0.32536986021559711 0 -0.10656645125025629 0.32536986021559711 0 -0.1105897058253375 0.31755341994452929 0 -0.10656645125025629 0.32536986021559711 0 -0.101892844931111 0.31317460763732041 0 -0.1105897058253375 0.31755341994452929 0 -0.101892844931111 0.31317460763732041 0 -0.1105897058253375 0.31755341994452929 0 -0.10656645125025629 0.32536986021559711 0 -0.101892844931111 0.31317460763732041 0 -0.101892844931111 0.31317460763732041 0 -0.1131711704006856 0.31253811124641989 0 -0.1105897058253375 0.31755341994452929 0 -0.1131711704006856 0.31253811124641989 0 -0.1188696603365713 0.32172232262768019 0 -0.1105897058253375 0.31755341994452929 0 -0.1188696603365713 0.32172232262768019 0 -0.1131711704006856 0.31253811124641989 0 -0.1105897058253375 0.31755341994452929 0 -0.1188696603365713 0.32172232262768019 0 -0.1131711704006856 0.31253811124641989 0 -0.1105897058253375 0.31755341994452929 0 -0.1105897058253375 0.31755341994452929 0 -0.1137704125255997 0.32541853289899819 0 -0.1188696603365713 0.32172232262768019 0 -0.10656645125025629 0.32536986021559711 0 -0.1105897058253375 0.31755341994452929 0 -0.1137704125255997 0.32541853289899819 0 -0.1137704125255997 0.32541853289899819 0 -0.1188696603365713 0.32172232262768019 0 -0.11905583269023511 0.33702852880818479 0 -0.12710701658386739 0.32150240061104129 0 -0.1203056521179815 0.32244533505273071 0 -0.1241398436111214 0.31716536680421598 0 -0.1203056521179815 0.32244533505273071 0 -0.1188696603365713 0.32172232262768019 0 -0.1241398436111214 0.31716536680421598 0 -0.1203056521179815 0.32244533505273071 0 -0.1188696603365713 0.32172232262768019 0 -0.1131711704006856 0.31253811124641989 0 -0.1188696603365713 0.32172232262768019 0 -0.1241398436111214 0.31716536680421598 0 -0.10656645125025629 0.32536986021559711 0 -0.11683882443665 0.35217446827026139 0 -0.13268742736238209 0.34399230899423672 0 -0.1188696603365713 0.32172232262768019 0 -0.11905583269023511 0.33702852880818479 0 -0.10656645125025629 0.32536986021559711 0 -0.11905583269023511 0.33702852880818479 0 -0.11683882443665 0.35217446827026139 0 -0.10656645125025629 0.32536986021559711 0 -0.11683882443665 0.35217446827026139 0 -0.1055103988080425 0.34621130830258828 0 -0.13268742736238209 0.34399230899423672 0 -0.1203056521179815 0.32244533505273071 0 -0.1188696603365713 0.32172232262768019 0 -0.10656645125025629 0.32536986021559711 0 -0.1137704125255997 0.32541853289899819 0 -0.11905583269023511 0.33702852880818479 0 -0.13268742736238209 0.34399230899423672 0 -0.11905583269023511 0.33702852880818479 0 -0.11683882443665 0.35217446827026139 0 -0.12702382644332569 0.37909051114600772 0 -0.11683882443665 0.35217446827026139 0 -0.11453593049743491 0.36929929695996949 0 -0.12702382644332569 0.37909051114600772 0 -0.11683882443665 0.35217446827026139 0 -0.12702382644332569 0.37909051114600772 0 -0.11453593049743491 0.36929929695996949 0 -0.11453593049743491 0.36929929695996949 0 -0.099049883017736332 0.36925368591151242 0 -0.095954111095390454 0.35473010335681782 0 -0.11453593049743491 0.36929929695996949 0 -0.095954111095390454 0.35473010335681782 0 -0.084084002887773304 0.37101978279954562 0 -0.099049883017736332 0.36925368591151242 0 -0.1016254875903467 0.38196556052971647 0 -0.11453593049743491 0.36929929695996949 0 -0.099049883017736332 0.36925368591151242 0 -0.1016254875903467 0.38196556052971647 0 -0.11683882443665 0.35217446827026139 0 -0.095954111095390454 0.35473010335681782 0 -0.1055103988080425 0.34621130830258828 0 -0.085944681416957158 0.33992759595701921 0 -0.095954111095390454 0.35473010335681782 0 -0.1055103988080425 0.34621130830258828 0 -0.11683882443665 0.35217446827026139 0 -0.11453593049743491 0.36929929695996949 0 -0.095954111095390454 0.35473010335681782 0 -0.1000611729261211 0.39733054528535339 0 -0.11166628741155921 0.39265249120233459 0 -0.11080013693898789 0.40406593728522228 0 -0.1000611729261211 0.39733054528535339 0 -0.1016254875903467 0.38196556052971647 0 -0.11166628741155921 0.39265249120233459 0 -0.1000611729261211 0.39733054528535339 0 -0.11080013693898789 0.40406593728522228 0 -0.098612523023937443 0.4101936725443821 0 -0.1000611729261211 0.39733054528535339 0 -0.098612523023937443 0.4101936725443821 0 -0.089655901608244062 0.4031966266546525 0 -0.1000611729261211 0.39733054528535339 0 -0.1016254875903467 0.38196556052971647 0 -0.086817225286430572 0.39107623484687382 0 -0.1152132857469903 0.38357898153161157 0 -0.12023377914526751 0.39043252892857649 0 -0.11166628741155921 0.39265249120233459 0 -0.1016254875903467 0.38196556052971647 0 -0.1152132857469903 0.38357898153161157 0 -0.11166628741155921 0.39265249120233459 0 -0.11453593049743491 0.36929929695996949 0 -0.1016254875903467 0.38196556052971647 0 -0.1152132857469903 0.38357898153161157 0 -0.12702382644332569 0.37909051114600772 0 -0.11453593049743491 0.36929929695996949 0 -0.1240609952911563 0.38466335496570819 0 -0.11453593049743491 0.36929929695996949 0 -0.1152132857469903 0.38357898153161157 0 -0.1240609952911563 0.38466335496570819 0 -0.12877555934037871 0.39268247861865951 0 -0.1240609952911563 0.38466335496570819 0 -0.12023377914526751 0.39043252892857649 0 -0.1152132857469903 0.38357898153161157 0 -0.1240609952911563 0.38466335496570819 0 -0.12023377914526751 0.39043252892857649 0 -0.12023377914526751 0.39043252892857649 0 -0.11166628741155921 0.39265249120233459 0 -0.1214527679362529 0.39858533832456861 0 -0.12877555934037871 0.39268247861865951 0 -0.12023377914526751 0.39043252892857649 0 -0.1214527679362529 0.39858533832456861 0 -0.11080013693898789 0.40406593728522228 0 -0.1189767044633524 0.40592393951577271 0 -0.1214527679362529 0.39858533832456861 0 -0.11166628741155921 0.39265249120233459 0 -0.11080013693898789 0.40406593728522228 0 -0.1214527679362529 0.39858533832456861 0 -0.12761258966157971 0.40489462466678222 0 -0.1189767044633524 0.40592393951577271 0 -0.1214527679362529 0.39858533832456861 0 -0.12761258966157971 0.40489462466678222 0 -0.1189767044633524 0.40592393951577271 0 -0.1172037481399819 0.41578061322521931 0 -0.11080013693898789 0.40406593728522228 0 -0.1189767044633524 0.40592393951577271 0 -0.1172037481399819 0.41578061322521931 0 -0.12116211241067321 0.42694999954873031 0 -0.1071797557472096 0.42666196038956727 0 -0.100431553604066 0.44630577736812221 0 -0.12116211241067321 0.42694999954873031 0 -0.100431553604066 0.44630577736812221 0 -0.1172037481399819 0.41578061322521931 0 -0.12116211241067321 0.42694999954873031 0 -0.1071797557472096 0.42666196038956727 0 -0.1071797557472096 0.42666196038956727 0 -0.092514825062684422 0.42396700472110221 0 -0.100431553604066 0.44630577736812221 0 -0.1172037481399819 0.41578061322521931 0 -0.1071797557472096 0.42666196038956727 0 -0.092514825062684422 0.42396700472110221 0 -0.1172037481399819 0.41578061322521931 0 -0.092514825062684422 0.42396700472110221 0 -0.1172037481399819 0.41578061322521931 0 -0.098612523023937443 0.4101936725443821 0 -0.092514825062684422 0.42396700472110221 0 -0.11080013693898789 0.40406593728522228 0 -0.1172037481399819 0.41578061322521931 0 -0.098612523023937443 0.4101936725443821 0 -0.098612523023937443 0.4101936725443821 0 -0.086017875635662988 0.41337258329843618 0 -0.089655901608244062 0.4031966266546525 0 -0.086017875635662988 0.41337258329843618 0 -0.074569345844833115 0.42411053500928853 0 -0.076770711169068279 0.40401009729821707 0 -0.086017875635662988 0.41337258329843618 0 -0.092514825062684422 0.42396700472110221 0 -0.074569345844833115 0.42411053500928853 0 -0.098612523023937443 0.4101936725443821 0 -0.086017875635662988 0.41337258329843618 0 -0.092514825062684422 0.42396700472110221 0 -0.086017875635662988 0.41337258329843618 0 -0.076770711169068279 0.40401009729821707 0 -0.089655901608244062 0.4031966266546525 0 -0.092514825062684422 0.42396700472110221 0 -0.083984276627545165 0.43956238763947258 0 -0.100431553604066 0.44630577736812221 0 -0.092514825062684422 0.42396700472110221 0 -0.074569345844833115 0.42411053500928853 0 -0.067825901985387058 0.43215339621698501 0 -0.092514825062684422 0.42396700472110221 0 -0.067825901985387058 0.43215339621698501 0 -0.083984276627545165 0.43956238763947258 0 -0.092514825062684422 0.42396700472110221 0 -0.067825901985387058 0.43215339621698501 0 -0.074569345844833115 0.42411053500928853 0 -0.064844967881049612 0.42639270145793351 0 -0.067825901985387058 0.43215339621698501 0 -0.064844967881049612 0.42639270145793351 0 -0.067825901985387058 0.43215339621698501 0 -0.055853658470016949 0.42873010414411522 0 -0.074569345844833115 0.42411053500928853 0 -0.064844967881049612 0.42639270145793351 0 -0.061130965223961303 0.4205767704613454 0 -0.074569345844833115 0.42411053500928853 0 -0.059938712339192367 0.40704561895658559 0 -0.074569345844833115 0.42411053500928853 0 -0.076770711169068279 0.40401009729821707 0 -0.059938712339192367 0.40704561895658559 0 -0.074569345844833115 0.42411053500928853 0 -0.061130965223961303 0.4205767704613454 0 -0.059938712339192367 0.40704561895658559 0 -0.070740004067482487 0.38754981624921908 0 -0.057396005247191899 0.40407984969889282 0 -0.076770711169068279 0.40401009729821707 0 -0.070740004067482487 0.38754981624921908 0 -0.057396005247191899 0.40407984969889282 0 -0.076770711169068279 0.40401009729821707 0 -0.057396005247191899 0.40407984969889282 0 -0.059938712339192367 0.40704561895658559 0 -0.076770711169068279 0.40401009729821707 0 -0.086817225286430572 0.39107623484687382 0 -0.070740004067482487 0.38754981624921908 0 -0.076770711169068279 0.40401009729821707 0 -0.086817225286430572 0.39107623484687382 0 -0.089655901608244062 0.4031966266546525 0 -0.1000611729261211 0.39733054528535339 0 -0.086817225286430572 0.39107623484687382 0 -0.089655901608244062 0.4031966266546525 0 -0.084084002887773304 0.37101978279954562 0 -0.1016254875903467 0.38196556052971647 0 -0.086817225286430572 0.39107623484687382 0 -0.084084002887773304 0.37101978279954562 0 -0.086817225286430572 0.39107623484687382 0 -0.070740004067482487 0.38754981624921908 0 -0.084084002887773304 0.37101978279954562 0 -0.070740004067482487 0.38754981624921908 0 -0.060104724598026897 0.36717298899478129 0 -0.084084002887773304 0.37101978279954562 0 -0.070740004067482487 0.38754981624921908 0 -0.060104724598026897 0.36717298899478129 0 -0.070740004067482487 0.38754981624921908 0 -0.056859647505519591 0.38541412512562018 0 -0.060104724598026897 0.36717298899478129 0 -0.056859647505519591 0.38541412512562018 0 -0.039197856109377073 0.38285384555958801 0 -0.070740004067482487 0.38754981624921908 0 -0.056859647505519591 0.38541412512562018 0 -0.057396005247191899 0.40407984969889282 0 -0.057396005247191899 0.40407984969889282 0 -0.039197856109377073 0.38285384555958801 0 -0.057396005247191899 0.40407984969889282 0 -0.0455628001145678 0.40059275751234208 0 -0.039197856109377073 0.38285384555958801 0 -0.056859647505519591 0.38541412512562018 0 -0.057396005247191899 0.40407984969889282 0 -0.039197856109377073 0.38285384555958801 0 -0.057396005247191899 0.40407984969889282 0 -0.059938712339192367 0.40704561895658559 0 -0.057396005247191899 0.40407984969889282 0 -0.049745920228002879 0.4056660079855825 0 -0.0455628001145678 0.40059275751234208 0 -0.0455628001145678 0.40059275751234208 0 -0.035394430911037722 0.39634905598598341 0 -0.039197856109377073 0.38285384555958801 0 -0.0455628001145678 0.40059275751234208 0 -0.035394430911037722 0.39634905598598341 0 -0.037155077134442702 0.40466698931320821 0 -0.0455628001145678 0.40059275751234208 0 -0.037155077134442702 0.40466698931320821 0 -0.044169226187665347 0.40704839486192729 0 -0.049745920228002879 0.4056660079855825 0 -0.0455628001145678 0.40059275751234208 0 -0.044169226187665347 0.40704839486192729 0 -0.035394430911037722 0.39634905598598341 0 -0.039197856109377073 0.38285384555958801 0 -0.024878649189916249 0.39304914363776189 0 -0.035394430911037722 0.39634905598598341 0 -0.037155077134442702 0.40466698931320821 0 -0.030154598644727349 0.40132135531399582 0 -0.037155077134442702 0.40466698931320821 0 -0.030154598644727349 0.40132135531399582 0 -0.03001372354282918 0.40787606311735553 0 -0.019589513471480718 0.36764057658788363 0 -0.020226265774926609 0.38526376600210588 0 -0.01286387693167104 0.39026907351276657 0 -0.019589513471480718 0.36764057658788363 0 -0.039197856109377073 0.38285384555958801 0 -0.02564683568562795 0.38265826226151828 0 -0.019589513471480718 0.36764057658788363 0 -0.02564683568562795 0.38265826226151828 0 -0.020226265774926609 0.38526376600210588 0 -0.019589513471480718 0.36764057658788363 0 -0.01286387693167104 0.39026907351276657 0 -0.020226265774926609 0.38526376600210588 0 -0.018546700662496151 0.39201428666227389 0 -0.01286387693167104 0.39026907351276657 0 -0.020226265774926609 0.38526376600210588 0 -0.024878649189916249 0.39304914363776189 0 -0.018546700662496151 0.39201428666227389 0 -0.039197856109377073 0.38285384555958801 0 -0.02564683568562795 0.38265826226151828 0 -0.024878649189916249 0.39304914363776189 0 -0.02564683568562795 0.38265826226151828 0 -0.020226265774926609 0.38526376600210588 0 -0.024878649189916249 0.39304914363776189 0 -0.035394430911037722 0.39634905598598341 0 -0.024878649189916249 0.39304914363776189 0 -0.030154598644727349 0.40132135531399582 0 -0.024878649189916249 0.39304914363776189 0 -0.030154598644727349 0.40132135531399582 0 -0.02333111244541089 0.40466552451566967 0 -0.030154598644727349 0.40132135531399582 0 -0.02333111244541089 0.40466552451566967 0 -0.03001372354282918 0.40787606311735553 0 -0.024878649189916249 0.39304914363776189 0 -0.02333111244541089 0.40466552451566967 0 -0.016848806059965221 0.3983751837391411 0 -0.02333111244541089 0.40466552451566967 0 -0.016848806059965221 0.3983751837391411 0 -0.01728975990157261 0.40902072919458238 0 -0.016848806059965221 0.3983751837391411 0 -0.018546700662496151 0.39201428666227389 0 -0.01286387693167104 0.39026907351276657 0 -0.024878649189916249 0.39304914363776189 0 -0.016848806059965221 0.3983751837391411 0 -0.018546700662496151 0.39201428666227389 0 -0.016848806059965221 0.3983751837391411 0 -0.01286387693167104 0.39026907351276657 0 -0.0061382403918613694 0.41289757043764957 0 -0.01286387693167104 0.39026907351276657 0 -0.0061382403918613694 0.41289757043764957 0 -0.0083071313853489009 0.39241284846055369 0 -0.01286387693167104 0.39026907351276657 0 -0.0061382403918613694 0.41289757043764957 0 -0.0083071313853489009 0.39241284846055369 0 -0.0061382403918613694 0.41289757043764957 0 0.001215528843426622 0.40337136132503182 0 -0.00024727968021932432 0.38779626046928811 0 -0.0059864164719755633 0.38349787570457128 0 -0.0082730105330539698 0.38726452365539488 0 -0.019589513471480718 0.36764057658788363 0 -0.01245216641673403 0.38090294662415569 0 -0.01286387693167104 0.39026907351276657 0 -0.0083071313853489009 0.39241284846055369 0 -0.00024727968021932432 0.38779626046928811 0 -0.0082730105330539698 0.38726452365539488 0 -0.00024727968021932432 0.38779626046928811 0 -0.0059864164719755633 0.38349787570457128 0 0.00019967971850866269 0.38057760276491942 0 -0.0015244919297118539 0.37331443520947022 0 -0.0066335270900177538 0.37796606680221551 0 0.00019967971850866269 0.38057760276491942 0 -0.0059864164719755633 0.38349787570457128 0 -0.0066335270900177538 0.37796606680221551 0 0.00019967971850866269 0.38057760276491942 0 -0.0059864164719755633 0.38349787570457128 0 -0.0066335270900177538 0.37796606680221551 0 -0.01245216641673403 0.38090294662415569 0 -0.01354183183877598 0.37227968639449871 0 -0.01119354177156966 0.37563255343349922 0 -0.01245216641673403 0.38090294662415569 0 -0.0066335270900177538 0.37796606680221551 0 -0.01119354177156966 0.37563255343349922 0 -0.01245216641673403 0.38090294662415569 0 -0.0082575591188790622 0.37245372226547102 0 -0.0066335270900177538 0.37796606680221551 0 -0.01119354177156966 0.37563255343349922 0 -0.01245216641673403 0.38090294662415569 0 -0.01286387693167104 0.39026907351276657 0 -0.0082730105330539698 0.38726452365539488 0 -0.0083071313853489009 0.39241284846055369 0 -0.01286387693167104 0.39026907351276657 0 -0.0082730105330539698 0.38726452365539488 0 -0.0059864164719755633 0.38349787570457128 0 -0.01245216641673403 0.38090294662415569 0 -0.0082730105330539698 0.38726452365539488 0 -0.0061382403918613694 0.41289757043764957 0 -0.010853099585606809 0.42161478894341492 0 0.0005873961479486412 0.43552606736253252 0 -0.0061382403918613694 0.41289757043764957 0 0.0005873961479486412 0.43552606736253252 0 -0.01296023969112951 0.42586592967055831 0 -0.01090656814426528 0.43013819271886439 0 -0.019612300355361191 0.42207216857528063 0 -0.01296023969112951 0.42586592967055831 0 -0.01090656814426528 0.43013819271886439 0 -0.010853099585606809 0.42161478894341492 0 -0.01296023969112951 0.42586592967055831 0 -0.010853099585606809 0.42161478894341492 0 -0.019612300355361191 0.42207216857528063 0 -0.01090656814426528 0.43013819271886439 0 0.0005873961479486412 0.43552606736253252 0 -0.01090656814426528 0.43013819271886439 0 -0.0091982625505949885 0.44510077470828258 0 0.0005873961479486412 0.43552606736253252 0 -0.01090656814426528 0.43013819271886439 0 -0.010853099585606809 0.42161478894341492 0 0.0005873961479486412 0.43552606736253252 0 -0.016848806059965221 0.3983751837391411 0 -0.0061382403918613694 0.41289757043764957 0 -0.01728975990157261 0.40902072919458238 0 -0.0061382403918613694 0.41289757043764957 0 -0.01558133797901751 0.41513901305953022 0 -0.01728975990157261 0.40902072919458238 0 -0.0061382403918613694 0.41289757043764957 0 -0.010853099585606809 0.42161478894341492 0 -0.01558133797901751 0.41513901305953022 0 -0.010853099585606809 0.42161478894341492 0 -0.01558133797901751 0.41513901305953022 0 -0.019612300355361191 0.42207216857528063 0 -0.01558133797901751 0.41513901305953022 0 -0.024549302631608039 0.41402635422092132 0 -0.019612300355361191 0.42207216857528063 0 -0.01558133797901751 0.41513901305953022 0 -0.01728975990157261 0.40902072919458238 0 -0.024549302631608039 0.41402635422092132 0 -0.02333111244541089 0.40466552451566967 0 -0.01728975990157261 0.40902072919458238 0 -0.024549302631608039 0.41402635422092132 0 -0.024549302631608039 0.41402635422092132 0 -0.03001372354282918 0.40787606311735553 0 -0.036520681268759583 0.41085024044609919 0 -0.02333111244541089 0.40466552451566967 0 -0.024549302631608039 0.41402635422092132 0 -0.03001372354282918 0.40787606311735553 0 -0.024549302631608039 0.41402635422092132 0 -0.036520681268759583 0.41085024044609919 0 -0.031381108753425743 0.42054061129401582 0 -0.024549302631608039 0.41402635422092132 0 -0.019612300355361191 0.42207216857528063 0 -0.031381108753425743 0.42054061129401582 0 -0.030663910802842809 0.42800813158185053 0 -0.024082925434508351 0.43160936244522358 0 -0.024093732808162321 0.44519524684320988 0 -0.030663910802842809 0.42800813158185053 0 -0.038165047883583443 0.42790242138604762 0 -0.024093732808162321 0.44519524684320988 0 -0.01090656814426528 0.43013819271886439 0 -0.031381108753425743 0.42054061129401582 0 -0.038165047883583443 0.42790242138604762 0 -0.024093732808162321 0.44519524684320988 0 -0.030663910802842809 0.42800813158185053 0 -0.024082925434508351 0.43160936244522358 0 -0.031381108753425743 0.42054061129401582 0 -0.01090656814426528 0.43013819271886439 0 -0.024082925434508351 0.43160936244522358 0 -0.031381108753425743 0.42054061129401582 0 -0.01090656814426528 0.43013819271886439 0 -0.019612300355361191 0.42207216857528063 0 -0.031381108753425743 0.42054061129401582 0 -0.01090656814426528 0.43013819271886439 0 -0.024082925434508351 0.43160936244522358 0 -0.024093732808162321 0.44519524684320988 0 -0.035516094915607851 0.43743020731656629 0 -0.038165047883583443 0.42790242138604762 0 -0.024093732808162321 0.44519524684320988 0 -0.030663910802842809 0.42800813158185053 0 -0.038165047883583443 0.42790242138604762 0 -0.031381108753425743 0.42054061129401582 0 -0.038165047883583443 0.42790242138604762 0 -0.044315163770534648 0.43127564666608731 0 -0.049187008529851098 0.42279436701226158 0 -0.035516094915607851 0.43743020731656629 0 -0.038165047883583443 0.42790242138604762 0 -0.044315163770534648 0.43127564666608731 0 -0.035516094915607851 0.43743020731656629 0 -0.044315163770534648 0.43127564666608731 0 -0.043136978908089707 0.4403397877128678 0 -0.038165047883583443 0.42790242138604762 0 -0.051855649362586492 0.41094302986916781 0 -0.038165047883583443 0.42790242138604762 0 -0.031381108753425743 0.42054061129401582 0 -0.051855649362586492 0.41094302986916781 0 -0.031381108753425743 0.42054061129401582 0 -0.051855649362586492 0.41094302986916781 0 -0.036520681268759583 0.41085024044609919 0 -0.031381108753425743 0.42054061129401582 0 -0.051855649362586492 0.41094302986916781 0 -0.038165047883583443 0.42790242138604762 0 -0.051855649362586492 0.41094302986916781 0 -0.049187008529851098 0.42279436701226158 0 -0.037155077134442702 0.40466698931320821 0 -0.03001372354282918 0.40787606311735553 0 -0.036520681268759583 0.41085024044609919 0 -0.036520681268759583 0.41085024044609919 0 -0.044169226187665347 0.40704839486192729 0 -0.051855649362586492 0.41094302986916781 0 -0.037155077134442702 0.40466698931320821 0 -0.036520681268759583 0.41085024044609919 0 -0.044169226187665347 0.40704839486192729 0 -0.057396005247191899 0.40407984969889282 0 -0.049745920228002879 0.4056660079855825 0 -0.051855649362586492 0.41094302986916781 0 -0.057396005247191899 0.40407984969889282 0 -0.051855649362586492 0.41094302986916781 0 -0.049745920228002879 0.4056660079855825 0 -0.044169226187665347 0.40704839486192729 0 -0.051855649362586492 0.41094302986916781 0 -0.051855649362586492 0.41094302986916781 0 -0.054023458346630929 0.41715405483866819 0 -0.056296197240575642 0.41403188357941229 0 -0.051855649362586492 0.41094302986916781 0 -0.054023458346630929 0.41715405483866819 0 -0.049187008529851098 0.42279436701226158 0 -0.054023458346630929 0.41715405483866819 0 -0.061130965223961303 0.4205767704613454 0 -0.049187008529851098 0.42279436701226158 0 -0.054023458346630929 0.41715405483866819 0 -0.061130965223961303 0.4205767704613454 0 -0.056296197240575642 0.41403188357941229 0 -0.051855649362586492 0.41094302986916781 0 -0.056296197240575642 0.41403188357941229 0 -0.059938712339192367 0.40704561895658559 0 -0.057396005247191899 0.40407984969889282 0 -0.051855649362586492 0.41094302986916781 0 -0.059938712339192367 0.40704561895658559 0 -0.061130965223961303 0.4205767704613454 0 -0.056296197240575642 0.41403188357941229 0 -0.059938712339192367 0.40704561895658559 0 -0.051855649362586492 0.41094302986916781 0 -0.059938712339192367 0.40704561895658559 0 -0.067825901985387058 0.43215339621698501 0 -0.043136978908089707 0.4403397877128678 0 -0.067825901985387058 0.43215339621698501 0 -0.055853658470016949 0.42873010414411522 0 -0.043136978908089707 0.4403397877128678 0 -0.044315163770534648 0.43127564666608731 0 -0.055853658470016949 0.42873010414411522 0 -0.043136978908089707 0.4403397877128678 0 -0.044315163770534648 0.43127564666608731 0 -0.049187008529851098 0.42279436701226158 0 -0.055853658470016949 0.42873010414411522 0 -0.064844967881049612 0.42639270145793351 0 -0.061130965223961303 0.4205767704613454 0 -0.055853658470016949 0.42873010414411522 0 -0.061130965223961303 0.4205767704613454 0 -0.049187008529851098 0.42279436701226158 0 -0.055853658470016949 0.42873010414411522 0 -0.060090093709743587 0.4431461231145844 0 -0.058822870859881742 0.45397054539555293 0 -0.043136978908089707 0.4403397877128678 0 -0.067825901985387058 0.43215339621698501 0 -0.060090093709743587 0.4431461231145844 0 -0.043136978908089707 0.4403397877128678 0 -0.058822870859881742 0.45397054539555293 0 -0.043136978908089707 0.4403397877128678 0 -0.040931542764063661 0.45168954919074672 0 -0.059704958193833618 0.46820256943175781 0 -0.058822870859881742 0.45397054539555293 0 -0.042949146708656738 0.46672428624422507 0 -0.058822870859881742 0.45397054539555293 0 -0.042949146708656738 0.46672428624422507 0 -0.040931542764063661 0.45168954919074672 0 -0.042949146708656738 0.46672428624422507 0 -0.025650397635290881 0.457830964921002 0 -0.025914422806634561 0.46812644972104722 0 -0.042949146708656738 0.46672428624422507 0 -0.026927857426461619 0.44843123948154417 0 -0.025650397635290881 0.457830964921002 0 -0.042949146708656738 0.46672428624422507 0 -0.040931542764063661 0.45168954919074672 0 -0.026927857426461619 0.44843123948154417 0 -0.042949146708656738 0.46672428624422507 0 -0.026927857426461619 0.44843123948154417 0 -0.043136978908089707 0.4403397877128678 0 -0.040931542764063661 0.45168954919074672 0 -0.035445657488840952 0.44503345747904449 0 -0.040931542764063661 0.45168954919074672 0 -0.035445657488840952 0.44503345747904449 0 -0.026927857426461619 0.44843123948154417 0 -0.035516094915607851 0.43743020731656629 0 -0.035445657488840952 0.44503345747904449 0 -0.030520271595253539 0.44373451573466488 0 -0.035516094915607851 0.43743020731656629 0 -0.043136978908089707 0.4403397877128678 0 -0.035445657488840952 0.44503345747904449 0 -0.035516094915607851 0.43743020731656629 0 -0.030520271595253539 0.44373451573466488 0 -0.024093732808162321 0.44519524684320988 0 -0.01090656814426528 0.43013819271886439 0 -0.024093732808162321 0.44519524684320988 0 -0.016570702414293939 0.44848322101172228 0 -0.01090656814426528 0.43013819271886439 0 -0.024093732808162321 0.44519524684320988 0 -0.016570702414293939 0.44848322101172228 0 -0.026927857426461619 0.44843123948154417 0 -0.025650397635290881 0.457830964921002 0 -0.024093732808162321 0.44519524684320988 0 -0.016570702414293939 0.44848322101172228 0 -0.026927857426461619 0.44843123948154417 0 -0.035445657488840952 0.44503345747904449 0 -0.030520271595253539 0.44373451573466488 0 -0.026927857426461619 0.44843123948154417 0 -0.030520271595253539 0.44373451573466488 0 -0.024093732808162321 0.44519524684320988 0 -0.026927857426461619 0.44843123948154417 0 -0.024093732808162321 0.44519524684320988 0 -0.026927857426461619 0.44843123948154417 0 -0.025914422806634561 0.46812644972104722 0 -0.01633559499150293 0.4591316496907264 0 -0.013023087144126391 0.47359189839759719 0 -0.025650397635290881 0.457830964921002 0 -0.025914422806634561 0.46812644972104722 0 -0.01633559499150293 0.4591316496907264 0 -0.016570702414293939 0.44848322101172228 0 -0.025650397635290881 0.457830964921002 0 -0.01633559499150293 0.4591316496907264 0 -0.0047806556464353436 0.45680287412294562 0 -0.013023087144126391 0.47359189839759719 0 0.00059582523221500473 0.46885726438604503 0 -0.01633559499150293 0.4591316496907264 0 -0.01220627596024507 0.45312351136096329 0 -0.0047806556464353436 0.45680287412294562 0 -0.01633559499150293 0.4591316496907264 0 -0.0047806556464353436 0.45680287412294562 0 -0.013023087144126391 0.47359189839759719 0 -0.016570702414293939 0.44848322101172228 0 -0.01633559499150293 0.4591316496907264 0 -0.01220627596024507 0.45312351136096329 0 -0.01090656814426528 0.43013819271886439 0 -0.016570702414293939 0.44848322101172228 0 -0.0091982625505949885 0.44510077470828258 0 -0.0047806556464353436 0.45680287412294562 0 -0.0091982625505949885 0.44510077470828258 0 0.0005873961479486412 0.43552606736253252 0 -0.016570702414293939 0.44848322101172228 0 -0.01220627596024507 0.45312351136096329 0 -0.0091982625505949885 0.44510077470828258 0 -0.01220627596024507 0.45312351136096329 0 -0.0047806556464353436 0.45680287412294562 0 -0.0091982625505949885 0.44510077470828258 0 -0.014123589070291881 0.5 0 -0.013023087144126391 0.47359189839759719 0 0.0046621640647640889 0.48184508255685682 0 -0.013023087144126391 0.47359189839759719 0 0.00059582523221500473 0.46885726438604503 0 0.0046621640647640889 0.48184508255685682 0 -0.025914422806634561 0.46812644972104722 0 -0.013023087144126391 0.47359189839759719 0 -0.031613887553595892 0.48335344935168523 0 -0.014123589070291881 0.5 0 -0.042923596536590961 0.49999999999999922 0 -0.031613887553595892 0.48335344935168523 0 -0.014123589070291881 0.5 0 -0.013023087144126391 0.47359189839759719 0 -0.031613887553595892 0.48335344935168523 0 -0.042923596536590961 0.49999999999999922 0 -0.031613887553595892 0.48335344935168523 0 -0.05897043599085186 0.48501733300690608 0 -0.042949146708656738 0.46672428624422507 0 -0.025914422806634561 0.46812644972104722 0 -0.031613887553595892 0.48335344935168523 0 -0.042949146708656738 0.46672428624422507 0 -0.031613887553595892 0.48335344935168523 0 -0.05897043599085186 0.48501733300690608 0 -0.042949146708656738 0.46672428624422507 0 -0.05897043599085186 0.48501733300690608 0 -0.059704958193833618 0.46820256943175781 0 -0.042949146708656738 0.46672428624422507 0 -0.05897043599085186 0.48501733300690608 0 -0.042923596536590961 0.49999999999999922 0 -0.05897043599085186 0.48501733300690608 0 -0.066894265581110404 0.49406473129558198 0 -0.042923596536590961 0.49999999999999922 0 -0.05897043599085186 0.48501733300690608 0 -0.042923596536590961 0.49999999999999922 0 -0.066894265581110404 0.49406473129558198 0 -0.072417844401773013 0.5 0 -0.05897043599085186 0.48501733300690608 0 -0.066894265581110404 0.49406473129558198 0 -0.081795088946713654 0.48583130360626631 0 -0.05897043599085186 0.48501733300690608 0 -0.066894265581110404 0.49406473129558198 0 -0.066894265581110404 0.49406473129558198 0 -0.072417844401773013 0.5 0 -0.081795088946713654 0.48583130360626631 0 -0.072417844401773013 0.5 0 -0.081795088946713654 0.48583130360626631 0 -0.1019120922669552 0.5 0 -0.081795088946713654 0.48583130360626631 0 -0.079700994797458777 0.46566155518751401 0 -0.110874900642133 0.47024420214759582 0 -0.059704958193833618 0.46820256943175781 0 -0.05897043599085186 0.48501733300690608 0 -0.079700994797458777 0.46566155518751401 0 -0.05897043599085186 0.48501733300690608 0 -0.079700994797458777 0.46566155518751401 0 -0.05897043599085186 0.48501733300690608 0 -0.081795088946713654 0.48583130360626631 0 -0.079700994797458777 0.46566155518751401 0 -0.058822870859881742 0.45397054539555293 0 -0.070574623085615878 0.44612076313293209 0 -0.079700994797458777 0.46566155518751401 0 -0.059704958193833618 0.46820256943175781 0 -0.058822870859881742 0.45397054539555293 0 -0.079700994797458777 0.46566155518751401 0 -0.067825901985387058 0.43215339621698501 0 -0.070574623085615878 0.44612076313293209 0 -0.083984276627545165 0.43956238763947258 0 -0.070574623085615878 0.44612076313293209 0 -0.083984276627545165 0.43956238763947258 0 -0.079700994797458777 0.46566155518751401 0 -0.067825901985387058 0.43215339621698501 0 -0.060090093709743587 0.4431461231145844 0 -0.070574623085615878 0.44612076313293209 0 -0.060090093709743587 0.4431461231145844 0 -0.058822870859881742 0.45397054539555293 0 -0.070574623085615878 0.44612076313293209 0 -0.083984276627545165 0.43956238763947258 0 -0.079700994797458777 0.46566155518751401 0 -0.100431553604066 0.44630577736812221 0 -0.079700994797458777 0.46566155518751401 0 -0.100431553604066 0.44630577736812221 0 -0.079700994797458777 0.46566155518751401 0 -0.100431553604066 0.44630577736812221 0 -0.110874900642133 0.47024420214759582 0 -0.12747559360914409 0.44888736527933948 0 -0.12116211241067321 0.42694999954873031 0 -0.100431553604066 0.44630577736812221 0 -0.12989941213789141 0.46706028052795168 0 -0.110874900642133 0.47024420214759582 0 -0.12747559360914409 0.44888736527933948 0 -0.100431553604066 0.44630577736812221 0 -0.110874900642133 0.47024420214759582 0 -0.12989941213789141 0.46706028052795168 0 -0.12747559360914409 0.44888736527933948 0 -0.110874900642133 0.47024420214759582 0 -0.12989941213789141 0.46706028052795168 0 -0.110874900642133 0.47024420214759582 0 -0.1229361870542558 0.48388316375613249 0 -0.13140634013213731 0.5 0 -0.1229361870542558 0.48388316375613249 0 -0.1019120922669552 0.5 0 -0.110874900642133 0.47024420214759582 0 -0.1229361870542558 0.48388316375613249 0 -0.1019120922669552 0.5 0 -0.081795088946713654 0.48583130360626631 0 -0.110874900642133 0.47024420214759582 0 -0.1019120922669552 0.5 0 -0.15665553298147011 0.082581178984143674 0 -0.17952578799766031 0.081559784973979199 0 -0.1625048630829091 0.096135470119919658 0 -0.1583348620713553 0.067914436856566743 0 -0.17952578799766031 0.081559784973979199 0 -0.15665553298147011 0.082581178984143674 0 -0.1583348620713553 0.067914436856566743 0 -0.17952578799766031 0.081559784973979199 0 -0.17952578799766031 0.081559784973979199 0 -0.1831157624949859 0.053391153854108642 0 -0.1979902716776607 0.076162042690907025 0 -0.1583348620713553 0.067914436856566743 0 -0.17952578799766031 0.081559784973979199 0 -0.1831157624949859 0.053391153854108642 0 -0.17952578799766031 0.081559784973979199 0 -0.18266530728306909 0.1060668502600506 0 -0.1625048630829091 0.096135470119919658 0 -0.18266530728306909 0.1060668502600506 0 -0.1625048630829091 0.096135470119919658 0 -0.18266530728306909 0.1060668502600506 0 -0.1826172944347213 0.1201107624509782 0 -0.15642727670496029 0.1106632219411303 0 -0.18266530728306909 0.1060668502600506 0 -0.1826172944347213 0.1201107624509782 0 -0.19698993295526279 0.11312340623189571 0 -0.1826172944347213 0.1201107624509782 0 -0.16824465591417909 0.1270981186700596 0 -0.15642727670496029 0.1106632219411303 0 -0.15412013754391071 0.1247881953508177 0 -0.16824465591417909 0.1270981186700596 0 -0.1826172944347213 0.1201107624509782 0 -0.15642727670496029 0.1106632219411303 0 -0.16824465591417909 0.1270981186700596 0 -0.18266530728306909 0.1060668502600506 0 -0.15642727670496029 0.1106632219411303 0 -0.1625048630829091 0.096135470119919658 0 -0.18266530728306909 0.1060668502600506 0 -0.15642727670496029 0.1106632219411303 0 -0.15642727670496029 0.1106632219411303 0 -0.1625048630829091 0.096135470119919658 0 -0.14377557831328561 0.1004171445725381 0 -0.1625048630829091 0.096135470119919658 0 -0.14377557831328561 0.1004171445725381 0 -0.1423444188827491 0.086204089979788581 0 -0.15642727670496029 0.1106632219411303 0 -0.14377557831328561 0.1004171445725381 0 -0.13018924612685151 0.11525959362221 0 -0.15412013754391071 0.1247881953508177 0 -0.13018924612685151 0.11525959362221 0 -0.14051522649376541 0.12923163548774511 0 -0.15642727670496029 0.1106632219411303 0 -0.13018924612685151 0.11525959362221 0 -0.15642727670496029 0.1106632219411303 0 -0.15412013754391071 0.1247881953508177 0 -0.13018924612685151 0.11525959362221 0 -0.13018924612685151 0.11525959362221 0 -0.14051522649376541 0.12923163548774511 0 -0.12121807963634181 0.1265796468657556 0 -0.14377557831328561 0.1004171445725381 0 -0.13018924612685151 0.11525959362221 0 -0.12741208676895829 0.09382334719964236 0 -0.14377557831328561 0.1004171445725381 0 -0.12741208676895829 0.09382334719964236 0 -0.1423444188827491 0.086204089979788581 0 -0.1423444188827491 0.086204089979788581 0 -0.13817464221187359 0.072773266467262981 0 -0.12218397468258919 0.076272709839657532 0 -0.12741208676895829 0.09382334719964236 0 -0.1423444188827491 0.086204089979788581 0 -0.12218397468258919 0.076272709839657532 0 -0.1423444188827491 0.086204089979788581 0 -0.12218397468258919 0.076272709839657532 0 -0.15665553298147011 0.082581178984143674 0 -0.1625048630829091 0.096135470119919658 0 -0.1423444188827491 0.086204089979788581 0 -0.1625048630829091 0.096135470119919658 0 -0.1423444188827491 0.086204089979788581 0 -0.15665553298147011 0.082581178984143674 0 -0.1423444188827491 0.086204089979788581 0 -0.13817464221187359 0.072773266467262981 0 -0.15665553298147011 0.082581178984143674 0 -0.1583348620713553 0.067914436856566743 0 -0.13817464221187359 0.072773266467262981 0 -0.1583348620713553 0.067914436856566743 0 -0.13817464221187359 0.072773266467262981 0 -0.13714393614504991 0.054269088739154848 0 -0.13817464221187359 0.072773266467262981 0 -0.12218397468258919 0.076272709839657532 0 -0.124323531508443 0.065513050878002008 0 -0.13817464221187359 0.072773266467262981 0 -0.13714393614504991 0.054269088739154848 0 -0.124323531508443 0.065513050878002008 0 -0.13714393614504991 0.054269088739154848 0 -0.124323531508443 0.065513050878002008 0 -0.13714393614504991 0.054269088739154848 0 -0.11764372953864061 0.041712435555085289 0 -0.1583348620713553 0.067914436856566743 0 -0.13714393614504991 0.054269088739154848 0 -0.1596787822321232 0.034505207380513582 0 -0.13714393614504991 0.054269088739154848 0 -0.124323531508443 0.065513050878002008 0 -0.1145734282052384 0.059234724285966878 0 -0.13714393614504991 0.054269088739154848 0 -0.13361656733593111 0.039351270495596183 0 -0.11764372953864061 0.041712435555085289 0 -0.13361656733593111 0.039351270495596183 0 -0.12637229316586379 0.025285514273861161 0 -0.1185779543477497 0.036380790525106933 0 -0.13714393614504991 0.054269088739154848 0 -0.1596787822321232 0.034505207380513582 0 -0.13714393614504991 0.054269088739154848 0 -0.13361656733593111 0.039351270495596183 0 -0.1596787822321232 0.034505207380513582 0 -0.13361656733593111 0.039351270495596183 0 -0.14130902608189841 0.025375038274380281 0 -0.1596787822321232 0.034505207380513582 0 -0.1583348620713553 0.067914436856566743 0 -0.13714393614504991 0.054269088739154848 0 -0.14316050255274121 -0.00029168652766420469 0 -0.1263847071420727 -0.00049017928581041167 0 -0.1332746325294013 0.012137924493903289 0 -0.1263847071420727 -0.00049017928581041167 0 -0.1332746325294013 0.012137924493903289 0 -0.1185294306974773 0.013044611416325329 0 -0.1332746325294013 0.012137924493903289 0 -0.12637229316586379 0.025285514273861161 0 -0.14130902608189841 0.025375038274380281 0 -0.1332746325294013 0.012137924493903289 0 -0.12637229316586379 0.025285514273861161 0 -0.1185294306974773 0.013044611416325329 0 -0.13361656733593111 0.039351270495596183 0 -0.12637229316586379 0.025285514273861161 0 -0.14130902608189841 0.025375038274380281 0 -0.1332746325294013 0.012137924493903289 0 -0.14130902608189841 0.025375038274380281 0 -0.1540002186825063 0.014047937410555 0 -0.14130902608189841 0.025375038274380281 0 -0.1540002186825063 0.014047937410555 0 -0.1596787822321232 0.034505207380513582 0 -0.14316050255274121 -0.00029168652766420469 0 -0.1332746325294013 0.012137924493903289 0 -0.1540002186825063 0.014047937410555 0 -0.14316050255274121 -0.00029168652766420469 0 -0.1643647403796791 -0.002180185179673185 0 -0.1540002186825063 0.014047937410555 0 -0.1643647403796791 -0.002180185179673185 0 -0.1540002186825063 0.014047937410555 0 -0.18221362831919469 0.014741326021870249 0 -0.1540002186825063 0.014047937410555 0 -0.18221362831919469 0.014741326021870249 0 -0.1596787822321232 0.034505207380513582 0 -0.18221362831919469 0.014741326021870249 0 -0.1596787822321232 0.034505207380513582 0 -0.18221362831919469 0.014741326021870249 0 -0.17983492728498601 0.034115309409750022 0 -0.1985577373956644 0.035363499557714159 0 -0.18221362831919469 0.014741326021870249 0 -0.1596787822321232 0.034505207380513582 0 -0.17983492728498601 0.034115309409750022 0 -0.1643647403796791 -0.002180185179673185 0 -0.18844860492981441 -0.0067593314437991887 0 -0.18221362831919469 0.014741326021870249 0 -0.1583348620713553 0.067914436856566743 0 -0.1596787822321232 0.034505207380513582 0 -0.1831157624949859 0.053391153854108642 0 -0.1596787822321232 0.034505207380513582 0 -0.17983492728498601 0.034115309409750022 0 -0.1831157624949859 0.053391153854108642 0 -0.17983492728498601 0.034115309409750022 0 -0.1831157624949859 0.053391153854108642 0 -0.1985577373956644 0.035363499557714159 0 -0.1831157624949859 0.053391153854108642 0 -0.2111105007939762 0.053874776456230157 0 -0.1979902716776607 0.076162042690907025 0 -0.1831157624949859 0.053391153854108642 0 -0.1985577373956644 0.035363499557714159 0 -0.2111105007939762 0.053874776456230157 0 -0.1985577373956644 0.035363499557714159 0 -0.2111105007939762 0.053874776456230157 0 -0.21804237866986739 0.03059940834959516 0 -0.20474847440626631 -0.005022555336773038 0 -0.18221362831919469 0.014741326021870249 0 -0.20593793934076021 0.016640863776797341 0 -0.20474847440626631 -0.005022555336773038 0 -0.18221362831919469 0.014741326021870249 0 -0.18844860492981441 -0.0067593314437991887 0 -0.20474847440626631 -0.005022555336773038 0 -0.18221362831919469 0.014741326021870249 0 -0.18221362831919469 0.014741326021870249 0 -0.1985577373956644 0.035363499557714159 0 -0.20593793934076021 0.016640863776797341 0 -0.1985577373956644 0.035363499557714159 0 -0.21804237866986739 0.03059940834959516 0 -0.20593793934076021 0.016640863776797341 0 -0.21804237866986739 0.03059940834959516 0 -0.20593793934076021 0.016640863776797341 0 -0.22612747791280821 0.0075226402915801599 0 -0.20474847440626631 -0.005022555336773038 0 -0.20593793934076021 0.016640863776797341 0 -0.22612747791280821 0.0075226402915801599 0 -0.21804237866986739 0.03059940834959516 0 -0.22612747791280821 0.0075226402915801599 0 -0.2393070426154143 0.027523082989801981 0 -0.25647799655420422 0.01978384053654646 0 -0.2393070426154143 0.027523082989801981 0 -0.24726539525988339 0.0072649071471831209 0 -0.22612747791280821 0.0075226402915801599 0 -0.2393070426154143 0.027523082989801981 0 -0.24726539525988339 0.0072649071471831209 0 -0.24177990985366549 -0.011629590456526629 0 -0.22612747791280821 0.0075226402915801599 0 -0.24726539525988339 0.0072649071471831209 0 -0.2111105007939762 0.053874776456230157 0 -0.23195978589863259 0.060571960103060513 0 -0.2278538655154588 0.044628248000917893 0 -0.2111105007939762 0.053874776456230157 0 -0.21804237866986739 0.03059940834959516 0 -0.2278538655154588 0.044628248000917893 0 -0.21804237866986739 0.03059940834959516 0 -0.2393070426154143 0.027523082989801981 0 -0.2278538655154588 0.044628248000917893 0 -0.2393070426154143 0.027523082989801981 0 -0.2278538655154588 0.044628248000917893 0 -0.24432076280216031 0.047166806547741247 0 -0.25691003956320763 0.034789260552451219 0 -0.2393070426154143 0.027523082989801981 0 -0.24432076280216031 0.047166806547741247 0 -0.25141454691245541 0.068485355368996928 0 -0.23195978589863259 0.060571960103060513 0 -0.24432076280216031 0.047166806547741247 0 -0.23195978589863259 0.060571960103060513 0 -0.2278538655154588 0.044628248000917893 0 -0.24432076280216031 0.047166806547741247 0 -0.25141454691245541 0.068485355368996928 0 -0.23195978589863259 0.060571960103060513 0 -0.23670332581959061 0.076605129954291584 0 -0.23670332581959061 0.076605129954291584 0 -0.24494597820556269 0.089809247836881045 0 -0.2292677493610768 0.088049253468380509 0 -0.25141454691245541 0.068485355368996928 0 -0.23670332581959061 0.076605129954291584 0 -0.24494597820556269 0.089809247836881045 0 -0.23670332581959061 0.076605129954291584 0 -0.2292677493610768 0.088049253468380509 0 -0.217143919035826 0.077953849656657581 0 -0.2292677493610768 0.088049253468380509 0 -0.217143919035826 0.077953849656657581 0 -0.21215389034654011 0.094337570308095142 0 -0.24494597820556269 0.089809247836881045 0 -0.2292677493610768 0.088049253468380509 0 -0.22096795558041299 0.101466327034389 0 -0.23195978589863259 0.060571960103060513 0 -0.23670332581959061 0.076605129954291584 0 -0.217143919035826 0.077953849656657581 0 -0.2111105007939762 0.053874776456230157 0 -0.23195978589863259 0.060571960103060513 0 -0.217143919035826 0.077953849656657581 0 -0.2111105007939762 0.053874776456230157 0 -0.217143919035826 0.077953849656657581 0 -0.1979902716776607 0.076162042690907025 0 -0.217143919035826 0.077953849656657581 0 -0.20722257555807549 0.085790558470320619 0 -0.1979902716776607 0.076162042690907025 0 -0.217143919035826 0.077953849656657581 0 -0.20722257555807549 0.085790558470320619 0 -0.21215389034654011 0.094337570308095142 0 -0.20722257555807549 0.085790558470320619 0 -0.20071671392396551 0.095205133091391739 0 -0.21215389034654011 0.094337570308095142 0 -0.20722257555807549 0.085790558470320619 0 -0.1979902716776607 0.076162042690907025 0 -0.20071671392396551 0.095205133091391739 0 -0.17952578799766031 0.081559784973979199 0 -0.1979902716776607 0.076162042690907025 0 -0.20071671392396551 0.095205133091391739 0 -0.17952578799766031 0.081559784973979199 0 -0.20071671392396551 0.095205133091391739 0 -0.1826172944347213 0.1201107624509782 0 -0.19698993295526279 0.11312340623189571 0 -0.1977441149967239 0.1268975036403803 0 -0.1826172944347213 0.1201107624509782 0 -0.19698993295526279 0.11312340623189571 0 -0.18266530728306909 0.1060668502600506 0 -0.19698993295526279 0.11312340623189571 0 -0.17952578799766031 0.081559784973979199 0 -0.18266530728306909 0.1060668502600506 0 -0.20071671392396551 0.095205133091391739 0 -0.18266530728306909 0.1060668502600506 0 -0.2021924402107014 0.1026460919628889 0 -0.18266530728306909 0.1060668502600506 0 -0.19698993295526279 0.11312340623189571 0 -0.2021924402107014 0.1026460919628889 0 -0.18266530728306909 0.1060668502600506 0 -0.20071671392396551 0.095205133091391739 0 -0.2021924402107014 0.1026460919628889 0 -0.19698993295526279 0.11312340623189571 0 -0.2021924402107014 0.1026460919628889 0 -0.22096795558041299 0.101466327034389 0 -0.2021924402107014 0.1026460919628889 0 -0.21215389034654011 0.094337570308095142 0 -0.22096795558041299 0.101466327034389 0 -0.19698993295526279 0.11312340623189571 0 -0.21753024661664619 0.1134097028435047 0 -0.22096795558041299 0.101466327034389 0 -0.19698993295526279 0.11312340623189571 0 -0.22096795558041299 0.101466327034389 0 -0.20071671392396551 0.095205133091391739 0 -0.2021924402107014 0.1026460919628889 0 -0.21215389034654011 0.094337570308095142 0 -0.19698993295526279 0.11312340623189571 0 -0.21753024661664619 0.1134097028435047 0 -0.2235812100826243 0.12622272482534491 0 -0.19698993295526279 0.11312340623189571 0 -0.2235812100826243 0.12622272482534491 0 -0.1977441149967239 0.1268975036403803 0 -0.19698993295526279 0.11312340623189571 0 -0.2235812100826243 0.12622272482534491 0 -0.2285818878482834 0.11282635328239141 0 -0.24359769406687889 0.1204805110666855 0 -0.2235812100826243 0.12622272482534491 0 -0.21753024661664619 0.1134097028435047 0 -0.2285818878482834 0.11282635328239141 0 -0.2235812100826243 0.12622272482534491 0 -0.24494597820556269 0.089809247836881045 0 -0.22096795558041299 0.101466327034389 0 -0.2370229009237701 0.10163897871457719 0 -0.2292677493610768 0.088049253468380509 0 -0.21215389034654011 0.094337570308095142 0 -0.22096795558041299 0.101466327034389 0 -0.2285818878482834 0.11282635328239141 0 -0.22096795558041299 0.101466327034389 0 -0.2370229009237701 0.10163897871457719 0 -0.24494597820556269 0.089809247836881045 0 -0.22096795558041299 0.101466327034389 0 -0.21753024661664619 0.1134097028435047 0 -0.2285818878482834 0.11282635328239141 0 -0.22096795558041299 0.101466327034389 0 -0.25580746141146998 0.10565197628936319 0 -0.24494597820556269 0.089809247836881045 0 -0.2370229009237701 0.10163897871457719 0 -0.25580746141146998 0.10565197628936319 0 -0.2370229009237701 0.10163897871457719 0 -0.24359769406687889 0.1204805110666855 0 -0.2285818878482834 0.11282635328239141 0 -0.2370229009237701 0.10163897871457719 0 -0.24359769406687889 0.1204805110666855 0 -0.2370229009237701 0.10163897871457719 0 -0.24359769406687889 0.1204805110666855 0 -0.25017248720998547 0.13932204341879451 0 -0.2235812100826243 0.12622272482534491 0 -0.24145261229141349 0.14830929438388671 0 -0.25017248720998547 0.13932204341879451 0 -0.24359769406687889 0.1204805110666855 0 -0.25017248720998547 0.13932204341879451 0 -0.24359769406687889 0.1204805110666855 0 -0.2235812100826243 0.12622272482534491 0 -0.25017248720998547 0.13932204341879451 0 -0.2235812100826243 0.12622272482534491 0 -0.2235812100826243 0.12622272482534491 0 -0.22736479673936169 0.1500203349805142 0 -0.21367110371086609 0.1465963056351815 0 -0.2235812100826243 0.12622272482534491 0 -0.22736479673936169 0.1500203349805142 0 -0.24145261229141349 0.14830929438388671 0 -0.22736479673936169 0.1500203349805142 0 -0.21367110371086609 0.1465963056351815 0 -0.21796468700199309 0.15597643142779791 0 -0.22736479673936169 0.1500203349805142 0 -0.24145261229141349 0.14830929438388671 0 -0.24009796861540911 0.16075806295817191 0 -0.25708097535247759 0.15911985302399939 0 -0.24145261229141349 0.14830929438388671 0 -0.24738686583330791 0.15920414664019819 0 -0.25708097535247759 0.15911985302399939 0 -0.25017248720998547 0.13932204341879451 0 -0.24145261229141349 0.14830929438388671 0 -0.24145261229141349 0.14830929438388671 0 -0.24738686583330791 0.15920414664019819 0 -0.24009796861540911 0.16075806295817191 0 -0.25091590707393119 0.16862937619473481 0 -0.24738686583330791 0.15920414664019819 0 -0.24009796861540911 0.16075806295817191 0 -0.25091590707393119 0.16862937619473481 0 -0.24009796861540911 0.16075806295817191 0 -0.23853909127446729 0.1739259629234422 0 -0.24009796861540911 0.16075806295817191 0 -0.23853909127446729 0.1739259629234422 0 -0.22964201816051669 0.18341056342198689 0 -0.24009796861540911 0.16075806295817191 0 -0.22964201816051669 0.18341056342198689 0 -0.25091590707393119 0.16862937619473481 0 -0.23853909127446729 0.1739259629234422 0 -0.23350047124801171 0.18290584911887189 0 -0.25091590707393119 0.16862937619473481 0 -0.23350047124801171 0.18290584911887189 0 -0.25091590707393119 0.16862937619473481 0 -0.24874496737149099 0.18091175587403899 0 -0.23350047124801171 0.18290584911887189 0 -0.25501052529300627 0.18594619292738371 0 -0.24874496737149099 0.18091175587403899 0 -0.24335811083150821 0.18966417318239151 0 -0.24874496737149099 0.18091175587403899 0 -0.23350047124801171 0.18290584911887189 0 -0.24335811083150821 0.18966417318239151 0 -0.24874496737149099 0.18091175587403899 0 -0.23350047124801171 0.18290584911887189 0 -0.22964201816051669 0.18341056342198689 0 -0.21116591352686659 0.18582737504648611 0 -0.2185508450609896 0.17453189847929551 0 -0.22964201816051669 0.18341056342198689 0 -0.21116591352686659 0.18582737504648611 0 -0.22964201816051669 0.18341056342198689 0 -0.2252576084460213 0.1643652158684494 0 -0.2185508450609896 0.17453189847929551 0 -0.22964201816051669 0.18341056342198689 0 -0.21116591352686659 0.18582737504648611 0 -0.2276681038916506 0.18768698899265679 0 -0.23853909127446729 0.1739259629234422 0 -0.23350047124801171 0.18290584911887189 0 -0.22964201816051669 0.18341056342198689 0 -0.23350047124801171 0.18290584911887189 0 -0.22964201816051669 0.18341056342198689 0 -0.2276681038916506 0.18768698899265679 0 -0.22964201816051669 0.18341056342198689 0 -0.2276681038916506 0.18768698899265679 0 -0.23350047124801171 0.18290584911887189 0 -0.2276681038916506 0.18768698899265679 0 -0.23350047124801171 0.18290584911887189 0 -0.22964201816051669 0.18341056342198689 0 -0.24009796861540911 0.16075806295817191 0 -0.22964201816051669 0.18341056342198689 0 -0.2252576084460213 0.1643652158684494 0 -0.22736479673936169 0.1500203349805142 0 -0.24009796861540911 0.16075806295817191 0 -0.2252576084460213 0.1643652158684494 0 -0.2252576084460213 0.1643652158684494 0 -0.21429173603059881 0.16640755401467469 0 -0.2185508450609896 0.17453189847929551 0 -0.22736479673936169 0.1500203349805142 0 -0.2252576084460213 0.1643652158684494 0 -0.21796468700199309 0.15597643142779791 0 -0.2252576084460213 0.1643652158684494 0 -0.21429173603059881 0.16640755401467469 0 -0.21796468700199309 0.15597643142779791 0 -0.21429173603059881 0.16640755401467469 0 -0.20887130959349839 0.1586918122766042 0 -0.21796468700199309 0.15597643142779791 0 -0.21429173603059881 0.16640755401467469 0 -0.2185508450609896 0.17453189847929551 0 -0.21218475677960799 0.1743431263909494 0 -0.21429173603059881 0.16640755401467469 0 -0.2047305324999773 0.1706056780233409 0 -0.21218475677960799 0.1743431263909494 0 -0.21429173603059881 0.16640755401467469 0 -0.2047305324999773 0.1706056780233409 0 -0.20887130959349839 0.1586918122766042 0 -0.2047305324999773 0.1706056780233409 0 -0.20887130959349839 0.1586918122766042 0 -0.19967946892385219 0.16148694578100611 0 -0.20887130959349839 0.1586918122766042 0 -0.19967946892385219 0.16148694578100611 0 -0.20289032939370291 0.15107795877762431 0 -0.21116591352686659 0.18582737504648611 0 -0.19527387548257649 0.1879061715809266 0 -0.21116591352686659 0.18582737504648611 0 -0.2185508450609896 0.17453189847929551 0 -0.21218475677960799 0.1743431263909494 0 -0.2047305324999773 0.1706056780233409 0 -0.21116591352686659 0.18582737504648611 0 -0.21218475677960799 0.1743431263909494 0 -0.21116591352686659 0.18582737504648611 0 -0.18795973998801979 0.16723773906539319 0 -0.18795973998801979 0.16723773906539319 0 -0.19527387548257649 0.1879061715809266 0 -0.21116591352686659 0.18582737504648611 0 -0.18795973998801979 0.16723773906539319 0 -0.19527387548257649 0.1879061715809266 0 -0.2047305324999773 0.1706056780233409 0 -0.21116591352686659 0.18582737504648611 0 -0.18795973998801979 0.16723773906539319 0 -0.2047305324999773 0.1706056780233409 0 -0.19967946892385219 0.16148694578100611 0 -0.18795973998801979 0.16723773906539319 0 -0.18795973998801979 0.16723773906539319 0 -0.19081377744495659 0.16169287162107721 0 -0.18646047222354659 0.16603672925939969 0 -0.18795973998801979 0.16723773906539319 0 -0.19081377744495659 0.16169287162107721 0 -0.19967946892385219 0.16148694578100611 0 -0.19081377744495659 0.16169287162107721 0 -0.19179178108866779 0.15065897978784151 0 -0.19967946892385219 0.16148694578100611 0 -0.18795973998801979 0.16723773906539319 0 -0.19081377744495659 0.16169287162107721 0 -0.19179178108866779 0.15065897978784151 0 -0.20119741986716891 0.1391846619492805 0 -0.18433471764384141 0.13584596274440411 0 -0.19081377744495659 0.16169287162107721 0 -0.19179178108866779 0.15065897978784151 0 -0.18239892052111031 0.15461677522852149 0 -0.19967946892385219 0.16148694578100611 0 -0.19179178108866779 0.15065897978784151 0 -0.20289032939370291 0.15107795877762431 0 -0.19179178108866779 0.15065897978784151 0 -0.20289032939370291 0.15107795877762431 0 -0.20119741986716891 0.1391846619492805 0 -0.1826172944347213 0.1201107624509782 0 -0.1977441149967239 0.1268975036403803 0 -0.18433471764384141 0.13584596274440411 0 -0.1977441149967239 0.1268975036403803 0 -0.20119741986716891 0.1391846619492805 0 -0.18433471764384141 0.13584596274440411 0 -0.2235812100826243 0.12622272482534491 0 -0.1977441149967239 0.1268975036403803 0 -0.20119741986716891 0.1391846619492805 0 -0.2235812100826243 0.12622272482534491 0 -0.20119741986716891 0.1391846619492805 0 -0.21367110371086609 0.1465963056351815 0 -0.20887130959349839 0.1586918122766042 0 -0.21367110371086609 0.1465963056351815 0 -0.21796468700199309 0.15597643142779791 0 -0.20887130959349839 0.1586918122766042 0 -0.20289032939370291 0.15107795877762431 0 -0.21367110371086609 0.1465963056351815 0 -0.20289032939370291 0.15107795877762431 0 -0.20119741986716891 0.1391846619492805 0 -0.21367110371086609 0.1465963056351815 0 -0.23481477815490251 0.24337266251761661 0 -0.22311272170392121 0.22943244724368739 0 -0.2167943809903882 0.24130682058119771 0 -0.22326236342202119 0.25735637199373929 0 -0.2167943809903882 0.24130682058119771 0 -0.22326236342202119 0.25735637199373929 0 -0.23481477815490251 0.24337266251761661 0 -0.2167943809903882 0.24130682058119771 0 -0.25174121177602782 0.2498917316032101 0 -0.23481477815490251 0.24337266251761661 0 -0.23582014818657929 0.22502297066265151 0 -0.25880771652771423 0.22585694761766101 0 -0.25174121177602782 0.2498917316032101 0 -0.23582014818657929 0.22502297066265151 0 -0.25880771652771423 0.22585694761766101 0 -0.23582014818657929 0.22502297066265151 0 -0.24593220940753249 0.2120454216302779 0 -0.23481477815490251 0.24337266251761661 0 -0.23582014818657929 0.22502297066265151 0 -0.22311272170392121 0.22943244724368739 0 -0.23582014818657929 0.22502297066265151 0 -0.22311272170392121 0.22943244724368739 0 -0.218997251225202 0.20647212908065629 0 -0.23582014818657929 0.22502297066265151 0 -0.218997251225202 0.20647212908065629 0 -0.23168712448680709 0.2014071277210718 0 -0.23582014818657929 0.22502297066265151 0 -0.24593220940753249 0.2120454216302779 0 -0.23168712448680709 0.2014071277210718 0 -0.25888613326370691 0.2079192455447646 0 -0.24593220940753249 0.2120454216302779 0 -0.2444599245728549 0.2000208166052404 0 -0.24593220940753249 0.2120454216302779 0 -0.2444599245728549 0.2000208166052404 0 -0.23168712448680709 0.2014071277210718 0 -0.2444599245728549 0.2000208166052404 0 -0.2361347470061663 0.19233699112404631 0 -0.23168712448680709 0.2014071277210718 0 -0.25616115666541911 0.1940366335829137 0 -0.2444599245728549 0.2000208166052404 0 -0.24335811083150821 0.18966417318239151 0 -0.2444599245728549 0.2000208166052404 0 -0.24335811083150821 0.18966417318239151 0 -0.2361347470061663 0.19233699112404631 0 -0.23350047124801171 0.18290584911887189 0 -0.24335811083150821 0.18966417318239151 0 -0.2361347470061663 0.19233699112404631 0 -0.218997251225202 0.20647212908065629 0 -0.2276681038916506 0.18768698899265679 0 -0.21116591352686659 0.18582737504648611 0 -0.2276681038916506 0.18768698899265679 0 -0.21778948892696409 0.19113328450092651 0 -0.218997251225202 0.20647212908065629 0 -0.2276681038916506 0.18768698899265679 0 -0.21545995523534381 0.19769473760645759 0 -0.23350047124801171 0.18290584911887189 0 -0.2361347470061663 0.19233699112404631 0 -0.2276681038916506 0.18768698899265679 0 -0.2361347470061663 0.19233699112404631 0 -0.2276681038916506 0.18768698899265679 0 -0.23168712448680709 0.2014071277210718 0 -0.218997251225202 0.20647212908065629 0 -0.2276681038916506 0.18768698899265679 0 -0.23168712448680709 0.2014071277210718 0 -0.2276681038916506 0.18768698899265679 0 -0.21778948892696409 0.19113328450092651 0 -0.21545995523534381 0.19769473760645759 0 -0.2276681038916506 0.18768698899265679 0 -0.21545995523534381 0.19769473760645759 0 -0.21116591352686659 0.18582737504648611 0 -0.20858820795015751 0.19405281099101079 0 -0.19527387548257649 0.1879061715809266 0 -0.21778948892696409 0.19113328450092651 0 -0.21545995523534381 0.19769473760645759 0 -0.20858820795015751 0.19405281099101079 0 -0.21116591352686659 0.18582737504648611 0 -0.21778948892696409 0.19113328450092651 0 -0.20858820795015751 0.19405281099101079 0 -0.21116591352686659 0.18582737504648611 0 -0.21778948892696409 0.19113328450092651 0 -0.21545995523534381 0.19769473760645759 0 -0.20325180657903569 0.20770248622025661 0 -0.21545995523534381 0.19769473760645759 0 -0.20858820795015751 0.19405281099101079 0 -0.20325180657903569 0.20770248622025661 0 -0.19527387548257649 0.1879061715809266 0 -0.20325180657903569 0.20770248622025661 0 -0.20858820795015751 0.19405281099101079 0 -0.19527387548257649 0.1879061715809266 0 -0.20325180657903569 0.20770248622025661 0 -0.19527387548257649 0.1879061715809266 0 -0.20325180657903569 0.20770248622025661 0 -0.18472355934948859 0.20609435970951151 0 -0.20325180657903569 0.20770248622025661 0 -0.18242338899837091 0.22477678413707439 0 -0.20325180657903569 0.20770248622025661 0 -0.18242338899837091 0.22477678413707439 0 -0.18472355934948859 0.20609435970951151 0 -0.218997251225202 0.20647212908065629 0 -0.21545995523534381 0.19769473760645759 0 -0.20325180657903569 0.20770248622025661 0 -0.20325180657903569 0.20770248622025661 0 -0.21032639855875451 0.22525726916865629 0 -0.218997251225202 0.20647212908065629 0 -0.21032639855875451 0.22525726916865629 0 -0.218997251225202 0.20647212908065629 0 -0.20325180657903569 0.20770248622025661 0 -0.21032639855875451 0.22525726916865629 0 -0.20325180657903569 0.20770248622025661 0 -0.21032639855875451 0.22525726916865629 0 -0.19728710102946001 0.22739512342783569 0 -0.21032639855875451 0.22525726916865629 0 -0.20514910324424529 0.23647372290178439 0 -0.2167943809903882 0.24130682058119771 0 -0.21032639855875451 0.22525726916865629 0 -0.2167943809903882 0.24130682058119771 0 -0.22311272170392121 0.22943244724368739 0 -0.21032639855875451 0.22525726916865629 0 -0.2167943809903882 0.24130682058119771 0 -0.22311272170392121 0.22943244724368739 0 -0.218997251225202 0.20647212908065629 0 -0.21032639855875451 0.22525726916865629 0 -0.21032639855875451 0.22525726916865629 0 -0.20514910324424529 0.23647372290178439 0 -0.21032639855875451 0.22525726916865629 0 -0.19728710102946001 0.22739512342783569 0 -0.20514910324424529 0.23647372290178439 0 -0.20325180657903569 0.20770248622025661 0 -0.19728710102946001 0.22739512342783569 0 -0.18242338899837091 0.22477678413707439 0 -0.19728710102946001 0.22739512342783569 0 -0.18712984602200741 0.2463238735196033 0 -0.18242338899837091 0.22477678413707439 0 -0.19728710102946001 0.22739512342783569 0 -0.20514910324424529 0.23647372290178439 0 -0.18712984602200741 0.2463238735196033 0 -0.20641207343396001 0.24978112053115251 0 -0.20514910324424529 0.23647372290178439 0 -0.18712984602200741 0.2463238735196033 0 -0.20641207343396001 0.24978112053115251 0 -0.20514910324424529 0.23647372290178439 0 -0.2167943809903882 0.24130682058119771 0 -0.22326236342202119 0.25735637199373929 0 -0.20641207343396001 0.24978112053115251 0 -0.2167943809903882 0.24130682058119771 0 -0.16159497141770501 0.24185108205389069 0 -0.18712984602200741 0.2463238735196033 0 -0.18242338899837091 0.22477678413707439 0 -0.16159497141770501 0.24185108205389069 0 -0.18242338899837091 0.22477678413707439 0 -0.16159497141770501 0.24185108205389069 0 -0.18242338899837091 0.22477678413707439 0 -0.16427242976835429 0.2132578061675664 0 -0.16427242976835429 0.2132578061675664 0 -0.15251949180269739 0.23609159306913749 0 -0.16159497141770501 0.24185108205389069 0 -0.16427242976835429 0.2132578061675664 0 -0.15251949180269739 0.23609159306913749 0 -0.16427242976835429 0.2132578061675664 0 -0.18472355934948859 0.20609435970951151 0 -0.17602536773401181 0.19042401926599559 0 -0.18242338899837091 0.22477678413707439 0 -0.16427242976835429 0.2132578061675664 0 -0.18472355934948859 0.20609435970951151 0 -0.19527387548257649 0.1879061715809266 0 -0.17602536773401181 0.19042401926599559 0 -0.19527387548257649 0.1879061715809266 0 -0.18472355934948859 0.20609435970951151 0 -0.17602536773401181 0.19042401926599559 0 -0.17602536773401181 0.19042401926599559 0 -0.15407411821536751 0.19329540563562581 0 -0.16427242976835429 0.2132578061675664 0 -0.17602536773401181 0.19042401926599559 0 -0.16427242976835429 0.2132578061675664 0 -0.17602536773401181 0.19042401926599559 0 -0.15407411821536751 0.19329540563562581 0 -0.15407411821536751 0.19329540563562581 0 -0.1321228686967231 0.19616679200525469 0 -0.1416823402619288 0.17671792503185871 0 -0.15407411821536751 0.19329540563562581 0 -0.1321228686967231 0.19616679200525469 0 -0.15407411821536751 0.19329540563562581 0 -0.1321228686967231 0.19616679200525469 0 -0.14746353563173059 0.21195855617643161 0 -0.1321228686967231 0.19616679200525469 0 -0.14746353563173059 0.21195855617643161 0 -0.13432876967551061 0.22098118400457381 0 -0.1321228686967231 0.19616679200525469 0 -0.13432876967551061 0.22098118400457381 0 -0.118353142381835 0.2152096210581021 0 -0.16427242976835429 0.2132578061675664 0 -0.15407411821536751 0.19329540563562581 0 -0.14746353563173059 0.21195855617643161 0 -0.14746353563173059 0.21195855617643161 0 -0.13432876967551061 0.22098118400457381 0 -0.15251949180269739 0.23609159306913749 0 -0.16427242976835429 0.2132578061675664 0 -0.14746353563173059 0.21195855617643161 0 -0.15251949180269739 0.23609159306913749 0 -0.13432876967551061 0.22098118400457381 0 -0.13450298872509811 0.23821720882731309 0 -0.15251949180269739 0.23609159306913749 0 -0.13432876967551061 0.22098118400457381 0 -0.13450298872509811 0.23821720882731309 0 -0.11597890663451919 0.23535889101036181 0 -0.1407665538370397 0.25892537997070791 0 -0.1244632804639286 0.25002572834587927 0 -0.13450298872509811 0.23821720882731309 0 -0.1407665538370397 0.25892537997070791 0 -0.16159497141770501 0.24185108205389069 0 -0.15251949180269739 0.23609159306913749 0 -0.1407665538370397 0.25892537997070791 0 -0.13450298872509811 0.23821720882731309 0 -0.15251949180269739 0.23609159306913749 0 -0.1407665538370397 0.25892537997070791 0 -0.15251949180269739 0.23609159306913749 0 -0.15412013754391071 0.1247881953508177 0 -0.1634878493586561 0.1476341823735722 0 -0.16824465591417909 0.1270981186700596 0 -0.1634878493586561 0.1476341823735722 0 -0.16824465591417909 0.1270981186700596 0 -0.17387721080877541 0.13930972795558169 0 -0.1826172944347213 0.1201107624509782 0 -0.16824465591417909 0.1270981186700596 0 -0.18433471764384141 0.13584596274440411 0 -0.16824465591417909 0.1270981186700596 0 -0.17387721080877541 0.13930972795558169 0 -0.18433471764384141 0.13584596274440411 0 -0.17387721080877541 0.13930972795558169 0 -0.18433471764384141 0.13584596274440411 0 -0.179441620318425 0.1466606480342911 0 -0.1634878493586561 0.1476341823735722 0 -0.17387721080877541 0.13930972795558169 0 -0.179441620318425 0.1466606480342911 0 -0.19179178108866779 0.15065897978784151 0 -0.18433471764384141 0.13584596274440411 0 -0.179441620318425 0.1466606480342911 0 -0.1634878493586561 0.1476341823735722 0 -0.179441620318425 0.1466606480342911 0 -0.18239892052111031 0.15461677522852149 0 -0.1634878493586561 0.1476341823735722 0 -0.18239892052111031 0.15461677522852149 0 -0.18646047222354659 0.16603672925939969 0 -0.19179178108866779 0.15065897978784151 0 -0.179441620318425 0.1466606480342911 0 -0.18239892052111031 0.15461677522852149 0 -0.19081377744495659 0.16169287162107721 0 -0.18239892052111031 0.15461677522852149 0 -0.18646047222354659 0.16603672925939969 0 -0.1634878493586561 0.1476341823735722 0 -0.18646047222354659 0.16603672925939969 0 -0.1758176103145293 0.17166682376557149 0 -0.1634878493586561 0.1476341823735722 0 -0.18646047222354659 0.16603672925939969 0 -0.18795973998801979 0.16723773906539319 0 -0.18646047222354659 0.16603672925939969 0 -0.1758176103145293 0.17166682376557149 0 -0.18795973998801979 0.16723773906539319 0 -0.18646047222354659 0.16603672925939969 0 -0.18795973998801979 0.16723773906539319 0 -0.19527387548257649 0.1879061715809266 0 -0.17602536773401181 0.19042401926599559 0 -0.18795973998801979 0.16723773906539319 0 -0.17602536773401181 0.19042401926599559 0 -0.18795973998801979 0.16723773906539319 0 -0.17602536773401181 0.19042401926599559 0 -0.1758176103145293 0.17166682376557149 0 -0.17602536773401181 0.19042401926599559 0 -0.15407411821536751 0.19329540563562581 0 -0.1603263152103214 0.17359765925396239 0 -0.17602536773401181 0.19042401926599559 0 -0.1758176103145293 0.17166682376557149 0 -0.1603263152103214 0.17359765925396239 0 -0.1634878493586561 0.1476341823735722 0 -0.1758176103145293 0.17166682376557149 0 -0.1603263152103214 0.17359765925396239 0 -0.1634878493586561 0.1476341823735722 0 -0.1603263152103214 0.17359765925396239 0 -0.14905783369226019 0.16115899639743581 0 -0.14905783369226019 0.16115899639743581 0 -0.1416823402619288 0.17671792503185871 0 -0.13506508199229289 0.15945867628009991 0 -0.1603263152103214 0.17359765925396239 0 -0.14905783369226019 0.16115899639743581 0 -0.1416823402619288 0.17671792503185871 0 -0.14905783369226019 0.16115899639743581 0 -0.13506508199229289 0.15945867628009991 0 -0.14472758163810159 0.14838653904768581 0 -0.15407411821536751 0.19329540563562581 0 -0.1603263152103214 0.17359765925396239 0 -0.1416823402619288 0.17671792503185871 0 -0.1321228686967231 0.19616679200525469 0 -0.1416823402619288 0.17671792503185871 0 -0.11869426416125201 0.17397720934984481 0 -0.1416823402619288 0.17671792503185871 0 -0.13506508199229289 0.15945867628009991 0 -0.11869426416125201 0.17397720934984481 0 -0.13506508199229289 0.15945867628009991 0 -0.12220922280389469 0.1533502612688972 0 -0.11869426416125201 0.17397720934984481 0 -0.132444056512738 0.14582849449777599 0 -0.14472758163810159 0.14838653904768581 0 -0.14051522649376541 0.12923163548774511 0 -0.13506508199229289 0.15945867628009991 0 -0.132444056512738 0.14582849449777599 0 -0.12220922280389469 0.1533502612688972 0 -0.13506508199229289 0.15945867628009991 0 -0.132444056512738 0.14582849449777599 0 -0.14472758163810159 0.14838653904768581 0 -0.1634878493586561 0.1476341823735722 0 -0.14905783369226019 0.16115899639743581 0 -0.14472758163810159 0.14838653904768581 0 -0.1634878493586561 0.1476341823735722 0 -0.14472758163810159 0.14838653904768581 0 -0.14051522649376541 0.12923163548774511 0 -0.1634878493586561 0.1476341823735722 0 -0.14051522649376541 0.12923163548774511 0 -0.15412013754391071 0.1247881953508177 0 -0.1634878493586561 0.1476341823735722 0 -0.14051522649376541 0.12923163548774511 0 -0.132444056512738 0.14582849449777599 0 -0.14051522649376541 0.12923163548774511 0 -0.1197031696356355 0.1387153604044522 0 -0.14051522649376541 0.12923163548774511 0 -0.12121807963634181 0.1265796468657556 0 -0.1197031696356355 0.1387153604044522 0 -0.12121807963634181 0.1265796468657556 0 -0.1197031696356355 0.1387153604044522 0 -0.11173154037671421 0.12983567951108141 0 -0.12121807963634181 0.1265796468657556 0 -0.11173154037671421 0.12983567951108141 0 -0.10395121554874261 0.1198559653032894 0 -0.1197031696356355 0.1387153604044522 0 -0.11173154037671421 0.12983567951108141 0 -0.1010215788564286 0.13657547730715419 0 -0.11173154037671421 0.12983567951108141 0 -0.1010215788564286 0.13657547730715419 0 -0.10395121554874261 0.1198559653032894 0 -0.1010215788564286 0.13657547730715419 0 -0.080360303044457487 0.123988615497546 0 -0.10395121554874261 0.1198559653032894 0 -0.1010215788564286 0.13657547730715419 0 -0.10395121554874261 0.1198559653032894 0 -0.1197031696356355 0.1387153604044522 0 -0.1010215788564286 0.13657547730715419 0 -0.1066645872062513 0.15190718211164039 0 -0.1010215788564286 0.13657547730715419 0 -0.1066645872062513 0.15190718211164039 0 -0.079427652901361251 0.14034166948943549 0 -0.1197031696356355 0.1387153604044522 0 -0.1066645872062513 0.15190718211164039 0 -0.12220922280389469 0.1533502612688972 0 -0.132444056512738 0.14582849449777599 0 -0.1197031696356355 0.1387153604044522 0 -0.12220922280389469 0.1533502612688972 0 -0.1066645872062513 0.15190718211164039 0 -0.12220922280389469 0.1533502612688972 0 -0.11869426416125201 0.17397720934984481 0 -0.11869426416125201 0.17397720934984481 0 -0.098406268527877441 0.1763572876732683 0 -0.1101716191780787 0.19903817837488369 0 -0.1066645872062513 0.15190718211164039 0 -0.098406268527877441 0.1763572876732683 0 -0.087611579619077118 0.15892283998529269 0 -0.1066645872062513 0.15190718211164039 0 -0.11869426416125201 0.17397720934984481 0 -0.098406268527877441 0.1763572876732683 0 -0.087611579619077118 0.15892283998529269 0 -0.079521033167156863 0.17579835759943241 0 -0.071650012921143619 0.1592243547117097 0 -0.098406268527877441 0.1763572876732683 0 -0.087611579619077118 0.15892283998529269 0 -0.079521033167156863 0.17579835759943241 0 -0.098406268527877441 0.1763572876732683 0 -0.079521033167156863 0.17579835759943241 0 -0.087774527835448757 0.19849995861851591 0 -0.079521033167156863 0.17579835759943241 0 -0.0646847764781395 0.19535448712397599 0 -0.060954993497172337 0.17492674758132101 0 -0.079521033167156863 0.17579835759943241 0 -0.071650012921143619 0.1592243547117097 0 -0.060954993497172337 0.17492674758132101 0 -0.071650012921143619 0.1592243547117097 0 -0.058566588981346569 0.158137458612988 0 -0.060954993497172337 0.17492674758132101 0 -0.071650012921143619 0.1592243547117097 0 -0.062556836798592155 0.14577726010020869 0 -0.058566588981346569 0.158137458612988 0 -0.071650012921143619 0.1592243547117097 0 -0.062556836798592155 0.14577726010020869 0 -0.079427652901361251 0.14034166948943549 0 -0.079427652901361251 0.14034166948943549 0 -0.05219071859647105 0.12877615686723129 0 -0.062556836798592155 0.14577726010020869 0 -0.079427652901361251 0.14034166948943549 0 -0.05219071859647105 0.12877615686723129 0 -0.079427652901361251 0.14034166948943549 0 -0.05219071859647105 0.12877615686723129 0 -0.080360303044457487 0.123988615497546 0 -0.1010215788564286 0.13657547730715419 0 -0.079427652901361251 0.14034166948943549 0 -0.080360303044457487 0.123988615497546 0 -0.1066645872062513 0.15190718211164039 0 -0.087611579619077118 0.15892283998529269 0 -0.079427652901361251 0.14034166948943549 0 -0.1066645872062513 0.15190718211164039 0 -0.079427652901361251 0.14034166948943549 0 -0.087611579619077118 0.15892283998529269 0 -0.071650012921143619 0.1592243547117097 0 -0.079427652901361251 0.14034166948943549 0 -0.0958811938507039 0.24696951446888271 0 -0.11597890663451919 0.23535889101036181 0 -0.095422724926931199 0.22206586571089279 0 -0.11094461912570321 0.25403907144483029 0 -0.0958811938507039 0.24696951446888271 0 -0.11597890663451919 0.23535889101036181 0 -0.11094461912570321 0.25403907144483029 0 -0.1244632804639286 0.25002572834587927 0 -0.11597890663451919 0.23535889101036181 0 -0.1244632804639286 0.25002572834587927 0 -0.13450298872509811 0.23821720882731309 0 -0.11597890663451919 0.23535889101036181 0 -0.11597890663451919 0.23535889101036181 0 -0.095422724926931199 0.22206586571089279 0 -0.118353142381835 0.2152096210581021 0 -0.13432876967551061 0.22098118400457381 0 -0.11597890663451919 0.23535889101036181 0 -0.118353142381835 0.2152096210581021 0 -0.095422724926931199 0.22206586571089279 0 -0.1101716191780787 0.19903817837488369 0 -0.087774527835448757 0.19849995861851591 0 -0.095422724926931199 0.22206586571089279 0 -0.118353142381835 0.2152096210581021 0 -0.1101716191780787 0.19903817837488369 0 -0.1321228686967231 0.19616679200525469 0 -0.118353142381835 0.2152096210581021 0 -0.1101716191780787 0.19903817837488369 0 -0.1321228686967231 0.19616679200525469 0 -0.1101716191780787 0.19903817837488369 0 -0.1321228686967231 0.19616679200525469 0 -0.11869426416125201 0.17397720934984481 0 -0.1101716191780787 0.19903817837488369 0 -0.098406268527877441 0.1763572876732683 0 -0.1101716191780787 0.19903817837488369 0 -0.087774527835448757 0.19849995861851591 0 -0.079521033167156863 0.17579835759943241 0 -0.087774527835448757 0.19849995861851591 0 -0.0646847764781395 0.19535448712397599 0 -0.087774527835448757 0.19849995861851591 0 -0.0646847764781395 0.19535448712397599 0 -0.065110819450730953 0.2171960291172009 0 -0.095422724926931199 0.22206586571089279 0 -0.087774527835448757 0.19849995861851591 0 -0.065110819450730953 0.2171960291172009 0 -0.095422724926931199 0.22206586571089279 0 -0.065110819450730953 0.2171960291172009 0 -0.074688865157201911 0.2421888673283023 0 -0.065110819450730953 0.2171960291172009 0 -0.074688865157201911 0.2421888673283023 0 -0.065110819450730953 0.2171960291172009 0 -0.074688865157201911 0.2421888673283023 0 -0.056039444910108982 0.23326121463501551 0 -0.0958811938507039 0.24696951446888271 0 -0.095422724926931199 0.22206586571089279 0 -0.074688865157201911 0.2421888673283023 0 -0.052274387013596317 0.25132234308298201 0 -0.027106111373758499 0.25561905461530432 0 -0.027207926015641509 0.23923675949123241 0 -0.052274387013596317 0.25132234308298201 0 -0.039159580341024618 0.22733039257491211 0 -0.027207926015641509 0.23923675949123241 0 -0.052274387013596317 0.25132234308298201 0 -0.056039444910108982 0.23326121463501551 0 -0.039159580341024618 0.22733039257491211 0 -0.052274387013596317 0.25132234308298201 0 -0.074688865157201911 0.2421888673283023 0 -0.056039444910108982 0.23326121463501551 0 -0.065110819450730953 0.2171960291172009 0 -0.056039444910108982 0.23326121463501551 0 -0.047700407971758861 0.21354271485956219 0 -0.056039444910108982 0.23326121463501551 0 -0.039159580341024618 0.22733039257491211 0 -0.047700407971758861 0.21354271485956219 0 -0.047700407971758861 0.21354271485956219 0 -0.045785484384413773 0.19072132006624351 0 -0.030767062529106461 0.20653075221388581 0 -0.039159580341024618 0.22733039257491211 0 -0.047700407971758861 0.21354271485956219 0 -0.030767062529106461 0.20653075221388581 0 -0.0646847764781395 0.19535448712397599 0 -0.065110819450730953 0.2171960291172009 0 -0.047700407971758861 0.21354271485956219 0 -0.0646847764781395 0.19535448712397599 0 -0.047700407971758861 0.21354271485956219 0 -0.045785484384413773 0.19072132006624351 0 -0.045785484384413773 0.19072132006624351 0 -0.030767062529106461 0.20653075221388581 0 -0.018073373410411511 0.18527643430814431 0 -0.0059438602793955566 0.2092035205245488 0 -0.030767062529106461 0.20653075221388581 0 -0.018073373410411511 0.18527643430814431 0 -0.0059438602793955566 0.2092035205245488 0 -0.018073373410411511 0.18527643430814431 0 0.0023692917363482059 0.18415398960282101 0 -0.0059438602793955566 0.2092035205245488 0 -0.018073373410411511 0.18527643430814431 0 -0.0059438602793955566 0.2092035205245488 0 -0.030767062529106461 0.20653075221388581 0 -0.020646040853168651 0.22125974689584019 0 -0.039159580341024618 0.22733039257491211 0 -0.030767062529106461 0.20653075221388581 0 -0.020646040853168651 0.22125974689584019 0 -0.020646040853168651 0.22125974689584019 0 -0.010266460610361971 0.23718993904542809 0 -0.027207926015641509 0.23923675949123241 0 -0.039159580341024618 0.22733039257491211 0 -0.020646040853168651 0.22125974689584019 0 -0.027207926015641509 0.23923675949123241 0 -0.0059438602793955566 0.2092035205245488 0 -0.020646040853168651 0.22125974689584019 0 -0.010266460610361971 0.23718993904542809 0 -0.0059438602793955566 0.2092035205245488 0 -0.010266460610361971 0.23718993904542809 0 0.0061856528516203851 0.23313060674095321 0 -0.010266460610361971 0.23718993904542809 0 0.00052304254878242677 0.24554969369601529 0 0.0061856528516203851 0.23313060674095321 0 -0.0062925107982489464 0.25777225113449648 0 -0.010266460610361971 0.23718993904542809 0 0.00052304254878242677 0.24554969369601529 0 -0.027106111373758499 0.25561905461530432 0 -0.010266460610361971 0.23718993904542809 0 -0.027106111373758499 0.25561905461530432 0 -0.010266460610361971 0.23718993904542809 0 -0.027207926015641509 0.23923675949123241 0 -0.033950133780696057 0.14477381457558031 0 -0.042332399672442088 0.13742226187533491 0 -0.030202886541427418 0.1613493480917399 0 -0.042332399672442088 0.13742226187533491 0 -0.030202886541427418 0.1613493480917399 0 -0.033950133780696057 0.14477381457558031 0 -0.042332399672442088 0.13742226187533491 0 -0.021581471720250382 0.14113025525291589 0 -0.042332399672442088 0.13742226187533491 0 -0.048561915940185899 0.1502978321535135 0 -0.030202886541427418 0.1613493480917399 0 -0.033950133780696057 0.14477381457558031 0 -0.042332399672442088 0.13742226187533491 0 -0.042332399672442088 0.13742226187533491 0 -0.021581471720250382 0.14113025525291589 0 -0.041643818214213153 0.1242976679106288 0 -0.021581471720250382 0.14113025525291589 0 -0.041643818214213153 0.1242976679106288 0 -0.042332399672442088 0.13742226187533491 0 -0.047685263178454909 0.12686302299826169 0 -0.042332399672442088 0.13742226187533491 0 -0.047685263178454909 0.12686302299826169 0 -0.041643818214213153 0.1242976679106288 0 -0.047685263178454909 0.12686302299826169 0 -0.041643818214213153 0.1242976679106288 0 -0.042332399672442088 0.13742226187533491 0 -0.05219071859647105 0.12877615686723129 0 -0.042332399672442088 0.13742226187533491 0 -0.05219071859647105 0.12877615686723129 0 -0.048561915940185899 0.1502978321535135 0 -0.042332399672442088 0.13742226187533491 0 -0.047685263178454909 0.12686302299826169 0 -0.05219071859647105 0.12877615686723129 0 -0.047685263178454909 0.12686302299826169 0 -0.05219071859647105 0.12877615686723129 0 -0.062556836798592155 0.14577726010020869 0 -0.05219071859647105 0.12877615686723129 0 -0.048561915940185899 0.1502978321535135 0 -0.062556836798592155 0.14577726010020869 0 -0.048561915940185899 0.1502978321535135 0 -0.058566588981346569 0.158137458612988 0 -0.048561915940185899 0.1502978321535135 0 -0.058566588981346569 0.158137458612988 0 -0.045522065050833768 0.17032450737357641 0 -0.058566588981346569 0.158137458612988 0 -0.060954993497172337 0.17492674758132101 0 -0.045522065050833768 0.17032450737357641 0 -0.0646847764781395 0.19535448712397599 0 -0.045785484384413773 0.19072132006624351 0 -0.060954993497172337 0.17492674758132101 0 -0.045785484384413773 0.19072132006624351 0 -0.060954993497172337 0.17492674758132101 0 -0.045522065050833768 0.17032450737357641 0 -0.045785484384413773 0.19072132006624351 0 -0.045522065050833768 0.17032450737357641 0 -0.018073373410411511 0.18527643430814431 0 -0.045522065050833768 0.17032450737357641 0 -0.030202886541427418 0.1613493480917399 0 -0.018073373410411511 0.18527643430814431 0 -0.048561915940185899 0.1502978321535135 0 -0.045522065050833768 0.17032450737357641 0 -0.030202886541427418 0.1613493480917399 0 -0.030202886541427418 0.1613493480917399 0 -0.018073373410411511 0.18527643430814431 0 -0.015514439868753199 0.1625915156070302 0 -0.030202886541427418 0.1613493480917399 0 -0.015514439868753199 0.1625915156070302 0 -0.025312232977781759 0.15246123338181661 0 -0.030202886541427418 0.1613493480917399 0 -0.018073373410411511 0.18527643430814431 0 -0.018073373410411511 0.18527643430814431 0 -0.015514439868753199 0.1625915156070302 0 0.0023692917363482059 0.18415398960282101 0 -0.00151912522628736 0.1579628425952026 0 -0.015514439868753199 0.1625915156070302 0 0.0023692917363482059 0.18415398960282101 0 -0.00151912522628736 0.1579628425952026 0 -0.021581471720250382 0.14113025525291589 0 -0.00151912522628736 0.1579628425952026 0 -0.015514439868753199 0.1625915156070302 0 -0.021581471720250382 0.14113025525291589 0 -0.00151912522628736 0.1579628425952026 0 -0.021581471720250382 0.14113025525291589 0 -0.0059598814706679579 0.1281148300807477 0 -0.015514439868753199 0.1625915156070302 0 -0.021581471720250382 0.14113025525291589 0 -0.025312232977781759 0.15246123338181661 0 -0.033950133780696057 0.14477381457558031 0 -0.030202886541427418 0.1613493480917399 0 -0.025312232977781759 0.15246123338181661 0 -0.033950133780696057 0.14477381457558031 0 -0.021581471720250382 0.14113025525291589 0 -0.025312232977781759 0.15246123338181661 0 -0.021581471720250382 0.14113025525291589 0 -0.026129467553069639 0.1177098700186848 0 -0.041643818214213153 0.1242976679106288 0 -0.021581471720250382 0.14113025525291589 0 -0.0059598814706679579 0.1281148300807477 0 -0.026129467553069639 0.1177098700186848 0 -0.0059598814706679579 0.1281148300807477 0 -0.01157584090199501 0.1128857425907636 0 -0.026129467553069639 0.1177098700186848 0 -0.01157584090199501 0.1128857425907636 0 -0.0042280144053344054 0.09563023333426704 0 0.011916828306180439 0.11976700023897351 0 -0.0059598814706679579 0.1281148300807477 0 -0.01157584090199501 0.1128857425907636 0 0.011916828306180439 0.11976700023897351 0 -0.01157584090199501 0.1128857425907636 0 -0.0042280144053344054 0.09563023333426704 0 -0.02090031114157332 0.1003759028653531 0 -0.02090031114157332 0.1003759028653531 0 -0.026129467553069639 0.1177098700186848 0 -0.03886964844866176 0.099701121251927885 0 -0.01157584090199501 0.1128857425907636 0 -0.02090031114157332 0.1003759028653531 0 -0.026129467553069639 0.1177098700186848 0 -0.0087542688128483814 0.062717272333401367 0 -0.02281328328355307 0.075753301887893532 0 0.00063572710032937935 0.071923096447820911 0 -0.02281328328355307 0.075753301887893532 0 0.00063572710032937935 0.071923096447820911 0 -0.0087542688128483814 0.062717272333401367 0 0.0056005899787823976 0.060139637155157473 0 0.00063572710032937935 0.071923096447820911 0 -0.0042280144053344054 0.09563023333426704 0 -0.02281328328355307 0.075753301887893532 0 0.00063572710032937935 0.071923096447820911 0 -0.02090031114157332 0.1003759028653531 0 -0.02281328328355307 0.075753301887893532 0 -0.03886964844866176 0.099701121251927885 0 -0.0042280144053344054 0.09563023333426704 0 -0.02090031114157332 0.1003759028653531 0 -0.02281328328355307 0.075753301887893532 0 -0.02281328328355307 0.075753301887893532 0 -0.019755804551900381 0.063952374318025806 0 -0.029020592409241978 0.060404658161118188 0 -0.02281328328355307 0.075753301887893532 0 -0.036174158867617393 0.069496017358810641 0 -0.029020592409241978 0.060404658161118188 0 -0.0087542688128483814 0.062717272333401367 0 -0.02281328328355307 0.075753301887893532 0 -0.019755804551900381 0.063952374318025806 0 -0.036174158867617393 0.069496017358810641 0 -0.046600466110238957 0.062242602058264707 0 -0.029020592409241978 0.060404658161118188 0 -0.02281328328355307 0.075753301887893532 0 -0.036174158867617393 0.069496017358810641 0 -0.046262293667435561 0.079583507327966152 0 -0.02281328328355307 0.075753301887893532 0 -0.046262293667435561 0.079583507327966152 0 -0.036174158867617393 0.069496017358810641 0 -0.046262293667435561 0.079583507327966152 0 -0.046600466110238957 0.062242602058264707 0 -0.02281328328355307 0.075753301887893532 0 -0.046262293667435561 0.079583507327966152 0 -0.03886964844866176 0.099701121251927885 0 -0.046262293667435561 0.079583507327966152 0 -0.062065466917438618 0.098496148668220998 0 -0.069711304051317591 0.083413712768041617 0 -0.046262293667435561 0.079583507327966152 0 -0.03886964844866176 0.099701121251927885 0 -0.062065466917438618 0.098496148668220998 0 -0.046262293667435561 0.079583507327966152 0 -0.069711304051317591 0.083413712768041617 0 -0.046262293667435561 0.079583507327966152 0 -0.069711304051317591 0.083413712768041617 0 -0.063517537109320746 0.067148798139672533 0 -0.046262293667435561 0.079583507327966152 0 -0.063517537109320746 0.067148798139672533 0 -0.046600466110238957 0.062242602058264707 0 -0.026129467553069639 0.1177098700186848 0 -0.040265640999875917 0.11382181093741039 0 -0.03886964844866176 0.099701121251927885 0 -0.040265640999875917 0.11382181093741039 0 -0.041643818214213153 0.1242976679106288 0 -0.05441962978355655 0.1135785845683988 0 -0.026129467553069639 0.1177098700186848 0 -0.040265640999875917 0.11382181093741039 0 -0.041643818214213153 0.1242976679106288 0 -0.026129467553069639 0.1177098700186848 0 -0.041643818214213153 0.1242976679106288 0 -0.040265640999875917 0.11382181093741039 0 -0.03886964844866176 0.099701121251927885 0 -0.05441962978355655 0.1135785845683988 0 -0.03886964844866176 0.099701121251927885 0 -0.062065466917438618 0.098496148668220998 0 -0.05441962978355655 0.1135785845683988 0 -0.062065466917438618 0.098496148668220998 0 -0.05441962978355655 0.1135785845683988 0 -0.070712568704793519 0.099908582530657833 0 -0.062065466917438618 0.098496148668220998 0 -0.05441962978355655 0.1135785845683988 0 -0.047685263178454909 0.12686302299826169 0 -0.041643818214213153 0.1242976679106288 0 -0.05441962978355655 0.1135785845683988 0 -0.047685263178454909 0.12686302299826169 0 -0.05441962978355655 0.1135785845683988 0 -0.047685263178454909 0.12686302299826169 0 -0.05219071859647105 0.12877615686723129 0 -0.05441962978355655 0.1135785845683988 0 -0.041643818214213153 0.1242976679106288 0 -0.05441962978355655 0.1135785845683988 0 -0.05219071859647105 0.12877615686723129 0 -0.05441962978355655 0.1135785845683988 0 -0.067627973640913691 0.1152371215428911 0 -0.05219071859647105 0.12877615686723129 0 -0.067627973640913691 0.1152371215428911 0 -0.067627973640913691 0.1152371215428911 0 -0.080360303044457487 0.123988615497546 0 -0.083065228685355222 0.1016980862185496 0 -0.05219071859647105 0.12877615686723129 0 -0.067627973640913691 0.1152371215428911 0 -0.080360303044457487 0.123988615497546 0 -0.05441962978355655 0.1135785845683988 0 -0.067627973640913691 0.1152371215428911 0 -0.070712568704793519 0.099908582530657833 0 -0.080360303044457487 0.123988615497546 0 -0.10395121554874261 0.1198559653032894 0 -0.080360303044457487 0.123988615497546 0 -0.083065228685355222 0.1016980862185496 0 -0.09597613515893326 0.1071625871314312 0 -0.080360303044457487 0.123988615497546 0 -0.10395121554874261 0.1198559653032894 0 -0.09597613515893326 0.1071625871314312 0 -0.083065228685355222 0.1016980862185496 0 -0.070712568704793519 0.099908582530657833 0 -0.087005507626027795 0.086238580492913663 0 -0.083065228685355222 0.1016980862185496 0 -0.098458943569394955 0.088109406252275008 0 -0.09597613515893326 0.1071625871314312 0 -0.083065228685355222 0.1016980862185496 0 -0.098458943569394955 0.088109406252275008 0 -0.062065466917438618 0.098496148668220998 0 -0.070712568704793519 0.099908582530657833 0 -0.069711304051317591 0.083413712768041617 0 -0.05441962978355655 0.1135785845683988 0 -0.070712568704793519 0.099908582530657833 0 -0.067627973640913691 0.1152371215428911 0 -0.083065228685355222 0.1016980862185496 0 -0.070712568704793519 0.099908582530657833 0 -0.067627973640913691 0.1152371215428911 0 -0.083065228685355222 0.1016980862185496 0 -0.070712568704793519 0.099908582530657833 0 -0.069711304051317591 0.083413712768041617 0 -0.087005507626027795 0.086238580492913663 0 -0.062065466917438618 0.098496148668220998 0 -0.069711304051317591 0.083413712768041617 0 -0.069711304051317591 0.083413712768041617 0 -0.063517537109320746 0.067148798139672533 0 -0.080297871239284113 0.062530293697041051 0 -0.069711304051317591 0.083413712768041617 0 -0.080297871239284113 0.062530293697041051 0 -0.069711304051317591 0.083413712768041617 0 -0.080297871239284113 0.062530293697041051 0 -0.08718252807101784 0.075675721396687629 0 -0.080297871239284113 0.062530293697041051 0 -0.08718252807101784 0.075675721396687629 0 -0.098198514800739975 0.062138213136347292 0 -0.069711304051317591 0.083413712768041617 0 -0.08718252807101784 0.075675721396687629 0 -0.087005507626027795 0.086238580492913663 0 -0.070712568704793519 0.099908582530657833 0 -0.087005507626027795 0.086238580492913663 0 -0.069711304051317591 0.083413712768041617 0 -0.087005507626027795 0.086238580492913663 0 -0.08718252807101784 0.075675721396687629 0 -0.089495165403245813 0.084149723040478977 0 -0.087005507626027795 0.086238580492913663 0 -0.08718252807101784 0.075675721396687629 0 -0.089495165403245813 0.084149723040478977 0 -0.098386805305490627 0.075583805245310609 0 -0.089495165403245813 0.084149723040478977 0 -0.087005507626027795 0.086238580492913663 0 -0.087005507626027795 0.086238580492913663 0 -0.098458943569394955 0.088109406252275008 0 -0.083065228685355222 0.1016980862185496 0 -0.087005507626027795 0.086238580492913663 0 -0.098458943569394955 0.088109406252275008 0 -0.089495165403245813 0.084149723040478977 0 -0.087005507626027795 0.086238580492913663 0 -0.098458943569394955 0.088109406252275008 0 -0.098458943569394955 0.088109406252275008 0 -0.11150312687183531 0.076757013016848299 0 -0.1077271712102891 0.098306489160068899 0 -0.089495165403245813 0.084149723040478977 0 -0.098458943569394955 0.088109406252275008 0 -0.098386805305490627 0.075583805245310609 0 -0.098458943569394955 0.088109406252275008 0 -0.098386805305490627 0.075583805245310609 0 -0.11150312687183531 0.076757013016848299 0 -0.098458943569394955 0.088109406252275008 0 -0.11150312687183531 0.076757013016848299 0 -0.11150312687183531 0.076757013016848299 0 -0.1145734282052384 0.059234724285966878 0 -0.098198514800739975 0.062138213136347292 0 -0.08718252807101784 0.075675721396687629 0 -0.098386805305490627 0.075583805245310609 0 -0.098198514800739975 0.062138213136347292 0 -0.098386805305490627 0.075583805245310609 0 -0.11150312687183531 0.076757013016848299 0 -0.098198514800739975 0.062138213136347292 0 -0.11150312687183531 0.076757013016848299 0 -0.1145734282052384 0.059234724285966878 0 -0.11150312687183531 0.076757013016848299 0 -0.124323531508443 0.065513050878002008 0 -0.1145734282052384 0.059234724285966878 0 -0.11150312687183531 0.076757013016848299 0 -0.12218397468258919 0.076272709839657532 0 -0.124323531508443 0.065513050878002008 0 -0.11150312687183531 0.076757013016848299 0 -0.124323531508443 0.065513050878002008 0 -0.12741208676895829 0.09382334719964236 0 -0.12218397468258919 0.076272709839657532 0 -0.1173035761619992 0.08666028552496112 0 -0.12741208676895829 0.09382334719964236 0 -0.1173035761619992 0.08666028552496112 0 -0.1077271712102891 0.098306489160068899 0 -0.11150312687183531 0.076757013016848299 0 -0.1173035761619992 0.08666028552496112 0 -0.1077271712102891 0.098306489160068899 0 -0.11150312687183531 0.076757013016848299 0 -0.1077271712102891 0.098306489160068899 0 -0.11150312687183531 0.076757013016848299 0 -0.12218397468258919 0.076272709839657532 0 -0.1173035761619992 0.08666028552496112 0 -0.13018924612685151 0.11525959362221 0 -0.12741208676895829 0.09382334719964236 0 -0.1077271712102891 0.098306489160068899 0 -0.13018924612685151 0.11525959362221 0 -0.10395121554874261 0.1198559653032894 0 -0.1077271712102891 0.098306489160068899 0 -0.13018924612685151 0.11525959362221 0 -0.12121807963634181 0.1265796468657556 0 -0.10395121554874261 0.1198559653032894 0 -0.13018924612685151 0.11525959362221 0 -0.10395121554874261 0.1198559653032894 0 -0.10395121554874261 0.1198559653032894 0 -0.1077271712102891 0.098306489160068899 0 -0.10395121554874261 0.1198559653032894 0 -0.09597613515893326 0.1071625871314312 0 -0.1077271712102891 0.098306489160068899 0 -0.098458943569394955 0.088109406252275008 0 -0.09597613515893326 0.1071625871314312 0 -0.1077271712102891 0.098306489160068899 0 -0.1014710056152193 0.02076345555504093 0 -0.090884438427249858 0.041646874626040123 0 -0.1014710056152193 0.02076345555504093 0 -0.11355471415737579 0.025730343751674531 0 -0.10320010270642931 0.03241183600181656 0 -0.1014710056152193 0.02076345555504093 0 -0.097258212468105759 0.007587723016552932 0 -0.086933599142346246 0.01549169568324373 0 -0.1014710056152193 0.02076345555504093 0 -0.097258212468105759 0.007587723016552932 0 -0.11080627435813829 0.00234838994996916 0 -0.1014710056152193 0.02076345555504093 0 -0.11080627435813829 0.00234838994996916 0 -0.1003169503325788 -0.0030229177658489211 0 -0.097258212468105759 0.007587723016552932 0 -0.08584508395003515 0.0017893316119406929 0 -0.1003169503325788 -0.0030229177658489211 0 -0.097258212468105759 0.007587723016552932 0 -0.11080627435813829 0.00234838994996916 0 -0.1014710056152193 0.02076345555504093 0 -0.11080627435813829 0.00234838994996916 0 -0.1185294306974773 0.013044611416325329 0 -0.1263847071420727 -0.00049017928581041167 0 -0.11080627435813829 0.00234838994996916 0 -0.1185294306974773 0.013044611416325329 0 -0.1014710056152193 0.02076345555504093 0 -0.1185294306974773 0.013044611416325329 0 -0.11355471415737579 0.025730343751674531 0 -0.12637229316586379 0.025285514273861161 0 -0.1185294306974773 0.013044611416325329 0 -0.11355471415737579 0.025730343751674531 0 -0.1014710056152193 0.02076345555504093 0 -0.1185294306974773 0.013044611416325329 0 -0.12637229316586379 0.025285514273861161 0 -0.11355471415737579 0.025730343751674531 0 -0.1185779543477497 0.036380790525106933 0 -0.13361656733593111 0.039351270495596183 0 -0.1185779543477497 0.036380790525106933 0 -0.11764372953864061 0.041712435555085289 0 -0.1185779543477497 0.036380790525106933 0 -0.11764372953864061 0.041712435555085289 0 -0.1185779543477497 0.036380790525106933 0 -0.11764372953864061 0.041712435555085289 0 -0.10320010270642931 0.03241183600181656 0 -0.11764372953864061 0.041712435555085289 0 -0.10320010270642931 0.03241183600181656 0 -0.11355471415737579 0.025730343751674531 0 -0.1185779543477497 0.036380790525106933 0 -0.10320010270642931 0.03241183600181656 0 -0.11764372953864061 0.041712435555085289 0 -0.1145734282052384 0.059234724285966878 0 -0.13714393614504991 0.054269088739154848 0 -0.11764372953864061 0.041712435555085289 0 -0.1145734282052384 0.059234724285966878 0 -0.11764372953864061 0.041712435555085289 0 -0.1145734282052384 0.059234724285966878 0 -0.1046177712905951 0.046823303358364293 0 -0.1145734282052384 0.059234724285966878 0 -0.098198514800739975 0.062138213136347292 0 -0.1046177712905951 0.046823303358364293 0 -0.098198514800739975 0.062138213136347292 0 -0.1046177712905951 0.046823303358364293 0 -0.090884438427249858 0.041646874626040123 0 -0.1014710056152193 0.02076345555504093 0 -0.10320010270642931 0.03241183600181656 0 -0.090884438427249858 0.041646874626040123 0 -0.11764372953864061 0.041712435555085289 0 -0.10320010270642931 0.03241183600181656 0 -0.1046177712905951 0.046823303358364293 0 -0.10320010270642931 0.03241183600181656 0 -0.1046177712905951 0.046823303358364293 0 -0.090884438427249858 0.041646874626040123 0 -0.090884438427249858 0.041646874626040123 0 -0.072238864980420731 0.049488993715259062 0 -0.075988494580490118 0.032294152556195728 0 -0.1014710056152193 0.02076345555504093 0 -0.090884438427249858 0.041646874626040123 0 -0.075988494580490118 0.032294152556195728 0 -0.080297871239284113 0.062530293697041051 0 -0.098198514800739975 0.062138213136347292 0 -0.090884438427249858 0.041646874626040123 0 -0.080297871239284113 0.062530293697041051 0 -0.090884438427249858 0.041646874626040123 0 -0.072238864980420731 0.049488993715259062 0 -0.080297871239284113 0.062530293697041051 0 -0.090884438427249858 0.041646874626040123 0 -0.063517537109320746 0.067148798139672533 0 -0.080297871239284113 0.062530293697041051 0 -0.072238864980420731 0.049488993715259062 0 -0.072238864980420731 0.049488993715259062 0 -0.075988494580490118 0.032294152556195728 0 -0.05050598354575879 0.043824849557345842 0 -0.075988494580490118 0.032294152556195728 0 -0.063923748500966077 0.025453179552296871 0 -0.05050598354575879 0.043824849557345842 0 -0.075988494580490118 0.032294152556195728 0 -0.05050598354575879 0.043824849557345842 0 -0.063923748500966077 0.025453179552296871 0 -0.072098180691645655 0.014539997838476889 0 -0.053741197941945817 0.01597698785817369 0 -0.075988494580490118 0.032294152556195728 0 -0.063923748500966077 0.025453179552296871 0 -0.072098180691645655 0.014539997838476889 0 -0.075988494580490118 0.032294152556195728 0 -0.086933599142346246 0.01549169568324373 0 -0.072098180691645655 0.014539997838476889 0 -0.1014710056152193 0.02076345555504093 0 -0.075988494580490118 0.032294152556195728 0 -0.1014710056152193 0.02076345555504093 0 -0.075988494580490118 0.032294152556195728 0 -0.086933599142346246 0.01549169568324373 0 -0.097258212468105759 0.007587723016552932 0 -0.086933599142346246 0.01549169568324373 0 -0.08584508395003515 0.0017893316119406929 0 -0.086933599142346246 0.01549169568324373 0 -0.08584508395003515 0.0017893316119406929 0 -0.072098180691645655 0.014539997838476889 0 -0.08584508395003515 0.0017893316119406929 0 -0.072098180691645655 0.014539997838476889 0 -0.060541425960350281 0.0027902607275900118 0 -0.040764220075145519 -0.0083702936523016892 0 -0.060541425960350281 0.0027902607275900118 0 -0.043195436554659357 0.0076950506344965926 0 -0.060541425960350281 0.0027902607275900118 0 -0.053741197941945817 0.01597698785817369 0 -0.043195436554659357 0.0076950506344965926 0 -0.072098180691645655 0.014539997838476889 0 -0.060541425960350281 0.0027902607275900118 0 -0.053741197941945817 0.01597698785817369 0 -0.063923748500966077 0.025453179552296871 0 -0.053741197941945817 0.01597698785817369 0 -0.05050598354575879 0.043824849557345842 0 -0.053741197941945817 0.01597698785817369 0 -0.037312706130242873 0.022249818147747361 0 -0.05050598354575879 0.043824849557345842 0 -0.040764220075145519 -0.0083702936523016892 0 -0.043195436554659357 0.0076950506344965926 0 -0.027098612542354999 0.0088100697805568503 0 -0.053741197941945817 0.01597698785817369 0 -0.037312706130242873 0.022249818147747361 0 -0.043195436554659357 0.0076950506344965926 0 -0.037312706130242873 0.022249818147747361 0 -0.043195436554659357 0.0076950506344965926 0 -0.027098612542354999 0.0088100697805568503 0 -0.063517537109320746 0.067148798139672533 0 -0.05050598354575879 0.043824849557345842 0 -0.046600466110238957 0.062242602058264707 0 -0.063517537109320746 0.067148798139672533 0 -0.072238864980420731 0.049488993715259062 0 -0.05050598354575879 0.043824849557345842 0 -0.037312706130242873 0.022249818147747361 0 -0.05050598354575879 0.043824849557345842 0 -0.029108569569133769 0.035736227559703827 0 -0.05050598354575879 0.043824849557345842 0 -0.025023472511027659 0.055355546558495762 0 -0.029108569569133769 0.035736227559703827 0 -0.05050598354575879 0.043824849557345842 0 -0.029020592409241978 0.060404658161118188 0 -0.025023472511027659 0.055355546558495762 0 -0.05050598354575879 0.043824849557345842 0 -0.046600466110238957 0.062242602058264707 0 -0.029020592409241978 0.060404658161118188 0 -0.05050598354575879 0.043824849557345842 0 -0.025023472511027659 0.055355546558495762 0 -0.0087542688128483814 0.062717272333401367 0 -0.019755804551900381 0.063952374318025806 0 -0.025023472511027659 0.055355546558495762 0 -0.0087542688128483814 0.062717272333401367 0 -0.025023472511027659 0.055355546558495762 0 -0.019755804551900381 0.063952374318025806 0 -0.029020592409241978 0.060404658161118188 0 -0.025023472511027659 0.055355546558495762 0 -0.029020592409241978 0.060404658161118188 0 -0.025023472511027659 0.055355546558495762 0 -0.025023472511027659 0.055355546558495762 0 -0.029108569569133769 0.035736227559703827 0 -0.0097910884617556197 0.036114190532836009 0 -0.025023472511027659 0.055355546558495762 0 -0.0097910884617556197 0.036114190532836009 0 -0.029108569569133769 0.035736227559703827 0 -0.0097910884617556197 0.036114190532836009 0 -0.022827927036181191 0.023150351632942281 0 -0.0097910884617556197 0.036114190532836009 0 -0.0099389404180049816 0.05077081591583537 0 0.0038130681136117361 0.048896254238608362 0 -0.0087542688128483814 0.062717272333401367 0 -0.025023472511027659 0.055355546558495762 0 -0.0099389404180049816 0.05077081591583537 0 -0.025023472511027659 0.055355546558495762 0 -0.0097910884617556197 0.036114190532836009 0 -0.0099389404180049816 0.05077081591583537 0 -0.0087542688128483814 0.062717272333401367 0 -0.0099389404180049816 0.05077081591583537 0 0.0038130681136117361 0.048896254238608362 0 -0.027098612542354999 0.0088100697805568503 0 -0.010828658477418681 0.01284145214386735 0 -0.020443904501618999 -0.001123202528514524 0 -0.027098612542354999 0.0088100697805568503 0 -0.010828658477418681 0.01284145214386735 0 -0.027098612542354999 0.0088100697805568503 0 -0.022827927036181191 0.023150351632942281 0 -0.010828658477418681 0.01284145214386735 0 -0.037312706130242873 0.022249818147747361 0 -0.027098612542354999 0.0088100697805568503 0 -0.022827927036181191 0.023150351632942281 0 -0.037312706130242873 0.022249818147747361 0 -0.029108569569133769 0.035736227559703827 0 -0.022827927036181191 0.023150351632942281 0 -0.0097910884617556197 0.036114190532836009 0 -0.010828658477418681 0.01284145214386735 0 0.0054412955875177502 0.0168728345071773 0 -0.0097910884617556197 0.036114190532836009 0 -0.022827927036181191 0.023150351632942281 0 -0.010828658477418681 0.01284145214386735 0 -0.0097910884617556197 0.036114190532836009 0 0.0054412955875177502 0.0168728345071773 0 -0.010828658477418681 0.01284145214386735 0 0.0023837959628292779 0.0045896394564886181 0 0.0054412955875177502 0.0168728345071773 0 -0.010828658477418681 0.01284145214386735 0 0.0054412955875177502 0.0168728345071773 0 -0.020443904501618999 -0.001123202528514524 0 -0.0071981610143054264 -0.0025996853953654721 0 -0.010828658477418681 0.01284145214386735 0 -0.0071981610143054264 -0.0025996853953654721 0 -0.010828658477418681 0.01284145214386735 0 0.0023837959628292779 0.0045896394564886181 0 0.0054412955875177502 0.0168728345071773 0 0.020281757731820671 -0.0018734506954683099 0 0.0023837959628292779 0.0045896394564886181 0 0.0054412955875177502 0.0168728345071773 0 0.020281757731820671 -0.0018734506954683099 0 0.0054412955875177502 0.0168728345071773 0 0.028314957840773109 0.02254048902077135 0 0.0094155099686855422 0.033038978557022668 0 -0.0097910884617556197 0.036114190532836009 0 0.0054412955875177502 0.0168728345071773 0 0.0094155099686855422 0.033038978557022668 0 0.0054412955875177502 0.0168728345071773 0 0.028314957840773109 0.02254048902077135 0 0.0054412955875177502 0.0168728345071773 0 0.028314957840773109 0.02254048902077135 0 0.020281757731820671 -0.0018734506954683099 0 0.028314957840773109 0.02254048902077135 0 0.04163462684118531 0.0029880238916752339 0 0.020281757731820671 -0.0018734506954683099 0 0.0038130681136117361 0.048896254238608362 0 0.01271156048924886 0.053789303808915799 0 0.019515422552610791 0.046272661309185822 0 0.0056005899787823976 0.060139637155157473 0 0.01271156048924886 0.053789303808915799 0 0.018424192636563998 0.061656598342712983 0 -0.0087542688128483814 0.062717272333401367 0 0.0056005899787823976 0.060139637155157473 0 0.0038130681136117361 0.048896254238608362 0 0.0056005899787823976 0.060139637155157473 0 0.0038130681136117361 0.048896254238608362 0 0.01271156048924886 0.053789303808915799 0 -0.0097910884617556197 0.036114190532836009 0 0.0038130681136117361 0.048896254238608362 0 0.0094155099686855422 0.033038978557022668 0 0.0038130681136117361 0.048896254238608362 0 0.0094155099686855422 0.033038978557022668 0 0.019515422552610791 0.046272661309185822 0 0.028314957840773109 0.02254048902077135 0 0.0094155099686855422 0.033038978557022668 0 0.019515422552610791 0.046272661309185822 0 0.028314957840773109 0.02254048902077135 0 0.019515422552610791 0.046272661309185822 0 0.040422246999569512 0.043597517713888742 0 0.019515422552610791 0.046272661309185822 0 0.030424052841174699 0.056706563186030297 0 0.040422246999569512 0.043597517713888742 0 0.01271156048924886 0.053789303808915799 0 0.019515422552610791 0.046272661309185822 0 0.018424192636563998 0.061656598342712983 0 0.030424052841174699 0.056706563186030297 0 0.018424192636563998 0.061656598342712983 0 0.02408473748421204 0.06809289100774947 0 0.019515422552610791 0.046272661309185822 0 0.030424052841174699 0.056706563186030297 0 0.018424192636563998 0.061656598342712983 0 0.030424052841174699 0.056706563186030297 0 0.040422246999569512 0.043597517713888742 0 0.049673664532917328 0.063913147556615701 0 0.028314957840773109 0.02254048902077135 0 0.040422246999569512 0.043597517713888742 0 0.051188620094028671 0.02820814353436487 0 0.040422246999569512 0.043597517713888742 0 0.051188620094028671 0.02820814353436487 0 0.063010327791778717 0.042410923572728278 0 0.051188620094028671 0.02820814353436487 0 0.066047458533611145 0.025440320400981261 0 0.063010327791778717 0.042410923572728278 0 0.040422246999569512 0.043597517713888742 0 0.063010327791778717 0.042410923572728278 0 0.049673664532917328 0.063913147556615701 0 0.075262591581623003 0.059733404105483071 0 0.049673664532917328 0.063913147556615701 0 0.028314957840773109 0.02254048902077135 0 0.04163462684118531 0.0029880238916752339 0 0.051188620094028671 0.02820814353436487 0 0.028314957840773109 0.02254048902077135 0 0.051188620094028671 0.02820814353436487 0 0.051188620094028671 0.02820814353436487 0 0.059543303650169931 0.011887926946737589 0 0.066047458533611145 0.025440320400981261 0 0.04163462684118531 0.0029880238916752339 0 0.051188620094028671 0.02820814353436487 0 0.059543303650169931 0.011887926946737589 0 0.04163462684118531 0.0029880238916752339 0 0.059543303650169931 0.011887926946737589 0 0.061444324376100902 -0.0063476516563641602 0 0.059543303650169931 0.011887926946737589 0 0.077781549971859792 0.013763181036104541 0 0.061444324376100902 -0.0063476516563641602 0 0.077781549971859792 0.013763181036104541 0 0.061444324376100902 -0.0063476516563641602 0 0.077781549971859792 0.013763181036104541 0 0.061444324376100902 -0.0063476516563641602 0 0.080795155288386974 -0.0023845122825129298 0 0.077781549971859792 0.013763181036104541 0 0.093597261146655245 0.0059525947911385994 0 0.095507836695849002 0.01885068402534662 0 0.077781549971859792 0.013763181036104541 0 0.093597261146655245 0.0059525947911385994 0 0.080795155288386974 -0.0023845122825129298 0 0.077781549971859792 0.013763181036104541 0 0.094118775567618676 0.033874013728573238 0 0.077781549971859792 0.013763181036104541 0 0.078713491160218613 0.030931426914971048 0 0.094118775567618676 0.033874013728573238 0 0.077781549971859792 0.013763181036104541 0 0.094118775567618676 0.033874013728573238 0 0.095507836695849002 0.01885068402534662 0 0.077781549971859792 0.013763181036104541 0 0.078713491160218613 0.030931426914971048 0 0.066047458533611145 0.025440320400981261 0 0.059543303650169931 0.011887926946737589 0 0.077781549971859792 0.013763181036104541 0 0.066047458533611145 0.025440320400981261 0 0.078713491160218613 0.030931426914971048 0 0.066047458533611145 0.025440320400981261 0 0.063010327791778717 0.042410923572728278 0 0.078713491160218613 0.030931426914971048 0 0.063010327791778717 0.042410923572728278 0 0.076674231716871794 0.043896613120270302 0 0.063010327791778717 0.042410923572728278 0 0.076674231716871794 0.043896613120270302 0 0.075262591581623003 0.059733404105483071 0 0.063010327791778717 0.042410923572728278 0 0.075262591581623003 0.059733404105483071 0 0.049673664532917328 0.063913147556615701 0 0.075262591581623003 0.059733404105483071 0 0.089782504895272466 0.043242543784662857 0 0.1008515186303289 0.05555366065435232 0 0.075262591581623003 0.059733404105483071 0 0.1008515186303289 0.05555366065435232 0 0.076674231716871794 0.043896613120270302 0 0.075262591581623003 0.059733404105483071 0 0.089782504895272466 0.043242543784662857 0 0.078713491160218613 0.030931426914971048 0 0.089782504895272466 0.043242543784662857 0 0.078713491160218613 0.030931426914971048 0 0.076674231716871794 0.043896613120270302 0 0.089782504895272466 0.043242543784662857 0 0.078713491160218613 0.030931426914971048 0 0.089782504895272466 0.043242543784662857 0 0.094118775567618676 0.033874013728573238 0 0.094118775567618676 0.033874013728573238 0 0.11045600116337539 0.053984846421043738 0 0.089782504895272466 0.043242543784662857 0 0.094118775567618676 0.033874013728573238 0 0.1008515186303289 0.05555366065435232 0 0.094118775567618676 0.033874013728573238 0 0.10677645054598769 0.037898247595204812 0 0.11045600116337539 0.053984846421043738 0 0.10677645054598769 0.037898247595204812 0 0.11168176383242891 0.034219146321452357 0 0.10429858453608989 0.0256703587546134 0 0.094118775567618676 0.033874013728573238 0 0.10677645054598769 0.037898247595204812 0 0.10429858453608989 0.0256703587546134 0 0.094118775567618676 0.033874013728573238 0 0.1008515186303289 0.05555366065435232 0 0.11045600116337539 0.053984846421043738 0 0.089782504895272466 0.043242543784662857 0 0.1008515186303289 0.05555366065435232 0 0.1008515186303289 0.05555366065435232 0 0.11045600116337539 0.053984846421043738 0 0.110956007475477 0.066792019017503521 0 0.1008515186303289 0.05555366065435232 0 0.11045600116337539 0.053984846421043738 0 0.1008515186303289 0.05555366065435232 0 0.110956007475477 0.066792019017503521 0 0.1142468711833269 0.058651339656580877 0 0.11045600116337539 0.053984846421043738 0 0.110956007475477 0.066792019017503521 0 0.11593190043715861 0.060725580549388113 0 0.1142468711833269 0.058651339656580877 0 0.110956007475477 0.066792019017503521 0 0.11593190043715861 0.060725580549388113 0 0.1142468711833269 0.058651339656580877 0 0.11752988867539881 0.057808344014132332 0 0.11593190043715861 0.060725580549388113 0 0.1142468711833269 0.058651339656580877 0 0.1142468711833269 0.058651339656580877 0 0.11045600116337539 0.053984846421043738 0 0.1142468711833269 0.058651339656580877 0 0.1165346777774582 0.052991943955031907 0 0.11752988867539881 0.057808344014132332 0 0.1142468711833269 0.058651339656580877 0 0.1165346777774582 0.052991943955031907 0 0.1142468711833269 0.058651339656580877 0 0.1165346777774582 0.052991943955031907 0 0.11045600116337539 0.053984846421043738 0 0.1165346777774582 0.052991943955031907 0 0.11045600116337539 0.053984846421043738 0 0.11332712763042541 0.041742872750339929 0 0.1165346777774582 0.052991943955031907 0 0.11045600116337539 0.053984846421043738 0 0.1165346777774582 0.052991943955031907 0 0.1207095333300392 0.052310015200376293 0 0.1258008839210312 0.043025047632520373 0 0.1207095333300392 0.052310015200376293 0 0.1258008839210312 0.043025047632520373 0 0.1266502062043493 0.050016126068568693 0 0.1207095333300392 0.052310015200376293 0 0.1249177574830235 0.05549570725843421 0 0.1266502062043493 0.050016126068568693 0 0.1165346777774582 0.052991943955031907 0 0.1207095333300392 0.052310015200376293 0 0.11986555203401961 0.056280573720561583 0 0.1165346777774582 0.052991943955031907 0 0.1207095333300392 0.052310015200376293 0 0.1165346777774582 0.052991943955031907 0 0.11986555203401961 0.056280573720561583 0 0.11752988867539881 0.057808344014132332 0 0.11986555203401961 0.056280573720561583 0 0.11752988867539881 0.057808344014132332 0 0.12107044194502931 0.060392282189097687 0 0.11986555203401961 0.056280573720561583 0 0.1249177574830235 0.05549570725843421 0 0.12107044194502931 0.060392282189097687 0 0.1207095333300392 0.052310015200376293 0 0.11986555203401961 0.056280573720561583 0 0.1249177574830235 0.05549570725843421 0 0.1249177574830235 0.05549570725843421 0 0.12107044194502931 0.060392282189097687 0 0.12761142098842679 0.062883107952959913 0 0.11593190043715861 0.060725580549388113 0 0.11752988867539881 0.057808344014132332 0 0.12107044194502931 0.060392282189097687 0 0.1165346777774582 0.052991943955031907 0 0.11332712763042541 0.041742872750339929 0 0.12751620659176091 0.025826703183530381 0 0.1165346777774582 0.052991943955031907 0 0.12751620659176091 0.025826703183530381 0 0.1258008839210312 0.043025047632520373 0 0.10677645054598769 0.037898247595204812 0 0.11045600116337539 0.053984846421043738 0 0.11332712763042541 0.041742872750339929 0 0.11168176383242891 0.034219146321452357 0 0.11332712763042541 0.041742872750339929 0 0.12751620659176091 0.025826703183530381 0 0.1165346777774582 0.052991943955031907 0 0.12751620659176091 0.025826703183530381 0 0.10677645054598769 0.037898247595204812 0 0.11168176383242891 0.034219146321452357 0 0.11332712763042541 0.041742872750339929 0 0.11168176383242891 0.034219146321452357 0 0.1142058271823109 0.022647435367460909 0 0.12751620659176091 0.025826703183530381 0 0.11168176383242891 0.034219146321452357 0 0.1142058271823109 0.022647435367460909 0 0.10429858453608989 0.0256703587546134 0 0.1142058271823109 0.022647435367460909 0 0.12088129531688289 0.012709603339681101 0 0.106628836193788 0.014256595111476551 0 0.1142058271823109 0.022647435367460909 0 0.12088129531688289 0.012709603339681101 0 0.12751620659176091 0.025826703183530381 0 0.12088129531688289 0.012709603339681101 0 0.11174088851103479 -0.001136892071535788 0 0.12922997235240771 -5.3501747736912381e-05 0 0.12088129531688289 0.012709603339681101 0 0.106628836193788 0.014256595111476551 0 0.11174088851103479 -0.001136892071535788 0 0.093597261146655245 0.0059525947911385994 0 0.106628836193788 0.014256595111476551 0 0.11174088851103479 -0.001136892071535788 0 0.093597261146655245 0.0059525947911385994 0 0.106628836193788 0.014256595111476551 0 0.095507836695849002 0.01885068402534662 0 0.094118775567618676 0.033874013728573238 0 0.095507836695849002 0.01885068402534662 0 0.10429858453608989 0.0256703587546134 0 0.106628836193788 0.014256595111476551 0 0.095507836695849002 0.01885068402534662 0 0.10429858453608989 0.0256703587546134 0 0.1142058271823109 0.022647435367460909 0 0.106628836193788 0.014256595111476551 0 0.10429858453608989 0.0256703587546134 0 0.10171721132327589 0.089646225035377794 0 0.092478415171075357 0.1125004310532523 0 0.1097352463225361 0.11732120119405989 0 0.11030448158573 0.097338078098579972 0 0.092478415171075357 0.1125004310532523 0 0.11030448158573 0.097338078098579972 0 0.10171721132327589 0.089646225035377794 0 0.092478415171075357 0.1125004310532523 0 0.1097352463225361 0.11732120119405989 0 0.092478415171075357 0.1125004310532523 0 0.1007709718809702 0.12927093273521739 0 0.1097352463225361 0.11732120119405989 0 0.11810951173179079 0.13588416397747449 0 0.12701285124311409 0.1116124001057755 0 0.1097352463225361 0.11732120119405989 0 0.11030448158573 0.097338078098579972 0 0.12701285124311409 0.1116124001057755 0 0.11030448158573 0.097338078098579972 0 0.12701285124311409 0.1116124001057755 0 0.11030448158573 0.097338078098579972 0 0.1249273330255416 0.097107323540065654 0 0.12701285124311409 0.1116124001057755 0 0.11030448158573 0.097338078098579972 0 0.1249273330255416 0.097107323540065654 0 0.11385449296806679 0.087523850291786068 0 0.1249273330255416 0.097107323540065654 0 0.11385449296806679 0.087523850291786068 0 0.12584004892598549 0.083346264786505142 0 0.11385449296806679 0.087523850291786068 0 0.110956007475477 0.066792019017503521 0 0.12584004892598549 0.083346264786505142 0 0.11385449296806679 0.087523850291786068 0 0.12584004892598549 0.083346264786505142 0 0.12180579377833931 0.068327597193629963 0 0.110956007475477 0.066792019017503521 0 0.12584004892598549 0.083346264786505142 0 0.110956007475477 0.066792019017503521 0 0.12584004892598549 0.083346264786505142 0 0.11593190043715861 0.060725580549388113 0 0.12107044194502931 0.060392282189097687 0 0.12180579377833931 0.068327597193629963 0 0.12107044194502931 0.060392282189097687 0 0.12180579377833931 0.068327597193629963 0 0.12761142098842679 0.062883107952959913 0 0.1142468711833269 0.058651339656580877 0 0.110956007475477 0.066792019017503521 0 0.11593190043715861 0.060725580549388113 0 0.12180579377833931 0.068327597193629963 0 0.110956007475477 0.066792019017503521 0 0.110956007475477 0.066792019017503521 0 0.10171721132327589 0.089646225035377794 0 0.092132678230029172 0.074059019767943518 0 0.1008515186303289 0.05555366065435232 0 0.110956007475477 0.066792019017503521 0 0.092132678230029172 0.074059019767943518 0 0.11385449296806679 0.087523850291786068 0 0.110956007475477 0.066792019017503521 0 0.10171721132327589 0.089646225035377794 0 0.110956007475477 0.066792019017503521 0 0.10171721132327589 0.089646225035377794 0 0.11030448158573 0.097338078098579972 0 0.11385449296806679 0.087523850291786068 0 0.10171721132327589 0.089646225035377794 0 0.092132678230029172 0.074059019767943518 0 0.07066048188808588 0.086763828695057207 0 0.086161260143958376 0.096172613689861255 0 0.10171721132327589 0.089646225035377794 0 0.092132678230029172 0.074059019767943518 0 0.086161260143958376 0.096172613689861255 0 0.075262591581623003 0.059733404105483071 0 0.092132678230029172 0.074059019767943518 0 0.07066048188808588 0.086763828695057207 0 0.075262591581623003 0.059733404105483071 0 0.1008515186303289 0.05555366065435232 0 0.092132678230029172 0.074059019767943518 0 0.075262591581623003 0.059733404105483071 0 0.07066048188808588 0.086763828695057207 0 0.049673664532917328 0.063913147556615701 0 0.07066048188808588 0.086763828695057207 0 0.076742178617381224 0.112397333590554 0 0.061153881102733447 0.11024216525479449 0 0.07066048188808588 0.086763828695057207 0 0.086161260143958376 0.096172613689861255 0 0.076742178617381224 0.112397333590554 0 0.10171721132327589 0.089646225035377794 0 0.086161260143958376 0.096172613689861255 0 0.092478415171075357 0.1125004310532523 0 0.086161260143958376 0.096172613689861255 0 0.092478415171075357 0.1125004310532523 0 0.076742178617381224 0.112397333590554 0 0.076742178617381224 0.112397333590554 0 0.082637104810127746 0.12698807089689701 0 0.079688452911995111 0.131316802378316 0 0.092478415171075357 0.1125004310532523 0 0.076742178617381224 0.112397333590554 0 0.082637104810127746 0.12698807089689701 0 0.092478415171075357 0.1125004310532523 0 0.083239619018874611 0.13535463707112669 0 0.092478415171075357 0.1125004310532523 0 0.082637104810127746 0.12698807089689701 0 0.083239619018874611 0.13535463707112669 0 0.061153881102733447 0.11024216525479449 0 0.079688452911995111 0.131316802378316 0 0.076742178617381224 0.112397333590554 0 0.061153881102733447 0.11024216525479449 0 0.079688452911995111 0.131316802378316 0 0.061153881102733447 0.11024216525479449 0 0.057948887345909701 0.13111049992592369 0 0.079688452911995111 0.131316802378316 0 0.061153881102733447 0.11024216525479449 0 0.038740942004890692 0.11465946885774179 0 0.057948887345909701 0.13111049992592369 0 0.07066048188808588 0.086763828695057207 0 0.061153881102733447 0.11024216525479449 0 0.042619309293471942 0.089167528131272697 0 0.061153881102733447 0.11024216525479449 0 0.042619309293471942 0.089167528131272697 0 0.061153881102733447 0.11024216525479449 0 0.038740942004890692 0.11465946885774179 0 0.042619309293471942 0.089167528131272697 0 0.038740942004890692 0.11465946885774179 0 0.042619309293471942 0.089167528131272697 0 0.01907681960390236 0.094280718844149569 0 0.07066048188808588 0.086763828695057207 0 0.049673664532917328 0.063913147556615701 0 0.042619309293471942 0.089167528131272697 0 0.042619309293471942 0.089167528131272697 0 0.02408473748421204 0.06809289100774947 0 0.049673664532917328 0.063913147556615701 0 0.042619309293471942 0.089167528131272697 0 0.02408473748421204 0.06809289100774947 0 0.049673664532917328 0.063913147556615701 0 0.02408473748421204 0.06809289100774947 0 0.030424052841174699 0.056706563186030297 0 0.049673664532917328 0.063913147556615701 0 0.02408473748421204 0.06809289100774947 0 0.018424192636563998 0.061656598342712983 0 0.02408473748421204 0.06809289100774947 0 0.042619309293471942 0.089167528131272697 0 0.02408473748421204 0.06809289100774947 0 0.01907681960390236 0.094280718844149569 0 -0.0042280144053344054 0.09563023333426704 0 0.00063572710032937935 0.071923096447820911 0 0.01907681960390236 0.094280718844149569 0 0.0056005899787823976 0.060139637155157473 0 0.018424192636563998 0.061656598342712983 0 0.00063572710032937935 0.071923096447820911 0 0.018424192636563998 0.061656598342712983 0 0.02408473748421204 0.06809289100774947 0 0.00063572710032937935 0.071923096447820911 0 0.02408473748421204 0.06809289100774947 0 0.00063572710032937935 0.071923096447820911 0 0.01907681960390236 0.094280718844149569 0 0.02408473748421204 0.06809289100774947 0 0.00063572710032937935 0.071923096447820911 0 0.038740942004890692 0.11465946885774179 0 0.01907681960390236 0.094280718844149569 0 0.011916828306180439 0.11976700023897351 0 -0.0042280144053344054 0.09563023333426704 0 0.01907681960390236 0.094280718844149569 0 0.011916828306180439 0.11976700023897351 0 -0.0059598814706679579 0.1281148300807477 0 0.011916828306180439 0.11976700023897351 0 0.015332839422348961 0.1462355066748092 0 0.038740942004890692 0.11465946885774179 0 0.011916828306180439 0.11976700023897351 0 0.039393987819385308 0.14304633399568681 0 0.011916828306180439 0.11976700023897351 0 0.015332839422348961 0.1462355066748092 0 0.039393987819385308 0.14304633399568681 0 0.015332839422348961 0.1462355066748092 0 0.033925472356288053 0.16463693998996631 0 0.039393987819385308 0.14304633399568681 0 -0.00151912522628736 0.1579628425952026 0 -0.0059598814706679579 0.1281148300807477 0 0.015332839422348961 0.1462355066748092 0 -0.00151912522628736 0.1579628425952026 0 0.018543221267675589 0.17479542993748931 0 -0.00151912522628736 0.1579628425952026 0 0.015332839422348961 0.1462355066748092 0 0.018543221267675589 0.17479542993748931 0 0.0023692917363482059 0.18415398960282101 0 0.018543221267675589 0.17479542993748931 0 0.02173717469265786 0.19187924795954839 0 -0.00151912522628736 0.1579628425952026 0 0.0023692917363482059 0.18415398960282101 0 0.018543221267675589 0.17479542993748931 0 0.018543221267675589 0.17479542993748931 0 0.038605567761638399 0.19162801727977621 0 0.018543221267675589 0.17479542993748931 0 0.033925472356288053 0.16463693998996631 0 0.038605567761638399 0.19162801727977621 0 0.018543221267675589 0.17479542993748931 0 0.02173717469265786 0.19187924795954839 0 0.038605567761638399 0.19162801727977621 0 0.015332839422348961 0.1462355066748092 0 0.018543221267675589 0.17479542993748931 0 0.033925472356288053 0.16463693998996631 0 0.033925472356288053 0.16463693998996631 0 0.052299862811757358 0.17152427897928929 0 0.039393987819385308 0.14304633399568681 0 0.052299862811757358 0.17152427897928929 0 0.038605567761638399 0.19162801727977621 0 0.033925472356288053 0.16463693998996631 0 0.052299862811757358 0.17152427897928929 0 0.038605567761638399 0.19162801727977621 0 0.05277932094668935 0.1868421333532756 0 0.052299862811757358 0.17152427897928929 0 0.038605567761638399 0.19162801727977621 0 0.05277932094668935 0.1868421333532756 0 0.052299862811757358 0.17152427897928929 0 0.065549109343682771 0.1791160261111634 0 0.052299862811757358 0.17152427897928929 0 0.065994157861876263 0.1514205406788027 0 0.052299862811757358 0.17152427897928929 0 0.065994157861876263 0.1514205406788027 0 0.066347345966476387 0.16166133931478011 0 0.052299862811757358 0.17152427897928929 0 0.066347345966476387 0.16166133931478011 0 0.065549109343682771 0.1791160261111634 0 0.057948887345909701 0.13111049992592369 0 0.039393987819385308 0.14304633399568681 0 0.065994157861876263 0.1514205406788027 0 0.052299862811757358 0.17152427897928929 0 0.039393987819385308 0.14304633399568681 0 0.065994157861876263 0.1514205406788027 0 0.038740942004890692 0.11465946885774179 0 0.057948887345909701 0.13111049992592369 0 0.039393987819385308 0.14304633399568681 0 0.027329493042695819 0.23903460929129841 0 0.018315165982636258 0.25705769295735748 0 0.029945818561336469 0.25087343006989432 0 0.027329493042695819 0.23903460929129841 0 0.0061856528516203851 0.23313060674095321 0 0.018315165982636258 0.25705769295735748 0 0.0061856528516203851 0.23313060674095321 0 0.018315165982636258 0.25705769295735748 0 0.00052304254878242677 0.24554969369601529 0 0.0061856528516203851 0.23313060674095321 0 0.018315165982636258 0.25705769295735748 0 -0.0059438602793955566 0.2092035205245488 0 0.0061856528516203851 0.23313060674095321 0 0.0061856528516203851 0.23313060674095321 0 0.024033836548012319 0.22560882288568351 0 0.016024494092549569 0.20947367423940499 0 0.027329493042695819 0.23903460929129841 0 0.0061856528516203851 0.23313060674095321 0 0.024033836548012319 0.22560882288568351 0 0.027329493042695819 0.23903460929129841 0 0.024033836548012319 0.22560882288568351 0 0.033649555327102433 0.227163594541023 0 0.024033836548012319 0.22560882288568351 0 0.031534043660666561 0.21600349057487539 0 0.033649555327102433 0.227163594541023 0 0.024033836548012319 0.22560882288568351 0 0.016024494092549569 0.20947367423940499 0 0.031534043660666561 0.21600349057487539 0 0.03048139683227348 0.2035546046414933 0 0.016024494092549569 0.20947367423940499 0 0.031534043660666561 0.21600349057487539 0 -0.0059438602793955566 0.2092035205245488 0 0.0061856528516203851 0.23313060674095321 0 0.016024494092549569 0.20947367423940499 0 -0.0059438602793955566 0.2092035205245488 0 0.0023692917363482059 0.18415398960282101 0 0.016024494092549569 0.20947367423940499 0 0.0023692917363482059 0.18415398960282101 0 0.016024494092549569 0.20947367423940499 0 0.02173717469265786 0.19187924795954839 0 0.03048139683227348 0.2035546046414933 0 0.016024494092549569 0.20947367423940499 0 0.02173717469265786 0.19187924795954839 0 0.03048139683227348 0.2035546046414933 0 0.02173717469265786 0.19187924795954839 0 0.038605567761638399 0.19162801727977621 0 0.038605567761638399 0.19162801727977621 0 0.054662743869678898 0.2051002110428736 0 0.03048139683227348 0.2035546046414933 0 0.038605567761638399 0.19162801727977621 0 0.04226271832627275 0.2052184704051378 0 0.03048139683227348 0.2035546046414933 0 0.038605567761638399 0.19162801727977621 0 0.038605567761638399 0.19162801727977621 0 0.048164276109921703 0.2038729051721096 0 0.04226271832627275 0.2052184704051378 0 0.05277932094668935 0.1868421333532756 0 0.054662743869678898 0.2051002110428736 0 0.065549109343682771 0.1791160261111634 0 0.054662743869678898 0.2051002110428736 0 0.065549109343682771 0.1791160261111634 0 0.05277932094668935 0.1868421333532756 0 0.038605567761638399 0.19162801727977621 0 0.054662743869678898 0.2051002110428736 0 0.038605567761638399 0.19162801727977621 0 0.048164276109921703 0.2038729051721096 0 0.054662743869678898 0.2051002110428736 0 0.054662743869678898 0.2051002110428736 0 0.064338911609809202 0.19946317470971439 0 0.065549109343682771 0.1791160261111634 0 0.054662743869678898 0.2051002110428736 0 0.044893230480466027 0.2293261731144588 0 0.054662743869678898 0.2051002110428736 0 0.048224103205526052 0.21851855589674471 0 0.044893230480466027 0.2293261731144588 0 0.048164276109921703 0.2038729051721096 0 0.048785532852532877 0.2084784592980477 0 0.051152802073269853 0.20711100646160779 0 0.054662743869678898 0.2051002110428736 0 0.05320754713151242 0.2133569401072645 0 0.044893230480466027 0.2293261731144588 0 0.048164276109921703 0.2038729051721096 0 0.051152802073269853 0.20711100646160779 0 0.052561882809344311 0.2056309016726118 0 0.048785532852532877 0.2084784592980477 0 0.048561900181062941 0.2111518004370509 0 0.045724500698770959 0.21165943540619739 0 0.048785532852532877 0.2084784592980477 0 0.050415165422591203 0.2089456160485931 0 0.051152802073269853 0.20711100646160779 0 0.050415165422591203 0.2089456160485931 0 0.050236797167578923 0.21043042945388371 0 0.051152802073269853 0.20711100646160779 0 0.048785532852532877 0.2084784592980477 0 0.050236797167578923 0.21043042945388371 0 0.048561900181062941 0.2111518004370509 0 0.048785532852532877 0.2084784592980477 0 0.050415165422591203 0.2089456160485931 0 0.050236797167578923 0.21043042945388371 0 0.050236797167578923 0.21043042945388371 0 0.054662743869678898 0.2051002110428736 0 0.052561882809344311 0.2056309016726118 0 0.050236797167578923 0.21043042945388371 0 0.051152802073269853 0.20711100646160779 0 0.052561882809344311 0.2056309016726118 0 0.048164276109921703 0.2038729051721096 0 0.054662743869678898 0.2051002110428736 0 0.052561882809344311 0.2056309016726118 0 0.054662743869678898 0.2051002110428736 0 0.057220814158414332 0.21031345741580201 0 0.05320754713151242 0.2133569401072645 0 0.054662743869678898 0.2051002110428736 0 0.060835018486671472 0.20706658808998149 0 0.064338911609809202 0.19946317470971439 0 0.054662743869678898 0.2051002110428736 0 0.057220814158414332 0.21031345741580201 0 0.060835018486671472 0.20706658808998149 0 0.057220814158414332 0.21031345741580201 0 0.060835018486671472 0.20706658808998149 0 0.061414797988534872 0.2114772981437765 0 0.05819869997889357 0.2149849711880388 0 0.05805371211362146 0.22010521046125231 0 0.065281053028411182 0.21706643935423231 0 0.057220814158414332 0.21031345741580201 0 0.061414797988534872 0.2114772981437765 0 0.05819869997889357 0.2149849711880388 0 0.061414797988534872 0.2114772981437765 0 0.05819869997889357 0.2149849711880388 0 0.065281053028411182 0.21706643935423231 0 0.057220814158414332 0.21031345741580201 0 0.05819869997889357 0.2149849711880388 0 0.05320754713151242 0.2133569401072645 0 0.05819869997889357 0.2149849711880388 0 0.055613896946064417 0.21740634220154359 0 0.05320754713151242 0.2133569401072645 0 0.05819869997889357 0.2149849711880388 0 0.055613896946064417 0.21740634220154359 0 0.05805371211362146 0.22010521046125231 0 0.050236797167578923 0.21043042945388371 0 0.054662743869678898 0.2051002110428736 0 0.048224103205526052 0.21851855589674471 0 0.050236797167578923 0.21043042945388371 0 0.048898571671271068 0.2132227644845324 0 0.048224103205526052 0.21851855589674471 0 0.055613896946064417 0.21740634220154359 0 0.05320754713151242 0.2133569401072645 0 0.05299562856023024 0.22117824704961911 0 0.050236797167578923 0.21043042945388371 0 0.048898571671271068 0.2132227644845324 0 0.048561900181062941 0.2111518004370509 0 0.048898571671271068 0.2132227644845324 0 0.048561900181062941 0.2111518004370509 0 0.045724500698770959 0.21165943540619739 0 0.048898571671271068 0.2132227644845324 0 0.048224103205526052 0.21851855589674471 0 0.045594648177426207 0.21591266858858099 0 0.048224103205526052 0.21851855589674471 0 0.045594648177426207 0.21591266858858099 0 0.043328679053870361 0.2191966321614684 0 0.045594648177426207 0.21591266858858099 0 0.041125697294503348 0.216148129731702 0 0.043328679053870361 0.2191966321614684 0 0.041125697294503348 0.216148129731702 0 0.045724500698770959 0.21165943540619739 0 0.038225671362497417 0.21051682615188119 0 0.045594648177426207 0.21591266858858099 0 0.041125697294503348 0.216148129731702 0 0.045724500698770959 0.21165943540619739 0 0.048898571671271068 0.2132227644845324 0 0.045594648177426207 0.21591266858858099 0 0.045724500698770959 0.21165943540619739 0 0.048785532852532877 0.2084784592980477 0 0.045724500698770959 0.21165943540619739 0 0.04226271832627275 0.2052184704051378 0 0.048164276109921703 0.2038729051721096 0 0.048785532852532877 0.2084784592980477 0 0.04226271832627275 0.2052184704051378 0 0.045724500698770959 0.21165943540619739 0 0.04226271832627275 0.2052184704051378 0 0.038225671362497417 0.21051682615188119 0 0.03048139683227348 0.2035546046414933 0 0.04226271832627275 0.2052184704051378 0 0.038225671362497417 0.21051682615188119 0 0.03048139683227348 0.2035546046414933 0 0.038225671362497417 0.21051682615188119 0 0.031534043660666561 0.21600349057487539 0 0.041125697294503348 0.216148129731702 0 0.038225671362497417 0.21051682615188119 0 0.031534043660666561 0.21600349057487539 0 0.041125697294503348 0.216148129731702 0 0.031534043660666561 0.21600349057487539 0 0.038658994484452799 0.2217925556377556 0 0.031534043660666561 0.21600349057487539 0 0.038658994484452799 0.2217925556377556 0 0.033649555327102433 0.227163594541023 0 0.038658994484452799 0.2217925556377556 0 0.033649555327102433 0.227163594541023 0 0.039293586560966438 0.2279808596929985 0 0.027329493042695819 0.23903460929129841 0 0.033649555327102433 0.227163594541023 0 0.037163146994557167 0.23447330747067571 0 0.033649555327102433 0.227163594541023 0 0.039293586560966438 0.2279808596929985 0 0.037163146994557167 0.23447330747067571 0 0.043743054449845907 0.23305812665876841 0 0.044893230480466027 0.2293261731144588 0 0.043022405009607703 0.22426262712446629 0 0.039293586560966438 0.2279808596929985 0 0.043743054449845907 0.23305812665876841 0 0.043022405009607703 0.22426262712446629 0 0.039293586560966438 0.2279808596929985 0 0.043743054449845907 0.23305812665876841 0 0.037163146994557167 0.23447330747067571 0 0.043743054449845907 0.23305812665876841 0 0.044893230480466027 0.2293261731144588 0 0.048224103205526052 0.21851855589674471 0 0.044893230480466027 0.2293261731144588 0 0.043022405009607703 0.22426262712446629 0 0.038658994484452799 0.2217925556377556 0 0.039293586560966438 0.2279808596929985 0 0.043022405009607703 0.22426262712446629 0 0.038658994484452799 0.2217925556377556 0 0.043022405009607703 0.22426262712446629 0 0.043328679053870361 0.2191966321614684 0 0.041125697294503348 0.216148129731702 0 0.038658994484452799 0.2217925556377556 0 0.043328679053870361 0.2191966321614684 0 0.048224103205526052 0.21851855589674471 0 0.043022405009607703 0.22426262712446629 0 0.043328679053870361 0.2191966321614684 0 0.05320754713151242 0.2133569401072645 0 0.044893230480466027 0.2293261731144588 0 0.05299562856023024 0.22117824704961911 0 0.044893230480466027 0.2293261731144588 0 0.053656308505615841 0.22555075855855219 0 0.05299562856023024 0.22117824704961911 0 0.053656308505615841 0.22555075855855219 0 0.05805371211362146 0.22010521046125231 0 0.060316349441336278 0.2318776029630647 0 0.053656308505615841 0.22555075855855219 0 0.05299562856023024 0.22117824704961911 0 0.05805371211362146 0.22010521046125231 0 0.055613896946064417 0.21740634220154359 0 0.05299562856023024 0.22117824704961911 0 0.05805371211362146 0.22010521046125231 0 0.044893230480466027 0.2293261731144588 0 0.053656308505615841 0.22555075855855219 0 0.060316349441336278 0.2318776029630647 0 0.043743054449845907 0.23305812665876841 0 0.044893230480466027 0.2293261731144588 0 0.065546195528431439 0.2493082971063314 0 0.044893230480466027 0.2293261731144588 0 0.060316349441336278 0.2318776029630647 0 0.065546195528431439 0.2493082971063314 0 0.043743054449845907 0.23305812665876841 0 0.041800045592175247 0.24512934716929019 0 0.065546195528431439 0.2493082971063314 0 0.044893230480466027 0.2293261731144588 0 0.065546195528431439 0.2493082971063314 0 0.043743054449845907 0.23305812665876841 0 0.041800045592175247 0.24512934716929019 0 0.037163146994557167 0.23447330747067571 0 0.027329493042695819 0.23903460929129841 0 0.041800045592175247 0.24512934716929019 0 0.037163146994557167 0.23447330747067571 0 0.027329493042695819 0.23903460929129841 0 0.041800045592175247 0.24512934716929019 0 0.029945818561336469 0.25087343006989432 0 0.093158877486271385 0.24497865695800511 0 0.077286708751709315 0.2386206037486108 0 0.090996944033354288 0.2279093860827999 0 0.093158877486271385 0.24497865695800511 0 0.077286708751709315 0.2386206037486108 0 0.083889286290303566 0.25240242155535458 0 0.060316349441336278 0.2318776029630647 0 0.077286708751709315 0.2386206037486108 0 0.065546195528431439 0.2493082971063314 0 0.077286708751709315 0.2386206037486108 0 0.065546195528431439 0.2493082971063314 0 0.083889286290303566 0.25240242155535458 0 0.060316349441336278 0.2318776029630647 0 0.077286708751709315 0.2386206037486108 0 0.069812599730558922 0.22524725782610899 0 0.05805371211362146 0.22010521046125231 0 0.060316349441336278 0.2318776029630647 0 0.069812599730558922 0.22524725782610899 0 0.05805371211362146 0.22010521046125231 0 0.069812599730558922 0.22524725782610899 0 0.065281053028411182 0.21706643935423231 0 0.069812599730558922 0.22524725782610899 0 0.079842715888440219 0.21530706262600019 0 0.065281053028411182 0.21706643935423231 0 0.077286708751709315 0.2386206037486108 0 0.069812599730558922 0.22524725782610899 0 0.090996944033354288 0.2279093860827999 0 0.069812599730558922 0.22524725782610899 0 0.090996944033354288 0.2279093860827999 0 0.079842715888440219 0.21530706262600019 0 0.079842715888440219 0.21530706262600019 0 0.08493137213635335 0.20212197754149011 0 0.099329449705222089 0.21000542611026229 0 0.090996944033354288 0.2279093860827999 0 0.079842715888440219 0.21530706262600019 0 0.099329449705222089 0.21000542611026229 0 0.079842715888440219 0.21530706262600019 0 0.065281053028411182 0.21706643935423231 0 0.068975355975123748 0.2091314470208066 0 0.079842715888440219 0.21530706262600019 0 0.068975355975123748 0.2091314470208066 0 0.08493137213635335 0.20212197754149011 0 0.061414797988534872 0.2114772981437765 0 0.065281053028411182 0.21706643935423231 0 0.068975355975123748 0.2091314470208066 0 0.060835018486671472 0.20706658808998149 0 0.068975355975123748 0.2091314470208066 0 0.064338911609809202 0.19946317470971439 0 0.060835018486671472 0.20706658808998149 0 0.061414797988534872 0.2114772981437765 0 0.068975355975123748 0.2091314470208066 0 0.068975355975123748 0.2091314470208066 0 0.072899426944448259 0.19648449255423359 0 0.08493137213635335 0.20212197754149011 0 0.072899426944448259 0.19648449255423359 0 0.082496368967567374 0.18772946793892009 0 0.065549109343682771 0.1791160261111634 0 0.072899426944448259 0.19648449255423359 0 0.064338911609809202 0.19946317470971439 0 0.065549109343682771 0.1791160261111634 0 0.068975355975123748 0.2091314470208066 0 0.072899426944448259 0.19648449255423359 0 0.064338911609809202 0.19946317470971439 0 0.082496368967567374 0.18772946793892009 0 0.08493137213635335 0.20212197754149011 0 0.1015352472026272 0.1897477935179758 0 0.072899426944448259 0.19648449255423359 0 0.082496368967567374 0.18772946793892009 0 0.08493137213635335 0.20212197754149011 0 0.1015352472026272 0.1897477935179758 0 0.11762621229661301 0.2048327762159064 0 0.099329449705222089 0.21000542611026229 0 0.08493137213635335 0.20212197754149011 0 0.1015352472026272 0.1897477935179758 0 0.099329449705222089 0.21000542611026229 0 0.11762621229661301 0.2048327762159064 0 0.12698955129055589 0.1851002668214535 0 0.1015352472026272 0.1897477935179758 0 0.11762621229661301 0.2048327762159064 0 0.12698955129055589 0.1851002668214535 0 0.11762621229661301 0.2048327762159064 0 0.1082628733026705 0.22456528561035929 0 0.1264354845166363 0.2226523341710443 0 0.11762621229661301 0.2048327762159064 0 0.1082628733026705 0.22456528561035929 0 0.11762621229661301 0.2048327762159064 0 0.099329449705222089 0.21000542611026229 0 0.1082628733026705 0.22456528561035929 0 0.090996944033354288 0.2279093860827999 0 0.099329449705222089 0.21000542611026229 0 0.1082628733026705 0.22456528561035929 0 0.090996944033354288 0.2279093860827999 0 0.1082628733026705 0.22456528561035929 0 0.1040712235599244 0.2376323428694021 0 0.1082628733026705 0.22456528561035929 0 0.1205808000874211 0.24010140278001529 0 0.1040712235599244 0.2376323428694021 0 0.1082628733026705 0.22456528561035929 0 0.1205808000874211 0.24010140278001529 0 0.1264354845166363 0.2226523341710443 0 0.1205808000874211 0.24010140278001529 0 0.1040712235599244 0.2376323428694021 0 0.1073566228899049 0.25060698291583089 0 0.1205808000874211 0.24010140278001529 0 0.12169936599027439 0.2567597450848853 0 0.1073566228899049 0.25060698291583089 0 0.093158877486271385 0.24497865695800511 0 0.090996944033354288 0.2279093860827999 0 0.1040712235599244 0.2376323428694021 0 0.093158877486271385 0.24497865695800511 0 0.1040712235599244 0.2376323428694021 0 0.1073566228899049 0.25060698291583089 0 0.092497802563082043 0.14588160584197971 0 0.083239619018874611 0.13535463707112669 0 0.076452136790600769 0.15214497583736061 0 0.083239619018874611 0.13535463707112669 0 0.076452136790600769 0.15214497583736061 0 0.092497802563082043 0.14588160584197971 0 0.076452136790600769 0.15214497583736061 0 0.092497802563082043 0.14588160584197971 0 0.076452136790600769 0.15214497583736061 0 0.088655276236935185 0.160536481029001 0 0.092497802563082043 0.14588160584197971 0 0.083239619018874611 0.13535463707112669 0 0.079688452911995111 0.131316802378316 0 0.083239619018874611 0.13535463707112669 0 0.076452136790600769 0.15214497583736061 0 0.092497802563082043 0.14588160584197971 0 0.083239619018874611 0.13535463707112669 0 0.1007709718809702 0.12927093273521739 0 0.092478415171075357 0.1125004310532523 0 0.083239619018874611 0.13535463707112669 0 0.1007709718809702 0.12927093273521739 0 0.082637104810127746 0.12698807089689701 0 0.079688452911995111 0.131316802378316 0 0.083239619018874611 0.13535463707112669 0 0.082637104810127746 0.12698807089689701 0 0.079688452911995111 0.131316802378316 0 0.079688452911995111 0.131316802378316 0 0.083239619018874611 0.13535463707112669 0 0.057948887345909701 0.13111049992592369 0 0.079688452911995111 0.131316802378316 0 0.065994157861876263 0.1514205406788027 0 0.079688452911995111 0.131316802378316 0 0.065994157861876263 0.1514205406788027 0 0.079688452911995111 0.131316802378316 0 0.076452136790600769 0.15214497583736061 0 0.065994157861876263 0.1514205406788027 0 0.076452136790600769 0.15214497583736061 0 0.071441463024464871 0.1541008749672845 0 0.065994157861876263 0.1514205406788027 0 0.076452136790600769 0.15214497583736061 0 0.071441463024464871 0.1541008749672845 0 0.066347345966476387 0.16166133931478011 0 0.076452136790600769 0.15214497583736061 0 0.071441463024464871 0.1541008749672845 0 0.071441463024464871 0.1541008749672845 0 0.065994157861876263 0.1514205406788027 0 0.066347345966476387 0.16166133931478011 0 0.076452136790600769 0.15214497583736061 0 0.066347345966476387 0.16166133931478011 0 0.065549109343682771 0.1791160261111634 0 0.076452136790600769 0.15214497583736061 0 0.065549109343682771 0.1791160261111634 0 0.076452136790600769 0.15214497583736061 0 0.065549109343682771 0.1791160261111634 0 0.079565131575125403 0.16647222552228849 0 0.065549109343682771 0.1791160261111634 0 0.087604003929283025 0.17409141911162929 0 0.079565131575125403 0.16647222552228849 0 0.082496368967567374 0.18772946793892009 0 0.065549109343682771 0.1791160261111634 0 0.087604003929283025 0.17409141911162929 0 0.082496368967567374 0.18772946793892009 0 0.1015352472026272 0.1897477935179758 0 0.087604003929283025 0.17409141911162929 0 0.076452136790600769 0.15214497583736061 0 0.079565131575125403 0.16647222552228849 0 0.088655276236935185 0.160536481029001 0 0.087604003929283025 0.17409141911162929 0 0.079565131575125403 0.16647222552228849 0 0.088655276236935185 0.160536481029001 0 0.092497802563082043 0.14588160584197971 0 0.088655276236935185 0.160536481029001 0 0.1097436769268202 0.16549093633171541 0 0.087604003929283025 0.17409141911162929 0 0.088655276236935185 0.160536481029001 0 0.1097436769268202 0.16549093633171541 0 0.1015352472026272 0.1897477935179758 0 0.087604003929283025 0.17409141911162929 0 0.1097436769268202 0.16549093633171541 0 0.1097436769268202 0.16549093633171541 0 0.1339197842794875 0.1704953392792258 0 0.12698955129055589 0.1851002668214535 0 0.1097436769268202 0.16549093633171541 0 0.12698955129055589 0.1851002668214535 0 0.1015352472026272 0.1897477935179758 0 0.1097436769268202 0.16549093633171541 0 0.12698955129055589 0.1851002668214535 0 0.1097436769268202 0.16549093633171541 0 0.124281614688106 0.15284528859572219 0 0.1339197842794875 0.1704953392792258 0 0.124281614688106 0.15284528859572219 0 0.1111581514774503 0.15002549868672241 0 0.11810951173179079 0.13588416397747449 0 0.1097436769268202 0.16549093633171541 0 0.124281614688106 0.15284528859572219 0 0.1111581514774503 0.15002549868672241 0 0.092497802563082043 0.14588160584197971 0 0.1097436769268202 0.16549093633171541 0 0.1111581514774503 0.15002549868672241 0 0.092497802563082043 0.14588160584197971 0 0.11810951173179079 0.13588416397747449 0 0.092497802563082043 0.14588160584197971 0 0.1111581514774503 0.15002549868672241 0 0.11810951173179079 0.13588416397747449 0 0.092497802563082043 0.14588160584197971 0 0.1097436769268202 0.16549093633171541 0 0.092497802563082043 0.14588160584197971 0 0.1007709718809702 0.12927093273521739 0 0.11810951173179079 0.13588416397747449 0 0.1097352463225361 0.11732120119405989 0 0.1007709718809702 0.12927093273521739 0 0.11810951173179079 0.13588416397747449 0 0.11810951173179079 0.13588416397747449 0 0.14372122090049971 0.12588672211296939 0 0.13517033264833231 0.14280593339909661 0 0.11810951173179079 0.13588416397747449 0 0.14372122090049971 0.12588672211296939 0 0.14372122090049971 0.12588672211296939 0 0.14811480673930269 0.14511429486097641 0 0.13517033264833231 0.14280593339909661 0 0.14372122090049971 0.12588672211296939 0 0.1636264243993108 0.1428921684962593 0 0.14372122090049971 0.12588672211296939 0 0.14811480673930269 0.14511429486097641 0 0.1636264243993108 0.1428921684962593 0 0.14811480673930269 0.14511429486097641 0 0.14085001726841931 0.1558904117369983 0 0.15720603847995129 0.15809623855955821 0 0.14811480673930269 0.14511429486097641 0 0.14085001726841931 0.1558904117369983 0 0.13517033264833231 0.14280593339909661 0 0.124281614688106 0.15284528859572219 0 0.14085001726841931 0.1558904117369983 0 0.13517033264833231 0.14280593339909661 0 0.124281614688106 0.15284528859572219 0 0.11810951173179079 0.13588416397747449 0 0.13517033264833231 0.14280593339909661 0 0.124281614688106 0.15284528859572219 0 0.14085001726841931 0.1558904117369983 0 0.1339197842794875 0.1704953392792258 0 0.14085001726841931 0.1558904117369983 0 0.1339197842794875 0.1704953392792258 0 0.1339197842794875 0.1704953392792258 0 0.12698955129055589 0.1851002668214535 0 0.1467757805583966 0.184366593478828 0 0.1339197842794875 0.1704953392792258 0 0.12698955129055589 0.1851002668214535 0 0.1467757805583966 0.184366593478828 0 0.14855429452315391 0.1687530087860476 0 0.1640198520295148 0.17491646087562729 0 0.1339197842794875 0.1704953392792258 0 0.1467757805583966 0.184366593478828 0 0.14855429452315391 0.1687530087860476 0 0.14085001726841931 0.1558904117369983 0 0.14855429452315391 0.1687530087860476 0 0.15720603847995129 0.15809623855955821 0 0.14085001726841931 0.1558904117369983 0 0.1339197842794875 0.1704953392792258 0 0.14855429452315391 0.1687530087860476 0 0.15720603847995129 0.15809623855955821 0 0.1640198520295148 0.17491646087562729 0 0.1835316278981233 0.15989761487954751 0 0.14855429452315391 0.1687530087860476 0 0.15720603847995129 0.15809623855955821 0 0.1640198520295148 0.17491646087562729 0 0.1467757805583966 0.184366593478828 0 0.1640198520295148 0.17491646087562729 0 0.17055922324448539 0.19879035409526319 0 0.1640198520295148 0.17491646087562729 0 0.1829278155375279 0.1797953556364057 0 0.17055922324448539 0.19879035409526319 0 0.1640198520295148 0.17491646087562729 0 0.1829278155375279 0.1797953556364057 0 0.1835316278981233 0.15989761487954751 0 0.1835316278981233 0.15989761487954751 0 0.1636264243993108 0.1428921684962593 0 0.1835316278981233 0.15989761487954751 0 0.1636264243993108 0.1428921684962593 0 0.18972097744882541 0.13380328971103481 0 0.17667357051540469 0.12532751281523449 0 0.1636264243993108 0.1428921684962593 0 0.18972097744882541 0.13380328971103481 0 0.17667357051540469 0.12532751281523449 0 0.18972097744882541 0.13380328971103481 0 0.1868142606579751 0.1214397756045083 0 0.14372122090049971 0.12588672211296939 0 0.1636264243993108 0.1428921684962593 0 0.16291101993369231 0.1183960506016624 0 0.17667357051540469 0.12532751281523449 0 0.1636264243993108 0.1428921684962593 0 0.16291101993369231 0.1183960506016624 0 0.15720603847995129 0.15809623855955821 0 0.1835316278981233 0.15989761487954751 0 0.1636264243993108 0.1428921684962593 0 0.14811480673930269 0.14511429486097641 0 0.15720603847995129 0.15809623855955821 0 0.1636264243993108 0.1428921684962593 0 0.15152369355776621 0.24985893891519911 0 0.14031587656356931 0.23637666329713439 0 0.1639906180054114 0.22717213458422189 0 0.15152369355776621 0.24985893891519911 0 0.14031587656356931 0.23637666329713439 0 0.1338055702009765 0.24966410633270131 0 0.1205808000874211 0.24010140278001529 0 0.14031587656356931 0.23637666329713439 0 0.1338055702009765 0.24966410633270131 0 0.1205808000874211 0.24010140278001529 0 0.1338055702009765 0.24966410633270131 0 0.12169936599027439 0.2567597450848853 0 0.1205808000874211 0.24010140278001529 0 0.14031587656356931 0.23637666329713439 0 0.1264354845166363 0.2226523341710443 0 0.14031587656356931 0.23637666329713439 0 0.1264354845166363 0.2226523341710443 0 0.1454900846479838 0.20613620070283739 0 0.14031587656356931 0.23637666329713439 0 0.1454900846479838 0.20613620070283739 0 0.1639906180054114 0.22717213458422189 0 0.1454900846479838 0.20613620070283739 0 0.1639906180054114 0.22717213458422189 0 0.11762621229661301 0.2048327762159064 0 0.1264354845166363 0.2226523341710443 0 0.1454900846479838 0.20613620070283739 0 0.12698955129055589 0.1851002668214535 0 0.1467757805583966 0.184366593478828 0 0.1454900846479838 0.20613620070283739 0 0.11762621229661301 0.2048327762159064 0 0.12698955129055589 0.1851002668214535 0 0.1454900846479838 0.20613620070283739 0 0.12698955129055589 0.1851002668214535 0 0.1454900846479838 0.20613620070283739 0 0.1467757805583966 0.184366593478828 0 0.1454900846479838 0.20613620070283739 0 0.17055922324448539 0.19879035409526319 0 0.17055922324448539 0.19879035409526319 0 0.1639906180054114 0.22717213458422189 0 0.19780893923833709 0.22308014540621479 0 0.1829278155375279 0.1797953556364057 0 0.17055922324448539 0.19879035409526319 0 0.1953999583297584 0.19549618042325309 0 0.1454900846479838 0.20613620070283739 0 0.17055922324448539 0.19879035409526319 0 0.1639906180054114 0.22717213458422189 0 0.1639906180054114 0.22717213458422189 0 0.182491151362839 0.24820806846560631 0 0.19780893923833709 0.22308014540621479 0 0.1639906180054114 0.22717213458422189 0 0.182491151362839 0.24820806846560631 0 0.1639906180054114 0.22717213458422189 0 0.182491151362839 0.24820806846560631 0 0.16654584110041859 0.25141402998849288 0 0.15152369355776621 0.24985893891519911 0 0.1639906180054114 0.22717213458422189 0 0.16654584110041859 0.25141402998849288 0 0.20323580424516999 0.24901026716194319 0 0.21971355302517101 0.23954989193063889 0 0.22733852896958251 0.25985763436866632 0 0.20323580424516999 0.24901026716194319 0 0.19780893923833709 0.22308014540621479 0 0.21971355302517101 0.23954989193063889 0 0.182491151362839 0.24820806846560631 0 0.20323580424516999 0.24901026716194319 0 0.19780893923833709 0.22308014540621479 0 0.19780893923833709 0.22308014540621479 0 0.22707002769851481 0.22250110731134409 0 0.21971355302517101 0.23954989193063889 0 0.19780893923833709 0.22308014540621479 0 0.22063323564908879 0.20445854356503829 0 0.22707002769851481 0.22250110731134409 0 0.19780893923833709 0.22308014540621479 0 0.1953999583297584 0.19549618042325309 0 0.22063323564908879 0.20445854356503829 0 0.17055922324448539 0.19879035409526319 0 0.19780893923833709 0.22308014540621479 0 0.1953999583297584 0.19549618042325309 0 0.1953999583297584 0.19549618042325309 0 0.22063323564908879 0.20445854356503829 0 0.1953999583297584 0.19549618042325309 0 0.22063323564908879 0.20445854356503829 0 0.22418317743696939 0.17915807744700299 0 0.24778755904117561 0.19261041655277891 0 0.22063323564908879 0.20445854356503829 0 0.22418317743696939 0.17915807744700299 0 0.24778755904117561 0.19261041655277891 0 0.24586651296841919 0.21342090670682359 0 0.22063323564908879 0.20445854356503829 0 0.24586651296841919 0.21342090670682359 0 0.22063323564908879 0.20445854356503829 0 0.22707002769851481 0.22250110731134409 0 0.24586651296841919 0.21342090670682359 0 0.22063323564908879 0.20445854356503829 0 0.22707002769851481 0.22250110731134409 0 0.2383861826425086 0.23614859941304819 0 0.21971355302517101 0.23954989193063889 0 0.24586651296841919 0.21342090670682359 0 0.2383861826425086 0.23614859941304819 0 0.25611452929584783 0.23210673768206719 0 0.24586651296841919 0.21342090670682359 0 0.22707002769851481 0.22250110731134409 0 0.2383861826425086 0.23614859941304819 0 0.2383861826425086 0.23614859941304819 0 0.25330306868854607 0.24974758695179611 0 0.25611452929584783 0.23210673768206719 0 0.2383861826425086 0.23614859941304819 0 0.22733852896958251 0.25985763436866632 0 0.25330306868854607 0.24974758695179611 0 0.2383861826425086 0.23614859941304819 0 0.21971355302517101 0.23954989193063889 0 0.22733852896958251 0.25985763436866632 0 0.2052076800438252 0.1446426648256566 0 0.21801872350387599 0.1596977066787037 0 0.22407515367158901 0.14096460327525989 0 0.2052076800438252 0.1446426648256566 0 0.21215074587702371 0.1267467883197069 0 0.22407515367158901 0.14096460327525989 0 0.21215074587702371 0.1267467883197069 0 0.18972097744882541 0.13380328971103481 0 0.1987616757007851 0.11572292080140779 0 0.2052076800438252 0.1446426648256566 0 0.21215074587702371 0.1267467883197069 0 0.18972097744882541 0.13380328971103481 0 0.1835316278981233 0.15989761487954751 0 0.2052076800438252 0.1446426648256566 0 0.18972097744882541 0.13380328971103481 0 0.1829278155375279 0.1797953556364057 0 0.1835316278981233 0.15989761487954751 0 0.20112841618575791 0.16987616790833729 0 0.1835316278981233 0.15989761487954751 0 0.2052076800438252 0.1446426648256566 0 0.20112841618575791 0.16987616790833729 0 0.1829278155375279 0.1797953556364057 0 0.1953999583297584 0.19549618042325309 0 0.20112841618575791 0.16987616790833729 0 0.1953999583297584 0.19549618042325309 0 0.20112841618575791 0.16987616790833729 0 0.22418317743696939 0.17915807744700299 0 0.20112841618575791 0.16987616790833729 0 0.21801872350387599 0.1596977066787037 0 0.22418317743696939 0.17915807744700299 0 0.2052076800438252 0.1446426648256566 0 0.20112841618575791 0.16987616790833729 0 0.21801872350387599 0.1596977066787037 0 0.21801872350387599 0.1596977066787037 0 0.22418317743696939 0.17915807744700299 0 0.23648432970893199 0.15706624272585781 0 0.24778755904117561 0.19261041655277891 0 0.22418317743696939 0.17915807744700299 0 0.25071325899215041 0.17221730569813209 0 0.22418317743696939 0.17915807744700299 0 0.23648432970893199 0.15706624272585781 0 0.25071325899215041 0.17221730569813209 0 0.23648432970893199 0.15706624272585781 0 0.2602033980042267 0.15272867852389249 0 0.25071325899215041 0.17221730569813209 0 0.23648432970893199 0.15706624272585781 0 0.243585146636947 0.13962416392737431 0 0.2602033980042267 0.15272867852389249 0 0.23648432970893199 0.15706624272585781 0 0.22407515367158901 0.14096460327525989 0 0.243585146636947 0.13962416392737431 0 0.21801872350387599 0.1596977066787037 0 0.23648432970893199 0.15706624272585781 0 0.22407515367158901 0.14096460327525989 0 0.21215074587702371 0.1267467883197069 0 0.22407515367158901 0.14096460327525989 0 0.22978466292233291 0.1188405028389343 0 0.22407515367158901 0.14096460327525989 0 0.243585146636947 0.13962416392737431 0 0.22978466292233291 0.1188405028389343 0 0.243585146636947 0.13962416392737431 0 0.2494403980090209 0.1171116334398949 0 0.22978466292233291 0.1188405028389343 0 0.243585146636947 0.13962416392737431 0 0.2494403980090209 0.1171116334398949 0 0.2494403980090209 0.1171116334398949 0 0.23374017519627521 0.096036559249233364 0 0.22978466292233291 0.1188405028389343 0 0.2494403980090209 0.1171116334398949 0 0.23374017519627521 0.096036559249233364 0 0.25529564938109472 0.094599102952415665 0 0.23374017519627521 0.096036559249233364 0 0.21576556759435259 0.1070449798886613 0 0.21503399708603521 0.090681290559346109 0 0.23374017519627521 0.096036559249233364 0 0.22978466292233291 0.1188405028389343 0 0.21576556759435259 0.1070449798886613 0 0.21215074587702371 0.1267467883197069 0 0.22978466292233291 0.1188405028389343 0 0.21576556759435259 0.1070449798886613 0 0.21215074587702371 0.1267467883197069 0 0.21576556759435259 0.1070449798886613 0 0.1987616757007851 0.11572292080140779 0 0.21576556759435259 0.1070449798886613 0 0.20405793088031449 0.097920499862421392 0 0.1987616757007851 0.11572292080140779 0 0.21576556759435259 0.1070449798886613 0 0.20405793088031449 0.097920499862421392 0 0.21503399708603521 0.090681290559346109 0 0.1908354384815433 0.10029672169762451 0 0.1987616757007851 0.11572292080140779 0 0.18210081896688529 0.1109053790903563 0 0.20405793088031449 0.097920499862421392 0 0.1908354384815433 0.10029672169762451 0 0.1987616757007851 0.11572292080140779 0 0.20405793088031449 0.097920499862421392 0 0.1908354384815433 0.10029672169762451 0 0.19093292052318869 0.085159824320032579 0 0.18972097744882541 0.13380328971103481 0 0.1987616757007851 0.11572292080140779 0 0.1868142606579751 0.1214397756045083 0 0.1987616757007851 0.11572292080140779 0 0.18210081896688529 0.1109053790903563 0 0.1868142606579751 0.1214397756045083 0 0.20029290722471929 0.072235816294577634 0 0.19988085161225319 0.048489579819193912 0 0.18693061282637441 0.072721849392225618 0 0.20029290722471929 0.072235816294577634 0 0.19093292052318869 0.085159824320032579 0 0.18693061282637441 0.072721849392225618 0 0.20405793088031449 0.097920499862421392 0 0.19093292052318869 0.085159824320032579 0 0.2033415478786296 0.084660272386408525 0 0.20029290722471929 0.072235816294577634 0 0.19093292052318869 0.085159824320032579 0 0.2033415478786296 0.084660272386408525 0 0.2033415478786296 0.084660272386408525 0 0.21503399708603521 0.090681290559346109 0 0.21165507378589549 0.076998801625278557 0 0.20405793088031449 0.097920499862421392 0 0.2033415478786296 0.084660272386408525 0 0.21503399708603521 0.090681290559346109 0 0.21503399708603521 0.090681290559346109 0 0.21165507378589549 0.076998801625278557 0 0.22197697140556791 0.08096102975187322 0 0.21165507378589549 0.076998801625278557 0 0.21993529817362281 0.068535431127339549 0 0.22197697140556791 0.08096102975187322 0 0.20029290722471929 0.072235816294577634 0 0.21165507378589549 0.076998801625278557 0 0.20934972094679871 0.064918969632126358 0 0.20029290722471929 0.072235816294577634 0 0.2033415478786296 0.084660272386408525 0 0.21165507378589549 0.076998801625278557 0 0.21165507378589549 0.076998801625278557 0 0.20934972094679871 0.064918969632126358 0 0.21993529817362281 0.068535431127339549 0 0.20934972094679871 0.064918969632126358 0 0.21993529817362281 0.068535431127339549 0 0.21688688866815301 0.055648507781103813 0 0.21993529817362281 0.068535431127339549 0 0.230920880213695 0.071352362523912499 0 0.22865312994494211 0.06028380591151359 0 0.21993529817362281 0.068535431127339549 0 0.230920880213695 0.071352362523912499 0 0.22197697140556791 0.08096102975187322 0 0.230920880213695 0.071352362523912499 0 0.22197697140556791 0.08096102975187322 0 0.23430353063426809 0.081906090176102869 0 0.230920880213695 0.071352362523912499 0 0.23916693832508479 0.064341690102425145 0 0.22865312994494211 0.06028380591151359 0 0.23374017519627521 0.096036559249233364 0 0.21503399708603521 0.090681290559346109 0 0.22197697140556791 0.08096102975187322 0 0.23374017519627521 0.096036559249233364 0 0.22197697140556791 0.08096102975187322 0 0.23430353063426809 0.081906090176102869 0 0.23374017519627521 0.096036559249233364 0 0.2435180879280722 0.085902203614471567 0 0.25529564938109472 0.094599102952415665 0 0.23374017519627521 0.096036559249233364 0 0.23430353063426809 0.081906090176102869 0 0.2435180879280722 0.085902203614471567 0 0.23430353063426809 0.081906090176102869 0 0.2435180879280722 0.085902203614471567 0 0.24136153842773059 0.075278295741023682 0 0.2435180879280722 0.085902203614471567 0 0.24997250701208401 0.079471354332479371 0 0.24136153842773059 0.075278295741023682 0 0.2435180879280722 0.085902203614471567 0 0.24997250701208401 0.079471354332479371 0 0.25529564938109472 0.094599102952415665 0 0.230920880213695 0.071352362523912499 0 0.23916693832508479 0.064341690102425145 0 0.24136153842773059 0.075278295741023682 0 0.230920880213695 0.071352362523912499 0 0.23430353063426809 0.081906090176102869 0 0.24136153842773059 0.075278295741023682 0 0.24997250701208401 0.079471354332479371 0 0.24136153842773059 0.075278295741023682 0 0.24853635857035189 0.069490596889548964 0 0.23916693832508479 0.064341690102425145 0 0.24136153842773059 0.075278295741023682 0 0.24853635857035189 0.069490596889548964 0 0.23916693832508479 0.064341690102425145 0 0.24853635857035189 0.069490596889548964 0 0.2484312972887181 0.056541775366689723 0 0.23916693832508479 0.064341690102425145 0 0.2484312972887181 0.056541775366689723 0 0.23605136294643711 0.053949284398143123 0 0.23916693832508479 0.064341690102425145 0 0.23605136294643711 0.053949284398143123 0 0.22865312994494211 0.06028380591151359 0 0.2484312972887181 0.056541775366689723 0 0.23571169382426249 0.040996978268444839 0 0.2484312972887181 0.056541775366689723 0 0.23605136294643711 0.053949284398143123 0 0.23571169382426249 0.040996978268444839 0 0.2484312972887181 0.056541775366689723 0 0.24334429870242 0.044267468012004541 0 0.23571169382426249 0.040996978268444839 0 0.24334429870242 0.044267468012004541 0 0.24867026828239761 0.038097702182248623 0 0.25301588290366778 0.043405118851215743 0 0.24334429870242 0.044267468012004541 0 0.24867026828239761 0.038097702182248623 0 0.2418760710959931 0.03715233210639058 0 0.24867026828239761 0.038097702182248623 0 0.2418760710959931 0.03715233210639058 0 0.24510305125085591 0.02993903034939497 0 0.24867026828239761 0.038097702182248623 0 0.24510305125085591 0.02993903034939497 0 0.25392148086072691 0.032220210432752298 0 0.2386437857217637 0.032246454975123351 0 0.23571169382426249 0.040996978268444839 0 0.23186454763489819 0.028994799959233739 0 0.2386437857217637 0.032246454975123351 0 0.2418760710959931 0.03715233210639058 0 0.23571169382426249 0.040996978268444839 0 0.2386437857217637 0.032246454975123351 0 0.2418760710959931 0.03715233210639058 0 0.24510305125085591 0.02993903034939497 0 0.24334429870242 0.044267468012004541 0 0.2418760710959931 0.03715233210639058 0 0.23571169382426249 0.040996978268444839 0 0.23571169382426249 0.040996978268444839 0 0.22495818048063029 0.037015276606808922 0 0.22680446460153789 0.048446967755086959 0 0.23571169382426249 0.040996978268444839 0 0.22495818048063029 0.037015276606808922 0 0.23186454763489819 0.028994799959233739 0 0.22495818048063029 0.037015276606808922 0 0.22680446460153789 0.048446967755086959 0 0.21648852993746789 0.042973163713850453 0 0.22680446460153789 0.048446967755086959 0 0.21688688866815301 0.055648507781103813 0 0.21648852993746789 0.042973163713850453 0 0.21993529817362281 0.068535431127339549 0 0.22865312994494211 0.06028380591151359 0 0.21688688866815301 0.055648507781103813 0 0.22865312994494211 0.06028380591151359 0 0.22680446460153789 0.048446967755086959 0 0.21688688866815301 0.055648507781103813 0 0.23605136294643711 0.053949284398143123 0 0.22865312994494211 0.06028380591151359 0 0.22680446460153789 0.048446967755086959 0 0.23605136294643711 0.053949284398143123 0 0.23571169382426249 0.040996978268444839 0 0.22680446460153789 0.048446967755086959 0 0.23933600806982619 0.0054964392510234864 0 0.23314311228104639 0.0036975179188727548 0 0.2392704882312289 -0.00010989444563926339 0 0.23933600806982619 0.0054964392510234864 0 0.23406951224292319 0.0089949537857843993 0 0.23314311228104639 0.0036975179188727548 0 0.23933600806982619 0.0054964392510234864 0 0.24637522602358761 0.00088169354209314784 0 0.2392704882312289 -0.00010989444563926339 0 0.24637522602358761 0.00088169354209314784 0 0.24528316363166999 0.0095210458368082344 0 0.25040151105958658 0.0055971893843182576 0 0.23933600806982619 0.0054964392510234864 0 0.24637522602358761 0.00088169354209314784 0 0.24528316363166999 0.0095210458368082344 0 0.24528316363166999 0.0095210458368082344 0 0.24017542086569529 0.0143485163351517 0 0.2486024776200059 0.016654203094090929 0 0.24528316363166999 0.0095210458368082344 0 0.25257232655810741 0.01222979089227948 0 0.25040151105958658 0.0055971893843182576 0 0.24528316363166999 0.0095210458368082344 0 0.2486024776200059 0.016654203094090929 0 0.25257232655810741 0.01222979089227948 0 0.23933600806982619 0.0054964392510234864 0 0.24017542086569529 0.0143485163351517 0 0.23406951224292319 0.0089949537857843993 0 0.23933600806982619 0.0054964392510234864 0 0.24528316363166999 0.0095210458368082344 0 0.24017542086569529 0.0143485163351517 0 0.24017542086569529 0.0143485163351517 0 0.23122409762348861 0.017766867855923432 0 0.23406951224292319 0.0089949537857843993 0 0.24017542086569529 0.0143485163351517 0 0.245381215054645 0.022392291388893371 0 0.23866356480280879 0.02414913419215263 0 0.24017542086569529 0.0143485163351517 0 0.23866356480280879 0.02414913419215263 0 0.23122409762348861 0.017766867855923432 0 0.24017542086569529 0.0143485163351517 0 0.2486024776200059 0.016654203094090929 0 0.245381215054645 0.022392291388893371 0 0.2486024776200059 0.016654203094090929 0 0.245381215054645 0.022392291388893371 0 0.25120105678908078 0.02419039512390813 0 0.245381215054645 0.022392291388893371 0 0.24510305125085591 0.02993903034939497 0 0.23866356480280879 0.02414913419215263 0 0.245381215054645 0.022392291388893371 0 0.24510305125085591 0.02993903034939497 0 0.25120105678908078 0.02419039512390813 0 0.2386437857217637 0.032246454975123351 0 0.24510305125085591 0.02993903034939497 0 0.23866356480280879 0.02414913419215263 0 0.2386437857217637 0.032246454975123351 0 0.23866356480280879 0.02414913419215263 0 0.23186454763489819 0.028994799959233739 0 0.22495818048063029 0.037015276606808922 0 0.23186454763489819 0.028994799959233739 0 0.21283109039813189 0.02425731024616223 0 0.23122409762348861 0.017766867855923432 0 0.2273333343533436 0.010140731909935171 0 0.21283109039813189 0.02425731024616223 0 0.23186454763489819 0.028994799959233739 0 0.23122409762348861 0.017766867855923432 0 0.21283109039813189 0.02425731024616223 0 0.23866356480280879 0.02414913419215263 0 0.23186454763489819 0.028994799959233739 0 0.23122409762348861 0.017766867855923432 0 0.21283109039813189 0.02425731024616223 0 0.22705880568139331 -0.0002827260119973446 0 0.2273333343533436 0.010140731909935171 0 0.21283109039813189 0.02425731024616223 0 0.22705880568139331 -0.0002827260119973446 0 0.23122409762348861 0.017766867855923432 0 0.23406951224292319 0.0089949537857843993 0 0.2273333343533436 0.010140731909935171 0 0.23406951224292319 0.0089949537857843993 0 0.2273333343533436 0.010140731909935171 0 0.23130102404551109 0.0061869083650808749 0 0.2273333343533436 0.010140731909935171 0 0.22868127398141611 0.0038284040794943162 0 0.22705880568139331 -0.0002827260119973446 0 0.22868127398141611 0.0038284040794943162 0 0.23314311228104639 0.0036975179188727548 0 0.22705880568139331 -0.0002827260119973446 0 0.23314311228104639 0.0036975179188727548 0 0.2392704882312289 -0.00010989444563926339 0 0.22705880568139331 -0.0002827260119973446 0 0.2273333343533436 0.010140731909935171 0 0.22868127398141611 0.0038284040794943162 0 0.23130102404551109 0.0061869083650808749 0 0.23406951224292319 0.0089949537857843993 0 0.23130102404551109 0.0061869083650808749 0 0.23314311228104639 0.0036975179188727548 0 0.22868127398141611 0.0038284040794943162 0 0.23130102404551109 0.0061869083650808749 0 0.23314311228104639 0.0036975179188727548 0 0.2103161558829155 0.0073366999870678358 0 0.21283109039813189 0.02425731024616223 0 0.19184439553761021 0.015053411376240109 0 0.2103161558829155 0.0073366999870678358 0 0.21702532397159671 -0.0047453557277351852 0 0.22705880568139331 -0.0002827260119973446 0 0.2103161558829155 0.0073366999870678358 0 0.21283109039813189 0.02425731024616223 0 0.22705880568139331 -0.0002827260119973446 0 0.2103161558829155 0.0073366999870678358 0 0.19184439553761021 0.015053411376240109 0 0.20834725607445961 -0.0096561038045452699 0 0.21283109039813189 0.02425731024616223 0 0.19184439553761021 0.015053411376240109 0 0.19478537841085911 0.033540953111228837 0 0.19184439553761021 0.015053411376240109 0 0.20834725607445961 -0.0096561038045452699 0 0.20029290722471929 0.072235816294577634 0 0.20934972094679871 0.064918969632126358 0 0.19988085161225319 0.048489579819193912 0 0.20934972094679871 0.064918969632126358 0 0.21688688866815301 0.055648507781103813 0 0.19988085161225319 0.048489579819193912 0 0.21688688866815301 0.055648507781103813 0 0.21648852993746789 0.042973163713850453 0 0.19988085161225319 0.048489579819193912 0 0.22495818048063029 0.037015276606808922 0 0.21283109039813189 0.02425731024616223 0 0.21648852993746789 0.042973163713850453 0 0.21283109039813189 0.02425731024616223 0 0.19988085161225319 0.048489579819193912 0 0.21283109039813189 0.02425731024616223 0 0.21648852993746789 0.042973163713850453 0 0.19988085161225319 0.048489579819193912 0 0.21283109039813189 0.02425731024616223 0 0.19478537841085911 0.033540953111228837 0 0.19988085161225319 0.048489579819193912 0 0.19478537841085911 0.033540953111228837 0 0.19988085161225319 0.048489579819193912 0 0.1858160245126694 0.048279762214767243 0 0.19988085161225319 0.048489579819193912 0 0.18676215493228099 0.062111763200039243 0 0.1858160245126694 0.048279762214767243 0 0.19988085161225319 0.048489579819193912 0 0.18676215493228099 0.062111763200039243 0 0.18693061282637441 0.072721849392225618 0 0.19988085161225319 0.048489579819193912 0 0.18693061282637441 0.072721849392225618 0 0.18676215493228099 0.062111763200039243 0 0.17231020260719271 0.057493588386348812 0 0.1675036313945803 0.062927163172017658 0 0.17231020260719271 0.057493588386348812 0 0.1858160245126694 0.048279762214767243 0 0.1753415350007608 0.039762926557025423 0 0.18676215493228099 0.062111763200039243 0 0.17231020260719271 0.057493588386348812 0 0.1858160245126694 0.048279762214767243 0 0.19478537841085911 0.033540953111228837 0 0.1858160245126694 0.048279762214767243 0 0.1753415350007608 0.039762926557025423 0 0.1753415350007608 0.039762926557025423 0 0.15954297089196659 0.043569899874733947 0 0.1654269769075091 0.027682140805182581 0 0.15954297089196659 0.043569899874733947 0 0.1654269769075091 0.027682140805182581 0 0.15118678275836961 0.034802967083594628 0 0.1753415350007608 0.039762926557025423 0 0.15954297089196659 0.043569899874733947 0 0.15883867446391151 0.064472441737811012 0 0.1753415350007608 0.039762926557025423 0 0.15883867446391151 0.064472441737811012 0 0.17231020260719271 0.057493588386348812 0 0.1753415350007608 0.039762926557025423 0 0.15883867446391151 0.064472441737811012 0 0.17231020260719271 0.057493588386348812 0 0.1675036313945803 0.062927163172017658 0 0.15883867446391151 0.064472441737811012 0 0.19184439553761021 0.015053411376240109 0 0.1719670311559959 0.01089304653873178 0 0.17726970188525989 -0.0068487750443640347 0 0.19184439553761021 0.015053411376240109 0 0.1753415350007608 0.039762926557025423 0 0.1654269769075091 0.027682140805182581 0 0.19184439553761021 0.015053411376240109 0 0.19478537841085911 0.033540953111228837 0 0.1753415350007608 0.039762926557025423 0 0.19184439553761021 0.015053411376240109 0 0.1719670311559959 0.01089304653873178 0 0.1654269769075091 0.027682140805182581 0 0.19184439553761021 0.015053411376240109 0 0.1753415350007608 0.039762926557025423 0 0.1654269769075091 0.027682140805182581 0 0.15301395976207741 0.018186833968981419 0 0.15118678275836961 0.034802967083594628 0 0.1719670311559959 0.01089304653873178 0 0.1654269769075091 0.027682140805182581 0 0.15301395976207741 0.018186833968981419 0 0.1719670311559959 0.01089304653873178 0 0.15661445415562739 0.0050079149201050811 0 0.17726970188525989 -0.0068487750443640347 0 0.1719670311559959 0.01089304653873178 0 0.15661445415562739 0.0050079149201050811 0 0.15301395976207741 0.018186833968981419 0 0.15661445415562739 0.0050079149201050811 0 0.14348211511946171 0.0012410676157907699 0 0.15301395976207741 0.018186833968981419 0 0.14348211511946171 0.0012410676157907699 0 0.15301395976207741 0.018186833968981419 0 0.13585548493164859 0.01378859463764644 0 0.15301395976207741 0.018186833968981419 0 0.14051510604770159 0.026078140703210819 0 0.13585548493164859 0.01378859463764644 0 0.15301395976207741 0.018186833968981419 0 0.14051510604770159 0.026078140703210819 0 0.15118678275836961 0.034802967083594628 0 0.14051510604770159 0.026078140703210819 0 0.12751620659176091 0.025826703183530381 0 0.13500309619465189 0.03778560464230124 0 0.12088129531688289 0.012709603339681101 0 0.12751620659176091 0.025826703183530381 0 0.13585548493164859 0.01378859463764644 0 0.14051510604770159 0.026078140703210819 0 0.12751620659176091 0.025826703183530381 0 0.13585548493164859 0.01378859463764644 0 0.12088129531688289 0.012709603339681101 0 0.13585548493164859 0.01378859463764644 0 0.12922997235240771 -5.3501747736912381e-05 0 0.14348211511946171 0.0012410676157907699 0 0.13585548493164859 0.01378859463764644 0 0.12922997235240771 -5.3501747736912381e-05 0 0.15954297089196659 0.043569899874733947 0 0.14692088532928169 0.051129023190056119 0 0.15883867446391151 0.064472441737811012 0 0.14692088532928169 0.051129023190056119 0 0.14566322325498049 0.061168839478874061 0 0.13344762510774619 0.051271410320192667 0 0.14692088532928169 0.051129023190056119 0 0.15883867446391151 0.064472441737811012 0 0.14692088532928169 0.051129023190056119 0 0.14566322325498049 0.061168839478874061 0 0.15883867446391151 0.064472441737811012 0 0.15954297089196659 0.043569899874733947 0 0.14692088532928169 0.051129023190056119 0 0.15118678275836961 0.034802967083594628 0 0.14051510604770159 0.026078140703210819 0 0.15118678275836961 0.034802967083594628 0 0.13500309619465189 0.03778560464230124 0 0.14692088532928169 0.051129023190056119 0 0.15118678275836961 0.034802967083594628 0 0.13500309619465189 0.03778560464230124 0 0.14692088532928169 0.051129023190056119 0 0.13500309619465189 0.03778560464230124 0 0.14692088532928169 0.051129023190056119 0 0.13500309619465189 0.03778560464230124 0 0.13344762510774619 0.051271410320192667 0 0.12751620659176091 0.025826703183530381 0 0.13500309619465189 0.03778560464230124 0 0.1258008839210312 0.043025047632520373 0 0.13500309619465189 0.03778560464230124 0 0.1258008839210312 0.043025047632520373 0 0.13344762510774619 0.051271410320192667 0 0.1258008839210312 0.043025047632520373 0 0.1266502062043493 0.050016126068568693 0 0.13344762510774619 0.051271410320192667 0 0.1249177574830235 0.05549570725843421 0 0.1266502062043493 0.050016126068568693 0 0.13344762510774619 0.051271410320192667 0 0.14566322325498049 0.061168839478874061 0 0.13344762510774619 0.051271410320192667 0 0.1366878347571408 0.064889925834685031 0 0.1249177574830235 0.05549570725843421 0 0.13344762510774619 0.051271410320192667 0 0.12761142098842679 0.062883107952959913 0 0.13344762510774619 0.051271410320192667 0 0.12761142098842679 0.062883107952959913 0 0.1366878347571408 0.064889925834685031 0 0.12180579377833931 0.068327597193629963 0 0.12761142098842679 0.062883107952959913 0 0.1319436907845648 0.07171962319022121 0 0.1319436907845648 0.07171962319022121 0 0.15242109661682179 0.074081396311624553 0 0.12584004892598549 0.083346264786505142 0 0.12761142098842679 0.062883107952959913 0 0.1319436907845648 0.07171962319022121 0 0.1366878347571408 0.064889925834685031 0 0.1319436907845648 0.07171962319022121 0 0.1366878347571408 0.064889925834685031 0 0.15242109661682179 0.074081396311624553 0 0.12180579377833931 0.068327597193629963 0 0.1319436907845648 0.07171962319022121 0 0.12584004892598549 0.083346264786505142 0 0.14566322325498049 0.061168839478874061 0 0.1366878347571408 0.064889925834685031 0 0.15242109661682179 0.074081396311624553 0 0.15242109661682179 0.074081396311624553 0 0.15883867446391151 0.064472441737811012 0 0.14566322325498049 0.061168839478874061 0 0.15242109661682179 0.074081396311624553 0 0.15883867446391151 0.064472441737811012 0 0.15242109661682179 0.074081396311624553 0 0.1375060329142595 0.096413524257436184 0 0.15242109661682179 0.074081396311624553 0 0.14941567846638071 0.096122468252711576 0 0.1595062789984957 0.092948799018424247 0 0.15242109661682179 0.074081396311624553 0 0.1375060329142595 0.096413524257436184 0 0.14941567846638071 0.096122468252711576 0 0.15242109661682179 0.074081396311624553 0 0.12584004892598549 0.083346264786505142 0 0.1375060329142595 0.096413524257436184 0 0.15242109661682179 0.074081396311624553 0 0.12584004892598549 0.083346264786505142 0 0.12584004892598549 0.083346264786505142 0 0.1375060329142595 0.096413524257436184 0 0.1249273330255416 0.097107323540065654 0 0.12584004892598549 0.083346264786505142 0 0.1375060329142595 0.096413524257436184 0 0.1249273330255416 0.097107323540065654 0 0.1358719056864727 0.1035636032000217 0 0.1375060329142595 0.096413524257436184 0 0.1249273330255416 0.097107323540065654 0 0.1358719056864727 0.1035636032000217 0 0.12701285124311409 0.1116124001057755 0 0.1358719056864727 0.1035636032000217 0 0.1375060329142595 0.096413524257436184 0 0.1441234072924551 0.1037665320414502 0 0.14372122090049971 0.12588672211296939 0 0.12701285124311409 0.1116124001057755 0 0.1433973288586021 0.1136648946458889 0 0.1358719056864727 0.1035636032000217 0 0.12701285124311409 0.1116124001057755 0 0.1433973288586021 0.1136648946458889 0 0.14372122090049971 0.12588672211296939 0 0.12701285124311409 0.1116124001057755 0 0.11810951173179079 0.13588416397747449 0 0.14372122090049971 0.12588672211296939 0 0.12701285124311409 0.1116124001057755 0 0.14372122090049971 0.12588672211296939 0 0.16291101993369231 0.1183960506016624 0 0.1433973288586021 0.1136648946458889 0 0.1524062389220833 0.1068105306951269 0 0.16291101993369231 0.1183960506016624 0 0.14372122090049971 0.12588672211296939 0 0.1433973288586021 0.1136648946458889 0 0.16291101993369231 0.1183960506016624 0 0.1375060329142595 0.096413524257436184 0 0.14246268920954669 0.098494280298727629 0 0.14941567846638071 0.096122468252711576 0 0.14246268920954669 0.098494280298727629 0 0.1441234072924551 0.1037665320414502 0 0.14941567846638071 0.096122468252711576 0 0.1375060329142595 0.096413524257436184 0 0.14246268920954669 0.098494280298727629 0 0.1441234072924551 0.1037665320414502 0 0.1358719056864727 0.1035636032000217 0 0.1433973288586021 0.1136648946458889 0 0.1441234072924551 0.1037665320414502 0 0.1433973288586021 0.1136648946458889 0 0.1441234072924551 0.1037665320414502 0 0.1524062389220833 0.1068105306951269 0 0.1441234072924551 0.1037665320414502 0 0.1524062389220833 0.1068105306951269 0 0.14941567846638071 0.096122468252711576 0 0.1524062389220833 0.1068105306951269 0 0.1558869152055212 0.1000553164056758 0 0.14941567846638071 0.096122468252711576 0 0.1558869152055212 0.1000553164056758 0 0.14941567846638071 0.096122468252711576 0 0.1595062789984957 0.092948799018424247 0 0.1558869152055212 0.1000553164056758 0 0.16221946443512489 0.10433946765644039 0 0.1595062789984957 0.092948799018424247 0 0.1524062389220833 0.1068105306951269 0 0.1558869152055212 0.1000553164056758 0 0.16221946443512489 0.10433946765644039 0 0.16221946443512489 0.10433946765644039 0 0.17336035622592341 0.097216897606311276 0 0.1595062789984957 0.092948799018424247 0 0.16221946443512489 0.10433946765644039 0 0.16291101993369231 0.1183960506016624 0 0.18210081896688529 0.1109053790903563 0 0.1524062389220833 0.1068105306951269 0 0.16221946443512489 0.10433946765644039 0 0.16291101993369231 0.1183960506016624 0 0.17667357051540469 0.12532751281523449 0 0.16291101993369231 0.1183960506016624 0 0.18210081896688529 0.1109053790903563 0 0.16291101993369231 0.1183960506016624 0 0.18210081896688529 0.1109053790903563 0 0.17667357051540469 0.12532751281523449 0 0.18210081896688529 0.1109053790903563 0 0.1868142606579751 0.1214397756045083 0 0.1908354384815433 0.10029672169762451 0 0.17336035622592341 0.097216897606311276 0 0.17734769177342791 0.085195544158785899 0 0.16221946443512489 0.10433946765644039 0 0.18210081896688529 0.1109053790903563 0 0.17336035622592341 0.097216897606311276 0 0.1908354384815433 0.10029672169762451 0 0.18210081896688529 0.1109053790903563 0 0.17336035622592341 0.097216897606311276 0 0.1908354384815433 0.10029672169762451 0 0.19093292052318869 0.085159824320032579 0 0.17734769177342791 0.085195544158785899 0 0.1908354384815433 0.10029672169762451 0 0.17734769177342791 0.085195544158785899 0 0.17336035622592341 0.097216897606311276 0 0.17734769177342791 0.085195544158785899 0 0.1686179546071678 0.089437089202131323 0 0.19093292052318869 0.085159824320032579 0 0.17734769177342791 0.085195544158785899 0 0.18693061282637441 0.072721849392225618 0 0.18676215493228099 0.062111763200039243 0 0.16385994506531301 0.070094366619946807 0 0.17734769177342791 0.085195544158785899 0 0.18693061282637441 0.072721849392225618 0 0.17770282105195331 0.072832647959761646 0 0.18676215493228099 0.062111763200039243 0 0.17770282105195331 0.072832647959761646 0 0.16385994506531301 0.070094366619946807 0 0.18676215493228099 0.062111763200039243 0 0.1675036313945803 0.062927163172017658 0 0.16385994506531301 0.070094366619946807 0 0.18676215493228099 0.062111763200039243 0 0.18693061282637441 0.072721849392225618 0 0.17770282105195331 0.072832647959761646 0 0.17734769177342791 0.085195544158785899 0 0.17770282105195331 0.072832647959761646 0 0.16385994506531301 0.070094366619946807 0 0.17734769177342791 0.085195544158785899 0 0.16385994506531301 0.070094366619946807 0 0.15242109661682179 0.074081396311624553 0 0.16385994506531301 0.070094366619946807 0 0.15883867446391151 0.064472441737811012 0 0.1675036313945803 0.062927163172017658 0 0.16385994506531301 0.070094366619946807 0 0.15883867446391151 0.064472441737811012 0 0.16385994506531301 0.070094366619946807 0 0.15883867446391151 0.064472441737811012 0 0.15242109661682179 0.074081396311624553 0 0.16385994506531301 0.070094366619946807 0 0.15242109661682179 0.074081396311624553 0 0.16385994506531301 0.070094366619946807 0 0.16425749143082441 0.08238711602500387 0 0.15242109661682179 0.074081396311624553 0 0.1595062789984957 0.092948799018424247 0 0.16425749143082441 0.08238711602500387 0 0.1595062789984957 0.092948799018424247 0 0.1686179546071678 0.089437089202131323 0 0.16425749143082441 0.08238711602500387 0 0.17336035622592341 0.097216897606311276 0 0.1595062789984957 0.092948799018424247 0 0.1686179546071678 0.089437089202131323 0 0.17734769177342791 0.085195544158785899 0 0.1686179546071678 0.089437089202131323 0 0.16425749143082441 0.08238711602500387 0 0.17734769177342791 0.085195544158785899 0 0.16385994506531301 0.070094366619946807 0 0.16425749143082441 0.08238711602500387 0 0.10090677831013529 0.47396124206401807 0 0.1153671493593045 0.5 0 0.089262812041459694 0.5 0 0.10090677831013529 0.47396124206401807 0 0.1153671493593045 0.5 0 0.12855994965836309 0.47453026711805119 0 0.1156484126395653 0.44906053423611908 0 0.12855994965836309 0.47453026711805119 0 0.12405882547213599 0.46239727108338857 0 0.1156484126395653 0.44906053423611908 0 0.12855994965836309 0.47453026711805119 0 0.10090677831013529 0.47396124206401807 0 0.1156484126395653 0.44906053423611908 0 0.12855994965836309 0.47453026711805119 0 0.12405882547213599 0.46239727108338857 0 0.12340305628634129 0.44865160551396183 0 0.1156484126395653 0.44906053423611908 0 0.12405882547213599 0.46239727108338857 0 0.12340305628634129 0.44865160551396183 0 0.12340305628634129 0.44865160551396183 0 0.1156484126395653 0.44906053423611908 0 0.1156484126395653 0.44906053423611908 0 0.1079882904580899 0.4339499191698068 0 0.12340305628634129 0.44865160551396183 0 0.1156484126395653 0.44906053423611908 0 0.1079882904580899 0.4339499191698068 0 0.1156484126395653 0.44906053423611908 0 0.095502513628318075 0.45012289597898841 0 0.095502513628318075 0.45012289597898841 0 0.090696542343839323 0.4332188320218881 0 0.1079882904580899 0.4339499191698068 0 0.1156484126395653 0.44906053423611908 0 0.095502513628318075 0.45012289597898841 0 0.1079882904580899 0.4339499191698068 0 0.10090677831013529 0.47396124206401807 0 0.1156484126395653 0.44906053423611908 0 0.095502513628318075 0.45012289597898841 0 0.095502513628318075 0.45012289597898841 0 0.083550989247282187 0.46400502344394012 0 0.075356614617069856 0.45118525772183837 0 0.10090677831013529 0.47396124206401807 0 0.095502513628318075 0.45012289597898841 0 0.083550989247282187 0.46400502344394012 0 0.075356614617069856 0.45118525772183837 0 0.07358917128373095 0.43059644824442639 0 0.090696542343839323 0.4332188320218881 0 0.095502513628318075 0.45012289597898841 0 0.075356614617069856 0.45118525772183837 0 0.095502513628318075 0.45012289597898841 0 0.075356614617069856 0.45118525772183837 0 0.090696542343839323 0.4332188320218881 0 0.075356614617069856 0.45118525772183837 0 0.055210715605821727 0.45224761946468972 0 0.055210715605821727 0.45224761946468972 0 0.060905729865506297 0.43526499716228578 0 0.07358917128373095 0.43059644824442639 0 0.075356614617069856 0.45118525772183837 0 0.055210715605821727 0.45224761946468972 0 0.07358917128373095 0.43059644824442639 0 0.055210715605821727 0.45224761946468972 0 0.07358917128373095 0.43059644824442639 0 0.075356614617069856 0.45118525772183837 0 0.06501438287240599 0.46595144409407568 0 0.055210715605821727 0.45224761946468972 0 0.083550989247282187 0.46400502344394012 0 0.075356614617069856 0.45118525772183837 0 0.06501438287240599 0.46595144409407568 0 0.06501438287240599 0.46595144409407568 0 0.07593658638481221 0.48121566998128401 0 0.053556943630409623 0.48275359675431773 0 0.083550989247282187 0.46400502344394012 0 0.06501438287240599 0.46595144409407568 0 0.07593658638481221 0.48121566998128401 0 0.10090677831013529 0.47396124206401807 0 0.083550989247282187 0.46400502344394012 0 0.07593658638481221 0.48121566998128401 0 0.10090677831013529 0.47396124206401807 0 0.07593658638481221 0.48121566998128401 0 0.089262812041459694 0.5 0 0.07593658638481221 0.48121566998128401 0 0.063158474723614855 0.49999999999999928 0 0.053556943630409623 0.48275359675431773 0 0.07593658638481221 0.48121566998128401 0 0.089262812041459694 0.5 0 0.063158474723614855 0.49999999999999928 0 0.063158474723614855 0.49999999999999928 0 0.053556943630409623 0.48275359675431773 0 0.063158474723614855 0.49999999999999928 0 0.053556943630409623 0.48275359675431773 0 0.038917446559810998 0.5 0 0.053556943630409623 0.48275359675431773 0 0.043955412537204627 0.46550719350863579 0 0.06501438287240599 0.46595144409407568 0 0.053556943630409623 0.48275359675431773 0 0.043955412537204627 0.46550719350863579 0 0.053556943630409623 0.48275359675431773 0 0.02931591546660571 0.48275359675431728 0 0.043955412537204627 0.46550719350863579 0 0.02931591546660571 0.48275359675431728 0 0.02747393357445652 0.46540105463618359 0 0.043955412537204627 0.46550719350863579 0 0.02931591546660571 0.48275359675431728 0 0.043955412537204627 0.46550719350863579 0 0.053556943630409623 0.48275359675431773 0 0.038917446559810998 0.5 0 0.02931591546660571 0.48275359675431728 0 0.02931591546660571 0.48275359675431728 0 0.0046621640647640889 0.48184508255685682 0 0.01467641839600708 0.49999999999999911 0 0.038917446559810998 0.5 0 0.02931591546660571 0.48275359675431728 0 0.01467641839600708 0.49999999999999911 0 0.02931591546660571 0.48275359675431728 0 0.01467641839600708 0.49999999999999911 0 0.02931591546660571 0.48275359675431728 0 0.014824891689527281 0.46950760841689421 0 0.02747393357445652 0.46540105463618359 0 0.02931591546660571 0.48275359675431728 0 0.014824891689527281 0.46950760841689421 0 0.0046621640647640889 0.48184508255685682 0 0.014824891689527281 0.46950760841689421 0 0.00059582523221500473 0.46885726438604503 0 0.0046621640647640889 0.48184508255685682 0 -0.014123589070291881 0.5 0 0.0046621640647640889 0.48184508255685682 0 0.01467641839600708 0.49999999999999911 0 0.0076432397605931939 0.45926555053949708 0 0.0005873961479486412 0.43552606736253252 0 0.01167979775462639 0.44072570674147798 0 0.0076432397605931939 0.45926555053949708 0 0.0005873961479486412 0.43552606736253252 0 -0.0047806556464353436 0.45680287412294562 0 0.0076432397605931939 0.45926555053949708 0 0.0005873961479486412 0.43552606736253252 0 0.01167979775462639 0.44072570674147798 0 0.0076432397605931939 0.45926555053949708 0 0.020509971661344779 0.45481417686958958 0 0.01167979775462639 0.44072570674147798 0 0.0005873961479486412 0.43552606736253252 0 0.014824891689527281 0.46950760841689421 0 0.00059582523221500473 0.46885726438604503 0 0.0076432397605931939 0.45926555053949708 0 -0.0047806556464353436 0.45680287412294562 0 0.00059582523221500473 0.46885726438604503 0 0.0076432397605931939 0.45926555053949708 0 0.014824891689527281 0.46950760841689421 0 0.0076432397605931939 0.45926555053949708 0 0.020509971661344779 0.45481417686958958 0 0.020509971661344779 0.45481417686958958 0 0.02747393357445652 0.46540105463618359 0 0.036184136702255648 0.451548320128766 0 0.014824891689527281 0.46950760841689421 0 0.020509971661344779 0.45481417686958958 0 0.02747393357445652 0.46540105463618359 0 0.020509971661344779 0.45481417686958958 0 0.025775371996116191 0.44072476877185368 0 0.036184136702255648 0.451548320128766 0 0.01167979775462639 0.44072570674147798 0 0.020509971661344779 0.45481417686958958 0 0.025775371996116191 0.44072476877185368 0 0.01167979775462639 0.44072570674147798 0 0.025775371996116191 0.44072476877185368 0 0.01971022130605999 0.43334641691082959 0 0.025775371996116191 0.44072476877185368 0 0.036184136702255648 0.451548320128766 0 0.037251354377538327 0.43664192693745241 0 0.036184136702255648 0.451548320128766 0 0.044475641269311111 0.44657504188020108 0 0.050904405669528752 0.45247470582735799 0 0.044475641269311111 0.44657504188020108 0 0.048502207038677483 0.44063320512140269 0 0.037251354377538327 0.43664192693745241 0 0.036184136702255648 0.451548320128766 0 0.044475641269311111 0.44657504188020108 0 0.037251354377538327 0.43664192693745241 0 0.02747393357445652 0.46540105463618359 0 0.036184136702255648 0.451548320128766 0 0.043955412537204627 0.46550719350863579 0 0.036184136702255648 0.451548320128766 0 0.043955412537204627 0.46550719350863579 0 0.050904405669528752 0.45247470582735799 0 0.036184136702255648 0.451548320128766 0 0.043955412537204627 0.46550719350863579 0 0.06501438287240599 0.46595144409407568 0 0.043955412537204627 0.46550719350863579 0 0.055210715605821727 0.45224761946468972 0 0.043955412537204627 0.46550719350863579 0 0.055210715605821727 0.45224761946468972 0 0.043955412537204627 0.46550719350863579 0 0.050904405669528752 0.45247470582735799 0 0.055210715605821727 0.45224761946468972 0 0.05199973988976922 0.44543911389118762 0 0.055210715605821727 0.45224761946468972 0 0.060905729865506297 0.43526499716228578 0 0.048502207038677483 0.44063320512140269 0 0.05199973988976922 0.44543911389118762 0 0.060905729865506297 0.43526499716228578 0 0.044475641269311111 0.44657504188020108 0 0.048502207038677483 0.44063320512140269 0 0.05199973988976922 0.44543911389118762 0 0.044475641269311111 0.44657504188020108 0 0.050904405669528752 0.45247470582735799 0 0.05199973988976922 0.44543911389118762 0 0.050904405669528752 0.45247470582735799 0 0.05199973988976922 0.44543911389118762 0 0.055210715605821727 0.45224761946468972 0 0.050904405669528752 0.45247470582735799 0 0.055210715605821727 0.45224761946468972 0 0.048502207038677483 0.44063320512140269 0 0.060905729865506297 0.43526499716228578 0 0.05277176752176313 0.42447130957191259 0 0.048502207038677483 0.44063320512140269 0 0.05277176752176313 0.42447130957191259 0 0.060905729865506297 0.43526499716228578 0 0.05277176752176313 0.42447130957191259 0 0.064892116418216891 0.42152298311342551 0 0.05277176752176313 0.42447130957191259 0 0.057041328004849123 0.4083094140224226 0 0.05277176752176313 0.42447130957191259 0 0.057041328004849123 0.4083094140224226 0 0.064892116418216891 0.42152298311342551 0 0.05277176752176313 0.42447130957191259 0 0.057041328004849123 0.4083094140224226 0 0.038794419195633978 0.41889820720317672 0 0.057041328004849123 0.4083094140224226 0 0.038794419195633978 0.41889820720317672 0 0.035258508208116407 0.40301055883513298 0 0.038794419195633978 0.41889820720317672 0 0.02278982783698107 0.4137292580393977 0 0.035258508208116407 0.40301055883513298 0 0.038794419195633978 0.41889820720317672 0 0.037251354377538327 0.43664192693745241 0 0.027653729224555879 0.42722677581274171 0 0.048502207038677483 0.44063320512140269 0 0.05277176752176313 0.42447130957191259 0 0.037251354377538327 0.43664192693745241 0 0.05277176752176313 0.42447130957191259 0 0.038794419195633978 0.41889820720317672 0 0.037251354377538327 0.43664192693745241 0 0.025775371996116191 0.44072476877185368 0 0.01971022130605999 0.43334641691082959 0 0.027653729224555879 0.42722677581274171 0 0.025775371996116191 0.44072476877185368 0 0.037251354377538327 0.43664192693745241 0 0.027653729224555879 0.42722677581274171 0 0.01971022130605999 0.43334641691082959 0 0.027653729224555879 0.42722677581274171 0 0.01373198624894152 0.42470841631724549 0 0.027653729224555879 0.42722677581274171 0 0.02278982783698107 0.4137292580393977 0 0.01373198624894152 0.42470841631724549 0 0.038794419195633978 0.41889820720317672 0 0.027653729224555879 0.42722677581274171 0 0.02278982783698107 0.4137292580393977 0 0.02278982783698107 0.4137292580393977 0 0.0072246537696774018 0.41418193126651931 0 0.01373198624894152 0.42470841631724549 0 0.02278982783698107 0.4137292580393977 0 0.0072246537696774018 0.41418193126651931 0 0.01347568841138377 0.39771170364784342 0 -0.0061382403918613694 0.41289757043764957 0 0.0072246537696774018 0.41418193126651931 0 0.0005873961479486412 0.43552606736253252 0 -0.0061382403918613694 0.41289757043764957 0 0.0072246537696774018 0.41418193126651931 0 0.001215528843426622 0.40337136132503182 0 0.0072246537696774018 0.41418193126651931 0 0.0005873961479486412 0.43552606736253252 0 0.01373198624894152 0.42470841631724549 0 0.01167979775462639 0.44072570674147798 0 0.0005873961479486412 0.43552606736253252 0 0.01373198624894152 0.42470841631724549 0 0.01167979775462639 0.44072570674147798 0 0.01971022130605999 0.43334641691082959 0 0.01373198624894152 0.42470841631724549 0 0.0080458256180299444 0.38398964513224421 0 0.01347568841138377 0.39771170364784342 0 0.020337302895407999 0.37686122882940742 0 0.0080458256180299444 0.38398964513224421 0 0.020337302895407999 0.37686122882940742 0 0.007685617129557662 0.37466701237684458 0 -0.0015244919297118539 0.37331443520947022 0 0.00019967971850866269 0.38057760276491942 0 0.007685617129557662 0.37466701237684458 0 0.0080458256180299444 0.38398964513224421 0 0.00019967971850866269 0.38057760276491942 0 0.007685617129557662 0.37466701237684458 0 -0.00024727968021932432 0.38779626046928811 0 0.0080458256180299444 0.38398964513224421 0 0.01347568841138377 0.39771170364784342 0 -0.00024727968021932432 0.38779626046928811 0 0.0080458256180299444 0.38398964513224421 0 0.00019967971850866269 0.38057760276491942 0 -0.0083071313853489009 0.39241284846055369 0 0.01347568841138377 0.39771170364784342 0 -0.0083071313853489009 0.39241284846055369 0 -0.00024727968021932432 0.38779626046928811 0 0.01347568841138377 0.39771170364784342 0 0.0072246537696774018 0.41418193126651931 0 0.001215528843426622 0.40337136132503182 0 0.01347568841138377 0.39771170364784342 0 -0.0083071313853489009 0.39241284846055369 0 0.001215528843426622 0.40337136132503182 0 0.01347568841138377 0.39771170364784342 0 0.01347568841138377 0.39771170364784342 0 0.034560050200877962 0.38606514813881998 0 0.035258508208116407 0.40301055883513298 0 0.02278982783698107 0.4137292580393977 0 0.01347568841138377 0.39771170364784342 0 0.035258508208116407 0.40301055883513298 0 0.01347568841138377 0.39771170364784342 0 0.035258508208116407 0.40301055883513298 0 0.020337302895407999 0.37686122882940742 0 0.034560050200877962 0.38606514813881998 0 0.037907173216347692 0.36900247462334379 0 0.01347568841138377 0.39771170364784342 0 0.020337302895407999 0.37686122882940742 0 0.034560050200877962 0.38606514813881998 0 0.034560050200877962 0.38606514813881998 0 0.048828330243463773 0.37812345183287871 0 0.037907173216347692 0.36900247462334379 0 0.034560050200877962 0.38606514813881998 0 0.048319891012507922 0.39154096310822412 0 0.048828330243463773 0.37812345183287871 0 0.057041328004849123 0.4083094140224226 0 0.035258508208116407 0.40301055883513298 0 0.057041328004849123 0.4083094140224226 0 0.035258508208116407 0.40301055883513298 0 0.048319891012507922 0.39154096310822412 0 0.034560050200877962 0.38606514813881998 0 0.035258508208116407 0.40301055883513298 0 0.048319891012507922 0.39154096310822412 0 0.057041328004849123 0.4083094140224226 0 0.063541766686075932 0.38370280371485971 0 0.057041328004849123 0.4083094140224226 0 0.048319891012507922 0.39154096310822412 0 0.063541766686075932 0.38370280371485971 0 0.048828330243463773 0.37812345183287871 0 0.063541766686075932 0.38370280371485971 0 0.055073826663196553 0.36331899158513248 0 0.048319891012507922 0.39154096310822412 0 0.048828330243463773 0.37812345183287871 0 0.063541766686075932 0.38370280371485971 0 0.063541766686075932 0.38370280371485971 0 0.085258021138960249 0.38911142418271433 0 0.077650113253140335 0.37410380879500532 0 0.085258021138960249 0.38911142418271433 0 0.077650113253140335 0.37410380879500532 0 0.085258021138960249 0.38911142418271433 0 0.080617459112047027 0.37168121104414309 0 0.077650113253140335 0.37410380879500532 0 0.085258021138960249 0.38911142418271433 0 0.1005101862344529 0.37753196838393888 0 0.080617459112047027 0.37168121104414309 0 0.085258021138960249 0.38911142418271433 0 0.1005101862344529 0.37753196838393888 0 0.085258021138960249 0.38911142418271433 0 0.092793094707783477 0.40397536414310631 0 0.081010135534107852 0.40235069094083292 0 0.085258021138960249 0.38911142418271433 0 0.092793094707783477 0.40397536414310631 0 0.085258021138960249 0.38911142418271433 0 0.092793094707783477 0.40397536414310631 0 0.0990848277097333 0.39212355852996039 0 0.081010135534107852 0.40235069094083292 0 0.067304678148959227 0.40274161637455169 0 0.078684748140729288 0.4135743590629587 0 0.085258021138960249 0.38911142418271433 0 0.081010135534107852 0.40235069094083292 0 0.067304678148959227 0.40274161637455169 0 0.063541766686075932 0.38370280371485971 0 0.085258021138960249 0.38911142418271433 0 0.067304678148959227 0.40274161637455169 0 0.085258021138960249 0.38911142418271433 0 0.067304678148959227 0.40274161637455169 0 0.057041328004849123 0.4083094140224226 0 0.063541766686075932 0.38370280371485971 0 0.067304678148959227 0.40274161637455169 0 0.057041328004849123 0.4083094140224226 0 0.078684748140729288 0.4135743590629587 0 0.057041328004849123 0.4083094140224226 0 0.064892116418216891 0.42152298311342551 0 0.078684748140729288 0.4135743590629587 0 0.057041328004849123 0.4083094140224226 0 0.067304678148959227 0.40274161637455169 0 0.078684748140729288 0.4135743590629587 0 0.064892116418216891 0.42152298311342551 0 0.07358917128373095 0.43059644824442639 0 0.078684748140729288 0.4135743590629587 0 0.060905729865506297 0.43526499716228578 0 0.064892116418216891 0.42152298311342551 0 0.07358917128373095 0.43059644824442639 0 0.07358917128373095 0.43059644824442639 0 0.090696542343839323 0.4332188320218881 0 0.078684748140729288 0.4135743590629587 0 0.090696542343839323 0.4332188320218881 0 0.078684748140729288 0.4135743590629587 0 0.1003281682766089 0.41883930410349712 0 0.092793094707783477 0.40397536414310631 0 0.078684748140729288 0.4135743590629587 0 0.1003281682766089 0.41883930410349712 0 0.078684748140729288 0.4135743590629587 0 0.1003281682766089 0.41883930410349712 0 0.092793094707783477 0.40397536414310631 0 0.081010135534107852 0.40235069094083292 0 0.078684748140729288 0.4135743590629587 0 0.092793094707783477 0.40397536414310631 0 0.1003281682766089 0.41883930410349712 0 0.092793094707783477 0.40397536414310631 0 0.1003281682766089 0.41883930410349712 0 0.11040882011405991 0.41257101229574861 0 0.090696542343839323 0.4332188320218881 0 0.1003281682766089 0.41883930410349712 0 0.1079882904580899 0.4339499191698068 0 0.1003281682766089 0.41883930410349712 0 0.1079882904580899 0.4339499191698068 0 0.12340305628634129 0.44865160551396183 0 0.1222350243603849 0.42416833216689281 0 0.1003281682766089 0.41883930410349712 0 0.1079882904580899 0.4339499191698068 0 0.1222350243603849 0.42416833216689281 0 0.12340305628634129 0.44865160551396183 0 0.1079882904580899 0.4339499191698068 0 0.1222350243603849 0.42416833216689281 0 0.1003281682766089 0.41883930410349712 0 0.1222350243603849 0.42416833216689281 0 0.1222350243603849 0.42416833216689281 0 0.1214770794270391 0.40828094709395069 0 0.1222350243603849 0.42416833216689281 0 0.11040882011405991 0.41257101229574861 0 0.1214770794270391 0.40828094709395069 0 0.1003281682766089 0.41883930410349712 0 0.1222350243603849 0.42416833216689281 0 0.11040882011405991 0.41257101229574861 0 0.11040882011405991 0.41257101229574861 0 0.1214770794270391 0.40828094709395069 0 0.10812283685477631 0.40118821912777342 0 0.1214770794270391 0.40828094709395069 0 0.12071913449369449 0.39239356202100839 0 0.1214770794270391 0.40828094709395069 0 0.12071913449369449 0.39239356202100839 0 0.10812283685477631 0.40118821912777342 0 0.12071913449369449 0.39239356202100839 0 0.11932853697928229 0.36324506162077169 0 0.13279498662191061 0.37598326688028688 0 0.12071913449369449 0.39239356202100839 0 0.11932853697928229 0.36324506162077169 0 0.12071913449369449 0.39239356202100839 0 0.1005101862344529 0.37753196838393888 0 0.11932853697928229 0.36324506162077169 0 0.12071913449369449 0.39239356202100839 0 0.1005101862344529 0.37753196838393888 0 0.12071913449369449 0.39239356202100839 0 0.1005101862344529 0.37753196838393888 0 0.0990848277097333 0.39212355852996039 0 0.085258021138960249 0.38911142418271433 0 0.1005101862344529 0.37753196838393888 0 0.0990848277097333 0.39212355852996039 0 0.12071913449369449 0.39239356202100839 0 0.0990848277097333 0.39212355852996039 0 0.10812283685477631 0.40118821912777342 0 0.092793094707783477 0.40397536414310631 0 0.11040882011405991 0.41257101229574861 0 0.10812283685477631 0.40118821912777342 0 0.092793094707783477 0.40397536414310631 0 0.0990848277097333 0.39212355852996039 0 0.10812283685477631 0.40118821912777342 0 0.096342679094394354 0.34997657253365938 0 0.1061945545233992 0.35973752512303081 0 0.1094255375479565 0.35081600276556119 0 0.096342679094394354 0.34997657253365938 0 0.1094255375479565 0.35081600276556119 0 0.1038940537457453 0.34195889752981629 0 0.1094255375479565 0.35081600276556119 0 0.1119983417695697 0.34270511573786822 0 0.1038940537457453 0.34195889752981629 0 0.096342679094394354 0.34997657253365938 0 0.1038940537457453 0.34195889752981629 0 0.096237057951567131 0.33954789688919818 0 0.096342679094394354 0.34997657253365938 0 0.1061945545233992 0.35973752512303081 0 0.093231292549801864 0.3603339369558699 0 0.1005101862344529 0.37753196838393888 0 0.1061945545233992 0.35973752512303081 0 0.11932853697928229 0.36324506162077169 0 0.1005101862344529 0.37753196838393888 0 0.1061945545233992 0.35973752512303081 0 0.093231292549801864 0.3603339369558699 0 0.1061945545233992 0.35973752512303081 0 0.11932853697928229 0.36324506162077169 0 0.1189961612439189 0.3562780893984811 0 0.1005101862344529 0.37753196838393888 0 0.11932853697928229 0.36324506162077169 0 0.11932853697928229 0.36324506162077169 0 0.1189961612439189 0.3562780893984811 0 0.1189961612439189 0.3562780893984811 0 0.1170492212984353 0.34869145333754509 0 0.1094255375479565 0.35081600276556119 0 0.1061945545233992 0.35973752512303081 0 0.1189961612439189 0.3562780893984811 0 0.1094255375479565 0.35081600276556119 0 0.1170492212984353 0.34869145333754509 0 0.1094255375479565 0.35081600276556119 0 0.1119983417695697 0.34270511573786822 0 0.1170492212984353 0.34869145333754509 0 0.1247188455028202 0.34473722437045218 0 0.1119983417695697 0.34270511573786822 0 0.1189961612439189 0.3562780893984811 0 0.1170492212984353 0.34869145333754509 0 0.1247188455028202 0.34473722437045218 0 0.1247188455028202 0.34473722437045218 0 0.1175891745719997 0.33433482260747271 0 0.12858808323795631 0.33279482181631109 0 0.1247188455028202 0.34473722437045218 0 0.1175891745719997 0.33433482260747271 0 0.1119983417695697 0.34270511573786822 0 0.1175891745719997 0.33433482260747271 0 0.11886584608340769 0.32448998583300992 0 0.12858808323795631 0.33279482181631109 0 0.1175891745719997 0.33433482260747271 0 0.1097786266034759 0.33558155891078018 0 0.1096149711177524 0.3278091850639574 0 0.1175891745719997 0.33433482260747271 0 0.11886584608340769 0.32448998583300992 0 0.1096149711177524 0.3278091850639574 0 0.1175891745719997 0.33433482260747271 0 0.1097786266034759 0.33558155891078018 0 0.1119983417695697 0.34270511573786822 0 0.11876326876670799 0.31332406482761682 0 0.11886584608340769 0.32448998583300992 0 0.13030610635144951 0.3201194431732875 0 0.11886584608340769 0.32448998583300992 0 0.1096149711177524 0.3278091850639574 0 0.10892577089384869 0.31737460941675461 0 0.11876326876670799 0.31332406482761682 0 0.11886584608340769 0.32448998583300992 0 0.10892577089384869 0.31737460941675461 0 0.10892577089384869 0.31737460941675461 0 0.098990180476386011 0.32277432361249581 0 0.09736850077090034 0.31015564445613791 0 0.1096149711177524 0.3278091850639574 0 0.10892577089384869 0.31737460941675461 0 0.098990180476386011 0.32277432361249581 0 0.1096149711177524 0.3278091850639574 0 0.098990180476386011 0.32277432361249581 0 0.1015279901061177 0.33326077336121579 0 0.1097786266034759 0.33558155891078018 0 0.1119983417695697 0.34270511573786822 0 0.1038940537457453 0.34195889752981629 0 0.1097786266034759 0.33558155891078018 0 0.1038940537457453 0.34195889752981629 0 0.1015279901061177 0.33326077336121579 0 0.1097786266034759 0.33558155891078018 0 0.1096149711177524 0.3278091850639574 0 0.1015279901061177 0.33326077336121579 0 0.1015279901061177 0.33326077336121579 0 0.096237057951567131 0.33954789688919818 0 0.091209283741747527 0.33132108974864338 0 0.098990180476386011 0.32277432361249581 0 0.1015279901061177 0.33326077336121579 0 0.091209283741747527 0.33132108974864338 0 0.1038940537457453 0.34195889752981629 0 0.1015279901061177 0.33326077336121579 0 0.096237057951567131 0.33954789688919818 0 0.088211283069830754 0.3412221512726557 0 0.075414410575981472 0.33291764416303848 0 0.085729657538691995 0.35019371595886689 0 0.096237057951567131 0.33954789688919818 0 0.088211283069830754 0.3412221512726557 0 0.091209283741747527 0.33132108974864338 0 0.096342679094394354 0.34997657253365938 0 0.096237057951567131 0.33954789688919818 0 0.088211283069830754 0.3412221512726557 0 0.088211283069830754 0.3412221512726557 0 0.091209283741747527 0.33132108974864338 0 0.075414410575981472 0.33291764416303848 0 0.091209283741747527 0.33132108974864338 0 0.084660489937453065 0.31770286225168931 0 0.075414410575981472 0.33291764416303848 0 0.098990180476386011 0.32277432361249581 0 0.084660489937453065 0.31770286225168931 0 0.09736850077090034 0.31015564445613791 0 0.098990180476386011 0.32277432361249581 0 0.091209283741747527 0.33132108974864338 0 0.084660489937453065 0.31770286225168931 0 0.075414410575981472 0.33291764416303848 0 0.054703705375683927 0.32883895160657051 0 0.071518672839273004 0.30389375763548082 0 0.084660489937453065 0.31770286225168931 0 0.075414410575981472 0.33291764416303848 0 0.071518672839273004 0.30389375763548082 0 0.075414410575981472 0.33291764416303848 0 0.071518672839273004 0.30389375763548082 0 0.075414410575981472 0.33291764416303848 0 0.072918533581969411 0.3482082070781064 0 0.054703705375683927 0.32883895160657051 0 0.066833218506701486 0.352766037822974 0 0.072918533581969411 0.3482082070781064 0 0.054703705375683927 0.32883895160657051 0 0.075414410575981472 0.33291764416303848 0 0.072918533581969411 0.3482082070781064 0 0.07931014831269026 0.36194153069059598 0 0.075414410575981472 0.33291764416303848 0 0.07931014831269026 0.36194153069059598 0 0.066833218506701486 0.352766037822974 0 0.070042205367313787 0.35909619340729959 0 0.055073826663196553 0.36331899158513248 0 0.066833218506701486 0.352766037822974 0 0.070920434991000425 0.35577176329256011 0 0.072918533581969411 0.3482082070781064 0 0.066833218506701486 0.352766037822974 0 0.070920434991000425 0.35577176329256011 0 0.066833218506701486 0.352766037822974 0 0.070042205367313787 0.35909619340729959 0 0.070920434991000425 0.35577176329256011 0 0.066833218506701486 0.352766037822974 0 0.070042205367313787 0.35909619340729959 0 0.070920434991000425 0.35577176329256011 0 0.07931014831269026 0.36194153069059598 0 0.070920434991000425 0.35577176329256011 0 0.072918533581969411 0.3482082070781064 0 0.07931014831269026 0.36194153069059598 0 0.070042205367313787 0.35909619340729959 0 0.070920434991000425 0.35577176329256011 0 0.07931014831269026 0.36194153069059598 0 0.070042205367313787 0.35909619340729959 0 0.070920434991000425 0.35577176329256011 0 0.070920434991000425 0.35577176329256011 0 0.072918533581969411 0.3482082070781064 0 0.075414410575981472 0.33291764416303848 0 0.085729657538691995 0.35019371595886689 0 0.07931014831269026 0.36194153069059598 0 0.085729657538691995 0.35019371595886689 0 0.093231292549801864 0.3603339369558699 0 0.07931014831269026 0.36194153069059598 0 0.096342679094394354 0.34997657253365938 0 0.085729657538691995 0.35019371595886689 0 0.093231292549801864 0.3603339369558699 0 0.096342679094394354 0.34997657253365938 0 0.088211283069830754 0.3412221512726557 0 0.085729657538691995 0.35019371595886689 0 0.1005101862344529 0.37753196838393888 0 0.07931014831269026 0.36194153069059598 0 0.080617459112047027 0.37168121104414309 0 0.1005101862344529 0.37753196838393888 0 0.093231292549801864 0.3603339369558699 0 0.07931014831269026 0.36194153069059598 0 0.1005101862344529 0.37753196838393888 0 0.07931014831269026 0.36194153069059598 0 0.07931014831269026 0.36194153069059598 0 0.080617459112047027 0.37168121104414309 0 0.07931014831269026 0.36194153069059598 0 0.080617459112047027 0.37168121104414309 0 0.077650113253140335 0.37410380879500532 0 0.063541766686075932 0.38370280371485971 0 0.070042205367313787 0.35909619340729959 0 0.063541766686075932 0.38370280371485971 0 0.070042205367313787 0.35909619340729959 0 0.077650113253140335 0.37410380879500532 0 0.063541766686075932 0.38370280371485971 0 0.070042205367313787 0.35909619340729959 0 0.055073826663196553 0.36331899158513248 0 0.070042205367313787 0.35909619340729959 0 0.07931014831269026 0.36194153069059598 0 0.077650113253140335 0.37410380879500532 0 0.070042205367313787 0.35909619340729959 0 0.077650113253140335 0.37410380879500532 0 0.048828330243463773 0.37812345183287871 0 0.055073826663196553 0.36331899158513248 0 0.037907173216347692 0.36900247462334379 0 0.066833218506701486 0.352766037822974 0 0.054482740420165869 0.35282970994137741 0 0.053499718956109388 0.34296062640130859 0 0.066833218506701486 0.352766037822974 0 0.053499718956109388 0.34296062640130859 0 0.066833218506701486 0.352766037822974 0 0.055073826663196553 0.36331899158513248 0 0.054482740420165869 0.35282970994137741 0 0.055073826663196553 0.36331899158513248 0 0.054482740420165869 0.35282970994137741 0 0.042524197554657722 0.35227318395609369 0 0.054482740420165869 0.35282970994137741 0 0.042524197554657722 0.35227318395609369 0 0.053499718956109388 0.34296062640130859 0 0.042524197554657722 0.35227318395609369 0 0.02591415495345677 0.36089544147839908 0 0.026491563547101051 0.344879275629838 0 0.042524197554657722 0.35227318395609369 0 0.037907173216347692 0.36900247462334379 0 0.02591415495345677 0.36089544147839908 0 0.055073826663196553 0.36331899158513248 0 0.042524197554657722 0.35227318395609369 0 0.037907173216347692 0.36900247462334379 0 0.020337302895407999 0.37686122882940742 0 0.037907173216347692 0.36900247462334379 0 0.02591415495345677 0.36089544147839908 0 0.020337302895407999 0.37686122882940742 0 0.02591415495345677 0.36089544147839908 0 0.01412801201977021 0.36660742695433879 0 0.02591415495345677 0.36089544147839908 0 0.01290663531281112 0.35532087131663143 0 0.01412801201977021 0.36660742695433879 0 0.02591415495345677 0.36089544147839908 0 0.026491563547101051 0.344879275629838 0 0.01290663531281112 0.35532087131663143 0 0.026491563547101051 0.344879275629838 0 0.01290663531281112 0.35532087131663143 0 0.012473664162300601 0.34346636662570712 0 0.01290663531281112 0.35532087131663143 0 0.0029978092564315341 0.34765306343151398 0 0.012473664162300601 0.34346636662570712 0 0.01290663531281112 0.35532087131663143 0 0.001436009402799204 0.35658407481376719 0 0.0037963498076175142 0.36529258077041171 0 0.01290663531281112 0.35532087131663143 0 0.0029978092564315341 0.34765306343151398 0 0.001436009402799204 0.35658407481376719 0 -0.0015244919297118539 0.37331443520947022 0 0.0037963498076175142 0.36529258077041171 0 0.007685617129557662 0.37466701237684458 0 0.0037963498076175142 0.36529258077041171 0 0.007685617129557662 0.37466701237684458 0 0.01412801201977021 0.36660742695433879 0 0.020337302895407999 0.37686122882940742 0 0.007685617129557662 0.37466701237684458 0 0.01412801201977021 0.36660742695433879 0 0.01290663531281112 0.35532087131663143 0 0.0037963498076175142 0.36529258077041171 0 0.01412801201977021 0.36660742695433879 0 0.0033326920966838072 0.32037137025536772 0 0.015753070794735591 0.33226188480582752 0 0.016948210533686819 0.31988861604359542 0 0.0033326920966838072 0.32037137025536772 0 0.016948210533686819 0.31988861604359542 0 0.0088937656126342347 0.30612611901235992 0 0.0033326920966838072 0.32037137025536772 0 0.003770448595607732 0.33559415332684722 0 0.015753070794735591 0.33226188480582752 0 0.0029978092564315341 0.34765306343151398 0 0.003770448595607732 0.33559415332684722 0 0.012473664162300601 0.34346636662570712 0 -0.0062846136565366129 0.34047471164903848 0 0.0029978092564315341 0.34765306343151398 0 0.003770448595607732 0.33559415332684722 0 0.003770448595607732 0.33559415332684722 0 0.012473664162300601 0.34346636662570712 0 0.015753070794735591 0.33226188480582752 0 0.015753070794735591 0.33226188480582752 0 0.02732916060236789 0.33230290777377308 0 0.016948210533686819 0.31988861604359542 0 0.026491563547101051 0.344879275629838 0 0.015753070794735591 0.33226188480582752 0 0.02732916060236789 0.33230290777377308 0 0.026491563547101051 0.344879275629838 0 0.012473664162300601 0.34346636662570712 0 0.015753070794735591 0.33226188480582752 0 0.02732916060236789 0.33230290777377308 0 0.016948210533686819 0.31988861604359542 0 0.02889971226249239 0.31826490436424909 0 0.016948210533686819 0.31988861604359542 0 0.02889971226249239 0.31826490436424909 0 0.023821688461732049 0.30362292461551532 0 0.02889971226249239 0.31826490436424909 0 0.040166219405515999 0.33315521497964501 0 0.04257419224466804 0.30491186539016618 0 0.040166219405515999 0.33315521497964501 0 0.054703705375683927 0.32883895160657051 0 0.04257419224466804 0.30491186539016618 0 0.02732916060236789 0.33230290777377308 0 0.02889971226249239 0.31826490436424909 0 0.040166219405515999 0.33315521497964501 0 0.042524197554657722 0.35227318395609369 0 0.026491563547101051 0.344879275629838 0 0.040166219405515999 0.33315521497964501 0 0.042524197554657722 0.35227318395609369 0 0.040166219405515999 0.33315521497964501 0 0.053499718956109388 0.34296062640130859 0 0.026491563547101051 0.344879275629838 0 0.02732916060236789 0.33230290777377308 0 0.040166219405515999 0.33315521497964501 0 0.040166219405515999 0.33315521497964501 0 0.053499718956109388 0.34296062640130859 0 0.066833218506701486 0.352766037822974 0 0.053499718956109388 0.34296062640130859 0 0.054703705375683927 0.32883895160657051 0 0.066833218506701486 0.352766037822974 0 0.054703705375683927 0.32883895160657051 0 0.040166219405515999 0.33315521497964501 0 0.053499718956109388 0.34296062640130859 0 0.054703705375683927 0.32883895160657051 0 0.054703705375683927 0.32883895160657051 0 0.04257419224466804 0.30491186539016618 0 0.054703705375683927 0.32883895160657051 0 0.04257419224466804 0.30491186539016618 0 0.071518672839273004 0.30389375763548082 0 0.051652493769344388 0.28644641470547572 0 0.04257419224466804 0.30491186539016618 0 0.071518672839273004 0.30389375763548082 0 0.04257419224466804 0.30491186539016618 0 0.030444679113652191 0.28098477917376191 0 0.04257419224466804 0.30491186539016618 0 0.023821688461732049 0.30362292461551532 0 0.030444679113652191 0.28098477917376191 0 0.051652493769344388 0.28644641470547572 0 0.04257419224466804 0.30491186539016618 0 0.030444679113652191 0.28098477917376191 0 0.02889971226249239 0.31826490436424909 0 0.04257419224466804 0.30491186539016618 0 0.023821688461732049 0.30362292461551532 0 0.016948210533686819 0.31988861604359542 0 0.023821688461732049 0.30362292461551532 0 0.0088937656126342347 0.30612611901235992 0 0.023821688461732049 0.30362292461551532 0 0.01516957100325866 0.29156126370895902 0 0.0088937656126342347 0.30612611901235992 0 0.01516957100325866 0.29156126370895902 0 0.011995643403719589 0.27474010701921697 0 0.030444679113652191 0.28098477917376191 0 0.023821688461732049 0.30362292461551532 0 0.01516957100325866 0.29156126370895902 0 0.030444679113652191 0.28098477917376191 0 -0.00026070856359705023 0.29209679303363628 0 0.01516957100325866 0.29156126370895902 0 0.0088937656126342347 0.30612611901235992 0 -0.00026070856359705023 0.29209679303363628 0 0.01516957100325866 0.29156126370895902 0 0.011995643403719589 0.27474010701921697 0 -0.0050053426515477024 0.30421368897024309 0 -0.00026070856359705023 0.29209679303363628 0 0.0088937656126342347 0.30612611901235992 0 -0.0050053426515477024 0.30421368897024309 0 0.0033326920966838072 0.32037137025536772 0 0.0088937656126342347 0.30612611901235992 0 -0.0062925107982489464 0.25777225113449648 0 0.00052304254878242677 0.24554969369601529 0 0.018315165982636258 0.25705769295735748 0 -0.0062925107982489464 0.25777225113449648 0 0.011995643403719589 0.27474010701921697 0 0.018315165982636258 0.25705769295735748 0 -0.0054341861972371976 0.27585211339001769 0 -0.0062925107982489464 0.25777225113449648 0 0.011995643403719589 0.27474010701921697 0 -0.0054341861972371976 0.27585211339001769 0 -0.00026070856359705023 0.29209679303363628 0 0.011995643403719589 0.27474010701921697 0 0.030444679113652191 0.28098477917376191 0 0.018315165982636258 0.25705769295735748 0 0.039734026519466781 0.25889920549181072 0 0.011995643403719589 0.27474010701921697 0 0.030444679113652191 0.28098477917376191 0 0.018315165982636258 0.25705769295735748 0 0.030444679113652191 0.28098477917376191 0 0.018315165982636258 0.25705769295735748 0 0.018315165982636258 0.25705769295735748 0 0.029945818561336469 0.25087343006989432 0 0.039734026519466781 0.25889920549181072 0 0.041800045592175247 0.24512934716929019 0 0.029945818561336469 0.25087343006989432 0 0.039734026519466781 0.25889920549181072 0 0.051652493769344388 0.28644641470547572 0 0.030444679113652191 0.28098477917376191 0 0.052352254338569132 0.27004168647422899 0 0.030444679113652191 0.28098477917376191 0 0.039734026519466781 0.25889920549181072 0 0.052352254338569132 0.27004168647422899 0 0.051652493769344388 0.28644641470547572 0 0.052352254338569132 0.27004168647422899 0 0.067622935102564521 0.27486987110792299 0 0.065546195528431439 0.2493082971063314 0 0.052352254338569132 0.27004168647422899 0 0.067622935102564521 0.27486987110792299 0 0.041800045592175247 0.24512934716929019 0 0.065546195528431439 0.2493082971063314 0 0.039734026519466781 0.25889920549181072 0 0.065546195528431439 0.2493082971063314 0 0.039734026519466781 0.25889920549181072 0 0.052352254338569132 0.27004168647422899 0 0.065546195528431439 0.2493082971063314 0 0.078878052744095692 0.27142004631392691 0 0.067622935102564521 0.27486987110792299 0 0.065546195528431439 0.2493082971063314 0 0.085316570737710776 0.26896830791724041 0 0.065546195528431439 0.2493082971063314 0 0.085316570737710776 0.26896830791724041 0 0.078878052744095692 0.27142004631392691 0 0.065546195528431439 0.2493082971063314 0 0.083889286290303566 0.25240242155535458 0 0.085316570737710776 0.26896830791724041 0 0.083889286290303566 0.25240242155535458 0 0.085316570737710776 0.26896830791724041 0 0.09657779338607303 0.26044978568258259 0 0.093158877486271385 0.24497865695800511 0 0.083889286290303566 0.25240242155535458 0 0.09657779338607303 0.26044978568258259 0 0.078878052744095692 0.27142004631392691 0 0.082827039948381739 0.28041909223394929 0 0.076748339287195544 0.2785643627955891 0 0.091982499345542965 0.28002418252103789 0 0.078878052744095692 0.27142004631392691 0 0.082827039948381739 0.28041909223394929 0 0.091982499345542965 0.28002418252103789 0 0.085316570737710776 0.26896830791724041 0 0.078878052744095692 0.27142004631392691 0 0.091982499345542965 0.28002418252103789 0 0.078878052744095692 0.27142004631392691 0 0.078878052744095692 0.27142004631392691 0 0.076748339287195544 0.2785643627955891 0 0.067622935102564521 0.27486987110792299 0 0.076748339287195544 0.2785643627955891 0 0.067622935102564521 0.27486987110792299 0 0.077665329353740209 0.28754844152655717 0 0.067622935102564521 0.27486987110792299 0 0.071518672839273004 0.30389375763548082 0 0.051652493769344388 0.28644641470547572 0 0.067622935102564521 0.27486987110792299 0 0.071518672839273004 0.30389375763548082 0 0.067622935102564521 0.27486987110792299 0 0.077665329353740209 0.28754844152655717 0 0.071518672839273004 0.30389375763548082 0 0.077665329353740209 0.28754844152655717 0 0.071518672839273004 0.30389375763548082 0 0.085440080863654205 0.30446211430442022 0 0.085440080863654205 0.30446211430442022 0 0.092003382982479481 0.29325213595159039 0 0.09736850077090034 0.31015564445613791 0 0.084660489937453065 0.31770286225168931 0 0.071518672839273004 0.30389375763548082 0 0.085440080863654205 0.30446211430442022 0 0.084660489937453065 0.31770286225168931 0 0.085440080863654205 0.30446211430442022 0 0.09736850077090034 0.31015564445613791 0 0.077665329353740209 0.28754844152655717 0 0.085440080863654205 0.30446211430442022 0 0.092003382982479481 0.29325213595159039 0 0.082827039948381739 0.28041909223394929 0 0.076748339287195544 0.2785643627955891 0 0.077665329353740209 0.28754844152655717 0 0.082827039948381739 0.28041909223394929 0 0.077665329353740209 0.28754844152655717 0 0.092003382982479481 0.29325213595159039 0 0.091982499345542965 0.28002418252103789 0 0.082827039948381739 0.28041909223394929 0 0.092003382982479481 0.29325213595159039 0 0.091982499345542965 0.28002418252103789 0 0.1050869459469902 0.2886283187281492 0 0.091982499345542965 0.28002418252103789 0 0.092003382982479481 0.29325213595159039 0 0.1050869459469902 0.2886283187281492 0 0.092003382982479481 0.29325213595159039 0 0.1050869459469902 0.2886283187281492 0 0.10313047150519811 0.29983900431030308 0 0.1050869459469902 0.2886283187281492 0 0.10313047150519811 0.29983900431030308 0 0.1143632820380522 0.29785287141900108 0 0.092003382982479481 0.29325213595159039 0 0.09736850077090034 0.31015564445613791 0 0.10313047150519811 0.29983900431030308 0 0.10892577089384869 0.31737460941675461 0 0.09736850077090034 0.31015564445613791 0 0.1113063926441442 0.3067395890073269 0 0.09736850077090034 0.31015564445613791 0 0.10313047150519811 0.29983900431030308 0 0.1113063926441442 0.3067395890073269 0 0.11876326876670799 0.31332406482761682 0 0.12528706189015809 0.30189133961414799 0 0.13030610635144951 0.3201194431732875 0 0.11876326876670799 0.31332406482761682 0 0.10892577089384869 0.31737460941675461 0 0.1113063926441442 0.3067395890073269 0 0.10313047150519811 0.29983900431030308 0 0.1113063926441442 0.3067395890073269 0 0.1143632820380522 0.29785287141900108 0 0.1113063926441442 0.3067395890073269 0 0.1143632820380522 0.29785287141900108 0 0.12528706189015809 0.30189133961414799 0 0.11876326876670799 0.31332406482761682 0 0.1113063926441442 0.3067395890073269 0 0.12528706189015809 0.30189133961414799 0 0.1050869459469902 0.2886283187281492 0 0.1162512864472889 0.28488453418782722 0 0.1219941725939203 0.29075954193376669 0 0.1050869459469902 0.2886283187281492 0 0.1219941725939203 0.29075954193376669 0 0.12528706189015809 0.30189133961414799 0 0.1050869459469902 0.2886283187281492 0 0.12528706189015809 0.30189133961414799 0 0.1050869459469902 0.2886283187281492 0 0.1143632820380522 0.29785287141900108 0 0.12528706189015809 0.30189133961414799 0 0.1050869459469902 0.2886283187281492 0 0.1162512864472889 0.28488453418782722 0 0.1126368784306378 0.27696860768963549 0 0.1050869459469902 0.2886283187281492 0 0.1143632820380522 0.29785287141900108 0 0.1162512864472889 0.28488453418782722 0 0.1219941725939203 0.29075954193376669 0 0.1239325884306314 0.28193995109413961 0 0.1162512864472889 0.28488453418782722 0 0.1239325884306314 0.28193995109413961 0 0.1126368784306378 0.27696860768963549 0 0.1239325884306314 0.28193995109413961 0 0.1126368784306378 0.27696860768963549 0 0.12238138265906059 0.26903531425037902 0 0.1126368784306378 0.27696860768963549 0 0.12238138265906059 0.26903531425037902 0 0.10941660173088739 0.26455280595534192 0 0.12238138265906059 0.26903531425037902 0 0.12169936599027439 0.2567597450848853 0 0.10941660173088739 0.26455280595534192 0 0.12169936599027439 0.2567597450848853 0 0.10941660173088739 0.26455280595534192 0 0.1073566228899049 0.25060698291583089 0 0.10941660173088739 0.26455280595534192 0 0.1073566228899049 0.25060698291583089 0 0.09657779338607303 0.26044978568258259 0 0.093158877486271385 0.24497865695800511 0 0.1073566228899049 0.25060698291583089 0 0.09657779338607303 0.26044978568258259 0 0.1050869459469902 0.2886283187281492 0 0.1126368784306378 0.27696860768963549 0 0.1016879771935312 0.27208078517027928 0 0.085316570737710776 0.26896830791724041 0 0.1050869459469902 0.2886283187281492 0 0.1016879771935312 0.27208078517027928 0 0.085316570737710776 0.26896830791724041 0 0.1050869459469902 0.2886283187281492 0 0.091982499345542965 0.28002418252103789 0 0.085316570737710776 0.26896830791724041 0 0.1050869459469902 0.2886283187281492 0 0.085316570737710776 0.26896830791724041 0 0.09657779338607303 0.26044978568258259 0 0.1016879771935312 0.27208078517027928 0 0.1126368784306378 0.27696860768963549 0 0.10941660173088739 0.26455280595534192 0 0.1016879771935312 0.27208078517027928 0 0.10941660173088739 0.26455280595534192 0 0.09657779338607303 0.26044978568258259 0 0.1016879771935312 0.27208078517027928 0 0.15410173019121401 0.26930227715994082 0 0.13652057225118019 0.27824373931236179 0 0.14926146567135429 0.28530778367185 0 0.15410173019121401 0.26930227715994082 0 0.1349081148058513 0.26522378158627241 0 0.13652057225118019 0.27824373931236179 0 0.15152369355776621 0.24985893891519911 0 0.15410173019121401 0.26930227715994082 0 0.1349081148058513 0.26522378158627241 0 0.15152369355776621 0.24985893891519911 0 0.1338055702009765 0.24966410633270131 0 0.1349081148058513 0.26522378158627241 0 0.1338055702009765 0.24966410633270131 0 0.12169936599027439 0.2567597450848853 0 0.1349081148058513 0.26522378158627241 0 0.12238138265906059 0.26903531425037902 0 0.12169936599027439 0.2567597450848853 0 0.1349081148058513 0.26522378158627241 0 0.12238138265906059 0.26903531425037902 0 0.1349081148058513 0.26522378158627241 0 0.13652057225118019 0.27824373931236179 0 0.1239325884306314 0.28193995109413961 0 0.12238138265906059 0.26903531425037902 0 0.13652057225118019 0.27824373931236179 0 0.1219941725939203 0.29075954193376669 0 0.1239325884306314 0.28193995109413961 0 0.1367038594805807 0.29397013143333378 0 0.1239325884306314 0.28193995109413961 0 0.13652057225118019 0.27824373931236179 0 0.1367038594805807 0.29397013143333378 0 0.1219941725939203 0.29075954193376669 0 0.1367038594805807 0.29397013143333378 0 0.12528706189015809 0.30189133961414799 0 0.1367038594805807 0.29397013143333378 0 0.12528706189015809 0.30189133961414799 0 0.14548717783332599 0.315154360500147 0 0.12528706189015809 0.30189133961414799 0 0.14548717783332599 0.315154360500147 0 0.13030610635144951 0.3201194431732875 0 0.12528706189015809 0.30189133961414799 0 0.14548717783332599 0.315154360500147 0 0.1367038594805807 0.29397013143333378 0 0.15421601259984519 0.3010890478640344 0 0.14548717783332599 0.315154360500147 0 0.15421601259984519 0.3010890478640344 0 0.16199395662144189 0.31392454477757281 0 0.14548717783332599 0.315154360500147 0 0.1367038594805807 0.29397013143333378 0 0.15421601259984519 0.3010890478640344 0 0.14926146567135429 0.28530778367185 0 0.13652057225118019 0.27824373931236179 0 0.1367038594805807 0.29397013143333378 0 0.14926146567135429 0.28530778367185 0 0.15421601259984519 0.3010890478640344 0 0.14926146567135429 0.28530778367185 0 0.16675301656470309 0.28852093764987391 0 0.15421601259984519 0.3010890478640344 0 0.16675301656470309 0.28852093764987391 0 0.16780042813164919 0.30446427618197941 0 0.16675301656470309 0.28852093764987391 0 0.16780042813164919 0.30446427618197941 0 0.18098744022599211 0.30297197541681492 0 0.16780042813164919 0.30446427618197941 0 0.1779054660592217 0.31833421921828609 0 0.16199395662144189 0.31392454477757281 0 0.15421601259984519 0.3010890478640344 0 0.16780042813164919 0.30446427618197941 0 0.16199395662144189 0.31392454477757281 0 0.16780042813164919 0.30446427618197941 0 0.18098744022599211 0.30297197541681492 0 0.1779054660592217 0.31833421921828609 0 0.16675301656470309 0.28852093764987391 0 0.18098744022599211 0.30297197541681492 0 0.1884308075340092 0.2894359370556393 0 0.16675301656470309 0.28852093764987391 0 0.17281413222764111 0.26476736713298282 0 0.1884308075340092 0.2894359370556393 0 0.17281413222764111 0.26476736713298282 0 0.1884308075340092 0.2894359370556393 0 0.17281413222764111 0.26476736713298282 0 0.20099168472026649 0.26924400234699059 0 0.1884308075340092 0.2894359370556393 0 0.15410173019121401 0.26930227715994082 0 0.16675301656470309 0.28852093764987391 0 0.17281413222764111 0.26476736713298282 0 0.15410173019121401 0.26930227715994082 0 0.14926146567135429 0.28530778367185 0 0.16675301656470309 0.28852093764987391 0 0.15152369355776621 0.24985893891519911 0 0.15410173019121401 0.26930227715994082 0 0.16654584110041859 0.25141402998849288 0 0.15410173019121401 0.26930227715994082 0 0.16654584110041859 0.25141402998849288 0 0.17281413222764111 0.26476736713298282 0 0.182491151362839 0.24820806846560631 0 0.16654584110041859 0.25141402998849288 0 0.17281413222764111 0.26476736713298282 0 0.182491151362839 0.24820806846560631 0 0.17281413222764111 0.26476736713298282 0 0.20099168472026649 0.26924400234699059 0 0.182491151362839 0.24820806846560631 0 0.20099168472026649 0.26924400234699059 0 0.182491151362839 0.24820806846560631 0 0.20323580424516999 0.24901026716194319 0 0.20099168472026649 0.26924400234699059 0 0.20099168472026649 0.26924400234699059 0 0.21949221807769409 0.290279936228375 0 0.20099168472026649 0.26924400234699059 0 0.22733852896958251 0.25985763436866632 0 0.21949221807769409 0.290279936228375 0 0.20323580424516999 0.24901026716194319 0 0.20099168472026649 0.26924400234699059 0 0.22733852896958251 0.25985763436866632 0 0.22733852896958251 0.25985763436866632 0 0.24587805146891881 0.27733747393989699 0 0.21949221807769409 0.290279936228375 0 0.22733852896958251 0.25985763436866632 0 0.24587805146891881 0.27733747393989699 0 0.25330306868854607 0.24974758695179611 0 0.24587805146891881 0.27733747393989699 0 0.21949221807769409 0.290279936228375 0 0.25264327573459772 0.29879392936350568 0 0.23799275143512169 0.31131587010975942 0 0.21949221807769409 0.290279936228375 0 0.25264327573459772 0.29879392936350568 0 0.23799275143512169 0.31131587010975942 0 0.21949221807769409 0.290279936228375 0 0.20404748284037741 0.31410450697829589 0 0.23799275143512169 0.31131587010975942 0 0.21949221807769409 0.290279936228375 0 0.21949221807769409 0.290279936228375 0 0.1884308075340092 0.2894359370556393 0 0.20404748284037741 0.31410450697829589 0 0.20099168472026649 0.26924400234699059 0 0.21949221807769409 0.290279936228375 0 0.1884308075340092 0.2894359370556393 0 0.1884308075340092 0.2894359370556393 0 0.20404748284037741 0.31410450697829589 0 0.18098744022599211 0.30297197541681492 0 0.20404748284037741 0.31410450697829589 0 0.1779054660592217 0.31833421921828609 0 0.18098744022599211 0.30297197541681492 0 0.1884308075340092 0.2894359370556393 0 0.20404748284037741 0.31410450697829589 0 0.18966080293745241 0.3308376801079228 0 0.20404748284037741 0.31410450697829589 0 0.1779054660592217 0.31833421921828609 0 0.18966080293745241 0.3308376801079228 0 0.19879313186978381 0.35213865343741718 0 0.17692069893194021 0.34702897328767329 0 0.18966080293745241 0.3308376801079228 0 0.2196641581467455 0.3387730769009526 0 0.19879313186978381 0.35213865343741718 0 0.20404748284037741 0.31410450697829589 0 0.2196641581467455 0.3387730769009526 0 0.18966080293745241 0.3308376801079228 0 0.20404748284037741 0.31410450697829589 0 0.2196641581467455 0.3387730769009526 0 0.23799275143512169 0.31131587010975942 0 0.2196641581467455 0.3387730769009526 0 0.2390769329513357 0.34382157179716683 0 0.23799275143512169 0.31131587010975942 0 0.20404748284037741 0.31410450697829589 0 0.2196641581467455 0.3387730769009526 0 0.23799275143512169 0.31131587010975942 0 0.25649328479254918 0.33235180399114372 0 0.25264327573459772 0.29879392936350568 0 0.23799275143512169 0.31131587010975942 0 0.2390769329513357 0.34382157179716683 0 0.25649328479254918 0.33235180399114372 0 0.23799275143512169 0.31131587010975942 0 0.25649328479254918 0.33235180399114372 0 0.24904242420903 0.36862970638804732 0 0.23886152724640181 0.37536750124850943 0 0.25592029321336779 0.37874914184280539 0 0.23684561316834049 0.36337121911895143 0 0.24904242420903 0.36862970638804732 0 0.25375611628729122 0.3566904670715379 0 0.23684561316834049 0.36337121911895143 0 0.24904242420903 0.36862970638804732 0 0.23886152724640181 0.37536750124850943 0 0.2390769329513357 0.34382157179716683 0 0.25375611628729122 0.3566904670715379 0 0.25649328479254918 0.33235180399114372 0 0.23684561316834049 0.36337121911895143 0 0.2390769329513357 0.34382157179716683 0 0.25375611628729122 0.3566904670715379 0 0.23684561316834049 0.36337121911895143 0 0.2390769329513357 0.34382157179716683 0 0.21931973290327689 0.35772276426228589 0 0.2196641581467455 0.3387730769009526 0 0.2390769329513357 0.34382157179716683 0 0.21931973290327689 0.35772276426228589 0 0.23684561316834049 0.36337121911895143 0 0.21931973290327689 0.35772276426228589 0 0.22585783825035571 0.3723645146877983 0 0.23684561316834049 0.36337121911895143 0 0.22585783825035571 0.3723645146877983 0 0.23886152724640181 0.37536750124850943 0 0.21931973290327689 0.35772276426228589 0 0.22585783825035571 0.3723645146877983 0 0.20530470127214309 0.37499167066335731 0 0.21931973290327689 0.35772276426228589 0 0.20530470127214309 0.37499167066335731 0 0.19879313186978381 0.35213865343741718 0 0.2196641581467455 0.3387730769009526 0 0.21931973290327689 0.35772276426228589 0 0.19879313186978381 0.35213865343741718 0 0.20530470127214309 0.37499167066335731 0 0.19879313186978381 0.35213865343741718 0 0.18527744487455561 0.36448388752910882 0 0.18527744487455561 0.36448388752910882 0 0.16712598588580149 0.36959965471450201 0 0.17692069893194021 0.34702897328767329 0 0.18527744487455561 0.36448388752910882 0 0.16712598588580149 0.36959965471450201 0 0.18055817647805239 0.38812426258728072 0 0.16712598588580149 0.36959965471450201 0 0.1481474072413822 0.37305618948637398 0 0.15591655346088559 0.35081535744619269 0 0.16712598588580149 0.36959965471450201 0 0.17692069893194021 0.34702897328767329 0 0.15591655346088559 0.35081535744619269 0 0.17692069893194021 0.34702897328767329 0 0.1666951031381837 0.33836890084807469 0 0.15591655346088559 0.35081535744619269 0 0.19879313186978381 0.35213865343741718 0 0.18527744487455561 0.36448388752910882 0 0.17692069893194021 0.34702897328767329 0 0.18966080293745241 0.3308376801079228 0 0.17692069893194021 0.34702897328767329 0 0.17575105566561869 0.33239594150463259 0 0.17692069893194021 0.34702897328767329 0 0.17575105566561869 0.33239594150463259 0 0.1666951031381837 0.33836890084807469 0 0.18966080293745241 0.3308376801079228 0 0.17575105566561869 0.33239594150463259 0 0.1779054660592217 0.31833421921828609 0 0.17575105566561869 0.33239594150463259 0 0.1779054660592217 0.31833421921828609 0 0.16568729377649399 0.32841738138614601 0 0.16199395662144189 0.31392454477757281 0 0.16568729377649399 0.32841738138614601 0 0.14548717783332599 0.315154360500147 0 0.16568729377649399 0.32841738138614601 0 0.15825695711357901 0.33369057427819893 0 0.14548717783332599 0.315154360500147 0 0.1779054660592217 0.31833421921828609 0 0.16199395662144189 0.31392454477757281 0 0.16568729377649399 0.32841738138614601 0 0.1666951031381837 0.33836890084807469 0 0.15825695711357901 0.33369057427819893 0 0.15591655346088559 0.35081535744619269 0 0.17575105566561869 0.33239594150463259 0 0.1666951031381837 0.33836890084807469 0 0.16568729377649399 0.32841738138614601 0 0.1666951031381837 0.33836890084807469 0 0.16568729377649399 0.32841738138614601 0 0.15825695711357901 0.33369057427819893 0 0.15825695711357901 0.33369057427819893 0 0.14171481664814409 0.33201629848656877 0 0.13879274704643019 0.34846781794948473 0 0.15825695711357901 0.33369057427819893 0 0.13879274704643019 0.34846781794948473 0 0.16568729377649399 0.32841738138614601 0 0.14548717783332599 0.315154360500147 0 0.15825695711357901 0.33369057427819893 0 0.14171481664814409 0.33201629848656877 0 0.14548717783332599 0.315154360500147 0 0.14171481664814409 0.33201629848656877 0 0.14548717783332599 0.315154360500147 0 0.13030610635144951 0.3201194431732875 0 0.11886584608340769 0.32448998583300992 0 0.13030610635144951 0.3201194431732875 0 0.12858808323795631 0.33279482181631109 0 0.14171481664814409 0.33201629848656877 0 0.12858808323795631 0.33279482181631109 0 0.13879274704643019 0.34846781794948473 0 0.1247188455028202 0.34473722437045218 0 0.12858808323795631 0.33279482181631109 0 0.13879274704643019 0.34846781794948473 0 0.14171481664814409 0.33201629848656877 0 0.13030610635144951 0.3201194431732875 0 0.12858808323795631 0.33279482181631109 0 0.11932853697928229 0.36324506162077169 0 0.1189961612439189 0.3562780893984811 0 0.13879274704643019 0.34846781794948473 0 0.11932853697928229 0.36324506162077169 0 0.13879274704643019 0.34846781794948473 0 0.1189961612439189 0.3562780893984811 0 0.1247188455028202 0.34473722437045218 0 0.13879274704643019 0.34846781794948473 0 0.11932853697928229 0.36324506162077169 0 0.13879274704643019 0.34846781794948473 0 0.1343177228312788 0.36278093312542292 0 0.11932853697928229 0.36324506162077169 0 0.1343177228312788 0.36278093312542292 0 0.13279498662191061 0.37598326688028688 0 0.1343177228312788 0.36278093312542292 0 0.1481474072413822 0.37305618948637398 0 0.13279498662191061 0.37598326688028688 0 0.1343177228312788 0.36278093312542292 0 0.1481474072413822 0.37305618948637398 0 0.15591655346088559 0.35081535744619269 0 0.13879274704643019 0.34846781794948473 0 0.1343177228312788 0.36278093312542292 0 0.15591655346088559 0.35081535744619269 0 0.15825695711357901 0.33369057427819893 0 0.13879274704643019 0.34846781794948473 0 0.15591655346088559 0.35081535744619269 0 0.1559356343279934 0.39408925795038291 0 0.14146213156391371 0.38844058814785781 0 0.14612437028066061 0.41107648830081661 0 0.1481474072413822 0.37305618948637398 0 0.1559356343279934 0.39408925795038291 0 0.14146213156391371 0.38844058814785781 0 0.1481474072413822 0.37305618948637398 0 0.1559356343279934 0.39408925795038291 0 0.1481474072413822 0.37305618948637398 0 0.14146213156391371 0.38844058814785781 0 0.13279498662191061 0.37598326688028688 0 0.12071913449369449 0.39239356202100839 0 0.14146213156391371 0.38844058814785781 0 0.13279498662191061 0.37598326688028688 0 0.12071913449369449 0.39239356202100839 0 0.13342175238717729 0.40173502516091292 0 0.14146213156391371 0.38844058814785781 0 0.13342175238717729 0.40173502516091292 0 0.14612437028066061 0.41107648830081661 0 0.1214770794270391 0.40828094709395069 0 0.12071913449369449 0.39239356202100839 0 0.13342175238717729 0.40173502516091292 0 0.12071913449369449 0.39239356202100839 0 0.14146213156391371 0.38844058814785781 0 0.13342175238717729 0.40173502516091292 0 0.1214770794270391 0.40828094709395069 0 0.13342175238717729 0.40173502516091292 0 0.1340263565772119 0.41508453124904421 0 0.1222350243603849 0.42416833216689281 0 0.1214770794270391 0.40828094709395069 0 0.1340263565772119 0.41508453124904421 0 0.13342175238717729 0.40173502516091292 0 0.1340263565772119 0.41508453124904421 0 0.14612437028066061 0.41107648830081661 0 0.13342175238717729 0.40173502516091292 0 0.14612437028066061 0.41107648830081661 0 0.12340305628634129 0.44865160551396183 0 0.1222350243603849 0.42416833216689281 0 0.14687355643079761 0.43016186352264868 0 0.1222350243603849 0.42416833216689281 0 0.14687355643079761 0.43016186352264868 0 0.1222350243603849 0.42416833216689281 0 0.1340263565772119 0.41508453124904421 0 0.14687355643079761 0.43016186352264868 0 0.14687355643079761 0.43016186352264868 0 0.15597216992876481 0.42233613177328971 0 0.14612437028066061 0.41107648830081661 0 0.1559356343279934 0.39408925795038291 0 0.14612437028066061 0.41107648830081661 0 0.1637238614146046 0.41512232641439162 0 0.1340263565772119 0.41508453124904421 0 0.14687355643079761 0.43016186352264868 0 0.14612437028066061 0.41107648830081661 0 0.15597216992876481 0.42233613177328971 0 0.14612437028066061 0.41107648830081661 0 0.1637238614146046 0.41512232641439162 0 0.1637238614146046 0.41512232641439162 0 0.1750322635581138 0.41360997075205158 0 0.1694535878235609 0.40215310082521211 0 0.14687355643079761 0.43016186352264868 0 0.15597216992876481 0.42233613177328971 0 0.1715120885012108 0.43615539487840232 0 0.1637238614146046 0.41512232641439162 0 0.1715120885012108 0.43615539487840232 0 0.1794354781626683 0.42559199185874391 0 0.1637238614146046 0.41512232641439162 0 0.1715120885012108 0.43615539487840232 0 0.15597216992876481 0.42233613177328971 0 0.1637238614146046 0.41512232641439162 0 0.1715120885012108 0.43615539487840232 0 0.14687355643079761 0.43016186352264868 0 0.1715120885012108 0.43615539487840232 0 0.1715120885012108 0.43615539487840232 0 0.1794354781626683 0.42559199185874391 0 0.18833562183381211 0.4402478616802179 0 0.1794354781626683 0.42559199185874391 0 0.1750322635581138 0.41360997075205158 0 0.19501681839944349 0.42176304626403038 0 0.1637238614146046 0.41512232641439162 0 0.1794354781626683 0.42559199185874391 0 0.1750322635581138 0.41360997075205158 0 0.1750322635581138 0.41360997075205158 0 0.181759741992398 0.4014692571533785 0 0.20199494010986499 0.40198969444896959 0 0.181759741992398 0.4014692571533785 0 0.1694535878235609 0.40215310082521211 0 0.18055817647805239 0.38812426258728072 0 0.1750322635581138 0.41360997075205158 0 0.181759741992398 0.4014692571533785 0 0.1694535878235609 0.40215310082521211 0 0.1559356343279934 0.39408925795038291 0 0.1637238614146046 0.41512232641439162 0 0.1559356343279934 0.39408925795038291 0 0.1694535878235609 0.40215310082521211 0 0.18055817647805239 0.38812426258728072 0 0.1559356343279934 0.39408925795038291 0 0.1637238614146046 0.41512232641439162 0 0.1694535878235609 0.40215310082521211 0 0.16712598588580149 0.36959965471450201 0 0.1481474072413822 0.37305618948637398 0 0.1559356343279934 0.39408925795038291 0 0.16712598588580149 0.36959965471450201 0 0.1559356343279934 0.39408925795038291 0 0.18055817647805239 0.38812426258728072 0 0.20530470127214309 0.37499167066335731 0 0.18055817647805239 0.38812426258728072 0 0.20199494010986499 0.40198969444896959 0 0.20530470127214309 0.37499167066335731 0 0.18527744487455561 0.36448388752910882 0 0.18055817647805239 0.38812426258728072 0 0.181759741992398 0.4014692571533785 0 0.18055817647805239 0.38812426258728072 0 0.20199494010986499 0.40198969444896959 0 0.20199494010986499 0.40198969444896959 0 0.2289576166616164 0.39036941814588749 0 0.20199494010986499 0.40198969444896959 0 0.2289576166616164 0.39036941814588749 0 0.21711423007704009 0.41416087831965381 0 0.20530470127214309 0.37499167066335731 0 0.20199494010986499 0.40198969444896959 0 0.2289576166616164 0.39036941814588749 0 0.22585783825035571 0.3723645146877983 0 0.2289576166616164 0.39036941814588749 0 0.23886152724640181 0.37536750124850943 0 0.22585783825035571 0.3723645146877983 0 0.20530470127214309 0.37499167066335731 0 0.2289576166616164 0.39036941814588749 0 0.2289576166616164 0.39036941814588749 0 0.23384575370489011 0.41228468132644602 0 0.21711423007704009 0.41416087831965381 0 0.2289576166616164 0.39036941814588749 0 0.2445212999378823 0.39842746020603098 0 0.23384575370489011 0.41228468132644602 0 0.2445212999378823 0.39842746020603098 0 0.24772174732239871 0.41042670374335971 0 0.25496869930512001 0.40320859073049431 0 0.2289576166616164 0.39036941814588749 0 0.2445212999378823 0.39842746020603098 0 0.25592029321336779 0.37874914184280539 0 0.2289576166616164 0.39036941814588749 0 0.25592029321336779 0.37874914184280539 0 0.2289576166616164 0.39036941814588749 0 0.23886152724640181 0.37536750124850943 0 0.25592029321336779 0.37874914184280539 0 0.24175016542794861 0.43052107645578441 0 0.23384575370489011 0.41228468132644602 0 0.22889857838244601 0.42781701534546618 0 0.24175016542794861 0.43052107645578441 0 0.23384575370489011 0.41228468132644602 0 0.25128587781223161 0.42297503557477428 0 0.24175016542794861 0.43052107645578441 0 0.22889857838244601 0.42781701534546618 0 0.23419783964928331 0.43621814991441471 0 0.24175016542794861 0.43052107645578441 0 0.23419783964928331 0.43621814991441471 0 0.24207478202628049 0.44239364197936287 0 0.24772174732239871 0.41042670374335971 0 0.23384575370489011 0.41228468132644602 0 0.25128587781223161 0.42297503557477428 0 0.2445212999378823 0.39842746020603098 0 0.24772174732239871 0.41042670374335971 0 0.23384575370489011 0.41228468132644602 0 0.23384575370489011 0.41228468132644602 0 0.22889857838244601 0.42781701534546618 0 0.21711423007704009 0.41416087831965381 0 0.23384575370489011 0.41228468132644602 0 0.22889857838244601 0.42781701534546618 0 0.22889857838244601 0.42781701534546618 0 0.21397167320398031 0.43074141438712338 0 0.21711423007704009 0.41416087831965381 0 0.22889857838244601 0.42781701534546618 0 0.23419783964928331 0.43621814991441471 0 0.22395140306000089 0.44334934936448622 0 0.22889857838244601 0.42781701534546618 0 0.21397167320398031 0.43074141438712338 0 0.22395140306000089 0.44334934936448622 0 0.22889857838244601 0.42781701534546618 0 0.22395140306000089 0.44334934936448622 0 0.21397167320398031 0.43074141438712338 0 0.21711423007704009 0.41416087831965381 0 0.19501681839944349 0.42176304626403038 0 0.21397167320398031 0.43074141438712338 0 0.19501681839944349 0.42176304626403038 0 0.20515915516641431 0.44434032848202931 0 0.20199494010986499 0.40198969444896959 0 0.21711423007704009 0.41416087831965381 0 0.19501681839944349 0.42176304626403038 0 0.1750322635581138 0.41360997075205158 0 0.20199494010986499 0.40198969444896959 0 0.19501681839944349 0.42176304626403038 0 0.1750322635581138 0.41360997075205158 0 0.20199494010986499 0.40198969444896959 0 0.1794354781626683 0.42559199185874391 0 0.19501681839944349 0.42176304626403038 0 0.18833562183381211 0.4402478616802179 0 0.19501681839944349 0.42176304626403038 0 0.18833562183381211 0.4402478616802179 0 0.20515915516641431 0.44434032848202931 0 0.1912144393181284 0.45535371225967791 0 0.20515915516641431 0.44434032848202931 0 0.17512922150319371 0.44592390897383649 0 0.20515915516641431 0.44434032848202931 0 0.17512922150319371 0.44592390897383649 0 0.18833562183381211 0.4402478616802179 0 0.20515915516641431 0.44434032848202931 0 0.1912144393181284 0.45535371225967791 0 0.20850845516475811 0.45943620392773638 0 0.20515915516641431 0.44434032848202931 0 0.18833562183381211 0.4402478616802179 0 0.20515915516641431 0.44434032848202931 0 0.17512922150319371 0.44592390897383649 0 0.1912144393181284 0.45535371225967791 0 0.20850845516475811 0.45943620392773638 0 0.18474976762031289 0.47190538112304908 0 0.20850845516475811 0.45943620392773638 0 0.21425530159755729 0.47379158696090801 0 0.18474976762031289 0.47190538112304908 0 0.20850845516475811 0.45943620392773638 0 0.2226028953377272 0.44758317392181352 0 0.21425530159755729 0.47379158696090801 0 0.2226028953377272 0.44758317392181352 0 0.21425530159755729 0.47379158696090801 0 0.20515915516641431 0.44434032848202931 0 0.22395140306000089 0.44334934936448622 0 0.20515915516641431 0.44434032848202931 0 0.21279583660005341 0.44474854571045808 0 0.22395140306000089 0.44334934936448622 0 0.21397167320398031 0.43074141438712338 0 0.20515915516641431 0.44434032848202931 0 0.22395140306000089 0.44334934936448622 0 0.20850845516475811 0.45943620392773638 0 0.20515915516641431 0.44434032848202931 0 0.21841759034073641 0.44756555499789891 0 0.21279583660005341 0.44474854571045808 0 0.2226028953377272 0.44758317392181352 0 0.20515915516641431 0.44434032848202931 0 0.21841759034073641 0.44756555499789891 0 0.21841759034073641 0.44756555499789891 0 0.21279583660005341 0.44474854571045808 0 0.2226028953377272 0.44758317392181352 0 0.20515915516641431 0.44434032848202931 0 0.21841759034073641 0.44756555499789891 0 0.21279583660005341 0.44474854571045808 0 0.20850845516475811 0.45943620392773638 0 0.21841759034073641 0.44756555499789891 0 0.2226028953377272 0.44758317392181352 0 0.21279583660005341 0.44474854571045808 0 0.22395140306000089 0.44334934936448622 0 0.2226028953377272 0.44758317392181352 0 0.22395140306000089 0.44334934936448622 0 0.24207478202628049 0.44239364197936287 0 0.23419783964928331 0.43621814991441471 0 0.22395140306000089 0.44334934936448622 0 0.24207478202628049 0.44239364197936287 0 0.2226028953377272 0.44758317392181352 0 0.245728265230131 0.45426732129448261 0 0.22395140306000089 0.44334934936448622 0 0.2226028953377272 0.44758317392181352 0 0.24207478202628049 0.44239364197936287 0 0.22395140306000089 0.44334934936448622 0 0.2226028953377272 0.44758317392181352 0 0.2226028953377272 0.44758317392181352 0 0.23025520836679861 0.46445409309265789 0 0.245728265230131 0.45426732129448261 0 0.2226028953377272 0.44758317392181352 0 0.23025520836679861 0.46445409309265789 0 0.21425530159755729 0.47379158696090801 0 0.23025520836679861 0.46445409309265789 0 0.245728265230131 0.45426732129448261 0 0.24261863591353991 0.46960892170715218 0 0.245728265230131 0.45426732129448261 0 0.24261863591353991 0.46960892170715218 0 0.25429293155706229 0.46713712892986659 0 0.245728265230131 0.45426732129448261 0 0.24207478202628049 0.44239364197936287 0 0.26019816099256032 0.44143793459424202 0 0.24175016542794861 0.43052107645578441 0 0.24207478202628049 0.44239364197936287 0 0.26019816099256032 0.44143793459424202 0 0.2226028953377272 0.44758317392181352 0 0.245728265230131 0.45426732129448261 0 0.24207478202628049 0.44239364197936287 0 0.24923232485093619 0.48011128193403829 0 0.23135977591958601 0.48169359144682988 0 0.2330753567465513 0.5 0 0.24923232485093619 0.48011128193403829 0 0.2330753567465513 0.5 0 0.26024300563571762 0.5 0 0.23025520836679861 0.46445409309265789 0 0.24261863591353991 0.46960892170715218 0 0.23135977591958601 0.48169359144682988 0 0.24923232485093619 0.48011128193403829 0 0.24261863591353991 0.46960892170715218 0 0.23135977591958601 0.48169359144682988 0 0.24923232485093619 0.48011128193403829 0 0.24261863591353991 0.46960892170715218 0 0.25429293155706229 0.46713712892986659 0 0.23025520836679861 0.46445409309265789 0 0.23135977591958601 0.48169359144682988 0 0.21425530159755729 0.47379158696090801 0 0.23135977591958601 0.48169359144682988 0 0.2330753567465513 0.5 0 0.20590770785738499 0.50000000000000178 0 0.20590770785738499 0.50000000000000178 0 0.21425530159755729 0.47379158696090801 0 0.20590770785738499 0.50000000000000178 0 0.21425530159755729 0.47379158696090801 0 0.1951683376606807 0.48607348719104282 0 0.23135977591958601 0.48169359144682988 0 0.20590770785738499 0.50000000000000178 0 0.21425530159755729 0.47379158696090801 0 0.21425530159755729 0.47379158696090801 0 0.1951683376606807 0.48607348719104282 0 0.18474976762031289 0.47190538112304908 0 0.20590770785738499 0.50000000000000178 0 0.1951683376606807 0.48607348719104282 0 0.18442896746397319 0.5 0 0.1951683376606807 0.48607348719104282 0 0.17455755104778101 0.48591086300833197 0 0.18442896746397319 0.5 0 0.17455755104778101 0.48591086300833197 0 0.18442896746397319 0.5 0 0.16295022707056131 0.5 0 0.17455755104778101 0.48591086300833197 0 0.16295022707056131 0.5 0 0.15782234273691551 0.47274948435599351 0 0.17455755104778101 0.48591086300833197 0 0.15782234273691551 0.47274948435599351 0 0.18474976762031289 0.47190538112304908 0 0.1951683376606807 0.48607348719104282 0 0.17455755104778101 0.48591086300833197 0 0.18474976762031289 0.47190538112304908 0 0.1912144393181284 0.45535371225967791 0 0.18474976762031289 0.47190538112304908 0 0.17512922150319371 0.44592390897383649 0 0.18474976762031289 0.47190538112304908 0 0.17512922150319371 0.44592390897383649 0 0.15782234273691551 0.47274948435599351 0 0.18474976762031289 0.47190538112304908 0 0.17512922150319371 0.44592390897383649 0 0.1715120885012108 0.43615539487840232 0 0.18833562183381211 0.4402478616802179 0 0.17512922150319371 0.44592390897383649 0 0.1715120885012108 0.43615539487840232 0 0.18833562183381211 0.4402478616802179 0 0.1715120885012108 0.43615539487840232 0 0.17512922150319371 0.44592390897383649 0 0.17512922150319371 0.44592390897383649 0 0.1492661388947675 0.44728775724389841 0 0.1715120885012108 0.43615539487840232 0 0.17512922150319371 0.44592390897383649 0 0.1492661388947675 0.44728775724389841 0 0.15782234273691551 0.47274948435599351 0 0.17512922150319371 0.44592390897383649 0 0.1492661388947675 0.44728775724389841 0 0.15782234273691551 0.47274948435599351 0 0.1492661388947675 0.44728775724389841 0 0.13759267631936009 0.46485249453493421 0 0.14687355643079761 0.43016186352264868 0 0.1715120885012108 0.43615539487840232 0 0.1492661388947675 0.44728775724389841 0 0.12340305628634129 0.44865160551396183 0 0.1492661388947675 0.44728775724389841 0 0.12340305628634129 0.44865160551396183 0 0.14687355643079761 0.43016186352264868 0 0.1492661388947675 0.44728775724389841 0 0.12340305628634129 0.44865160551396183 0 0.1492661388947675 0.44728775724389841 0 0.13759267631936009 0.46485249453493421 0 0.12405882547213599 0.46239727108338857 0 0.12340305628634129 0.44865160551396183 0 0.13759267631936009 0.46485249453493421 0 0.12405882547213599 0.46239727108338857 0 0.13759267631936009 0.46485249453493421 0 0.12855994965836309 0.47453026711805119 0 0.13759267631936009 0.46485249453493421 0 0.12855994965836309 0.47453026711805119 0 0.14475545317108979 0.48273277282822702 0 0.12855994965836309 0.47453026711805119 0 0.1414714866771494 0.49999999999998901 0 0.1153671493593045 0.5 0 0.12855994965836309 0.47453026711805119 0 0.1414714866771494 0.49999999999998901 0 0.12855994965836309 0.47453026711805119 0 0.1414714866771494 0.49999999999998901 0 0.14475545317108979 0.48273277282822702 0 0.16295022707056131 0.5 0 0.1414714866771494 0.49999999999998901 0 0.14475545317108979 0.48273277282822702 0 0.16295022707056131 0.5 0 0.15782234273691551 0.47274948435599351 0 0.14475545317108979 0.48273277282822702 0 0.15782234273691551 0.47274948435599351 0 0.13759267631936009 0.46485249453493421 0 0.14475545317108979 0.48273277282822702 0 0.35663645170206959 0.4742285787889049 0 0.34389067945645407 0.46301581339775999 0 0.3412739859050451 0.47960376758839812 0 0.35663645170206959 0.4742285787889049 0 0.35621847007768992 0.48625449604046678 0 0.3412739859050451 0.47960376758839812 0 0.35621847007768992 0.48625449604046678 0 0.36891360119238159 0.5 0 0.34174595230321569 0.5 0 0.35621847007768992 0.48625449604046678 0 0.3412739859050451 0.47960376758839812 0 0.34174595230321569 0.5 0 0.35621847007768992 0.48625449604046678 0 0.36891360119238159 0.5 0 0.37102616877421812 0.47990382161489231 0 0.35663645170206959 0.4742285787889049 0 0.35621847007768992 0.48625449604046678 0 0.37102616877421812 0.47990382161489231 0 0.35663645170206959 0.4742285787889049 0 0.37102616877421812 0.47990382161489231 0 0.35663645170206959 0.4742285787889049 0 0.37102616877421812 0.47990382161489231 0 0.37056231748715063 0.46549514162231442 0 0.37056231748715063 0.46549514162231442 0 0.35589104969797708 0.44537150834839939 0 0.37512159256099409 0.46723749568800771 0 0.37056231748715063 0.46549514162231442 0 0.35589104969797708 0.44537150834839939 0 0.35669954944340232 0.46203768815318202 0 0.35589104969797708 0.44537150834839939 0 0.37512159256099409 0.46723749568800771 0 0.37056231748715063 0.46549514162231442 0 0.35589104969797708 0.44537150834839939 0 0.35663645170206959 0.4742285787889049 0 0.37056231748715063 0.46549514162231442 0 0.35669954944340232 0.46203768815318202 0 0.36856146243249033 0.44407763524990829 0 0.35589104969797708 0.44537150834839939 0 0.37512159256099409 0.46723749568800771 0 0.36856146243249033 0.44407763524990829 0 0.38085702682071321 0.44702362668510748 0 0.37512159256099409 0.46723749568800771 0 0.36856146243249033 0.44407763524990829 0 0.37496066392291932 0.43554357024030838 0 0.38085702682071321 0.44702362668510748 0 0.36856146243249033 0.44407763524990829 0 0.36015086439732058 0.44003657534299129 0 0.35589104969797708 0.44537150834839939 0 0.36856146243249033 0.44407763524990829 0 0.36015086439732058 0.44003657534299129 0 0.3642780136467465 0.43200519773475948 0 0.35589104969797708 0.44537150834839939 0 0.34389067945645407 0.46301581339775999 0 0.33244503931737812 0.4504787427805575 0 0.35589104969797708 0.44537150834839939 0 0.33244503931737812 0.4504787427805575 0 0.35456038192340011 0.44385847957331859 0 0.34946850859191081 0.4380687918565272 0 0.35623522510629457 0.43513759173327121 0 0.36015086439732058 0.44003657534299129 0 0.35456038192340011 0.44385847957331859 0 0.35623522510629457 0.43513759173327121 0 0.35456038192340011 0.44385847957331859 0 0.34946850859191081 0.4380687918565272 0 0.36015086439732058 0.44003657534299129 0 0.35456038192340011 0.44385847957331859 0 0.35589104969797708 0.44537150834839939 0 0.35456038192340011 0.44385847957331859 0 0.35589104969797708 0.44537150834839939 0 0.35456038192340011 0.44385847957331859 0 0.34946850859191081 0.4380687918565272 0 0.34144782946785218 0.44030417100584018 0 0.35456038192340011 0.44385847957331859 0 0.35589104969797708 0.44537150834839939 0 0.34144782946785218 0.44030417100584018 0 0.35589104969797708 0.44537150834839939 0 0.35669954944340232 0.46203768815318202 0 0.34389067945645407 0.46301581339775999 0 0.35663645170206959 0.4742285787889049 0 0.35669954944340232 0.46203768815318202 0 0.34389067945645407 0.46301581339775999 0 0.33244503931737812 0.4504787427805575 0 0.32953640512702848 0.47207868415318671 0 0.34389067945645407 0.46301581339775999 0 0.33244503931737812 0.4504787427805575 0 0.32953640512702848 0.47207868415318671 0 0.35589104969797708 0.44537150834839939 0 0.33244503931737812 0.4504787427805575 0 0.34144782946785218 0.44030417100584018 0 0.33244503931737812 0.4504787427805575 0 0.31870740299584172 0.45053290855922201 0 0.33545712111755688 0.42811058438196031 0 0.33244503931737812 0.4504787427805575 0 0.33545712111755688 0.42811058438196031 0 0.33244503931737812 0.4504787427805575 0 0.34144782946785218 0.44030417100584018 0 0.33545712111755688 0.42811058438196031 0 0.31870740299584172 0.45053290855922201 0 0.3192173465544958 0.43796526048271461 0 0.33545712111755688 0.42811058438196031 0 0.31870740299584172 0.45053290855922201 0 0.33545712111755688 0.42811058438196031 0 0.33244503931737812 0.4504787427805575 0 0.31870740299584172 0.45053290855922201 0 0.31254823049292269 0.45481285615288508 0 0.33244503931737812 0.4504787427805575 0 0.31254823049292269 0.45481285615288508 0 0.31870740299584172 0.45053290855922201 0 0.31254823049292269 0.45481285615288508 0 0.31011666116085912 0.44494894947138958 0 0.3192173465544958 0.43796526048271461 0 0.31011666116085912 0.44494894947138958 0 0.31177978688315211 0.43492112008913542 0 0.31870740299584172 0.45053290855922201 0 0.3192173465544958 0.43796526048271461 0 0.31011666116085912 0.44494894947138958 0 0.33244503931737812 0.4504787427805575 0 0.31777574851888768 0.46665980944327051 0 0.32953640512702848 0.47207868415318671 0 0.33244503931737812 0.4504787427805575 0 0.31254823049292269 0.45481285615288508 0 0.31777574851888768 0.46665980944327051 0 0.31777574851888768 0.46665980944327051 0 0.31961595676381299 0.48204503315007008 0 0.30653222971862748 0.46818151500133193 0 0.31777574851888768 0.46665980944327051 0 0.31961595676381299 0.48204503315007008 0 0.32953640512702848 0.47207868415318671 0 0.34389067945645407 0.46301581339775999 0 0.32953640512702848 0.47207868415318671 0 0.3412739859050451 0.47960376758839812 0 0.31961595676381299 0.48204503315007008 0 0.32953640512702848 0.47207868415318671 0 0.3412739859050451 0.47960376758839812 0 0.31961595676381299 0.48204503315007008 0 0.3412739859050451 0.47960376758839812 0 0.34174595230321569 0.5 0 0.31961595676381299 0.48204503315007008 0 0.34174595230321569 0.5 0 0.31457830341404969 0.5 0 0.31457830341404969 0.5 0 0.30060257529068191 0.48128974964602378 0 0.28741065452488368 0.5 0 0.31961595676381299 0.48204503315007008 0 0.31457830341404969 0.5 0 0.30060257529068191 0.48128974964602378 0 0.31961595676381299 0.48204503315007008 0 0.30060257529068191 0.48128974964602378 0 0.30653222971862748 0.46818151500133193 0 0.30060257529068191 0.48128974964602378 0 0.29265142166846719 0.45914696952521261 0 0.30653222971862748 0.46818151500133193 0 0.30060257529068191 0.48128974964602378 0 0.29265142166846719 0.45914696952521261 0 0.29197900501493862 0.46763561603982068 0 0.30060257529068191 0.48128974964602378 0 0.29265142166846719 0.45914696952521261 0 0.30060257529068191 0.48128974964602378 0 0.28720216650477781 0.4808030035759237 0 0.29197900501493862 0.46763561603982068 0 0.28720216650477781 0.4808030035759237 0 0.27778566900489737 0.47355626848764282 0 0.29197900501493862 0.46763561603982068 0 0.28720216650477781 0.4808030035759237 0 0.28741065452488368 0.5 0 0.27607284990278019 0.48474501322331248 0 0.30060257529068191 0.48128974964602378 0 0.28720216650477781 0.4808030035759237 0 0.28741065452488368 0.5 0 0.28741065452488368 0.5 0 0.27607284990278019 0.48474501322331248 0 0.26024300563571762 0.5 0 0.27607284990278019 0.48474501322331248 0 0.264820688479455 0.47364624093200491 0 0.26024300563571762 0.5 0 0.28720216650477781 0.4808030035759237 0 0.27607284990278019 0.48474501322331248 0 0.27778566900489737 0.47355626848764282 0 0.27778566900489737 0.47355626848764282 0 0.264820688479455 0.47364624093200491 0 0.2688536351225348 0.46095146866715148 0 0.27607284990278019 0.48474501322331248 0 0.27778566900489737 0.47355626848764282 0 0.264820688479455 0.47364624093200491 0 0.24923232485093619 0.48011128193403829 0 0.264820688479455 0.47364624093200491 0 0.25429293155706229 0.46713712892986659 0 0.24923232485093619 0.48011128193403829 0 0.264820688479455 0.47364624093200491 0 0.26024300563571762 0.5 0 0.245728265230131 0.45426732129448261 0 0.26019816099256032 0.44143793459424202 0 0.26593644203117961 0.44978193614582229 0 0.24207478202628049 0.44239364197936287 0 0.26019816099256032 0.44143793459424202 0 0.245728265230131 0.45426732129448261 0 0.25429293155706229 0.46713712892986659 0 0.2688536351225348 0.46095146866715148 0 0.245728265230131 0.45426732129448261 0 0.2688536351225348 0.46095146866715148 0 0.245728265230131 0.45426732129448261 0 0.2688536351225348 0.46095146866715148 0 0.26593644203117961 0.44978193614582229 0 0.264820688479455 0.47364624093200491 0 0.25429293155706229 0.46713712892986659 0 0.2688536351225348 0.46095146866715148 0 0.2688536351225348 0.46095146866715148 0 0.27395184381117937 0.45417387302564022 0 0.26593644203117961 0.44978193614582229 0 0.2688536351225348 0.46095146866715148 0 0.27754963046639852 0.46243658625583922 0 0.27395184381117937 0.45417387302564022 0 0.27778566900489737 0.47355626848764282 0 0.2688536351225348 0.46095146866715148 0 0.29197900501493862 0.46763561603982068 0 0.2688536351225348 0.46095146866715148 0 0.29197900501493862 0.46763561603982068 0 0.2688536351225348 0.46095146866715148 0 0.27754963046639852 0.46243658625583922 0 0.29197900501493862 0.46763561603982068 0 0.27754963046639852 0.46243658625583922 0 0.27395184381117937 0.45417387302564022 0 0.28156841276964778 0.45191676036945988 0 0.27395184381117937 0.45417387302564022 0 0.27585109866613622 0.44578261368992789 0 0.28156841276964778 0.45191676036945988 0 0.27585109866613622 0.44578261368992789 0 0.28156841276964778 0.45191676036945988 0 0.28339007751768858 0.43335550367038278 0 0.27395184381117937 0.45417387302564022 0 0.27585109866613622 0.44578261368992789 0 0.26593644203117961 0.44978193614582229 0 0.27585109866613622 0.44578261368992789 0 0.26593644203117961 0.44978193614582229 0 0.27183624152703117 0.43685500569961683 0 0.26019816099256032 0.44143793459424202 0 0.26593644203117961 0.44978193614582229 0 0.27183624152703117 0.43685500569961683 0 0.27585109866613622 0.44578261368992789 0 0.28339007751768858 0.43335550367038278 0 0.27183624152703117 0.43685500569961683 0 0.28156841276964778 0.45191676036945988 0 0.29265142166846719 0.45914696952521261 0 0.28339007751768858 0.43335550367038278 0 0.29265142166846719 0.45914696952521261 0 0.30065673213498018 0.44880786816107532 0 0.28339007751768858 0.43335550367038278 0 0.30065673213498018 0.44880786816107532 0 0.29911220659201571 0.43744654324058002 0 0.28339007751768858 0.43335550367038278 0 0.29265142166846719 0.45914696952521261 0 0.28339007751768858 0.43335550367038278 0 0.27754963046639852 0.46243658625583922 0 0.29265142166846719 0.45914696952521261 0 0.29197900501493862 0.46763561603982068 0 0.27754963046639852 0.46243658625583922 0 0.29265142166846719 0.45914696952521261 0 0.27754963046639852 0.46243658625583922 0 0.28156841276964778 0.45191676036945988 0 0.29265142166846719 0.45914696952521261 0 0.31254823049292269 0.45481285615288508 0 0.29265142166846719 0.45914696952521261 0 0.30065673213498018 0.44880786816107532 0 0.31254823049292269 0.45481285615288508 0 0.29265142166846719 0.45914696952521261 0 0.31254823049292269 0.45481285615288508 0 0.29265142166846719 0.45914696952521261 0 0.30653222971862748 0.46818151500133193 0 0.31254823049292269 0.45481285615288508 0 0.31777574851888768 0.46665980944327051 0 0.30653222971862748 0.46818151500133193 0 0.30065673213498018 0.44880786816107532 0 0.31011666116085912 0.44494894947138958 0 0.29911220659201571 0.43744654324058002 0 0.31254823049292269 0.45481285615288508 0 0.30065673213498018 0.44880786816107532 0 0.31011666116085912 0.44494894947138958 0 0.31011666116085912 0.44494894947138958 0 0.31177978688315211 0.43492112008913542 0 0.29911220659201571 0.43744654324058002 0 0.31050947719563399 0.42208819017491311 0 0.29911220659201571 0.43744654324058002 0 0.31050947719563399 0.42208819017491311 0 0.29911220659201571 0.43744654324058002 0 0.29244328774245948 0.41614196154579158 0 0.31177978688315211 0.43492112008913542 0 0.31050947719563399 0.42208819017491311 0 0.29911220659201571 0.43744654324058002 0 0.31050947719563399 0.42208819017491311 0 0.30573000372804421 0.40663332047053091 0 0.29244328774245948 0.41614196154579158 0 0.30573000372804421 0.40663332047053091 0 0.29244328774245948 0.41614196154579158 0 0.2914744419702005 0.39640673583174307 0 0.29244328774245948 0.41614196154579158 0 0.27412873336691002 0.40756403781555328 0 0.2914744419702005 0.39640673583174307 0 0.29244328774245948 0.41614196154579158 0 0.28339007751768858 0.43335550367038278 0 0.27412873336691002 0.40756403781555328 0 0.29911220659201571 0.43744654324058002 0 0.29244328774245948 0.41614196154579158 0 0.28339007751768858 0.43335550367038278 0 0.28339007751768858 0.43335550367038278 0 0.26766911868455578 0.42556034591737718 0 0.27183624152703117 0.43685500569961683 0 0.28339007751768858 0.43335550367038278 0 0.26766911868455578 0.42556034591737718 0 0.27412873336691002 0.40756403781555328 0 0.26019816099256032 0.44143793459424202 0 0.26766911868455578 0.42556034591737718 0 0.27183624152703117 0.43685500569961683 0 0.28339007751768858 0.43335550367038278 0 0.27412873336691002 0.40756403781555328 0 0.26766911868455578 0.42556034591737718 0 0.27412873336691002 0.40756403781555328 0 0.25897228328246541 0.41415252442921391 0 0.26766911868455578 0.42556034591737718 0 0.25897228328246541 0.41415252442921391 0 0.25128587781223161 0.42297503557477428 0 0.27412873336691002 0.40756403781555328 0 0.25897228328246541 0.41415252442921391 0 0.25496869930512001 0.40320859073049431 0 0.24772174732239871 0.41042670374335971 0 0.25897228328246541 0.41415252442921391 0 0.25496869930512001 0.40320859073049431 0 0.24772174732239871 0.41042670374335971 0 0.25897228328246541 0.41415252442921391 0 0.25128587781223161 0.42297503557477428 0 0.24175016542794861 0.43052107645578441 0 0.26019816099256032 0.44143793459424202 0 0.25128587781223161 0.42297503557477428 0 0.26019816099256032 0.44143793459424202 0 0.26766911868455578 0.42556034591737718 0 0.25128587781223161 0.42297503557477428 0 0.2445212999378823 0.39842746020603098 0 0.25592029321336779 0.37874914184280539 0 0.25767811525333079 0.39292168196757971 0 0.2648673892161314 0.38177257196072367 0 0.25592029321336779 0.37874914184280539 0 0.25767811525333079 0.39292168196757971 0 0.2648673892161314 0.38177257196072367 0 0.25592029321336779 0.37874914184280539 0 0.26378936728388508 0.36866823472240462 0 0.27412873336691002 0.40756403781555328 0 0.25767811525333079 0.39292168196757971 0 0.25496869930512001 0.40320859073049431 0 0.27412873336691002 0.40756403781555328 0 0.2648673892161314 0.38177257196072367 0 0.25767811525333079 0.39292168196757971 0 0.2445212999378823 0.39842746020603098 0 0.25767811525333079 0.39292168196757971 0 0.25496869930512001 0.40320859073049431 0 0.27412873336691002 0.40756403781555328 0 0.2648673892161314 0.38177257196072367 0 0.27412873336691002 0.40756403781555328 0 0.2648673892161314 0.38177257196072367 0 0.27893278987490733 0.38172028826524612 0 0.2648673892161314 0.38177257196072367 0 0.27893278987490733 0.38172028826524612 0 0.26378936728388508 0.36866823472240462 0 0.27893278987490733 0.38172028826524612 0 0.2914744419702005 0.39640673583174307 0 0.29349435150740599 0.37442367175391128 0 0.27893278987490733 0.38172028826524612 0 0.29349435150740599 0.37442367175391128 0 0.27412873336691002 0.40756403781555328 0 0.27893278987490733 0.38172028826524612 0 0.2914744419702005 0.39640673583174307 0 0.30573000372804421 0.40663332047053091 0 0.30770054965332722 0.39057675443158008 0 0.32190674779925182 0.40672983710924587 0 0.30573000372804421 0.40663332047053091 0 0.2914744419702005 0.39640673583174307 0 0.30770054965332722 0.39057675443158008 0 0.2914744419702005 0.39640673583174307 0 0.30770054965332722 0.39057675443158008 0 0.29349435150740599 0.37442367175391128 0 0.30770054965332722 0.39057675443158008 0 0.31367600362349451 0.37864024705387239 0 0.29349435150740599 0.37442367175391128 0 0.30770054965332722 0.39057675443158008 0 0.29349435150740599 0.37442367175391128 0 0.30770054965332722 0.39057675443158008 0 0.31367600362349451 0.37864024705387239 0 0.32226469685540171 0.38702591064487818 0 0.31367600362349451 0.37864024705387239 0 0.32226469685540171 0.38702591064487818 0 0.32764592060083753 0.37318230665729452 0 0.33869195845232303 0.38411098383663789 0 0.34130140430382833 0.38059463399403309 0 0.33897996237605282 0.40194945181292091 0 0.34130140430382833 0.38059463399403309 0 0.33897996237605282 0.40194945181292091 0 0.34579556604546352 0.38845729776097238 0 0.33869195845232303 0.38411098383663789 0 0.34130140430382833 0.38059463399403309 0 0.33993848193767418 0.3662306035205577 0 0.32226469685540171 0.38702591064487818 0 0.33869195845232303 0.38411098383663789 0 0.32764592060083753 0.37318230665729452 0 0.33869195845232303 0.38411098383663789 0 0.34130140430382833 0.38059463399403309 0 0.33869195845232303 0.38411098383663789 0 0.33897996237605282 0.40194945181292091 0 0.32190674779925182 0.40672983710924587 0 0.33869195845232303 0.38411098383663789 0 0.32190674779925182 0.40672983710924587 0 0.34130140430382833 0.38059463399403309 0 0.33897996237605282 0.40194945181292091 0 0.30770054965332722 0.39057675443158008 0 0.32190674779925182 0.40672983710924587 0 0.30770054965332722 0.39057675443158008 0 0.32226469685540171 0.38702591064487818 0 0.32190674779925182 0.40672983710924587 0 0.32226469685540171 0.38702591064487818 0 0.33869195845232303 0.38411098383663789 0 0.32190674779925182 0.40672983710924587 0 0.31050947719563399 0.42208819017491311 0 0.32190674779925182 0.40672983710924587 0 0.32489939852434052 0.42405181846681261 0 0.32190674779925182 0.40672983710924587 0 0.32489939852434052 0.42405181846681261 0 0.33615468434322548 0.4229303782122924 0 0.31050947719563399 0.42208819017491311 0 0.30573000372804421 0.40663332047053091 0 0.32190674779925182 0.40672983710924587 0 0.31050947719563399 0.42208819017491311 0 0.32190674779925182 0.40672983710924587 0 0.3192173465544958 0.43796526048271461 0 0.32010827831738492 0.4304688227476523 0 0.33545712111755688 0.42811058438196031 0 0.3192173465544958 0.43796526048271461 0 0.31177978688315211 0.43492112008913542 0 0.32010827831738492 0.4304688227476523 0 0.31177978688315211 0.43492112008913542 0 0.31050947719563399 0.42208819017491311 0 0.32010827831738492 0.4304688227476523 0 0.31050947719563399 0.42208819017491311 0 0.32010827831738492 0.4304688227476523 0 0.32489939852434052 0.42405181846681261 0 0.32010827831738492 0.4304688227476523 0 0.32489939852434052 0.42405181846681261 0 0.33545712111755688 0.42811058438196031 0 0.32489939852434052 0.42405181846681261 0 0.33545712111755688 0.42811058438196031 0 0.33615468434322548 0.4229303782122924 0 0.33545712111755688 0.42811058438196031 0 0.33615468434322548 0.4229303782122924 0 0.33545712111755688 0.42811058438196031 0 0.33615468434322548 0.4229303782122924 0 0.33786990709652193 0.42488066319776319 0 0.33615468434322548 0.4229303782122924 0 0.33786990709652193 0.42488066319776319 0 0.33545712111755688 0.42811058438196031 0 0.33786990709652193 0.42488066319776319 0 0.34946850859191081 0.4380687918565272 0 0.34144782946785218 0.44030417100584018 0 0.33786990709652193 0.42488066319776319 0 0.34144782946785218 0.44030417100584018 0 0.33545712111755688 0.42811058438196031 0 0.33786990709652193 0.42488066319776319 0 0.34946850859191081 0.4380687918565272 0 0.33786990709652193 0.42488066319776319 0 0.33897996237605282 0.40194945181292091 0 0.33615468434322548 0.4229303782122924 0 0.33897996237605282 0.40194945181292091 0 0.32190674779925182 0.40672983710924587 0 0.33615468434322548 0.4229303782122924 0 0.32190674779925182 0.40672983710924587 0 0.33615468434322548 0.4229303782122924 0 0.33615468434322548 0.4229303782122924 0 0.33786990709652193 0.42488066319776319 0 0.35107088604499692 0.40720892524438551 0 0.33897996237605282 0.40194945181292091 0 0.33615468434322548 0.4229303782122924 0 0.35107088604499692 0.40720892524438551 0 0.33786990709652193 0.42488066319776319 0 0.35107088604499692 0.40720892524438551 0 0.35107088604499692 0.40720892524438551 0 0.35754259390987159 0.41392016689638678 0 0.35180886279880119 0.42377751485205267 0 0.33786990709652193 0.42488066319776319 0 0.35107088604499692 0.40720892524438551 0 0.35180886279880119 0.42377751485205267 0 0.35754259390987159 0.41392016689638678 0 0.35180886279880119 0.42377751485205267 0 0.36153161156085478 0.42240580185995041 0 0.35107088604499692 0.40720892524438551 0 0.35754259390987159 0.41392016689638678 0 0.35936963540747791 0.4044454178113337 0 0.34946850859191081 0.4380687918565272 0 0.33786990709652193 0.42488066319776319 0 0.35062876654492081 0.42996034837620201 0 0.33786990709652193 0.42488066319776319 0 0.35062876654492081 0.42996034837620201 0 0.35180886279880119 0.42377751485205267 0 0.35180886279880119 0.42377751485205267 0 0.35727057116847161 0.4283687885602267 0 0.36153161156085478 0.42240580185995041 0 0.35062876654492081 0.42996034837620201 0 0.35180886279880119 0.42377751485205267 0 0.35727057116847161 0.4283687885602267 0 0.35727057116847161 0.4283687885602267 0 0.35623522510629457 0.43513759173327121 0 0.3642780136467465 0.43200519773475948 0 0.34946850859191081 0.4380687918565272 0 0.35062876654492081 0.42996034837620201 0 0.35623522510629457 0.43513759173327121 0 0.35062876654492081 0.42996034837620201 0 0.35727057116847161 0.4283687885602267 0 0.35623522510629457 0.43513759173327121 0 0.36015086439732058 0.44003657534299129 0 0.35623522510629457 0.43513759173327121 0 0.3642780136467465 0.43200519773475948 0 0.35727057116847161 0.4283687885602267 0 0.3642780136467465 0.43200519773475948 0 0.36153161156085478 0.42240580185995041 0 0.3642780136467465 0.43200519773475948 0 0.36153161156085478 0.42240580185995041 0 0.37272182308741741 0.42263353265252218 0 0.3642780136467465 0.43200519773475948 0 0.37272182308741741 0.42263353265252218 0 0.37496066392291932 0.43554357024030838 0 0.36856146243249033 0.44407763524990829 0 0.3642780136467465 0.43200519773475948 0 0.37496066392291932 0.43554357024030838 0 0.35754259390987159 0.41392016689638678 0 0.36426082556363137 0.41163409672386408 0 0.35936963540747791 0.4044454178113337 0 0.35754259390987159 0.41392016689638678 0 0.36153161156085478 0.42240580185995041 0 0.36426082556363137 0.41163409672386408 0 0.36153161156085478 0.42240580185995041 0 0.37272182308741741 0.42263353265252218 0 0.36426082556363137 0.41163409672386408 0 0.37272182308741741 0.42263353265252218 0 0.36426082556363137 0.41163409672386408 0 0.37953045560202608 0.40852348643003811 0 0.36437433327496282 0.3980927728141605 0 0.38354038978219313 0.39368338083776178 0 0.36437433327496282 0.3980927728141605 0 0.37266803431851148 0.38645422185544981 0 0.38354038978219313 0.39368338083776178 0 0.36426082556363137 0.41163409672386408 0 0.36437433327496282 0.3980927728141605 0 0.37953045560202608 0.40852348643003811 0 0.36426082556363137 0.41163409672386408 0 0.36437433327496282 0.3980927728141605 0 0.35936963540747791 0.4044454178113337 0 0.36437433327496282 0.3980927728141605 0 0.37266803431851148 0.38645422185544981 0 0.36427186499347208 0.38953718729100789 0 0.36437433327496282 0.3980927728141605 0 0.36427186499347208 0.38953718729100789 0 0.35936963540747791 0.4044454178113337 0 0.37266803431851148 0.38645422185544981 0 0.36996543361725859 0.37709852170534319 0 0.36465588796239162 0.38210166128331818 0 0.36996543361725859 0.37709852170534319 0 0.36465588796239162 0.38210166128331818 0 0.36287819796456239 0.37432391118093811 0 0.36465588796239162 0.38210166128331818 0 0.35814959790554868 0.38468605192290062 0 0.35863035838853141 0.37842781987448049 0 0.36465588796239162 0.38210166128331818 0 0.35863035838853141 0.37842781987448049 0 0.36287819796456239 0.37432391118093811 0 0.37266803431851148 0.38645422185544981 0 0.36465588796239162 0.38210166128331818 0 0.36427186499347208 0.38953718729100789 0 0.36465588796239162 0.38210166128331818 0 0.36427186499347208 0.38953718729100789 0 0.35814959790554868 0.38468605192290062 0 0.35814959790554868 0.38468605192290062 0 0.35232163150176082 0.3817949335205153 0 0.35233056942106528 0.39085189093105038 0 0.36427186499347208 0.38953718729100789 0 0.35814959790554868 0.38468605192290062 0 0.35233056942106528 0.39085189093105038 0 0.35863035838853141 0.37842781987448049 0 0.35232163150176082 0.3817949335205153 0 0.35590326182104259 0.37362874958897191 0 0.35863035838853141 0.37842781987448049 0 0.35590326182104259 0.37362874958897191 0 0.36287819796456239 0.37432391118093811 0 0.35814959790554868 0.38468605192290062 0 0.35863035838853141 0.37842781987448049 0 0.35232163150176082 0.3817949335205153 0 0.34130140430382833 0.38059463399403309 0 0.35232163150176082 0.3817949335205153 0 0.35590326182104259 0.37362874958897191 0 0.34130140430382833 0.38059463399403309 0 0.35232163150176082 0.3817949335205153 0 0.34579556604546352 0.38845729776097238 0 0.35232163150176082 0.3817949335205153 0 0.34579556604546352 0.38845729776097238 0 0.35233056942106528 0.39085189093105038 0 0.35107088604499692 0.40720892524438551 0 0.36427186499347208 0.38953718729100789 0 0.35233056942106528 0.39085189093105038 0 0.35107088604499692 0.40720892524438551 0 0.36427186499347208 0.38953718729100789 0 0.34579556604546352 0.38845729776097238 0 0.34660328066718982 0.39669976639337712 0 0.35233056942106528 0.39085189093105038 0 0.35107088604499692 0.40720892524438551 0 0.34660328066718982 0.39669976639337712 0 0.35233056942106528 0.39085189093105038 0 0.33897996237605282 0.40194945181292091 0 0.34579556604546352 0.38845729776097238 0 0.34660328066718982 0.39669976639337712 0 0.35107088604499692 0.40720892524438551 0 0.36427186499347208 0.38953718729100789 0 0.35936963540747791 0.4044454178113337 0 0.33897996237605282 0.40194945181292091 0 0.35107088604499692 0.40720892524438551 0 0.34660328066718982 0.39669976639337712 0 0.35462097060003211 0.3437938870227234 0 0.33424543090248993 0.35400381526645242 0 0.35462097060003211 0.3437938870227234 0 0.34925663551552522 0.35410886635614958 0 0.33424543090248993 0.35400381526645242 0 0.35645547758693252 0.3540061162185178 0 0.34925663551552522 0.35410886635614958 0 0.35547716910539379 0.36149213056402962 0 0.35645547758693252 0.3540061162185178 0 0.35547716910539379 0.36149213056402962 0 0.36014351564888297 0.35850702010981222 0 0.35645547758693252 0.3540061162185178 0 0.35462097060003211 0.3437938870227234 0 0.35926027346726858 0.34856907235344559 0 0.35645547758693252 0.3540061162185178 0 0.35462097060003211 0.3437938870227234 0 0.34925663551552522 0.35410886635614958 0 0.34925663551552522 0.35410886635614958 0 0.35547716910539379 0.36149213056402962 0 0.33993848193767418 0.3662306035205577 0 0.34130140430382833 0.38059463399403309 0 0.35547716910539379 0.36149213056402962 0 0.33993848193767418 0.3662306035205577 0 0.34130140430382833 0.38059463399403309 0 0.35547716910539379 0.36149213056402962 0 0.34130140430382833 0.38059463399403309 0 0.35590326182104259 0.37362874958897191 0 0.35547716910539379 0.36149213056402962 0 0.35590326182104259 0.37362874958897191 0 0.35547716910539379 0.36149213056402962 0 0.36430697355712682 0.36476517698031807 0 0.36430697355712682 0.36476517698031807 0 0.3835067099232759 0.3770195829208372 0 0.35547716910539379 0.36149213056402962 0 0.36430697355712682 0.36476517698031807 0 0.36014351564888297 0.35850702010981222 0 0.36430697355712682 0.36476517698031807 0 0.37376509744084729 0.35993562871136181 0 0.3835067099232759 0.3770195829208372 0 0.36996543361725859 0.37709852170534319 0 0.36430697355712682 0.36476517698031807 0 0.3835067099232759 0.3770195829208372 0 0.36996543361725859 0.37709852170534319 0 0.36430697355712682 0.36476517698031807 0 0.36287819796456239 0.37432391118093811 0 0.35590326182104259 0.37362874958897191 0 0.36430697355712682 0.36476517698031807 0 0.36287819796456239 0.37432391118093811 0 0.36430697355712682 0.36476517698031807 0 0.37376509744084729 0.35993562871136181 0 0.36433444234607931 0.35376465667638352 0 0.37376509744084729 0.35993562871136181 0 0.36433444234607931 0.35376465667638352 0 0.37305384309557271 0.34699511731599231 0 0.36430697355712682 0.36476517698031807 0 0.36433444234607931 0.35376465667638352 0 0.36014351564888297 0.35850702010981222 0 0.35645547758693252 0.3540061162185178 0 0.35926027346726858 0.34856907235344559 0 0.36433444234607931 0.35376465667638352 0 0.35645547758693252 0.3540061162185178 0 0.36433444234607931 0.35376465667638352 0 0.36014351564888297 0.35850702010981222 0 0.35462097060003211 0.3437938870227234 0 0.35926027346726858 0.34856907235344559 0 0.36539284935145089 0.34618201439628138 0 0.35926027346726858 0.34856907235344559 0 0.36433444234607931 0.35376465667638352 0 0.36539284935145089 0.34618201439628138 0 0.36433444234607931 0.35376465667638352 0 0.36539284935145089 0.34618201439628138 0 0.37305384309557271 0.34699511731599231 0 0.36539284935145089 0.34618201439628138 0 0.37305384309557271 0.34699511731599231 0 0.36581526271706738 0.33818456717398021 0 0.37305384309557271 0.34699511731599231 0 0.36581526271706738 0.33818456717398021 0 0.37539764169578338 0.3338948889294866 0 0.36581526271706738 0.33818456717398021 0 0.3634227403324688 0.32751970941513409 0 0.37539764169578338 0.3338948889294866 0 0.36581526271706738 0.33818456717398021 0 0.3634227403324688 0.32751970941513409 0 0.35253072115072492 0.32842925464311978 0 0.35462097060003211 0.3437938870227234 0 0.36581526271706738 0.33818456717398021 0 0.35462097060003211 0.3437938870227234 0 0.36539284935145089 0.34618201439628138 0 0.36581526271706738 0.33818456717398021 0 0.37271325201104771 0.32176212770686402 0 0.3634227403324688 0.32751970941513409 0 0.35044047170141668 0.31306462226351628 0 0.37271325201104771 0.32176212770686402 0 0.35044047170141668 0.31306462226351628 0 0.35690080907146082 0.31196117263315781 0 0.37271325201104771 0.32176212770686402 0 0.35690080907146082 0.31196117263315781 0 0.36980160249579258 0.30603548957239801 0 0.37271325201104771 0.32176212770686402 0 0.35044047170141668 0.31306462226351628 0 0.37271325201104771 0.32176212770686402 0 0.3634227403324688 0.32751970941513409 0 0.37539764169578338 0.3338948889294866 0 0.3634227403324688 0.32751970941513409 0 0.35044047170141668 0.31306462226351628 0 0.35253072115072492 0.32842925464311978 0 0.35044047170141668 0.31306462226351628 0 0.35253072115072492 0.32842925464311978 0 0.35044047170141668 0.31306462226351628 0 0.35253072115072492 0.32842925464311978 0 0.33912844829283278 0.3226372230925767 0 0.35462097060003211 0.3437938870227234 0 0.35253072115072492 0.32842925464311978 0 0.35462097060003211 0.3437938870227234 0 0.36581526271706738 0.33818456717398021 0 0.35253072115072492 0.32842925464311978 0 0.35253072115072492 0.32842925464311978 0 0.34112907036904683 0.33780486651387059 0 0.33912844829283278 0.3226372230925767 0 0.35462097060003211 0.3437938870227234 0 0.35253072115072492 0.32842925464311978 0 0.34112907036904683 0.33780486651387059 0 0.34112907036904683 0.33780486651387059 0 0.32782301192204721 0.33270859713312151 0 0.33424543090248993 0.35400381526645242 0 0.34112907036904683 0.33780486651387059 0 0.33912844829283278 0.3226372230925767 0 0.32782301192204721 0.33270859713312151 0 0.35044047170141668 0.31306462226351628 0 0.33912844829283278 0.3226372230925767 0 0.3357341065038878 0.30732179673481252 0 0.33912844829283278 0.3226372230925767 0 0.32693060114488959 0.31930607999829302 0 0.32782301192204721 0.33270859713312151 0 0.33912844829283278 0.3226372230925767 0 0.32693060114488959 0.31930607999829302 0 0.3357341065038878 0.30732179673481252 0 0.32693060114488959 0.31930607999829302 0 0.3160429573084419 0.32449059847807332 0 0.32782301192204721 0.33270859713312151 0 0.32693060114488959 0.31930607999829302 0 0.3160429573084419 0.32449059847807332 0 0.31592448169723858 0.3093721845528809 0 0.3160429573084419 0.32449059847807332 0 0.32782301192204721 0.33270859713312151 0 0.31107907021558612 0.34191209009839912 0 0.32782301192204721 0.33270859713312151 0 0.33424543090248993 0.35400381526645242 0 0.31107907021558612 0.34191209009839912 0 0.33424543090248993 0.35400381526645242 0 0.31386989120494779 0.36421374351018171 0 0.31107907021558612 0.34191209009839912 0 0.33424543090248993 0.35400381526645242 0 0.31386989120494779 0.36421374351018171 0 0.35462097060003211 0.3437938870227234 0 0.34112907036904683 0.33780486651387059 0 0.33424543090248993 0.35400381526645242 0 0.34925663551552522 0.35410886635614958 0 0.33424543090248993 0.35400381526645242 0 0.33993848193767418 0.3662306035205577 0 0.33869195845232303 0.38411098383663789 0 0.33993848193767418 0.3662306035205577 0 0.32764592060083753 0.37318230665729452 0 0.33424543090248993 0.35400381526645242 0 0.33993848193767418 0.3662306035205577 0 0.32764592060083753 0.37318230665729452 0 0.33424543090248993 0.35400381526645242 0 0.32764592060083753 0.37318230665729452 0 0.31386989120494779 0.36421374351018171 0 0.31367600362349451 0.37864024705387239 0 0.32764592060083753 0.37318230665729452 0 0.31386989120494779 0.36421374351018171 0 0.31386989120494779 0.36421374351018171 0 0.29630507862176653 0.35452029369208632 0 0.29349435150740599 0.37442367175391128 0 0.31367600362349451 0.37864024705387239 0 0.31386989120494779 0.36421374351018171 0 0.29349435150740599 0.37442367175391128 0 0.31386989120494779 0.36421374351018171 0 0.29349435150740599 0.37442367175391128 0 0.31386989120494779 0.36421374351018171 0 0.29630507862176653 0.35452029369208632 0 0.31107907021558612 0.34191209009839912 0 0.29630507862176653 0.35452029369208632 0 0.28599438097562618 0.33786445693331629 0 0.31107907021558612 0.34191209009839912 0 0.29630507862176653 0.35452029369208632 0 0.27499381814997692 0.35338773787252808 0 0.28599438097562618 0.33786445693331629 0 0.27893278987490733 0.38172028826524612 0 0.29349435150740599 0.37442367175391128 0 0.27499381814997692 0.35338773787252808 0 0.29349435150740599 0.37442367175391128 0 0.27499381814997692 0.35338773787252808 0 0.29630507862176653 0.35452029369208632 0 0.29349435150740599 0.37442367175391128 0 0.27499381814997692 0.35338773787252808 0 0.27893278987490733 0.38172028826524612 0 0.27499381814997692 0.35338773787252808 0 0.26378936728388508 0.36866823472240462 0 0.27499381814997692 0.35338773787252808 0 0.25375611628729122 0.3566904670715379 0 0.25649328479254918 0.33235180399114372 0 0.27499381814997692 0.35338773787252808 0 0.25375611628729122 0.3566904670715379 0 0.26378936728388508 0.36866823472240462 0 0.24904242420903 0.36862970638804732 0 0.25375611628729122 0.3566904670715379 0 0.26378936728388508 0.36866823472240462 0 0.24904242420903 0.36862970638804732 0 0.25592029321336779 0.37874914184280539 0 0.26378936728388508 0.36866823472240462 0 0.25649328479254918 0.33235180399114372 0 0.27671253041446409 0.32189706260733969 0 0.25264327573459772 0.29879392936350568 0 0.27499381814997692 0.35338773787252808 0 0.25649328479254918 0.33235180399114372 0 0.25649328479254918 0.33235180399114372 0 0.27671253041446409 0.32189706260733969 0 0.28599438097562618 0.33786445693331629 0 0.27499381814997692 0.35338773787252808 0 0.25649328479254918 0.33235180399114372 0 0.28599438097562618 0.33786445693331629 0 0.27671253041446409 0.32189706260733969 0 0.28599438097562618 0.33786445693331629 0 0.3003825036594146 0.32311775333840143 0 0.27671253041446409 0.32189706260733969 0 0.3003825036594146 0.32311775333840143 0 0.29412326728800547 0.30100413970213458 0 0.28599438097562618 0.33786445693331629 0 0.31107907021558612 0.34191209009839912 0 0.3003825036594146 0.32311775333840143 0 0.3160429573084419 0.32449059847807332 0 0.31107907021558612 0.34191209009839912 0 0.3003825036594146 0.32311775333840143 0 0.3160429573084419 0.32449059847807332 0 0.3003825036594146 0.32311775333840143 0 0.31592448169723858 0.3093721845528809 0 0.29412326728800547 0.30100413970213458 0 0.26763403927588658 0.28084485596358549 0 0.3015026582728435 0.27869290260564689 0 0.30928821508076992 0.29555869682330871 0 0.29412326728800547 0.30100413970213458 0 0.31592448169723858 0.3093721845528809 0 0.3003825036594146 0.32311775333840143 0 0.29412326728800547 0.30100413970213458 0 0.31592448169723858 0.3093721845528809 0 0.30928821508076992 0.29555869682330871 0 0.3015026582728435 0.27869290260564689 0 0.32560245306499208 0.2931655604325723 0 0.30928821508076992 0.29555869682330871 0 0.29412326728800547 0.30100413970213458 0 0.3015026582728435 0.27869290260564689 0 0.27671253041446409 0.32189706260733969 0 0.29412326728800547 0.30100413970213458 0 0.27325151684630999 0.3004907314513468 0 0.27671253041446409 0.32189706260733969 0 0.27325151684630999 0.3004907314513468 0 0.25264327573459772 0.29879392936350568 0 0.29412326728800547 0.30100413970213458 0 0.27325151684630999 0.3004907314513468 0 0.26763403927588658 0.28084485596358549 0 0.24587805146891881 0.27733747393989699 0 0.25264327573459772 0.29879392936350568 0 0.26763403927588658 0.28084485596358549 0 0.27325151684630999 0.3004907314513468 0 0.25264327573459772 0.29879392936350568 0 0.26763403927588658 0.28084485596358549 0 0.27740286348069482 0.26422024477872152 0 0.25330306868854607 0.24974758695179611 0 0.24587805146891881 0.27733747393989699 0 0.26763403927588658 0.28084485596358549 0 0.25330306868854607 0.24974758695179611 0 0.27740286348069482 0.26422024477872152 0 0.25330306868854607 0.24974758695179611 0 0.28316477846165211 0.24967076173474309 0 0.26763403927588658 0.28084485596358549 0 0.27740286348069482 0.26422024477872152 0 0.25330306868854607 0.24974758695179611 0 0.26763403927588658 0.28084485596358549 0 0.27740286348069482 0.26422024477872152 0 0.3015026582728435 0.27869290260564689 0 0.27740286348069482 0.26422024477872152 0 0.30391607325737691 0.25765648791281842 0 0.28316477846165211 0.24967076173474309 0 0.27740286348069482 0.26422024477872152 0 0.3015026582728435 0.27869290260564689 0 0.27740286348069482 0.26422024477872152 0 0.3015026582728435 0.27869290260564689 0 0.30391607325737691 0.25765648791281842 0 0.3015026582728435 0.27869290260564689 0 0.30391607325737691 0.25765648791281842 0 0.32240112908906982 0.27119463292781359 0 0.30391607325737691 0.25765648791281842 0 0.32854686329858718 0.25611047685695282 0 0.31857031815401088 0.24323529296225249 0 0.30391607325737691 0.25765648791281842 0 0.32854686329858718 0.25611047685695282 0 0.32240112908906982 0.27119463292781359 0 0.32854686329858718 0.25611047685695282 0 0.32240112908906982 0.27119463292781359 0 0.34411190546120979 0.26654572768710311 0 0.32854686329858718 0.25611047685695282 0 0.34411190546120979 0.26654572768710311 0 0.34131673426324188 0.24599948240090661 0 0.34411190546120979 0.26654572768710311 0 0.34131673426324188 0.24599948240090661 0 0.33359043407996392 0.28078296163729582 0 0.32240112908906982 0.27119463292781359 0 0.34411190546120979 0.26654572768710311 0 0.33359043407996392 0.28078296163729582 0 0.34690707665917658 0.28709197297329969 0 0.34411190546120979 0.26654572768710311 0 0.3015026582728435 0.27869290260564689 0 0.32240112908906982 0.27119463292781359 0 0.32560245306499208 0.2931655604325723 0 0.3015026582728435 0.27869290260564689 0 0.32560245306499208 0.2931655604325723 0 0.33359043407996392 0.28078296163729582 0 0.32240112908906982 0.27119463292781359 0 0.32560245306499208 0.2931655604325723 0 0.32560245306499208 0.2931655604325723 0 0.31592448169723858 0.3093721845528809 0 0.3357341065038878 0.30732179673481252 0 0.30928821508076992 0.29555869682330871 0 0.32560245306499208 0.2931655604325723 0 0.31592448169723858 0.3093721845528809 0 0.32693060114488959 0.31930607999829302 0 0.31592448169723858 0.3093721845528809 0 0.3357341065038878 0.30732179673481252 0 0.32560245306499208 0.2931655604325723 0 0.3357341065038878 0.30732179673481252 0 0.34970224785714138 0.30763821825949661 0 0.32560245306499208 0.2931655604325723 0 0.34970224785714138 0.30763821825949661 0 0.35044047170141668 0.31306462226351628 0 0.3357341065038878 0.30732179673481252 0 0.33359043407996392 0.28078296163729582 0 0.32560245306499208 0.2931655604325723 0 0.34690707665917658 0.28709197297329969 0 0.32560245306499208 0.2931655604325723 0 0.34690707665917658 0.28709197297329969 0 0.34970224785714138 0.30763821825949661 0 0.34690707665917658 0.28709197297329969 0 0.35744284268979348 0.30164446124447158 0 0.36390247736539427 0.29549545278400602 0 0.34690707665917658 0.28709197297329969 0 0.34970224785714138 0.30763821825949661 0 0.35744284268979348 0.30164446124447158 0 0.34690707665917658 0.28709197297329969 0 0.34970224785714138 0.30763821825949661 0 0.35044047170141668 0.31306462226351628 0 0.3357341065038878 0.30732179673481252 0 0.34970224785714138 0.30763821825949661 0 0.35044047170141668 0.31306462226351628 0 0.34970224785714138 0.30763821825949661 0 0.34970224785714138 0.30763821825949661 0 0.35744284268979348 0.30164446124447158 0 0.35690080907146082 0.31196117263315781 0 0.34970224785714138 0.30763821825949661 0 0.35690080907146082 0.31196117263315781 0 0.35044047170141668 0.31306462226351628 0 0.34970224785714138 0.30763821825949661 0 0.35690080907146082 0.31196117263315781 0 0.35744284268979348 0.30164446124447158 0 0.35690080907146082 0.31196117263315781 0 0.36980160249579258 0.30603548957239801 0 0.35744284268979348 0.30164446124447158 0 0.36980160249579258 0.30603548957239801 0 0.36390247736539427 0.29549545278400602 0 0.36980160249579258 0.30603548957239801 0 0.36390247736539427 0.29549545278400602 0 0.37900202227037971 0.29476871492237161 0 0.34690707665917658 0.28709197297329969 0 0.36953588213746208 0.28526404012388162 0 0.3648495098154621 0.27159008903089787 0 0.34690707665917658 0.28709197297329969 0 0.36390247736539427 0.29549545278400602 0 0.36953588213746208 0.28526404012388162 0 0.36390247736539427 0.29549545278400602 0 0.36953588213746208 0.28526404012388162 0 0.37900202227037971 0.29476871492237161 0 0.36953588213746208 0.28526404012388162 0 0.3648495098154621 0.27159008903089787 0 0.38275035444881539 0.27884239331100602 0 0.3648495098154621 0.27159008903089787 0 0.38001554852001163 0.264658919851955 0 0.36515898826689819 0.24889684022616351 0 0.3648495098154621 0.27159008903089787 0 0.34411190546120979 0.26654572768710311 0 0.36515898826689819 0.24889684022616351 0 0.34411190546120979 0.26654572768710311 0 0.34131673426324188 0.24599948240090661 0 0.36515898826689819 0.24889684022616351 0 0.34690707665917658 0.28709197297329969 0 0.3648495098154621 0.27159008903089787 0 0.34411190546120979 0.26654572768710311 0 0.34690707665917658 0.28709197297329969 0 0.34411190546120979 0.26654572768710311 0 0.3890012422705546 0.25179419805142012 0 0.41284349627421091 0.25469155587667658 0 0.39831764779832751 0.27217107864028728 0 0.3890012422705546 0.25179419805142012 0 0.41284349627421091 0.25469155587667658 0 0.3890012422705546 0.25179419805142012 0 0.36515898826689819 0.24889684022616351 0 0.39831764779832751 0.27217107864028728 0 0.3890012422705546 0.25179419805142012 0 0.38001554852001163 0.264658919851955 0 0.3890012422705546 0.25179419805142012 0 0.38001554852001163 0.264658919851955 0 0.36515898826689819 0.24889684022616351 0 0.3648495098154621 0.27159008903089787 0 0.38001554852001163 0.264658919851955 0 0.38275035444881539 0.27884239331100602 0 0.39831764779832751 0.27217107864028728 0 0.38001554852001163 0.264658919851955 0 0.38275035444881539 0.27884239331100602 0 0.36953588213746208 0.28526404012388162 0 0.38275035444881539 0.27884239331100602 0 0.37900202227037971 0.29476871492237161 0 0.38275035444881539 0.27884239331100602 0 0.37900202227037971 0.29476871492237161 0 0.39873890840468429 0.29331337716899802 0 0.37271325201104771 0.32176212770686402 0 0.36980160249579258 0.30603548957239801 0 0.3875814028885281 0.30950057308555812 0 0.36980160249579258 0.30603548957239801 0 0.37900202227037971 0.29476871492237161 0 0.3875814028885281 0.30950057308555812 0 0.37900202227037971 0.29476871492237161 0 0.3875814028885281 0.30950057308555812 0 0.39873890840468429 0.29331337716899802 0 0.39873890840468429 0.29331337716899802 0 0.40690489414971442 0.31159481717133591 0 0.41045014498837401 0.29862518884685268 0 0.3875814028885281 0.30950057308555812 0 0.39873890840468429 0.29331337716899802 0 0.40690489414971442 0.31159481717133591 0 0.39831764779832751 0.27217107864028728 0 0.38275035444881539 0.27884239331100602 0 0.39873890840468429 0.29331337716899802 0 0.39831764779832751 0.27217107864028728 0 0.39873890840468429 0.29331337716899802 0 0.40987042427439258 0.28637014099305802 0 0.40987042427439258 0.28637014099305802 0 0.41978894593114607 0.29479189239383241 0 0.42026423171301458 0.27725776796210272 0 0.39873890840468429 0.29331337716899802 0 0.40987042427439258 0.28637014099305802 0 0.41045014498837401 0.29862518884685268 0 0.40987042427439258 0.28637014099305802 0 0.41978894593114607 0.29479189239383241 0 0.41045014498837401 0.29862518884685268 0 0.41978894593114607 0.29479189239383241 0 0.41694755218193208 0.30705571650703922 0 0.4286512155820083 0.31365484985698711 0 0.40690489414971442 0.31159481717133591 0 0.41045014498837401 0.29862518884685268 0 0.41694755218193208 0.30705571650703922 0 0.41978894593114607 0.29479189239383241 0 0.41045014498837401 0.29862518884685268 0 0.41694755218193208 0.30705571650703922 0 0.41694755218193208 0.30705571650703922 0 0.4286512155820083 0.31365484985698711 0 0.41874045150698919 0.31479334613986298 0 0.40690489414971442 0.31159481717133591 0 0.41694755218193208 0.30705571650703922 0 0.41874045150698919 0.31479334613986298 0 0.41978894593114607 0.29479189239383241 0 0.43379789991650902 0.30013515849384681 0 0.43300317306786368 0.31373493054863028 0 0.41978894593114607 0.29479189239383241 0 0.43300317306786368 0.31373493054863028 0 0.41978894593114607 0.29479189239383241 0 0.43300317306786368 0.31373493054863028 0 0.4286512155820083 0.31365484985698711 0 0.43379789991650902 0.30013515849384681 0 0.44009469899214071 0.30655206128803902 0 0.43300317306786368 0.31373493054863028 0 0.41978894593114607 0.29479189239383241 0 0.43236181605812679 0.29054375166780883 0 0.42026423171301458 0.27725776796210272 0 0.43236181605812679 0.29054375166780883 0 0.42026423171301458 0.27725776796210272 0 0.4422108156277017 0.28234445728391799 0 0.41978894593114607 0.29479189239383241 0 0.43379789991650902 0.30013515849384681 0 0.43236181605812679 0.29054375166780883 0 0.43379789991650902 0.30013515849384681 0 0.43236181605812679 0.29054375166780883 0 0.44574718710226252 0.29818948220534391 0 0.42026423171301458 0.27725776796210272 0 0.43668575027786721 0.25758891370193199 0 0.4422108156277017 0.28234445728391799 0 0.42026423171301458 0.27725776796210272 0 0.4422108156277017 0.28234445728391799 0 0.39831764779832751 0.27217107864028728 0 0.40987042427439258 0.28637014099305802 0 0.42026423171301458 0.27725776796210272 0 0.39831764779832751 0.27217107864028728 0 0.42026423171301458 0.27725776796210272 0 0.39831764779832751 0.27217107864028728 0 0.42026423171301458 0.27725776796210272 0 0.41284349627421091 0.25469155587667658 0 0.42026423171301458 0.27725776796210272 0 0.41284349627421091 0.25469155587667658 0 0.43668575027786721 0.25758891370193199 0 0.41284349627421091 0.25469155587667658 0 0.43668575027786721 0.25758891370193199 0 0.43668575027786721 0.25758891370193199 0 0.45756471460833997 0.2601261667098439 0 0.43668575027786721 0.25758891370193199 0 0.45140845616194791 0.27119445099156131 0 0.45756471460833997 0.2601261667098439 0 0.43668575027786721 0.25758891370193199 0 0.45756471460833997 0.2601261667098439 0 0.45283070825841942 0.24383381562730361 0 0.43668575027786721 0.25758891370193199 0 0.45140845616194791 0.27119445099156131 0 0.4422108156277017 0.28234445728391799 0 0.45140845616194791 0.27119445099156131 0 0.45920387566181192 0.28299109155232199 0 0.4422108156277017 0.28234445728391799 0 0.43668575027786721 0.25758891370193199 0 0.4422108156277017 0.28234445728391799 0 0.45140845616194791 0.27119445099156131 0 0.46354855577620352 0.27095780638888672 0 0.45920387566181192 0.28299109155232199 0 0.45140845616194791 0.27119445099156131 0 0.46354855577620352 0.27095780638888672 0 0.45756471460833997 0.2601261667098439 0 0.46354855577620352 0.27095780638888672 0 0.47112205351010461 0.27781390297295139 0 0.45920387566181192 0.28299109155232199 0 0.46354855577620352 0.27095780638888672 0 0.45756471460833997 0.2601261667098439 0 0.47844367893881312 0.26266341971775459 0 0.45756471460833997 0.2601261667098439 0 0.47844367893881312 0.26266341971775459 0 0.46919350202318177 0.2487520754501045 0 0.45756471460833997 0.2601261667098439 0 0.45283070825841942 0.24383381562730361 0 0.46919350202318177 0.2487520754501045 0 0.45756471460833997 0.2601261667098439 0 0.47844367893881312 0.26266341971775459 0 0.47844367893881312 0.26266341971775459 0 0.46919350202318177 0.2487520754501045 0 0.4815769265928514 0.2429082163709019 0 0.47844367893881312 0.26266341971775459 0 0.47112205351010461 0.27781390297295139 0 0.4822267845982231 0.27901825459182422 0 0.46354855577620352 0.27095780638888672 0 0.47844367893881312 0.26266341971775459 0 0.47112205351010461 0.27781390297295139 0 0.47844367893881312 0.26266341971775459 0 0.4822267845982231 0.27901825459182422 0 0.5 0.27204432219799513 0 0.47844367893881312 0.26266341971775459 0 0.5 0.27204432219799513 0 0.5 0.24425464330145341 0 0.50000000000000178 0.29983400109453701 0 0.48816896555314382 0.29299644901916427 0 0.48111922349601982 0.30156852610621632 0 0.50000000000000178 0.29983400109453701 0 0.48301118455711772 0.31465513166753439 0 0.50000000000000178 0.29983400109453701 0 0.48111922349601982 0.30156852610621632 0 0.48301118455711772 0.31465513166753439 0 0.50000000000000178 0.29983400109453701 0 0.48301118455711772 0.31465513166753439 0 0.49999999999999839 0.31496774411729422 0 0.5 0.27204432219799513 0 0.50000000000000178 0.29983400109453701 0 0.48816896555314382 0.29299644901916427 0 0.4822267845982231 0.27901825459182422 0 0.5 0.27204432219799513 0 0.48816896555314382 0.29299644901916427 0 0.48816896555314382 0.29299644901916427 0 0.47339922498905412 0.28957317905125551 0 0.48111922349601982 0.30156852610621632 0 0.48816896555314382 0.29299644901916427 0 0.47339922498905412 0.28957317905125551 0 0.4822267845982231 0.27901825459182422 0 0.48816896555314382 0.29299644901916427 0 0.47339922498905412 0.28957317905125551 0 0.47112205351010461 0.27781390297295139 0 0.4822267845982231 0.27901825459182422 0 0.47339922498905412 0.28957317905125551 0 0.47339922498905412 0.28957317905125551 0 0.47173785299019028 0.30058354746374139 0 0.46362273255098507 0.29818022740310202 0 0.47173785299019028 0.30058354746374139 0 0.48111922349601982 0.30156852610621632 0 0.47057213517790097 0.30919689154664609 0 0.47339922498905412 0.28957317905125551 0 0.47173785299019028 0.30058354746374139 0 0.48111922349601982 0.30156852610621632 0 0.48111922349601982 0.30156852610621632 0 0.47057213517790097 0.30919689154664609 0 0.48301118455711772 0.31465513166753439 0 0.47173785299019028 0.30058354746374139 0 0.47057213517790097 0.30919689154664609 0 0.46420783915002928 0.30726680452297639 0 0.47057213517790097 0.30919689154664609 0 0.46156171203811902 0.31426043833692557 0 0.45862948442496421 0.28614990908334681 0 0.45354476299295121 0.31411291786446782 0 0.46420783915002928 0.30726680452297639 0 0.46362273255098507 0.29818022740310202 0 0.45354476299295121 0.31411291786446782 0 0.47057213517790097 0.30919689154664609 0 0.46420783915002928 0.30726680452297639 0 0.46156171203811902 0.31426043833692557 0 0.46362273255098507 0.29818022740310202 0 0.45862948442496421 0.28614990908334681 0 0.45354476299295121 0.31411291786446782 0 0.47173785299019028 0.30058354746374139 0 0.46420783915002928 0.30726680452297639 0 0.46362273255098507 0.29818022740310202 0 0.46420783915002928 0.30726680452297639 0 0.45354476299295121 0.31411291786446782 0 0.46156171203811902 0.31426043833692557 0 0.45862948442496421 0.28614990908334681 0 0.45920387566181192 0.28299109155232199 0 0.4422108156277017 0.28234445728391799 0 0.47112205351010461 0.27781390297295139 0 0.47339922498905412 0.28957317905125551 0 0.45920387566181192 0.28299109155232199 0 0.47339922498905412 0.28957317905125551 0 0.45862948442496421 0.28614990908334681 0 0.45920387566181192 0.28299109155232199 0 0.47339922498905412 0.28957317905125551 0 0.45862948442496421 0.28614990908334681 0 0.47339922498905412 0.28957317905125551 0 0.46362273255098507 0.29818022740310202 0 0.45862948442496421 0.28614990908334681 0 0.45862948442496421 0.28614990908334681 0 0.45920387566181192 0.28299109155232199 0 0.43236181605812679 0.29054375166780883 0 0.4422108156277017 0.28234445728391799 0 0.44574718710226252 0.29818948220534391 0 0.45862948442496421 0.28614990908334681 0 0.4422108156277017 0.28234445728391799 0 0.44574718710226252 0.29818948220534391 0 0.4422108156277017 0.28234445728391799 0 0.44574718710226252 0.29818948220534391 0 0.45862948442496421 0.28614990908334681 0 0.4422108156277017 0.28234445728391799 0 0.44574718710226252 0.29818948220534391 0 0.44928355857682289 0.31403450712677 0 0.45862948442496421 0.28614990908334681 0 0.44574718710226252 0.29818948220534391 0 0.45354476299295121 0.31411291786446782 0 0.44009469899214071 0.30655206128803902 0 0.44928355857682289 0.31403450712677 0 0.43300317306786368 0.31373493054863028 0 0.44574718710226252 0.29818948220534391 0 0.44928355857682289 0.31403450712677 0 0.45354476299295121 0.31411291786446782 0 0.44574718710226252 0.29818948220534391 0 0.44009469899214071 0.30655206128803902 0 0.44928355857682289 0.31403450712677 0 0.43379789991650902 0.30013515849384681 0 0.44574718710226252 0.29818948220534391 0 0.44009469899214071 0.30655206128803902 0 0.44354928499139201 0.31863785367264208 0 0.44928355857682289 0.31403450712677 0 0.43300317306786368 0.31373493054863028 0 0.44354928499139201 0.31863785367264208 0 0.44130907576219441 0.32564172086037457 0 0.43300317306786368 0.31373493054863028 0 0.44928355857682289 0.31403450712677 0 0.43300317306786368 0.31373493054863028 0 0.44354928499139201 0.31863785367264208 0 0.44130907576219441 0.32564172086037457 0 0.45069669760282099 0.32036620142005029 0 0.44130907576219441 0.32564172086037457 0 0.45069669760282099 0.32036620142005029 0 0.44130907576219441 0.32564172086037457 0 0.45163952451510497 0.32459062072361899 0 0.45069669760282099 0.32036620142005029 0 0.45163952451510497 0.32459062072361899 0 0.45260242095364539 0.31929525067705572 0 0.45163952451510497 0.32459062072361899 0 0.45069669760282099 0.32036620142005029 0 0.45163952451510497 0.32459062072361899 0 0.45069669760282099 0.32036620142005029 0 0.45260242095364539 0.31929525067705572 0 0.45260242095364539 0.31929525067705572 0 0.45354476299295121 0.31411291786446782 0 0.45069669760282099 0.32036620142005029 0 0.44928355857682289 0.31403450712677 0 0.45069669760282099 0.32036620142005029 0 0.45148602987336739 0.316792891473339 0 0.44928355857682289 0.31403450712677 0 0.45260242095364539 0.31929525067705572 0 0.45148602987336739 0.316792891473339 0 0.45354476299295121 0.31411291786446782 0 0.45069669760282099 0.32036620142005029 0 0.45260242095364539 0.31929525067705572 0 0.45148602987336739 0.316792891473339 0 0.45069669760282099 0.32036620142005029 0 0.45260242095364539 0.31929525067705572 0 0.44928355857682289 0.31403450712677 0 0.45354476299295121 0.31411291786446782 0 0.45148602987336739 0.316792891473339 0 0.44928355857682289 0.31403450712677 0 0.45354476299295121 0.31411291786446782 0 0.44354928499139201 0.31863785367264208 0 0.45069669760282099 0.32036620142005029 0 0.44928355857682289 0.31403450712677 0 0.45163952451510497 0.32459062072361899 0 0.44935187762582363 0.33717134729996012 0 0.45684459832323487 0.34791241392351391 0 0.43793221295340329 0.33787983279155942 0 0.44935187762582363 0.33717134729996012 0 0.44688696847741199 0.35072691314232002 0 0.44130907576219441 0.32564172086037457 0 0.43793221295340329 0.33787983279155942 0 0.44935187762582363 0.33717134729996012 0 0.44130907576219441 0.32564172086037457 0 0.44935187762582363 0.33717134729996012 0 0.44130907576219441 0.32564172086037457 0 0.45163952451510497 0.32459062072361899 0 0.44935187762582363 0.33717134729996012 0 0.45163952451510497 0.32459062072361899 0 0.44935187762582363 0.33717134729996012 0 0.44935187762582363 0.33717134729996012 0 0.45684459832323487 0.34791241392351391 0 0.45163952451510497 0.32459062072361899 0 0.45684459832323487 0.34791241392351391 0 0.45163952451510497 0.32459062072361899 0 0.46368310309005972 0.33151705003446769 0 0.45684459832323487 0.34791241392351391 0 0.46368310309005972 0.33151705003446769 0 0.46943204729737908 0.34508410331218459 0 0.45684459832323487 0.34791241392351391 0 0.46113315291726131 0.32254075506341517 0 0.46156171203811902 0.31426043833692557 0 0.48301118455711772 0.31465513166753439 0 0.45260242095364539 0.31929525067705572 0 0.46113315291726131 0.32254075506341517 0 0.46156171203811902 0.31426043833692557 0 0.45354476299295121 0.31411291786446782 0 0.46156171203811902 0.31426043833692557 0 0.45260242095364539 0.31929525067705572 0 0.45354476299295121 0.31411291786446782 0 0.46156171203811902 0.31426043833692557 0 0.45260242095364539 0.31929525067705572 0 0.46156171203811902 0.31426043833692557 0 0.45163952451510497 0.32459062072361899 0 0.46368310309005972 0.33151705003446769 0 0.46113315291726131 0.32254075506341517 0 0.45163952451510497 0.32459062072361899 0 0.45260242095364539 0.31929525067705572 0 0.46113315291726131 0.32254075506341517 0 0.47057213517790097 0.30919689154664609 0 0.46156171203811902 0.31426043833692557 0 0.48301118455711772 0.31465513166753439 0 0.46368310309005972 0.33151705003446769 0 0.46113315291726131 0.32254075506341517 0 0.48301118455711772 0.31465513166753439 0 0.46368310309005972 0.33151705003446769 0 0.48301118455711772 0.31465513166753439 0 0.47883363372590271 0.32937501489229237 0 0.46156171203811902 0.31426043833692557 0 0.48301118455711772 0.31465513166753439 0 0.46368310309005972 0.33151705003446769 0 0.48301118455711772 0.31465513166753439 0 0.48301118455711772 0.31465513166753439 0 0.47883363372590271 0.32937501489229237 0 0.48905156623732648 0.32837967605919188 0 0.48341301290361322 0.34197142502482791 0 0.47883363372590271 0.32937501489229237 0 0.46943204729737908 0.34508410331218459 0 0.46368310309005972 0.33151705003446769 0 0.47883363372590271 0.32937501489229237 0 0.46943204729737908 0.34508410331218459 0 0.48341301290361322 0.34197142502482791 0 0.47883363372590271 0.32937501489229237 0 0.48905156623732648 0.32837967605919188 0 0.48341301290361322 0.34197142502482791 0 0.48905156623732648 0.32837967605919188 0 0.5 0.34092906459401162 0 0.48301118455711772 0.31465513166753439 0 0.49999999999999839 0.31496774411729422 0 0.48905156623732648 0.32837967605919188 0 0.5 0.34092906459401162 0 0.49999999999999839 0.31496774411729422 0 0.48301118455711772 0.31465513166753439 0 0.48905156623732648 0.32837967605919188 0 0.49999999999999839 0.31496774411729422 0 0.50000000000000056 0.36689038507072919 0 0.47422045825109449 0.3728212923755268 0 0.49045114732762751 0.37920070738814732 0 0.50000000000000056 0.36689038507072919 0 0.48816842379673631 0.35363559982738663 0 0.48333910242963091 0.36496144646342371 0 0.50000000000000056 0.36689038507072919 0 0.47422045825109449 0.3728212923755268 0 0.48333910242963091 0.36496144646342371 0 0.50000000000000056 0.36689038507072919 0 0.47422045825109449 0.3728212923755268 0 0.5 0.34092906459401162 0 0.50000000000000056 0.36689038507072919 0 0.48816842379673631 0.35363559982738663 0 0.48341301290361322 0.34197142502482791 0 0.5 0.34092906459401162 0 0.48816842379673631 0.35363559982738663 0 0.47700850542985263 0.35293965249238829 0 0.48333910242963091 0.36496144646342371 0 0.46327099020404711 0.35712486239563862 0 0.48816842379673631 0.35363559982738663 0 0.47700850542985263 0.35293965249238829 0 0.48333910242963091 0.36496144646342371 0 0.48341301290361322 0.34197142502482791 0 0.48816842379673631 0.35363559982738663 0 0.47700850542985263 0.35293965249238829 0 0.48341301290361322 0.34197142502482791 0 0.47700850542985263 0.35293965249238829 0 0.46943204729737908 0.34508410331218459 0 0.47700850542985263 0.35293965249238829 0 0.46943204729737908 0.34508410331218459 0 0.46327099020404711 0.35712486239563862 0 0.47422045825109449 0.3728212923755268 0 0.48333910242963091 0.36496144646342371 0 0.46327099020404711 0.35712486239563862 0 0.48333910242963091 0.36496144646342371 0 0.46327099020404711 0.35712486239563862 0 0.47422045825109449 0.3728212923755268 0 0.46327099020404711 0.35712486239563862 0 0.47422045825109449 0.3728212923755268 0 0.46142195543357739 0.36842166698398471 0 0.46327099020404711 0.35712486239563862 0 0.47422045825109449 0.3728212923755268 0 0.45786051949276102 0.37658510172609022 0 0.47422045825109449 0.3728212923755268 0 0.46142195543357739 0.36842166698398471 0 0.45786051949276102 0.37658510172609022 0 0.46142195543357739 0.36842166698398471 0 0.46327099020404711 0.35712486239563862 0 0.45848342494715599 0.35525532144460542 0 0.46142195543357739 0.36842166698398471 0 0.45848342494715599 0.35525532144460542 0 0.46142195543357739 0.36842166698398471 0 0.45848342494715599 0.35525532144460542 0 0.44688696847741199 0.35072691314232002 0 0.46943204729737908 0.34508410331218459 0 0.46327099020404711 0.35712486239563862 0 0.45684459832323487 0.34791241392351391 0 0.46327099020404711 0.35712486239563862 0 0.45848342494715599 0.35525532144460542 0 0.45684459832323487 0.34791241392351391 0 0.46327099020404711 0.35712486239563862 0 0.45684459832323487 0.34791241392351391 0 0.46327099020404711 0.35712486239563862 0 0.45848342494715599 0.35525532144460542 0 0.45848342494715599 0.35525532144460542 0 0.45684459832323487 0.34791241392351391 0 0.45848342494715599 0.35525532144460542 0 0.45684459832323487 0.34791241392351391 0 0.44688696847741199 0.35072691314232002 0 0.44935187762582363 0.33717134729996012 0 0.44688696847741199 0.35072691314232002 0 0.44935187762582363 0.33717134729996012 0 0.45684459832323487 0.34791241392351391 0 0.44688696847741199 0.35072691314232002 0 0.45848342494715599 0.35525532144460542 0 0.44688696847741199 0.35072691314232002 0 0.44688696847741199 0.35072691314232002 0 0.43207289055386078 0.34494202586793971 0 0.43793221295340329 0.33787983279155942 0 0.44688696847741199 0.35072691314232002 0 0.43207289055386078 0.34494202586793971 0 0.44688696847741199 0.35072691314232002 0 0.4329762340756107 0.36325446723141852 0 0.44150058073442783 0.38034891107665442 0 0.44688696847741199 0.35072691314232002 0 0.44150058073442783 0.38034891107665442 0 0.46142195543357739 0.36842166698398471 0 0.44688696847741199 0.35072691314232002 0 0.44150058073442783 0.38034891107665442 0 0.4329762340756107 0.36325446723141852 0 0.41741159595325572 0.363504950807504 0 0.42210351351192571 0.38481144996900912 0 0.41741159595325572 0.363504950807504 0 0.39870313815319608 0.36554762070881902 0 0.41042717243977139 0.37563868173627202 0 0.41741159595325572 0.363504950807504 0 0.41042717243977139 0.37563868173627202 0 0.42210351351192571 0.38481144996900912 0 0.42126177434258949 0.35076682480436872 0 0.41725881263031062 0.33915713859355678 0 0.40228108091229181 0.34757410683021722 0 0.41741159595325572 0.363504950807504 0 0.42126177434258949 0.35076682480436872 0 0.40228108091229181 0.34757410683021722 0 0.4329762340756107 0.36325446723141852 0 0.42126177434258949 0.35076682480436872 0 0.43207289055386078 0.34494202586793971 0 0.42126177434258949 0.35076682480436872 0 0.43207289055386078 0.34494202586793971 0 0.41725881263031062 0.33915713859355678 0 0.44688696847741199 0.35072691314232002 0 0.4329762340756107 0.36325446723141852 0 0.43207289055386078 0.34494202586793971 0 0.4329762340756107 0.36325446723141852 0 0.41741159595325572 0.363504950807504 0 0.42126177434258949 0.35076682480436872 0 0.44130907576219441 0.32564172086037457 0 0.41714694297158073 0.3238114080130029 0 0.41725881263031062 0.33915713859355678 0 0.44130907576219441 0.32564172086037457 0 0.43793221295340329 0.33787983279155942 0 0.41725881263031062 0.33915713859355678 0 0.43793221295340329 0.33787983279155942 0 0.43207289055386078 0.34494202586793971 0 0.41725881263031062 0.33915713859355678 0 0.44130907576219441 0.32564172086037457 0 0.41725881263031062 0.33915713859355678 0 0.43207289055386078 0.34494202586793971 0 0.41725881263031062 0.33915713859355678 0 0.44130907576219441 0.32564172086037457 0 0.4286512155820083 0.31365484985698711 0 0.41714694297158073 0.3238114080130029 0 0.44130907576219441 0.32564172086037457 0 0.43300317306786368 0.31373493054863028 0 0.44130907576219441 0.32564172086037457 0 0.43300317306786368 0.31373493054863028 0 0.4286512155820083 0.31365484985698711 0 0.43300317306786368 0.31373493054863028 0 0.4286512155820083 0.31365484985698711 0 0.40690489414971442 0.31159481717133591 0 0.41714694297158073 0.3238114080130029 0 0.39498603232067869 0.33045963315021148 0 0.40690489414971442 0.31159481717133591 0 0.41874045150698919 0.31479334613986298 0 0.41714694297158073 0.3238114080130029 0 0.4286512155820083 0.31365484985698711 0 0.41874045150698919 0.31479334613986298 0 0.41714694297158073 0.3238114080130029 0 0.41714694297158073 0.3238114080130029 0 0.41725881263031062 0.33915713859355678 0 0.39498603232067869 0.33045963315021148 0 0.41725881263031062 0.33915713859355678 0 0.40228108091229181 0.34757410683021722 0 0.41725881263031062 0.33915713859355678 0 0.39498603232067869 0.33045963315021148 0 0.41725881263031062 0.33915713859355678 0 0.39498603232067869 0.33045963315021148 0 0.40228108091229181 0.34757410683021722 0 0.39498603232067869 0.33045963315021148 0 0.40228108091229181 0.34757410683021722 0 0.39107869777541371 0.349232370826149 0 0.3875814028885281 0.30950057308555812 0 0.40690489414971442 0.31159481717133591 0 0.39498603232067869 0.33045963315021148 0 0.37271325201104771 0.32176212770686402 0 0.3875814028885281 0.30950057308555812 0 0.39498603232067869 0.33045963315021148 0 0.37271325201104771 0.32176212770686402 0 0.39498603232067869 0.33045963315021148 0 0.39498603232067869 0.33045963315021148 0 0.37539764169578338 0.3338948889294866 0 0.38255803501433883 0.34174551885066928 0 0.39498603232067869 0.33045963315021148 0 0.38255803501433883 0.34174551885066928 0 0.39107869777541371 0.349232370826149 0 0.37271325201104771 0.32176212770686402 0 0.39498603232067869 0.33045963315021148 0 0.37539764169578338 0.3338948889294866 0 0.37305384309557271 0.34699511731599231 0 0.37539764169578338 0.3338948889294866 0 0.38255803501433883 0.34174551885066928 0 0.37305384309557271 0.34699511731599231 0 0.38255803501433883 0.34174551885066928 0 0.38348627666075319 0.3566603962467163 0 0.38255803501433883 0.34174551885066928 0 0.38348627666075319 0.3566603962467163 0 0.39107869777541371 0.349232370826149 0 0.37376509744084729 0.35993562871136181 0 0.37305384309557271 0.34699511731599231 0 0.38348627666075319 0.3566603962467163 0 0.37376509744084729 0.35993562871136181 0 0.38348627666075319 0.3566603962467163 0 0.3835067099232759 0.3770195829208372 0 0.38348627666075319 0.3566603962467163 0 0.39870313815319608 0.36554762070881902 0 0.3835067099232759 0.3770195829208372 0 0.38348627666075319 0.3566603962467163 0 0.39870313815319608 0.36554762070881902 0 0.39107869777541371 0.349232370826149 0 0.41741159595325572 0.363504950807504 0 0.39870313815319608 0.36554762070881902 0 0.40228108091229181 0.34757410683021722 0 0.39870313815319608 0.36554762070881902 0 0.40228108091229181 0.34757410683021722 0 0.39107869777541371 0.349232370826149 0 0.39799440349507781 0.40323401389009988 0 0.40270644628942259 0.38927398886136 0 0.38354038978219313 0.39368338083776178 0 0.40270644628942259 0.38927398886136 0 0.38354038978219313 0.39368338083776178 0 0.39870313815319608 0.36554762070881902 0 0.40270644628942259 0.38927398886136 0 0.3835067099232759 0.3770195829208372 0 0.39870313815319608 0.36554762070881902 0 0.40270644628942259 0.38927398886136 0 0.41042717243977139 0.37563868173627202 0 0.40270644628942259 0.38927398886136 0 0.3835067099232759 0.3770195829208372 0 0.40270644628942259 0.38927398886136 0 0.3835067099232759 0.3770195829208372 0 0.38354038978219313 0.39368338083776178 0 0.37266803431851148 0.38645422185544981 0 0.3835067099232759 0.3770195829208372 0 0.38354038978219313 0.39368338083776178 0 0.37266803431851148 0.38645422185544981 0 0.36996543361725859 0.37709852170534319 0 0.3835067099232759 0.3770195829208372 0 0.39799440349507781 0.40323401389009988 0 0.38354038978219313 0.39368338083776178 0 0.37953045560202608 0.40852348643003811 0 0.36437433327496282 0.3980927728141605 0 0.38354038978219313 0.39368338083776178 0 0.37953045560202608 0.40852348643003811 0 0.39799440349507781 0.40323401389009988 0 0.37953045560202608 0.40852348643003811 0 0.39412375273169481 0.41466563507375948 0 0.37272182308741741 0.42263353265252218 0 0.37953045560202608 0.40852348643003811 0 0.38369025626209169 0.419450128258891 0 0.37953045560202608 0.40852348643003811 0 0.38369025626209169 0.419450128258891 0 0.39412375273169481 0.41466563507375948 0 0.37272182308741741 0.42263353265252218 0 0.38369025626209169 0.419450128258891 0 0.38838499362722873 0.43197785887924428 0 0.37272182308741741 0.42263353265252218 0 0.37496066392291932 0.43554357024030838 0 0.38838499362722873 0.43197785887924428 0 0.38369025626209169 0.419450128258891 0 0.38838499362722873 0.43197785887924428 0 0.39412375273169481 0.41466563507375948 0 0.38838499362722873 0.43197785887924428 0 0.39412375273169481 0.41466563507375948 0 0.40747837656775332 0.43503540369871502 0 0.39412375273169481 0.41466563507375948 0 0.41224611080529561 0.41704395790803728 0 0.40747837656775332 0.43503540369871502 0 0.39799440349507781 0.40323401389009988 0 0.39412375273169481 0.41466563507375948 0 0.41224611080529561 0.41704395790803728 0 0.39799440349507781 0.40323401389009988 0 0.41224611080529561 0.41704395790803728 0 0.42229939011311879 0.4017793630293397 0 0.41224611080529561 0.41704395790803728 0 0.40747837656775332 0.43503540369871502 0 0.43217305169937392 0.43656977962071419 0 0.41224611080529561 0.41704395790803728 0 0.43217305169937392 0.43656977962071419 0 0.44189233393681271 0.41428473719732301 0 0.41224611080529561 0.41704395790803728 0 0.42229939011311879 0.4017793630293397 0 0.44189233393681271 0.41428473719732301 0 0.43725859913572351 0.40367734121386761 0 0.42229939011311879 0.4017793630293397 0 0.44189233393681271 0.41428473719732301 0 0.42229939011311879 0.4017793630293397 0 0.44189233393681271 0.41428473719732301 0 0.43725859913572351 0.40367734121386761 0 0.43079052087379899 0.39265426632221789 0 0.42229939011311879 0.4017793630293397 0 0.43725859913572351 0.40367734121386761 0 0.43079052087379899 0.39265426632221789 0 0.44150058073442783 0.38034891107665442 0 0.43079052087379899 0.39265426632221789 0 0.42229939011311879 0.4017793630293397 0 0.42210351351192571 0.38481144996900912 0 0.40270644628942259 0.38927398886136 0 0.42229939011311879 0.4017793630293397 0 0.39799440349507781 0.40323401389009988 0 0.40270644628942259 0.38927398886136 0 0.42229939011311879 0.4017793630293397 0 0.40270644628942259 0.38927398886136 0 0.42229939011311879 0.4017793630293397 0 0.42210351351192571 0.38481144996900912 0 0.40270644628942259 0.38927398886136 0 0.41042717243977139 0.37563868173627202 0 0.42210351351192571 0.38481144996900912 0 0.40270644628942259 0.38927398886136 0 0.42210351351192571 0.38481144996900912 0 0.4329762340756107 0.36325446723141852 0 0.42210351351192571 0.38481144996900912 0 0.44150058073442783 0.38034891107665442 0 0.43079052087379899 0.39265426632221789 0 0.42210351351192571 0.38481144996900912 0 0.44150058073442783 0.38034891107665442 0 0.42210351351192571 0.38481144996900912 0 0.44150058073442783 0.38034891107665442 0 0.44150058073442783 0.38034891107665442 0 0.45102185902953362 0.39250098886931961 0 0.45786051949276102 0.37658510172609022 0 0.44150058073442783 0.38034891107665442 0 0.45786051949276102 0.37658510172609022 0 0.43725859913572351 0.40367734121386761 0 0.44150058073442783 0.38034891107665442 0 0.45102185902953362 0.39250098886931961 0 0.43725859913572351 0.40367734121386761 0 0.44150058073442783 0.38034891107665442 0 0.43725859913572351 0.40367734121386761 0 0.45102185902953362 0.39250098886931961 0 0.44963157745492133 0.40481471115854278 0 0.45102185902953362 0.39250098886931961 0 0.4603903885146487 0.39988824880693241 0 0.46815290391150371 0.38800903612771132 0 0.44963157745492133 0.40481471115854278 0 0.4603903885146487 0.39988824880693241 0 0.46016395132412308 0.41151207851485322 0 0.45102185902953362 0.39250098886931961 0 0.44963157745492133 0.40481471115854278 0 0.4603903885146487 0.39988824880693241 0 0.4603903885146487 0.39988824880693241 0 0.46815290391150371 0.38800903612771132 0 0.47081296590829269 0.40066865363419418 0 0.4603903885146487 0.39988824880693241 0 0.47081296590829269 0.40066865363419418 0 0.46016395132412308 0.41151207851485322 0 0.45102185902953362 0.39250098886931961 0 0.45786051949276102 0.37658510172609022 0 0.46815290391150371 0.38800903612771132 0 0.47422045825109449 0.3728212923755268 0 0.45786051949276102 0.37658510172609022 0 0.46815290391150371 0.38800903612771132 0 0.46142195543357739 0.36842166698398471 0 0.44150058073442783 0.38034891107665442 0 0.45786051949276102 0.37658510172609022 0 0.47422045825109449 0.3728212923755268 0 0.46815290391150371 0.38800903612771132 0 0.48711022912554741 0.39129921158753761 0 0.47422045825109449 0.3728212923755268 0 0.48711022912554741 0.39129921158753761 0 0.49045114732762751 0.37920070738814732 0 0.47422045825109449 0.3728212923755268 0 0.48711022912554741 0.39129921158753761 0 0.46815290391150371 0.38800903612771132 0 0.47081296590829269 0.40066865363419418 0 0.48711022912554741 0.39129921158753761 0 0.47081296590829269 0.40066865363419418 0 0.48711022912554741 0.39129921158753761 0 0.47824735666564072 0.41263469313393619 0 0.48711022912554741 0.39129921158753761 0 0.5 0.38833375793513808 0 0.50000000000000222 0.40977713079954697 0 0.48711022912554741 0.39129921158753761 0 0.50000000000000222 0.40977713079954697 0 0.47824735666564072 0.41263469313393619 0 0.48711022912554741 0.39129921158753761 0 0.50000000000000222 0.40977713079954697 0 0.48711022912554741 0.39129921158753761 0 0.5 0.38833375793513808 0 0.49045114732762751 0.37920070738814732 0 0.50000000000000056 0.36689038507072919 0 0.5 0.38833375793513808 0 0.49045114732762751 0.37920070738814732 0 0.49999999999999928 0.43069155648795732 0 0.48107822158420083 0.43929548553328951 0 0.48612193194478809 0.425279252223491 0 0.49999999999999928 0.43069155648795732 0 0.48107822158420083 0.43929548553328951 0 0.48612193194478809 0.425279252223491 0 0.49999999999999928 0.43069155648795732 0 0.50000000000000222 0.40977713079954697 0 0.48612193194478809 0.425279252223491 0 0.50000000000000222 0.40977713079954697 0 0.47824735666564072 0.41263469313393619 0 0.48612193194478809 0.425279252223491 0 0.47824735666564072 0.41263469313393619 0 0.46148527776050657 0.42679011136530642 0 0.47081296590829269 0.40066865363419418 0 0.47824735666564072 0.41263469313393619 0 0.46016395132412308 0.41151207851485322 0 0.48612193194478809 0.425279252223491 0 0.46148527776050657 0.42679011136530642 0 0.48107822158420083 0.43929548553328951 0 0.46148527776050657 0.42679011136530642 0 0.48107822158420083 0.43929548553328951 0 0.47824735666564072 0.41263469313393619 0 0.46148527776050657 0.42679011136530642 0 0.46016395132412308 0.41151207851485322 0 0.46148527776050657 0.42679011136530642 0 0.46016395132412308 0.41151207851485322 0 0.44189233393681271 0.41428473719732301 0 0.46148527776050657 0.42679011136530642 0 0.44189233393681271 0.41428473719732301 0 0.44963157745492133 0.40481471115854278 0 0.46016395132412308 0.41151207851485322 0 0.44189233393681271 0.41428473719732301 0 0.43725859913572351 0.40367734121386761 0 0.44963157745492133 0.40481471115854278 0 0.44189233393681271 0.41428473719732301 0 0.43217305169937392 0.43656977962071419 0 0.46148527776050657 0.42679011136530642 0 0.44189233393681271 0.41428473719732301 0 0.43217305169937392 0.43656977962071419 0 0.45514707005054678 0.45108664928949332 0 0.42921591851689311 0.46287781304569781 0 0.43217305169937392 0.43656977962071419 0 0.46148527776050657 0.42679011136530642 0 0.45514707005054678 0.45108664928949332 0 0.45514707005054678 0.45108664928949332 0 0.44843783206395438 0.46959908651518778 0 0.42921591851689311 0.46287781304569781 0 0.45514707005054678 0.45108664928949332 0 0.42921591851689311 0.46287781304569781 0 0.45514707005054678 0.45108664928949332 0 0.47527730266119123 0.47024687123026182 0 0.44843783206395438 0.46959908651518778 0 0.46148527776050657 0.42679011136530642 0 0.45514707005054678 0.45108664928949332 0 0.48107822158420083 0.43929548553328951 0 0.45514707005054678 0.45108664928949332 0 0.48107822158420083 0.43929548553328951 0 0.45514707005054678 0.45108664928949332 0 0.48107822158420083 0.43929548553328951 0 0.47653927249215478 0.45446409211442679 0 0.48107822158420083 0.43929548553328951 0 0.47653927249215478 0.45446409211442679 0 0.49234646893348749 0.45537030684539309 0 0.49234646893348749 0.45537030684539309 0 0.47527730266119123 0.47024687123026182 0 0.45514707005054678 0.45108664928949332 0 0.47653927249215478 0.45446409211442679 0 0.47527730266119123 0.47024687123026182 0 0.47653927249215478 0.45446409211442679 0 0.49234646893348749 0.45537030684539309 0 0.47527730266119123 0.47024687123026182 0 0.48107822158420083 0.43929548553328951 0 0.4999999999999995 0.45137248229000382 0 0.48107822158420083 0.43929548553328951 0 0.49234646893348749 0.45537030684539309 0 0.4999999999999995 0.45137248229000382 0 0.49999999999999928 0.43069155648795732 0 0.48107822158420083 0.43929548553328951 0 0.4999999999999995 0.45137248229000382 0 0.49234646893348749 0.45537030684539309 0 0.5 0.5 0 0.47527730266119123 0.47024687123026182 0 0.49234646893348749 0.45537030684539309 0 0.4999999999999995 0.45137248229000382 0 0.5 0.5 0 0.5 0.5 0 0.47527730266119123 0.47024687123026182 0 0.45820813638889479 0.48512343561513038 0 0.5 0.5 0 0.45820813638889479 0.48512343561513038 0 0.44113897011659869 0.49999999999999928 0 0.47527730266119123 0.47024687123026182 0 0.45820813638889479 0.48512343561513038 0 0.47527730266119123 0.47024687123026182 0 0.45820813638889479 0.48512343561513038 0 0.44843783206395438 0.46959908651518778 0 0.44843783206395438 0.46959908651518778 0 0.4356982251212434 0.48275879065240762 0 0.42921591851689311 0.46287781304569781 0 0.45820813638889479 0.48512343561513038 0 0.44843783206395438 0.46959908651518778 0 0.4356982251212434 0.48275879065240762 0 0.45820813638889479 0.48512343561513038 0 0.44113897011659869 0.49999999999999928 0 0.4356982251212434 0.48275879065240762 0 0.45820813638889479 0.48512343561513038 0 0.44113897011659869 0.49999999999999928 0 0.44113897011659869 0.49999999999999928 0 0.42198052087153493 0.50000000000000033 0 0.4356982251212434 0.48275879065240762 0 0.42198052087153493 0.50000000000000033 0 0.41520797276958449 0.47895240873842909 0 0.4356982251212434 0.48275879065240762 0 0.42198052087153493 0.50000000000000033 0 0.3943521354240152 0.48910348302761242 0 0.40393532658940567 0.50000000000001577 0 0.42198052087153493 0.50000000000000033 0 0.3943521354240152 0.48910348302761242 0 0.42198052087153493 0.50000000000000033 0 0.41520797276958449 0.47895240873842909 0 0.3943521354240152 0.48910348302761242 0 0.41520797276958449 0.47895240873842909 0 0.4356982251212434 0.48275879065240762 0 0.42921591851689311 0.46287781304569781 0 0.43217305169937392 0.43656977962071419 0 0.42921591851689311 0.46287781304569781 0 0.41744713264646671 0.44803779083815048 0 0.40747837656775332 0.43503540369871502 0 0.41744713264646671 0.44803779083815048 0 0.40092118380184649 0.45766816698747531 0 0.40747837656775332 0.43503540369871502 0 0.43217305169937392 0.43656977962071419 0 0.41744713264646671 0.44803779083815048 0 0.41520797276958449 0.47895240873842909 0 0.42921591851689311 0.46287781304569781 0 0.40092118380184649 0.45766816698747531 0 0.42921591851689311 0.46287781304569781 0 0.41744713264646671 0.44803779083815048 0 0.40092118380184649 0.45766816698747531 0 0.38838499362722873 0.43197785887924428 0 0.40747837656775332 0.43503540369871502 0 0.40092118380184649 0.45766816698747531 0 0.38838499362722873 0.43197785887924428 0 0.40092118380184649 0.45766816698747531 0 0.38085702682071321 0.44702362668510748 0 0.37496066392291932 0.43554357024030838 0 0.38838499362722873 0.43197785887924428 0 0.38085702682071321 0.44702362668510748 0 0.40092118380184649 0.45766816698747531 0 0.38085702682071321 0.44702362668510748 0 0.37512159256099409 0.46723749568800771 0 0.41520797276958449 0.47895240873842909 0 0.40092118380184649 0.45766816698747531 0 0.3943521354240152 0.48910348302761242 0 0.40092118380184649 0.45766816698747531 0 0.37512159256099409 0.46723749568800771 0 0.3943521354240152 0.48910348302761242 0 0.37512159256099409 0.46723749568800771 0 0.3943521354240152 0.48910348302761242 0 0.37512159256099409 0.46723749568800771 0 0.38541588584636671 0.48557906444087939 0 0.3943521354240152 0.48910348302761242 0 0.37102616877421812 0.47990382161489231 0 0.37056231748715063 0.46549514162231442 0 0.38541588584636671 0.48557906444087939 0 0.37056231748715063 0.46549514162231442 0 0.37512159256099409 0.46723749568800771 0 0.38541588584636671 0.48557906444087939 0 0.37056231748715063 0.46549514162231442 0 0.38541588584636671 0.48557906444087939 0 0.37102616877421812 0.47990382161489231 0 0.38541588584636671 0.48557906444087939 0 0.36891360119238159 0.5 0 0.38541588584636671 0.48557906444087939 0 0.39608125008154771 0.50000000000000011 0 0.36891360119238159 0.5 0 0.37102616877421812 0.47990382161489231 0 0.38541588584636671 0.48557906444087939 0 0.38541588584636671 0.48557906444087939 0 0.3943521354240152 0.48910348302761242 0 0.38541588584636671 0.48557906444087939 0 0.3943521354240152 0.48910348302761242 0 0.39608125008154771 0.50000000000000011 0 0.3943521354240152 0.48910348302761242 0 0.39608125008154771 0.50000000000000011 0 0.40393532658940567 0.50000000000001577 0 0.38541588584636671 0.48557906444087939 0 0.39608125008154771 0.50000000000000011 0 0.3943521354240152 0.48910348302761242 0 0.40393532658940567 0.50000000000001577 0 0.34187897658060012 0.093440906559230305 0 0.33767974699843462 0.082813425507925947 0 0.33330573658971779 0.098662629186543255 0 0.33335591210560778 0.082241844653823809 0 0.32707029378705299 0.080325908467870119 0 0.32523511492895207 0.087459860002589318 0 0.33335591210560778 0.082241844653823809 0 0.33767974699843462 0.082813425507925947 0 0.32523511492895207 0.087459860002589318 0 0.33335591210560778 0.082241844653823809 0 0.33159644687155859 0.076135750475138056 0 0.32707029378705299 0.080325908467870119 0 0.34187897658060012 0.093440906559230305 0 0.33767974699843462 0.082813425507925947 0 0.34743821010737519 0.088029549889242845 0 0.33767974699843462 0.082813425507925947 0 0.34372379727923191 0.077867712162210251 0 0.34743821010737519 0.088029549889242845 0 0.33767974699843462 0.082813425507925947 0 0.34372379727923191 0.077867712162210251 0 0.33335591210560778 0.082241844653823809 0 0.33764003033130979 0.06962465743302873 0 0.35405935465125993 0.063067058123378761 0 0.33335591210560778 0.082241844653823809 0 0.33767974699843462 0.082813425507925947 0 0.35405935465125993 0.063067058123378761 0 0.33335591210560778 0.082241844653823809 0 0.35405935465125993 0.063067058123378761 0 0.33764003033130979 0.06962465743302873 0 0.3335921043376644 0.063901513071868435 0 0.34455939430151722 0.059459024714578118 0 0.33764003033130979 0.06962465743302873 0 0.3335921043376644 0.063901513071868435 0 0.32831955126226381 0.072350591345829593 0 0.33335591210560778 0.082241844653823809 0 0.33764003033130979 0.06962465743302873 0 0.33159644687155859 0.076135750475138056 0 0.32831955126226381 0.072350591345829593 0 0.33159644687155859 0.076135750475138056 0 0.32707029378705299 0.080325908467870119 0 0.33764003033130979 0.06962465743302873 0 0.32831955126226381 0.072350591345829593 0 0.33159644687155859 0.076135750475138056 0 0.32831955126226381 0.072350591345829593 0 0.31915262930334698 0.078609134654491514 0 0.32140236071283113 0.057403605372439707 0 0.31915262930334698 0.078609134654491514 0 0.32140236071283113 0.057403605372439707 0 0.3094590213654016 0.070342112939100962 0 0.32831955126226381 0.072350591345829593 0 0.31915262930334698 0.078609134654491514 0 0.32707029378705299 0.080325908467870119 0 0.31915262930334698 0.078609134654491514 0 0.32140236071283113 0.057403605372439707 0 0.3335921043376644 0.063901513071868435 0 0.32831955126226381 0.072350591345829593 0 0.32140236071283113 0.057403605372439707 0 0.31915262930334698 0.078609134654491514 0 0.31690289789386428 0.09981466393654348 0 0.30996687307048149 0.094295689728376486 0 0.31915262930334698 0.078609134654491514 0 0.31690289789386428 0.09981466393654348 0 0.33767974699843462 0.082813425507925947 0 0.31690289789386428 0.09981466393654348 0 0.31915262930334698 0.078609134654491514 0 0.32523511492895207 0.087459860002589318 0 0.31690289789386428 0.09981466393654348 0 0.33767974699843462 0.082813425507925947 0 0.32523511492895207 0.087459860002589318 0 0.31690289789386428 0.09981466393654348 0 0.31915262930334698 0.078609134654491514 0 0.32707029378705299 0.080325908467870119 0 0.32523511492895207 0.087459860002589318 0 0.31690289789386428 0.09981466393654348 0 0.32724112632684599 0.10453056449107589 0 0.33330573658971779 0.098662629186543255 0 0.31690289789386428 0.09981466393654348 0 0.30855998701574799 0.1066414843227199 0 0.31690289789386428 0.09981466393654348 0 0.32724112632684599 0.10453056449107589 0 0.32616520035271163 0.1114988279239446 0 0.31690289789386428 0.09981466393654348 0 0.32616520035271163 0.1114988279239446 0 0.32210559291249008 0.1177068571894886 0 0.31690289789386428 0.09981466393654348 0 0.31437318018996718 0.1236592893967839 0 0.32210559291249008 0.1177068571894886 0 0.31690289789386428 0.09981466393654348 0 0.31437318018996718 0.1236592893967839 0 0.31153360406396202 0.10948553064138911 0 0.31690289789386428 0.09981466393654348 0 0.31437318018996718 0.1236592893967839 0 0.32616520035271163 0.1114988279239446 0 0.32210559291249008 0.1177068571894886 0 0.33104634524143001 0.11824710053288461 0 0.32210559291249008 0.1177068571894886 0 0.33104634524143001 0.11824710053288461 0 0.32620385711210409 0.1267591519802356 0 0.31437318018996718 0.1236592893967839 0 0.32210559291249008 0.1177068571894886 0 0.32620385711210409 0.1267591519802356 0 0.33104634524143001 0.11824710053288461 0 0.33567235926055711 0.12643110993479159 0 0.32620385711210409 0.1267591519802356 0 0.32616520035271163 0.1114988279239446 0 0.33104634524143001 0.11824710053288461 0 0.33438373093900742 0.1089835611415479 0 0.33104634524143001 0.11824710053288461 0 0.3427693047329371 0.1157148194322609 0 0.33438373093900742 0.1089835611415479 0 0.3427693047329371 0.1157148194322609 0 0.33438373093900742 0.1089835611415479 0 0.34366163397007571 0.1037041578594803 0 0.3427693047329371 0.1157148194322609 0 0.33567235926055711 0.12643110993479159 0 0.34598674847975441 0.13040746309532461 0 0.33104634524143001 0.11824710053288461 0 0.3427693047329371 0.1157148194322609 0 0.33567235926055711 0.12643110993479159 0 0.33767974699843462 0.082813425507925947 0 0.31690289789386428 0.09981466393654348 0 0.33330573658971779 0.098662629186543255 0 0.32724112632684599 0.10453056449107589 0 0.33330573658971779 0.098662629186543255 0 0.33438373093900742 0.1089835611415479 0 0.32724112632684599 0.10453056449107589 0 0.32616520035271163 0.1114988279239446 0 0.33438373093900742 0.1089835611415479 0 0.33330573658971779 0.098662629186543255 0 0.33438373093900742 0.1089835611415479 0 0.34366163397007571 0.1037041578594803 0 0.34187897658060012 0.093440906559230305 0 0.33330573658971779 0.098662629186543255 0 0.34366163397007571 0.1037041578594803 0 0.34187897658060012 0.093440906559230305 0 0.34366163397007571 0.1037041578594803 0 0.34953175468915132 0.095839288201435349 0 0.34953175468915132 0.095839288201435349 0 0.35499631242245189 0.10743274381886971 0 0.36411889413773729 0.089871266353555551 0 0.34366163397007571 0.1037041578594803 0 0.34953175468915132 0.095839288201435349 0 0.35499631242245189 0.10743274381886971 0 0.3427693047329371 0.1157148194322609 0 0.34366163397007571 0.1037041578594803 0 0.35499631242245189 0.10743274381886971 0 0.3427693047329371 0.1157148194322609 0 0.3527704905258322 0.1198758945950185 0 0.34598674847975441 0.13040746309532461 0 0.3427693047329371 0.1157148194322609 0 0.35499631242245189 0.10743274381886971 0 0.3527704905258322 0.1198758945950185 0 0.35499631242245189 0.10743274381886971 0 0.3527704905258322 0.1198758945950185 0 0.36340676067177102 0.11906576568221849 0 0.3527704905258322 0.1198758945950185 0 0.36340676067177102 0.11906576568221849 0 0.35745352491216242 0.12859513935055261 0 0.35499631242245189 0.10743274381886971 0 0.36340676067177102 0.11906576568221849 0 0.36900559487620449 0.1069895393547772 0 0.36340676067177102 0.11906576568221849 0 0.36900559487620449 0.1069895393547772 0 0.37633624597385662 0.11787314924386549 0 0.36340676067177102 0.11906576568221849 0 0.36843820122724952 0.13253901076837041 0 0.37633624597385662 0.11787314924386549 0 0.36900559487620449 0.1069895393547772 0 0.36411889413773729 0.089871266353555551 0 0.38425611014452149 0.101559669883044 0 0.35499631242245189 0.10743274381886971 0 0.36900559487620449 0.1069895393547772 0 0.36411889413773729 0.089871266353555551 0 0.36411889413773729 0.089871266353555551 0 0.38425611014452149 0.101559669883044 0 0.36411889413773729 0.089871266353555551 0 0.36921975373312133 0.076088670573887268 0 0.38046958531655561 0.083315368016622496 0 0.36411889413773729 0.089871266353555551 0 0.3575817888948094 0.076578593908736836 0 0.36921975373312133 0.076088670573887268 0 0.34953175468915132 0.095839288201435349 0 0.36411889413773729 0.089871266353555551 0 0.34743821010737519 0.088029549889242845 0 0.34372379727923191 0.077867712162210251 0 0.36411889413773729 0.089871266353555551 0 0.34372379727923191 0.077867712162210251 0 0.36411889413773729 0.089871266353555551 0 0.3575817888948094 0.076578593908736836 0 0.34372379727923191 0.077867712162210251 0 0.36411889413773729 0.089871266353555551 0 0.34743821010737519 0.088029549889242845 0 0.34187897658060012 0.093440906559230305 0 0.34953175468915132 0.095839288201435349 0 0.34743821010737519 0.088029549889242845 0 0.33764003033130979 0.06962465743302873 0 0.35405935465125993 0.063067058123378761 0 0.34455939430151722 0.059459024714578118 0 0.33767974699843462 0.082813425507925947 0 0.34372379727923191 0.077867712162210251 0 0.35405935465125993 0.063067058123378761 0 0.34372379727923191 0.077867712162210251 0 0.3584565961030044 0.065812187079307638 0 0.34372379727923191 0.077867712162210251 0 0.3575817888948094 0.076578593908736836 0 0.3584565961030044 0.065812187079307638 0 0.34372379727923191 0.077867712162210251 0 0.3584565961030044 0.065812187079307638 0 0.35405935465125993 0.063067058123378761 0 0.3584565961030044 0.065812187079307638 0 0.36785073429063059 0.067080440981299685 0 0.37237415052946049 0.060647558952129962 0 0.3584565961030044 0.065812187079307638 0 0.36327721825539139 0.071389973135807847 0 0.36785073429063059 0.067080440981299685 0 0.3575817888948094 0.076578593908736836 0 0.3584565961030044 0.065812187079307638 0 0.36327721825539139 0.071389973135807847 0 0.3575817888948094 0.076578593908736836 0 0.36327721825539139 0.071389973135807847 0 0.36921975373312133 0.076088670573887268 0 0.36327721825539139 0.071389973135807847 0 0.36921975373312133 0.076088670573887268 0 0.36785073429063059 0.067080440981299685 0 0.36921975373312133 0.076088670573887268 0 0.36785073429063059 0.067080440981299685 0 0.37301306653167959 0.069456512048757718 0 0.36921975373312133 0.076088670573887268 0 0.37301306653167959 0.069456512048757718 0 0.37961539329696659 0.072097472282260489 0 0.37301306653167959 0.069456512048757718 0 0.37358971833934568 0.065173607592700508 0 0.37746586975022423 0.066971296969019156 0 0.36785073429063059 0.067080440981299685 0 0.37301306653167959 0.069456512048757718 0 0.37358971833934568 0.065173607592700508 0 0.36785073429063059 0.067080440981299685 0 0.37358971833934568 0.065173607592700508 0 0.37237415052946049 0.060647558952129962 0 0.37358971833934568 0.065173607592700508 0 0.37237415052946049 0.060647558952129962 0 0.37791465938860203 0.062638891402254926 0 0.3584565961030044 0.065812187079307638 0 0.37237415052946049 0.060647558952129962 0 0.37923344520757368 0.048810948650688697 0 0.3584565961030044 0.065812187079307638 0 0.36678556687727648 0.055361441334503839 0 0.37923344520757368 0.048810948650688697 0 0.3584565961030044 0.065812187079307638 0 0.37923344520757368 0.048810948650688697 0 0.35405935465125993 0.063067058123378761 0 0.37476279719691319 0.043892271592934878 0 0.35405935465125993 0.063067058123378761 0 0.36678556687727648 0.055361441334503839 0 0.37476279719691319 0.043892271592934878 0 0.35405935465125993 0.063067058123378761 0 0.36459347155320998 0.05077023092912071 0 0.37476279719691319 0.043892271592934878 0 0.3584565961030044 0.065812187079307638 0 0.35405935465125993 0.063067058123378761 0 0.36678556687727648 0.055361441334503839 0 0.36459347155320998 0.05077023092912071 0 0.36563333607644333 0.045380751377374219 0 0.35889479839192739 0.048814144112124813 0 0.36459347155320998 0.05077023092912071 0 0.3577701384023495 0.054750517747029347 0 0.35889479839192739 0.048814144112124813 0 0.36459347155320998 0.05077023092912071 0 0.36882366738910938 0.046226654184747702 0 0.36563333607644333 0.045380751377374219 0 0.36678556687727648 0.055361441334503839 0 0.37476279719691319 0.043892271592934878 0 0.37923344520757368 0.048810948650688697 0 0.36459347155320998 0.05077023092912071 0 0.37476279719691319 0.043892271592934878 0 0.36882366738910938 0.046226654184747702 0 0.37476279719691319 0.043892271592934878 0 0.37240847295540969 0.041302007137853439 0 0.37040706840446902 0.04420042107322749 0 0.37240847295540969 0.041302007137853439 0 0.36206838284241821 0.029118418787502851 0 0.38745126406920649 0.032140668296120882 0 0.37476279719691319 0.043892271592934878 0 0.37040706840446902 0.04420042107322749 0 0.36882366738910938 0.046226654184747702 0 0.37476279719691319 0.043892271592934878 0 0.37240847295540969 0.041302007137853439 0 0.37736030690649891 0.041486551187629589 0 0.37240847295540969 0.041302007137853439 0 0.37736030690649891 0.041486551187629589 0 0.37476279719691319 0.043892271592934878 0 0.37240847295540969 0.041302007137853439 0 0.37240847295540969 0.041302007137853439 0 0.37040706840446902 0.04420042107322749 0 0.36563333607644333 0.045380751377374219 0 0.37040706840446902 0.04420042107322749 0 0.36882366738910938 0.046226654184747702 0 0.36563333607644333 0.045380751377374219 0 0.37240847295540969 0.041302007137853439 0 0.36206838284241821 0.029118418787502851 0 0.37240847295540969 0.041302007137853439 0 0.35832503375167418 0.034707076265795639 0 0.36206838284241821 0.029118418787502851 0 0.37240847295540969 0.041302007137853439 0 0.35750488968813282 0.040746583099112978 0 0.35832503375167418 0.034707076265795639 0 0.37240847295540969 0.041302007137853439 0 0.36563333607644333 0.045380751377374219 0 0.35750488968813282 0.040746583099112978 0 0.37240847295540969 0.041302007137853439 0 0.35750488968813282 0.040746583099112978 0 0.36563333607644333 0.045380751377374219 0 0.35750488968813282 0.040746583099112978 0 0.35889479839192739 0.048814144112124813 0 0.35750488968813282 0.040746583099112978 0 0.35028470072919748 0.044948670677001909 0 0.35889479839192739 0.048814144112124813 0 0.35832503375167418 0.034707076265795639 0 0.34538630639128898 0.036814621579176081 0 0.35792607481866612 0.028625208884439649 0 0.35750488968813282 0.040746583099112978 0 0.35832503375167418 0.034707076265795639 0 0.34538630639128898 0.036814621579176081 0 0.34538630639128898 0.036814621579176081 0 0.35028470072919748 0.044948670677001909 0 0.34291332430198118 0.048298137213115939 0 0.35750488968813282 0.040746583099112978 0 0.34538630639128898 0.036814621579176081 0 0.35028470072919748 0.044948670677001909 0 0.35028470072919748 0.044948670677001909 0 0.35199186668673621 0.052453273569428263 0 0.34291332430198118 0.048298137213115939 0 0.34455939430151722 0.059459024714578118 0 0.35199186668673621 0.052453273569428263 0 0.34291332430198118 0.048298137213115939 0 0.35405935465125993 0.063067058123378761 0 0.34455939430151722 0.059459024714578118 0 0.35294815233267829 0.05751883862428997 0 0.34455939430151722 0.059459024714578118 0 0.35294815233267829 0.05751883862428997 0 0.35199186668673621 0.052453273569428263 0 0.35294815233267829 0.05751883862428997 0 0.3577701384023495 0.054750517747029347 0 0.35199186668673621 0.052453273569428263 0 0.35405935465125993 0.063067058123378761 0 0.35294815233267829 0.05751883862428997 0 0.3577701384023495 0.054750517747029347 0 0.35405935465125993 0.063067058123378761 0 0.36459347155320998 0.05077023092912071 0 0.3577701384023495 0.054750517747029347 0 0.3577701384023495 0.054750517747029347 0 0.35889479839192739 0.048814144112124813 0 0.35199186668673621 0.052453273569428263 0 0.35028470072919748 0.044948670677001909 0 0.35889479839192739 0.048814144112124813 0 0.35199186668673621 0.052453273569428263 0 0.36230355318305651 0.0078712884785177503 0 0.3580787192078857 0.01188297401524124 0 0.35843567287196809 0.0035144151888312882 0 0.36678757346642171 0.0041515566250526431 0 0.35843567287196809 0.0035144151888312882 0 0.35935228663599039 -0.0048114488478301484 0 0.36678757346642171 0.0041515566250526431 0 0.36230355318305651 0.0078712884785177503 0 0.35843567287196809 0.0035144151888312882 0 0.36678757346642171 0.0041515566250526431 0 0.37495508844019299 0.003652689079625755 0 0.36801745464278901 -0.0041454160857303983 0 0.36678757346642171 0.0041515566250526431 0 0.37495508844019299 0.003652689079625755 0 0.37462966441300449 0.01149328103671185 0 0.37462966441300449 0.01149328103671185 0 0.36616585384286138 0.012514918280761589 0 0.37285655976824289 0.01868474300795565 0 0.36678757346642171 0.0041515566250526431 0 0.37462966441300449 0.01149328103671185 0 0.36616585384286138 0.012514918280761589 0 0.36616585384286138 0.012514918280761589 0 0.36194659951897612 0.016239847304929979 0 0.3580787192078857 0.01188297401524124 0 0.36678757346642171 0.0041515566250526431 0 0.36616585384286138 0.012514918280761589 0 0.36230355318305651 0.0078712884785177503 0 0.36616585384286138 0.012514918280761589 0 0.36230355318305651 0.0078712884785177503 0 0.3580787192078857 0.01188297401524124 0 0.36206838284241821 0.029118418787502851 0 0.38745126406920649 0.032140668296120882 0 0.37109296736476011 0.024391215337483941 0 0.36206838284241821 0.029118418787502851 0 0.38745126406920649 0.032140668296120882 0 0.36268859610414778 0.022764822068231182 0 0.36631594570062531 0.0200992011736198 0 0.37109296736476011 0.024391215337483941 0 0.36194659951897612 0.016239847304929979 0 0.36268859610414778 0.022764822068231182 0 0.35842381030061687 0.019383155260906299 0 0.36194659951897612 0.016239847304929979 0 0.35842381030061687 0.019383155260906299 0 0.3580787192078857 0.01188297401524124 0 0.36194659951897612 0.016239847304929979 0 0.36268859610414778 0.022764822068231182 0 0.36631594570062531 0.0200992011736198 0 0.36616585384286138 0.012514918280761589 0 0.36194659951897612 0.016239847304929979 0 0.36631594570062531 0.0200992011736198 0 0.37285655976824289 0.01868474300795565 0 0.37109296736476011 0.024391215337483941 0 0.37931936372767239 0.02403264859453675 0 0.36616585384286138 0.012514918280761589 0 0.36631594570062531 0.0200992011736198 0 0.37285655976824289 0.01868474300795565 0 0.36631594570062531 0.0200992011736198 0 0.37285655976824289 0.01868474300795565 0 0.37109296736476011 0.024391215337483941 0 0.36268859610414778 0.022764822068231182 0 0.35792607481866612 0.028625208884439649 0 0.35842381030061687 0.019383155260906299 0 0.37109296736476011 0.024391215337483941 0 0.36206838284241821 0.029118418787502851 0 0.35792607481866612 0.028625208884439649 0 0.36268859610414778 0.022764822068231182 0 0.37109296736476011 0.024391215337483941 0 0.35792607481866612 0.028625208884439649 0 0.35832503375167418 0.034707076265795639 0 0.36206838284241821 0.029118418787502851 0 0.35792607481866612 0.028625208884439649 0 0.36206838284241821 0.029118418787502851 0 0.35792607481866612 0.028625208884439649 0 0.34538630639128898 0.036814621579176081 0 0.35792607481866612 0.028625208884439649 0 0.32840088556812558 0.02510974947275792 0 0.35792607481866612 0.028625208884439649 0 0.34530005210769149 0.01552980317236013 0 0.32840088556812558 0.02510974947275792 0 0.35792607481866612 0.028625208884439649 0 0.35314808621403732 0.016103238452065301 0 0.35842381030061687 0.019383155260906299 0 0.35792607481866612 0.028625208884439649 0 0.35314808621403732 0.016103238452065301 0 0.34530005210769149 0.01552980317236013 0 0.35314808621403732 0.016103238452065301 0 0.35842381030061687 0.019383155260906299 0 0.3580787192078857 0.01188297401524124 0 0.3580787192078857 0.01188297401524124 0 0.35256304724701992 0.0100057925348691 0 0.35843567287196809 0.0035144151888312882 0 0.35314808621403732 0.016103238452065301 0 0.3580787192078857 0.01188297401524124 0 0.35256304724701992 0.0100057925348691 0 0.35256304724701992 0.0100057925348691 0 0.34530005210769149 0.01552980317236013 0 0.3478527058335168 0.0029985318458475431 0 0.35314808621403732 0.016103238452065301 0 0.35256304724701992 0.0100057925348691 0 0.34530005210769149 0.01552980317236013 0 0.3478527058335168 0.0029985318458475431 0 0.35843567287196809 0.0035144151888312882 0 0.35174757496052972 -0.004401562338937336 0 0.35256304724701992 0.0100057925348691 0 0.3478527058335168 0.0029985318458475431 0 0.35843567287196809 0.0035144151888312882 0 0.34530005210769149 0.01552980317236013 0 0.33398308021336398 0.0037047267811294682 0 0.32840088556812558 0.02510974947275792 0 0.34530005210769149 0.01552980317236013 0 0.3478527058335168 0.0029985318458475431 0 0.33398308021336398 0.0037047267811294682 0 0.35792607481866612 0.028625208884439649 0 0.32840088556812558 0.02510974947275792 0 0.32840088556812558 0.02510974947275792 0 0.31913211362922289 0.0099371361858591415 0 0.30798216961211111 0.023134573966410551 0 0.32840088556812558 0.02510974947275792 0 0.31364796642220932 0.041650641092141047 0 0.30798216961211111 0.023134573966410551 0 0.33398308021336398 0.0037047267811294682 0 0.32840088556812558 0.02510974947275792 0 0.31913211362922289 0.0099371361858591415 0 0.31913211362922289 0.0099371361858591415 0 0.30588981492172601 0.002439841043038488 0 0.32153595636847943 -0.0024912293887817561 0 0.33398308021336398 0.0037047267811294682 0 0.31913211362922289 0.0099371361858591415 0 0.32153595636847943 -0.0024912293887817561 0 0.33469697818644062 0.054617784067265293 0 0.33101770727820867 0.044026639964324189 0 0.32140236071283113 0.057403605372439707 0 0.3335921043376644 0.063901513071868435 0 0.33469697818644062 0.054617784067265293 0 0.32140236071283113 0.057403605372439707 0 0.3335921043376644 0.063901513071868435 0 0.34455939430151722 0.059459024714578118 0 0.33469697818644062 0.054617784067265293 0 0.34455939430151722 0.059459024714578118 0 0.33469697818644062 0.054617784067265293 0 0.34291332430198118 0.048298137213115939 0 0.33469697818644062 0.054617784067265293 0 0.34291332430198118 0.048298137213115939 0 0.33101770727820867 0.044026639964324189 0 0.34538630639128898 0.036814621579176081 0 0.34291332430198118 0.048298137213115939 0 0.33101770727820867 0.044026639964324189 0 0.34538630639128898 0.036814621579176081 0 0.32840088556812558 0.02510974947275792 0 0.33101770727820867 0.044026639964324189 0 0.32840088556812558 0.02510974947275792 0 0.33101770727820867 0.044026639964324189 0 0.31364796642220932 0.041650641092141047 0 0.31364796642220932 0.041650641092141047 0 0.32140236071283113 0.057403605372439707 0 0.30375195907626312 0.056315672823856827 0 0.33101770727820867 0.044026639964324189 0 0.31364796642220932 0.041650641092141047 0 0.32140236071283113 0.057403605372439707 0 0.31364796642220932 0.041650641092141047 0 0.30375195907626312 0.056315672823856827 0 0.28933271628571627 0.043913604953057073 0 0.32140236071283113 0.057403605372439707 0 0.30375195907626312 0.056315672823856827 0 0.3094590213654016 0.070342112939100962 0 0.31364796642220932 0.041650641092141047 0 0.28933271628571627 0.043913604953057073 0 0.30798216961211111 0.023134573966410551 0 0.28933271628571627 0.043913604953057073 0 0.28259416226221717 0.015299469420085929 0 0.27757385097093989 0.036212522793807857 0 0.28933271628571627 0.043913604953057073 0 0.29607127030921537 0.072527740486028197 0 0.30375195907626312 0.056315672823856827 0 0.28933271628571627 0.043913604953057073 0 0.29607127030921537 0.072527740486028197 0 0.28933271628571627 0.043913604953057073 0 0.28047721615592403 0.065315343812970661 0 0.29607127030921537 0.072527740486028197 0 0.30588981492172601 0.002439841043038488 0 0.30798216961211111 0.023134573966410551 0 0.29526000164315958 0.01807089213341196 0 0.30588981492172601 0.002439841043038488 0 0.29526000164315958 0.01807089213341196 0 0.29050114513402753 0.0055669712844677597 0 0.31913211362922289 0.0099371361858591415 0 0.30588981492172601 0.002439841043038488 0 0.30798216961211111 0.023134573966410551 0 0.30588981492172601 0.002439841043038488 0 0.29050114513402753 0.0055669712844677597 0 0.29606097689681582 -0.0036238285357404151 0 0.28933271628571627 0.043913604953057073 0 0.30798216961211111 0.023134573966410551 0 0.29526000164315958 0.01807089213341196 0 0.28933271628571627 0.043913604953057073 0 0.29526000164315958 0.01807089213341196 0 0.28259416226221717 0.015299469420085929 0 0.28933271628571627 0.043913604953057073 0 0.28259416226221717 0.015299469420085929 0 0.29526000164315958 0.01807089213341196 0 0.28259416226221717 0.015299469420085929 0 0.29050114513402753 0.0055669712844677597 0 0.28259416226221717 0.015299469420085929 0 0.29050114513402753 0.0055669712844677597 0 0.27878433021538401 0.0042887798269855698 0 0.29050114513402753 0.0055669712844677597 0 0.27878433021538401 0.0042887798269855698 0 0.28515541689400048 -0.002871929595754245 0 0.27878433021538401 0.0042887798269855698 0 0.27365551633206331 0.024008271199047651 0 0.28259416226221717 0.015299469420085929 0 0.27878433021538401 0.0042887798269855698 0 0.27365551633206331 0.024008271199047651 0 0.27878433021538401 0.0042887798269855698 0 0.26878228537850762 0.01058887159798823 0 0.27365551633206331 0.024008271199047651 0 0.26747992533006892 0.0031544748770629999 0 0.27878433021538401 0.0042887798269855698 0 0.27384820699535511 -0.0038844471402397912 0 0.26747992533006892 0.0031544748770629999 0 0.27878433021538401 0.0042887798269855698 0 0.26878228537850762 0.01058887159798823 0 0.26747992533006892 0.0031544748770629999 0 0.26878228537850762 0.01058887159798823 0 0.26232223008327898 0.010014120329909349 0 0.28259416226221717 0.015299469420085929 0 0.27365551633206331 0.024008271199047651 0 0.27757385097093989 0.036212522793807857 0 0.26878228537850762 0.01058887159798823 0 0.27365551633206331 0.024008271199047651 0 0.26439016081983302 0.01753150471188673 0 0.27365551633206331 0.024008271199047651 0 0.26025105654195818 0.0253769145725187 0 0.26439016081983302 0.01753150471188673 0 0.26025105654195818 0.0253769145725187 0 0.26191493376928882 0.03463902601021443 0 0.25392148086072691 0.032220210432752298 0 0.27365551633206331 0.024008271199047651 0 0.26025105654195818 0.0253769145725187 0 0.26191493376928882 0.03463902601021443 0 0.26025105654195818 0.0253769145725187 0 0.25120105678908078 0.02419039512390813 0 0.25392148086072691 0.032220210432752298 0 0.24510305125085591 0.02993903034939497 0 0.25120105678908078 0.02419039512390813 0 0.25392148086072691 0.032220210432752298 0 0.2486024776200059 0.016654203094090929 0 0.25120105678908078 0.02419039512390813 0 0.25693971576335689 0.01766934585996971 0 0.26025105654195818 0.0253769145725187 0 0.25120105678908078 0.02419039512390813 0 0.25693971576335689 0.01766934585996971 0 0.26025105654195818 0.0253769145725187 0 0.25693971576335689 0.01766934585996971 0 0.26439016081983302 0.01753150471188673 0 0.26878228537850762 0.01058887159798823 0 0.26439016081983302 0.01753150471188673 0 0.26232223008327898 0.010014120329909349 0 0.25693971576335689 0.01766934585996971 0 0.26439016081983302 0.01753150471188673 0 0.26232223008327898 0.010014120329909349 0 0.25693971576335689 0.01766934585996971 0 0.26232223008327898 0.010014120329909349 0 0.25257232655810741 0.01222979089227948 0 0.26232223008327898 0.010014120329909349 0 0.25257232655810741 0.01222979089227948 0 0.25612279108826141 0.002394243423969229 0 0.2486024776200059 0.016654203094090929 0 0.25693971576335689 0.01766934585996971 0 0.25257232655810741 0.01222979089227948 0 0.24637522602358761 0.00088169354209314784 0 0.25612279108826141 0.002394243423969229 0 0.25040151105958658 0.0055971893843182576 0 0.25257232655810741 0.01222979089227948 0 0.25612279108826141 0.002394243423969229 0 0.25040151105958658 0.0055971893843182576 0 0.26747992533006892 0.0031544748770629999 0 0.25612279108826141 0.002394243423969229 0 0.26326902946290959 -0.004775168129690267 0 0.26747992533006892 0.0031544748770629999 0 0.26232223008327898 0.010014120329909349 0 0.25612279108826141 0.002394243423969229 0 0.27376015752596039 0.054113505825738907 0 0.26852670244874249 0.043727762571109732 0 0.26339788856542229 0.063447253943171911 0 0.26852670244874249 0.043727762571109732 0 0.26339788856542229 0.063447253943171911 0 0.28933271628571627 0.043913604953057073 0 0.27376015752596039 0.054113505825738907 0 0.28047721615592403 0.065315343812970661 0 0.27376015752596039 0.054113505825738907 0 0.26339788856542229 0.063447253943171911 0 0.28047721615592403 0.065315343812970661 0 0.27365551633206331 0.024008271199047651 0 0.26852670244874249 0.043727762571109732 0 0.26191493376928882 0.03463902601021443 0 0.27365551633206331 0.024008271199047651 0 0.26852670244874249 0.043727762571109732 0 0.27376015752596039 0.054113505825738907 0 0.27757385097093989 0.036212522793807857 0 0.26852670244874249 0.043727762571109732 0 0.27365551633206331 0.024008271199047651 0 0.27757385097093989 0.036212522793807857 0 0.26852670244874249 0.043727762571109732 0 0.28933271628571627 0.043913604953057073 0 0.27376015752596039 0.054113505825738907 0 0.27757385097093989 0.036212522793807857 0 0.26852670244874249 0.043727762571109732 0 0.25988967968627469 0.043263513241540867 0 0.26191493376928882 0.03463902601021443 0 0.25988967968627469 0.043263513241540867 0 0.26191493376928882 0.03463902601021443 0 0.25524516674596692 0.039237484044317338 0 0.26852670244874249 0.043727762571109732 0 0.25988967968627469 0.043263513241540867 0 0.25764626432991489 0.051424603781013892 0 0.26191493376928882 0.03463902601021443 0 0.25392148086072691 0.032220210432752298 0 0.25524516674596692 0.039237484044317338 0 0.24867026828239761 0.038097702182248623 0 0.25392148086072691 0.032220210432752298 0 0.25524516674596692 0.039237484044317338 0 0.24334429870242 0.044267468012004541 0 0.25301588290366778 0.043405118851215743 0 0.25764626432991489 0.051424603781013892 0 0.25988967968627469 0.043263513241540867 0 0.25301588290366778 0.043405118851215743 0 0.25764626432991489 0.051424603781013892 0 0.25988967968627469 0.043263513241540867 0 0.25524516674596692 0.039237484044317338 0 0.25301588290366778 0.043405118851215743 0 0.24867026828239761 0.038097702182248623 0 0.25524516674596692 0.039237484044317338 0 0.25301588290366778 0.043405118851215743 0 0.24334429870242 0.044267468012004541 0 0.26339788856542229 0.063447253943171911 0 0.2484312972887181 0.056541775366689723 0 0.24334429870242 0.044267468012004541 0 0.26339788856542229 0.063447253943171911 0 0.24334429870242 0.044267468012004541 0 0.25764626432991489 0.051424603781013892 0 0.26339788856542229 0.063447253943171911 0 0.26852670244874249 0.043727762571109732 0 0.25764626432991489 0.051424603781013892 0 0.26339788856542229 0.063447253943171911 0 0.2484312972887181 0.056541775366689723 0 0.26115090075317071 0.072086572464936965 0 0.26339788856542229 0.063447253943171911 0 0.24853635857035189 0.069490596889548964 0 0.2484312972887181 0.056541775366689723 0 0.26115090075317071 0.072086572464936965 0 0.2484312972887181 0.056541775366689723 0 0.26115090075317071 0.072086572464936965 0 0.24997250701208401 0.079471354332479371 0 0.24853635857035189 0.069490596889548964 0 0.26115090075317071 0.072086572464936965 0 0.26115090075317071 0.072086572464936965 0 0.26339788856542229 0.063447253943171911 0 0.27080068978687061 0.076878108429687814 0 0.26115090075317071 0.072086572464936965 0 0.26339788856542229 0.063447253943171911 0 0.26115090075317071 0.072086572464936965 0 0.27555011337982038 0.089684042329557415 0 0.25529564938109472 0.094599102952415665 0 0.24997250701208401 0.079471354332479371 0 0.26115090075317071 0.072086572464936965 0 0.25529564938109472 0.094599102952415665 0 0.26115090075317071 0.072086572464936965 0 0.25529564938109472 0.094599102952415665 0 0.26115090075317071 0.072086572464936965 0 0.27555011337982038 0.089684042329557415 0 0.27080068978687061 0.076878108429687814 0 0.26115090075317071 0.072086572464936965 0 0.27555011337982038 0.089684042329557415 0 0.27555011337982038 0.089684042329557415 0 0.27080068978687061 0.076878108429687814 0 0.28310385644906921 0.082294564981085033 0 0.26339788856542229 0.063447253943171911 0 0.27080068978687061 0.076878108429687814 0 0.28310385644906921 0.082294564981085033 0 0.26339788856542229 0.063447253943171911 0 0.28047721615592403 0.065315343812970661 0 0.28310385644906921 0.082294564981085033 0 0.26339788856542229 0.063447253943171911 0 0.28310385644906921 0.082294564981085033 0 0.28047721615592403 0.065315343812970661 0 0.29607127030921537 0.072527740486028197 0 0.28310385644906921 0.082294564981085033 0 0.28310385644906921 0.082294564981085033 0 0.30373587151890469 0.1020275721419699 0 0.28894182550581499 0.096125960704564459 0 0.29607127030921537 0.072527740486028197 0 0.28310385644906921 0.082294564981085033 0 0.30373587151890469 0.1020275721419699 0 0.28310385644906921 0.082294564981085033 0 0.30373587151890469 0.1020275721419699 0 0.27555011337982038 0.089684042329557415 0 0.28310385644906921 0.082294564981085033 0 0.28894182550581499 0.096125960704564459 0 0.31915262930334698 0.078609134654491514 0 0.30691688742535139 0.086854411358688488 0 0.30996687307048149 0.094295689728376486 0 0.31915262930334698 0.078609134654491514 0 0.30691688742535139 0.086854411358688488 0 0.3094590213654016 0.070342112939100962 0 0.29607127030921537 0.072527740486028197 0 0.30691688742535139 0.086854411358688488 0 0.30373587151890469 0.1020275721419699 0 0.29607127030921537 0.072527740486028197 0 0.30373587151890469 0.1020275721419699 0 0.30691688742535139 0.086854411358688488 0 0.30996687307048149 0.094295689728376486 0 0.30674576212054239 0.098489256085534424 0 0.29607127030921537 0.072527740486028197 0 0.30691688742535139 0.086854411358688488 0 0.3094590213654016 0.070342112939100962 0 0.30375195907626312 0.056315672823856827 0 0.29607127030921537 0.072527740486028197 0 0.3094590213654016 0.070342112939100962 0 0.31437318018996718 0.1236592893967839 0 0.31153360406396202 0.10948553064138911 0 0.30855998701574799 0.1066414843227199 0 0.30373587151890469 0.1020275721419699 0 0.29617853016998408 0.10379057161542379 0 0.2950231581298397 0.12522718834775401 0 0.31437318018996718 0.1236592893967839 0 0.30855998701574799 0.1066414843227199 0 0.30985313689903188 0.13105011741186609 0 0.30373587151890469 0.1020275721419699 0 0.30985313689903188 0.13105011741186609 0 0.2950231581298397 0.12522718834775401 0 0.30373587151890469 0.1020275721419699 0 0.30985313689903188 0.13105011741186609 0 0.30373587151890469 0.1020275721419699 0 0.2950231581298397 0.12522718834775401 0 0.30855998701574799 0.1066414843227199 0 0.30373587151890469 0.1020275721419699 0 0.30985313689903188 0.13105011741186609 0 0.31690289789386428 0.09981466393654348 0 0.30855998701574799 0.1066414843227199 0 0.30869042160641541 0.1007155724328772 0 0.31690289789386428 0.09981466393654348 0 0.31153360406396202 0.10948553064138911 0 0.30855998701574799 0.1066414843227199 0 0.31153360406396202 0.10948553064138911 0 0.30855998701574799 0.1066414843227199 0 0.30736345221542771 0.10306362777715899 0 0.30855998701574799 0.1066414843227199 0 0.30869042160641541 0.1007155724328772 0 0.30559174422968499 0.1023982553954795 0 0.30855998701574799 0.1066414843227199 0 0.30373587151890469 0.1020275721419699 0 0.30736345221542771 0.10306362777715899 0 0.30559174422968499 0.1023982553954795 0 0.30855998701574799 0.1066414843227199 0 0.30855998701574799 0.1066414843227199 0 0.30373587151890469 0.1020275721419699 0 0.30736345221542771 0.10306362777715899 0 0.30559174422968499 0.1023982553954795 0 0.30869042160641541 0.1007155724328772 0 0.30559174422968499 0.1023982553954795 0 0.30570223469915869 0.10030602978432759 0 0.30373587151890469 0.1020275721419699 0 0.30691688742535139 0.086854411358688488 0 0.30674576212054239 0.098489256085534424 0 0.30373587151890469 0.1020275721419699 0 0.31690289789386428 0.09981466393654348 0 0.30996687307048149 0.094295689728376486 0 0.30869042160641541 0.1007155724328772 0 0.30996687307048149 0.094295689728376486 0 0.30869042160641541 0.1007155724328772 0 0.30674576212054239 0.098489256085534424 0 0.30869042160641541 0.1007155724328772 0 0.30570223469915869 0.10030602978432759 0 0.30674576212054239 0.098489256085534424 0 0.30559174422968499 0.1023982553954795 0 0.30869042160641541 0.1007155724328772 0 0.30570223469915869 0.10030602978432759 0 0.30570223469915869 0.10030602978432759 0 0.30674576212054239 0.098489256085534424 0 0.30373587151890469 0.1020275721419699 0 0.27555011337982038 0.089684042329557415 0 0.28994932600646722 0.10728151219418031 0 0.28894182550581499 0.096125960704564459 0 0.27555011337982038 0.089684042329557415 0 0.28994932600646722 0.10728151219418031 0 0.28994932600646722 0.10728151219418031 0 0.29617853016998408 0.10379057161542379 0 0.28894182550581499 0.096125960704564459 0 0.30373587151890469 0.1020275721419699 0 0.29617853016998408 0.10379057161542379 0 0.28894182550581499 0.096125960704564459 0 0.28994932600646722 0.10728151219418031 0 0.29617853016998408 0.10379057161542379 0 0.2950231581298397 0.12522718834775401 0 0.28994932600646722 0.10728151219418031 0 0.28145761755113158 0.124157324361126 0 0.2950231581298397 0.12522718834775401 0 0.28145761755113158 0.124157324361126 0 0.26957723182764498 0.1092612275195704 0 0.26598696894727208 0.13176404221397811 0 0.28994932600646722 0.10728151219418031 0 0.28145761755113158 0.124157324361126 0 0.26957723182764498 0.1092612275195704 0 0.27555011337982038 0.089684042329557415 0 0.26957723182764498 0.1092612275195704 0 0.25529564938109472 0.094599102952415665 0 0.27555011337982038 0.089684042329557415 0 0.28994932600646722 0.10728151219418031 0 0.26957723182764498 0.1092612275195704 0 0.2494403980090209 0.1171116334398949 0 0.25529564938109472 0.094599102952415665 0 0.2494403980090209 0.1171116334398949 0 0.26957723182764498 0.1092612275195704 0 0.25529564938109472 0.094599102952415665 0 0.2494403980090209 0.1171116334398949 0 0.26957723182764498 0.1092612275195704 0 0.26598696894727208 0.13176404221397811 0 0.243585146636947 0.13962416392737431 0 0.2494403980090209 0.1171116334398949 0 0.26598696894727208 0.13176404221397811 0 0.28145761755113158 0.124157324361126 0 0.26598696894727208 0.13176404221397811 0 0.2867514028444339 0.14725265153014711 0 0.26598696894727208 0.13176404221397811 0 0.2602033980042267 0.15272867852389249 0 0.2867514028444339 0.14725265153014711 0 0.243585146636947 0.13962416392737431 0 0.26598696894727208 0.13176404221397811 0 0.2602033980042267 0.15272867852389249 0 0.2602033980042267 0.15272867852389249 0 0.25071325899215041 0.17221730569813209 0 0.27847964755902799 0.1692781147125402 0 0.24778755904117561 0.19261041655277891 0 0.25071325899215041 0.17221730569813209 0 0.27020789227362219 0.1913035778949333 0 0.25071325899215041 0.17221730569813209 0 0.27847964755902799 0.1692781147125402 0 0.27020789227362219 0.1913035778949333 0 0.27847964755902799 0.1692781147125402 0 0.27020789227362219 0.1913035778949333 0 0.289058168694731 0.18796158221219969 0 0.27847964755902799 0.1692781147125402 0 0.27020789227362219 0.1913035778949333 0 0.2602033980042267 0.15272867852389249 0 0.27847964755902799 0.1692781147125402 0 0.2867514028444339 0.14725265153014711 0 0.27847964755902799 0.1692781147125402 0 0.2867514028444339 0.14725265153014711 0 0.27847964755902799 0.1692781147125402 0 0.3093137447821756 0.1713485403172651 0 0.29826805441795667 0.15680401639297001 0 0.27847964755902799 0.1692781147125402 0 0.29826805441795667 0.15680401639297001 0 0.2867514028444339 0.14725265153014711 0 0.27847964755902799 0.1692781147125402 0 0.3093137447821756 0.1713485403172651 0 0.289058168694731 0.18796158221219969 0 0.3093137447821756 0.1713485403172651 0 0.30678402707827979 0.19519316577750559 0 0.3205133484592898 0.19094472295078449 0 0.3093137447821756 0.1713485403172651 0 0.289058168694731 0.18796158221219969 0 0.30678402707827979 0.19519316577750559 0 0.3093137447821756 0.1713485403172651 0 0.30678402707827979 0.19519316577750559 0 0.3093137447821756 0.1713485403172651 0 0.31184346248607142 0.1475039148570246 0 0.3093137447821756 0.1713485403172651 0 0.29826805441795667 0.15680401639297001 0 0.31184346248607142 0.1475039148570246 0 0.29826805441795667 0.15680401639297001 0 0.30053200981397099 0.14185034902154919 0 0.31184346248607142 0.1475039148570246 0 0.30053200981397099 0.14185034902154919 0 0.30985313689903188 0.13105011741186609 0 0.2950231581298397 0.12522718834775401 0 0.31437318018996718 0.1236592893967839 0 0.31184346248607142 0.1475039148570246 0 0.30985313689903188 0.13105011741186609 0 0.30053200981397099 0.14185034902154919 0 0.31184346248607142 0.1475039148570246 0 0.30985313689903188 0.13105011741186609 0 0.30053200981397099 0.14185034902154919 0 0.2950231581298397 0.12522718834775401 0 0.2867514028444339 0.14725265153014711 0 0.28145761755113158 0.124157324361126 0 0.2950231581298397 0.12522718834775401 0 0.2867514028444339 0.14725265153014711 0 0.2950231581298397 0.12522718834775401 0 0.2867514028444339 0.14725265153014711 0 0.29826805441795667 0.15680401639297001 0 0.30053200981397099 0.14185034902154919 0 0.2867514028444339 0.14725265153014711 0 0.27307748593554881 0.23770691408494371 0 0.25330306868854607 0.24974758695179611 0 0.28316477846165211 0.24967076173474309 0 0.27307748593554881 0.23770691408494371 0 0.25330306868854607 0.24974758695179611 0 0.25611452929584783 0.23210673768206719 0 0.24586651296841919 0.21342090670682359 0 0.25611452929584783 0.23210673768206719 0 0.27109979028774939 0.22238326984860879 0 0.27307748593554881 0.23770691408494371 0 0.27109979028774939 0.22238326984860879 0 0.28728925970993607 0.2250354225304714 0 0.27307748593554881 0.23770691408494371 0 0.25611452929584783 0.23210673768206719 0 0.27109979028774939 0.22238326984860879 0 0.27109979028774939 0.22238326984860879 0 0.26359539615420557 0.20583442208723979 0 0.2855538394707362 0.20695797068534219 0 0.24586651296841919 0.21342090670682359 0 0.27109979028774939 0.22238326984860879 0 0.26359539615420557 0.20583442208723979 0 0.24778755904117561 0.19261041655277891 0 0.24586651296841919 0.21342090670682359 0 0.26359539615420557 0.20583442208723979 0 0.24586651296841919 0.21342090670682359 0 0.27109979028774939 0.22238326984860879 0 0.24778755904117561 0.19261041655277891 0 0.26359539615420557 0.20583442208723979 0 0.27020789227362219 0.1913035778949333 0 0.26359539615420557 0.20583442208723979 0 0.27020789227362219 0.1913035778949333 0 0.2855538394707362 0.20695797068534219 0 0.27020789227362219 0.1913035778949333 0 0.289058168694731 0.18796158221219969 0 0.2855538394707362 0.20695797068534219 0 0.289058168694731 0.18796158221219969 0 0.30678402707827979 0.19519316577750559 0 0.2855538394707362 0.20695797068534219 0 0.30678402707827979 0.19519316577750559 0 0.30512975563115458 0.219964737291894 0 0.31944751541988708 0.2070985331264773 0 0.30678402707827979 0.19519316577750559 0 0.2855538394707362 0.20695797068534219 0 0.30512975563115458 0.219964737291894 0 0.27109979028774939 0.22238326984860879 0 0.2855538394707362 0.20695797068534219 0 0.28728925970993607 0.2250354225304714 0 0.2855538394707362 0.20695797068534219 0 0.28728925970993607 0.2250354225304714 0 0.30512975563115458 0.219964737291894 0 0.28728925970993607 0.2250354225304714 0 0.30512975563115458 0.219964737291894 0 0.29582390204477982 0.24047110352359821 0 0.29582390204477982 0.24047110352359821 0 0.31857031815401088 0.24323529296225249 0 0.30512975563115458 0.219964737291894 0 0.29582390204477982 0.24047110352359821 0 0.31857031815401088 0.24323529296225249 0 0.30391607325737691 0.25765648791281842 0 0.29582390204477982 0.24047110352359821 0 0.31857031815401088 0.24323529296225249 0 0.30391607325737691 0.25765648791281842 0 0.29582390204477982 0.24047110352359821 0 0.28316477846165211 0.24967076173474309 0 0.27307748593554881 0.23770691408494371 0 0.29582390204477982 0.24047110352359821 0 0.27307748593554881 0.23770691408494371 0 0.29582390204477982 0.24047110352359821 0 0.28316477846165211 0.24967076173474309 0 0.27307748593554881 0.23770691408494371 0 0.28728925970993607 0.2250354225304714 0 0.29582390204477982 0.24047110352359821 0 0.32854686329858718 0.25611047685695282 0 0.34131673426324188 0.24599948240090661 0 0.31857031815401088 0.24323529296225249 0 0.34131673426324188 0.24599948240090661 0 0.31857031815401088 0.24323529296225249 0 0.34131673426324188 0.24599948240090661 0 0.32942911378368789 0.23575528969102769 0 0.31857031815401088 0.24323529296225249 0 0.34131673426324188 0.24599948240090661 0 0.34082537861321732 0.24238771303395909 0 0.34131673426324188 0.24599948240090661 0 0.34082537861321732 0.24238771303395909 0 0.33600949099255129 0.23755557048803561 0 0.34082537861321732 0.24238771303395909 0 0.34157987514945259 0.23553488923105001 0 0.33600949099255129 0.23755557048803561 0 0.34131673426324188 0.24599948240090661 0 0.33600949099255129 0.23755557048803561 0 0.32942911378368789 0.23575528969102769 0 0.32942911378368789 0.23575528969102769 0 0.31857031815401088 0.24323529296225249 0 0.32103556795540328 0.22410803057565351 0 0.30512975563115458 0.219964737291894 0 0.31857031815401088 0.24323529296225249 0 0.32103556795540328 0.22410803057565351 0 0.32942911378368789 0.23575528969102769 0 0.32103556795540328 0.22410803057565351 0 0.33132167324693063 0.2239934637405776 0 0.32103556795540328 0.22410803057565351 0 0.33132167324693063 0.2239934637405776 0 0.33047339021253092 0.213612266303739 0 0.33600949099255129 0.23755557048803561 0 0.32942911378368789 0.23575528969102769 0 0.33948105489119318 0.22799881408872441 0 0.32942911378368789 0.23575528969102769 0 0.33132167324693063 0.2239934637405776 0 0.33948105489119318 0.22799881408872441 0 0.34157987514945259 0.23553488923105001 0 0.33948105489119318 0.22799881408872441 0 0.34921777841887869 0.23597328920842461 0 0.34157987514945259 0.23553488923105001 0 0.33600949099255129 0.23755557048803561 0 0.33948105489119318 0.22799881408872441 0 0.33948105489119318 0.22799881408872441 0 0.33921030112756828 0.2183571664198268 0 0.35138640466353899 0.22094759292870461 0 0.33132167324693063 0.2239934637405776 0 0.33948105489119318 0.22799881408872441 0 0.33921030112756828 0.2183571664198268 0 0.33921030112756828 0.2183571664198268 0 0.33047339021253092 0.213612266303739 0 0.34433031194384178 0.20772723350410369 0 0.33047339021253092 0.213612266303739 0 0.33199781998617511 0.19854284888254939 0 0.34433031194384178 0.20772723350410369 0 0.33132167324693063 0.2239934637405776 0 0.33921030112756828 0.2183571664198268 0 0.33047339021253092 0.213612266303739 0 0.32103556795540328 0.22410803057565351 0 0.33047339021253092 0.213612266303739 0 0.31944751541988708 0.2070985331264773 0 0.30512975563115458 0.219964737291894 0 0.32103556795540328 0.22410803057565351 0 0.31944751541988708 0.2070985331264773 0 0.33047339021253092 0.213612266303739 0 0.31944751541988708 0.2070985331264773 0 0.33199781998617511 0.19854284888254939 0 0.31944751541988708 0.2070985331264773 0 0.3205133484592898 0.19094472295078449 0 0.33199781998617511 0.19854284888254939 0 0.30678402707827979 0.19519316577750559 0 0.31944751541988708 0.2070985331264773 0 0.3205133484592898 0.19094472295078449 0 0.3205133484592898 0.19094472295078449 0 0.33199781998617511 0.19854284888254939 0 0.33141795568678017 0.18145847716178279 0 0.34271896399431712 0.19149916487831131 0 0.33199781998617511 0.19854284888254939 0 0.33141795568678017 0.18145847716178279 0 0.34271896399431712 0.19149916487831131 0 0.33199781998617511 0.19854284888254939 0 0.34433031194384178 0.20772723350410369 0 0.34271896399431712 0.19149916487831131 0 0.3545005939388825 0.19664954220204869 0 0.34953893704288119 0.17965103855650971 0 0.34271896399431712 0.19149916487831131 0 0.3545005939388825 0.19664954220204869 0 0.34433031194384178 0.20772723350410369 0 0.3545005939388825 0.19664954220204869 0 0.36772814303100942 0.19740799818709631 0 0.36381316300551469 0.18328455994800491 0 0.36772814303100942 0.19740799818709631 0 0.36381316300551469 0.18328455994800491 0 0.37784640986734092 0.18803847418595601 0 0.36772814303100942 0.19740799818709631 0 0.37274924287330802 0.21127902563260259 0 0.37959206550313651 0.20016221830289571 0 0.3545005939388825 0.19664954220204869 0 0.36772814303100942 0.19740799818709631 0 0.35925187558593602 0.20883085044332911 0 0.36772814303100942 0.19740799818709631 0 0.37274924287330802 0.21127902563260259 0 0.35925187558593602 0.20883085044332911 0 0.37274924287330802 0.21127902563260259 0 0.35925187558593602 0.20883085044332911 0 0.3646173926726291 0.22017664407414639 0 0.35925187558593602 0.20883085044332911 0 0.35138640466353899 0.22094759292870461 0 0.3646173926726291 0.22017664407414639 0 0.35925187558593602 0.20883085044332911 0 0.34433031194384178 0.20772723350410369 0 0.35138640466353899 0.22094759292870461 0 0.3545005939388825 0.19664954220204869 0 0.35925187558593602 0.20883085044332911 0 0.34433031194384178 0.20772723350410369 0 0.33921030112756828 0.2183571664198268 0 0.34433031194384178 0.20772723350410369 0 0.35138640466353899 0.22094759292870461 0 0.33948105489119318 0.22799881408872441 0 0.35138640466353899 0.22094759292870461 0 0.34921777841887869 0.23597328920842461 0 0.35138640466353899 0.22094759292870461 0 0.36237549348250991 0.23097691321243799 0 0.34921777841887869 0.23597328920842461 0 0.37274924287330802 0.21127902563260259 0 0.3646173926726291 0.22017664407414639 0 0.37732394675785258 0.22884883815365761 0 0.35138640466353899 0.22094759292870461 0 0.3646173926726291 0.22017664407414639 0 0.36237549348250991 0.23097691321243799 0 0.3646173926726291 0.22017664407414639 0 0.36237549348250991 0.23097691321243799 0 0.37732394675785258 0.22884883815365761 0 0.36237549348250991 0.23097691321243799 0 0.36515898826689819 0.24889684022616351 0 0.37732394675785258 0.22884883815365761 0 0.34131673426324188 0.24599948240090661 0 0.36515898826689819 0.24889684022616351 0 0.36237549348250991 0.23097691321243799 0 0.36515898826689819 0.24889684022616351 0 0.34921777841887869 0.23597328920842461 0 0.34131673426324188 0.24599948240090661 0 0.36515898826689819 0.24889684022616351 0 0.34921777841887869 0.23597328920842461 0 0.34131673426324188 0.24599948240090661 0 0.34082537861321732 0.24238771303395909 0 0.34921777841887869 0.23597328920842461 0 0.34082537861321732 0.24238771303395909 0 0.34157987514945259 0.23553488923105001 0 0.34921777841887869 0.23597328920842461 0 0.32948619774227372 0.14823098990139499 0 0.34260678955832891 0.1443941809816961 0 0.33370343165960559 0.1357432928994938 0 0.32948619774227372 0.14823098990139499 0 0.34260678955832891 0.1443941809816961 0 0.33989518591085088 0.15821241870029079 0 0.34260678955832891 0.1443941809816961 0 0.33370343165960559 0.1357432928994938 0 0.34598674847975441 0.13040746309532461 0 0.33567235926055711 0.12643110993479159 0 0.33370343165960559 0.1357432928994938 0 0.34598674847975441 0.13040746309532461 0 0.33567235926055711 0.12643110993479159 0 0.33370343165960559 0.1357432928994938 0 0.32620385711210409 0.1267591519802356 0 0.32948619774227372 0.14823098990139499 0 0.33370343165960559 0.1357432928994938 0 0.32258398486758277 0.1365532260660626 0 0.33370343165960559 0.1357432928994938 0 0.32258398486758277 0.1365532260660626 0 0.32620385711210409 0.1267591519802356 0 0.31437318018996718 0.1236592893967839 0 0.31184346248607142 0.1475039148570246 0 0.31437318018996718 0.1236592893967839 0 0.31184346248607142 0.1475039148570246 0 0.32258398486758277 0.1365532260660626 0 0.31437318018996718 0.1236592893967839 0 0.32258398486758277 0.1365532260660626 0 0.32620385711210409 0.1267591519802356 0 0.31184346248607142 0.1475039148570246 0 0.32948619774227372 0.14823098990139499 0 0.32258398486758277 0.1365532260660626 0 0.31184346248607142 0.1475039148570246 0 0.32948619774227372 0.14823098990139499 0 0.32581432326884802 0.16527448147375839 0 0.3093137447821756 0.1713485403172651 0 0.31184346248607142 0.1475039148570246 0 0.32581432326884802 0.16527448147375839 0 0.3093137447821756 0.1713485403172651 0 0.3205133484592898 0.19094472295078449 0 0.33141795568678017 0.18145847716178279 0 0.3093137447821756 0.1713485403172651 0 0.32581432326884802 0.16527448147375839 0 0.33141795568678017 0.18145847716178279 0 0.34271896399431712 0.19149916487831131 0 0.33141795568678017 0.18145847716178279 0 0.34953893704288119 0.17965103855650971 0 0.32581432326884802 0.16527448147375839 0 0.33141795568678017 0.18145847716178279 0 0.33932013559828023 0.17035252173347609 0 0.33141795568678017 0.18145847716178279 0 0.33932013559828023 0.17035252173347609 0 0.34953893704288119 0.17965103855650971 0 0.32948619774227372 0.14823098990139499 0 0.32581432326884802 0.16527448147375839 0 0.33989518591085088 0.15821241870029079 0 0.32581432326884802 0.16527448147375839 0 0.33932013559828023 0.17035252173347609 0 0.33989518591085088 0.15821241870029079 0 0.33932013559828023 0.17035252173347609 0 0.33989518591085088 0.15821241870029079 0 0.35050091989205479 0.16420037323970471 0 0.33989518591085088 0.15821241870029079 0 0.35050091989205479 0.16420037323970471 0 0.35000035119338357 0.1523800085413359 0 0.33932013559828023 0.17035252173347609 0 0.35050091989205479 0.16420037323970471 0 0.34953893704288119 0.17965103855650971 0 0.35050091989205479 0.16420037323970471 0 0.34953893704288119 0.17965103855650971 0 0.36342665885080871 0.16851381237189619 0 0.35050091989205479 0.16420037323970471 0 0.36342665885080871 0.16851381237189619 0 0.36076880545135498 0.15415584339985169 0 0.35050091989205479 0.16420037323970471 0 0.36076880545135498 0.15415584339985169 0 0.35000035119338357 0.1523800085413359 0 0.3545005939388825 0.19664954220204869 0 0.34953893704288119 0.17965103855650971 0 0.36381316300551469 0.18328455994800491 0 0.34953893704288119 0.17965103855650971 0 0.36381316300551469 0.18328455994800491 0 0.36342665885080871 0.16851381237189619 0 0.36381316300551469 0.18328455994800491 0 0.37170966351175871 0.17475250402012141 0 0.36342665885080871 0.16851381237189619 0 0.36381316300551469 0.18328455994800491 0 0.37170966351175871 0.17475250402012141 0 0.37784640986734092 0.18803847418595601 0 0.36342665885080871 0.16851381237189619 0 0.36907043412210372 0.1593882190312185 0 0.36076880545135498 0.15415584339985169 0 0.36342665885080871 0.16851381237189619 0 0.36907043412210372 0.1593882190312185 0 0.37689816934725079 0.1649013703646858 0 0.37170966351175871 0.17475250402012141 0 0.36342665885080871 0.16851381237189619 0 0.37689816934725079 0.1649013703646858 0 0.36907043412210372 0.1593882190312185 0 0.37394801009922729 0.15163211944078181 0 0.37689816934725079 0.1649013703646858 0 0.37394801009922729 0.15163211944078181 0 0.36698523753079743 0.14377851561163429 0 0.36076880545135498 0.15415584339985169 0 0.36907043412210372 0.1593882190312185 0 0.37394801009922729 0.15163211944078181 0 0.36076880545135498 0.15415584339985169 0 0.37394801009922729 0.15163211944078181 0 0.36698523753079743 0.14377851561163429 0 0.37947205812285639 0.1416145968885473 0 0.36698523753079743 0.14377851561163429 0 0.36076880545135498 0.15415584339985169 0 0.35623005515432837 0.1409372263851362 0 0.36076880545135498 0.15415584339985169 0 0.35623005515432837 0.1409372263851362 0 0.35000035119338357 0.1523800085413359 0 0.34260678955832891 0.1443941809816961 0 0.35623005515432837 0.1409372263851362 0 0.35000035119338357 0.1523800085413359 0 0.34260678955832891 0.1443941809816961 0 0.33989518591085088 0.15821241870029079 0 0.35000035119338357 0.1523800085413359 0 0.34260678955832891 0.1443941809816961 0 0.35623005515432837 0.1409372263851362 0 0.34598674847975441 0.13040746309532461 0 0.35623005515432837 0.1409372263851362 0 0.34598674847975441 0.13040746309532461 0 0.35745352491216242 0.12859513935055261 0 0.3527704905258322 0.1198758945950185 0 0.34598674847975441 0.13040746309532461 0 0.35745352491216242 0.12859513935055261 0 0.36340676067177102 0.11906576568221849 0 0.35745352491216242 0.12859513935055261 0 0.36843820122724952 0.13253901076837041 0 0.36698523753079743 0.14377851561163429 0 0.35623005515432837 0.1409372263851362 0 0.36843820122724952 0.13253901076837041 0 0.35623005515432837 0.1409372263851362 0 0.35745352491216242 0.12859513935055261 0 0.36843820122724952 0.13253901076837041 0 0.36698523753079743 0.14377851561163429 0 0.36843820122724952 0.13253901076837041 0 0.37947205812285639 0.1416145968885473 0 0.36843820122724952 0.13253901076837041 0 0.38337270446516453 0.12912044581138621 0 0.37633624597385662 0.11787314924386549 0 0.36843820122724952 0.13253901076837041 0 0.38337270446516453 0.12912044581138621 0 0.37947205812285639 0.1416145968885473 0 0.38337270446516453 0.12912044581138621 0 0.393491275902769 0.1363723703807069 0 0.37947205812285639 0.1416145968885473 0 0.3983590257911091 0.12646847041017109 0 0.393491275902769 0.1363723703807069 0 0.41010482929320341 0.13568850945743641 0 0.38337270446516453 0.12912044581138621 0 0.3983590257911091 0.12646847041017109 0 0.393491275902769 0.1363723703807069 0 0.393491275902769 0.1363723703807069 0 0.40282182525928067 0.1470075824098529 0 0.41010482929320341 0.13568850945743641 0 0.3983590257911091 0.12646847041017109 0 0.41010482929320341 0.13568850945743641 0 0.40439332615130569 0.11324807341253269 0 0.39320068722244572 0.14698739271444619 0 0.38567955232510309 0.1564219881259119 0 0.4014960014428845 0.15786069399433511 0 0.40282182525928067 0.1470075824098529 0 0.39320068722244572 0.14698739271444619 0 0.4014960014428845 0.15786069399433511 0 0.393491275902769 0.1363723703807069 0 0.40282182525928067 0.1470075824098529 0 0.39320068722244572 0.14698739271444619 0 0.393491275902769 0.1363723703807069 0 0.39320068722244572 0.14698739271444619 0 0.37947205812285639 0.1416145968885473 0 0.39320068722244572 0.14698739271444619 0 0.37947205812285639 0.1416145968885473 0 0.38567955232510309 0.1564219881259119 0 0.37394801009922729 0.15163211944078181 0 0.37947205812285639 0.1416145968885473 0 0.38567955232510309 0.1564219881259119 0 0.37394801009922729 0.15163211944078181 0 0.37689816934725079 0.1649013703646858 0 0.38567955232510309 0.1564219881259119 0 0.37689816934725079 0.1649013703646858 0 0.38222224285969358 0.17595091025420451 0 0.39194546648269651 0.16703749557521369 0 0.37689816934725079 0.1649013703646858 0 0.38567955232510309 0.1564219881259119 0 0.39194546648269651 0.16703749557521369 0 0.37170966351175871 0.17475250402012141 0 0.37689816934725079 0.1649013703646858 0 0.38222224285969358 0.17595091025420451 0 0.37170966351175871 0.17475250402012141 0 0.38222224285969358 0.17595091025420451 0 0.37784640986734092 0.18803847418595601 0 0.38222224285969358 0.17595091025420451 0 0.39186643844087532 0.181387592874936 0 0.39194546648269651 0.16703749557521369 0 0.38222224285969358 0.17595091025420451 0 0.39186643844087532 0.181387592874936 0 0.37784640986734092 0.18803847418595601 0 0.39186643844087532 0.181387592874936 0 0.40033245261945649 0.18675163248018259 0 0.39049362474529331 0.19402313909591759 0 0.39186643844087532 0.181387592874936 0 0.39194546648269651 0.16703749557521369 0 0.40673665102984657 0.17380343856122951 0 0.40033245261945649 0.18675163248018259 0 0.40673665102984657 0.17380343856122951 0 0.40919249678580571 0.18753015110824381 0 0.39186643844087532 0.181387592874936 0 0.40033245261945649 0.18675163248018259 0 0.40673665102984657 0.17380343856122951 0 0.39194546648269651 0.16703749557521369 0 0.4014960014428845 0.15786069399433511 0 0.40673665102984657 0.17380343856122951 0 0.38567955232510309 0.1564219881259119 0 0.39194546648269651 0.16703749557521369 0 0.4014960014428845 0.15786069399433511 0 0.39194546648269651 0.16703749557521369 0 0.40673665102984657 0.17380343856122951 0 0.41581633243510119 0.15812894550234011 0 0.42152783557699719 0.18056938154724411 0 0.41581633243510119 0.15812894550234011 0 0.40673665102984657 0.17380343856122951 0 0.42152783557699719 0.18056938154724411 0 0.4014960014428845 0.15786069399433511 0 0.41581633243510119 0.15812894550234011 0 0.40673665102984657 0.17380343856122951 0 0.41581633243510119 0.15812894550234011 0 0.42152783557699719 0.18056938154724411 0 0.42710510798032991 0.16840576923509731 0 0.40673665102984657 0.17380343856122951 0 0.41564512391046532 0.1843140362463718 0 0.40919249678580571 0.18753015110824381 0 0.40673665102984657 0.17380343856122951 0 0.42152783557699719 0.18056938154724411 0 0.41564512391046532 0.1843140362463718 0 0.40673665102984657 0.17380343856122951 0 0.42152783557699719 0.18056938154724411 0 0.42152783557699719 0.18056938154724411 0 0.41564512391046532 0.1843140362463718 0 0.42239674154510132 0.1839833039984452 0 0.42152783557699719 0.18056938154724411 0 0.44405109904735762 0.1908722153746302 0 0.42152783557699719 0.18056938154724411 0 0.43334261663636542 0.17817676641691749 0 0.44405109904735762 0.1908722153746302 0 0.42152783557699719 0.18056938154724411 0 0.42239674154510132 0.1839833039984452 0 0.44405109904735762 0.1908722153746302 0 0.42152783557699719 0.18056938154724411 0 0.42239674154510132 0.1839833039984452 0 0.42152783557699719 0.18056938154724411 0 0.43334261663636542 0.17817676641691749 0 0.42710510798032991 0.16840576923509731 0 0.43334261663636542 0.17817676641691749 0 0.42710510798032991 0.16840576923509731 0 0.44068642394077667 0.17285969951069821 0 0.41581633243510119 0.15812894550234011 0 0.42710510798032991 0.16840576923509731 0 0.43173006989368068 0.1560017924869106 0 0.42710510798032991 0.16840576923509731 0 0.43173006989368068 0.1560017924869106 0 0.44068642394077667 0.17285969951069821 0 0.43173006989368068 0.1560017924869106 0 0.42310141557498121 0.1418229126801924 0 0.43663842390990182 0.1299063334449567 0 0.41581633243510119 0.15812894550234011 0 0.43173006989368068 0.1560017924869106 0 0.42310141557498121 0.1418229126801924 0 0.43663842390990182 0.1299063334449567 0 0.42178849423668519 0.1290396678588287 0 0.42429118569117058 0.11840985397973409 0 0.42310141557498121 0.1418229126801924 0 0.43663842390990182 0.1299063334449567 0 0.42178849423668519 0.1290396678588287 0 0.42178849423668519 0.1290396678588287 0 0.41010482929320341 0.13568850945743641 0 0.41401998622703923 0.11883575184675491 0 0.42310141557498121 0.1418229126801924 0 0.42178849423668519 0.1290396678588287 0 0.41010482929320341 0.13568850945743641 0 0.41581633243510119 0.15812894550234011 0 0.41010482929320341 0.13568850945743641 0 0.40282182525928067 0.1470075824098529 0 0.41581633243510119 0.15812894550234011 0 0.41010482929320341 0.13568850945743641 0 0.41581633243510119 0.15812894550234011 0 0.42310141557498121 0.1418229126801924 0 0.41010482929320341 0.13568850945743641 0 0.40282182525928067 0.1470075824098529 0 0.4014960014428845 0.15786069399433511 0 0.41581633243510119 0.15812894550234011 0 0.3890012422705546 0.25179419805142012 0 0.39332724544463971 0.2256444906361314 0 0.41005693464694692 0.23139597289766389 0 0.3890012422705546 0.25179419805142012 0 0.41284349627421091 0.25469155587667658 0 0.41005693464694692 0.23139597289766389 0 0.3890012422705546 0.25179419805142012 0 0.36515898826689819 0.24889684022616351 0 0.37732394675785258 0.22884883815365761 0 0.3890012422705546 0.25179419805142012 0 0.37732394675785258 0.22884883815365761 0 0.39332724544463971 0.2256444906361314 0 0.37732394675785258 0.22884883815365761 0 0.39332724544463971 0.2256444906361314 0 0.38914290699873061 0.21006245441290591 0 0.39332724544463971 0.2256444906361314 0 0.40656919440010802 0.2116040590131521 0 0.41005693464694692 0.23139597289766389 0 0.38914290699873061 0.21006245441290591 0 0.40337305209546198 0.19701384076058631 0 0.40656919440010802 0.2116040590131521 0 0.39332724544463971 0.2256444906361314 0 0.38914290699873061 0.21006245441290591 0 0.40656919440010802 0.2116040590131521 0 0.37274924287330802 0.21127902563260259 0 0.38914290699873061 0.21006245441290591 0 0.37959206550313651 0.20016221830289571 0 0.37274924287330802 0.21127902563260259 0 0.37732394675785258 0.22884883815365761 0 0.38914290699873061 0.21006245441290591 0 0.38914290699873061 0.21006245441290591 0 0.37959206550313651 0.20016221830289571 0 0.39049362474529331 0.19402313909591759 0 0.36772814303100942 0.19740799818709631 0 0.37959206550313651 0.20016221830289571 0 0.37784640986734092 0.18803847418595601 0 0.37959206550313651 0.20016221830289571 0 0.37784640986734092 0.18803847418595601 0 0.39049362474529331 0.19402313909591759 0 0.39186643844087532 0.181387592874936 0 0.37784640986734092 0.18803847418595601 0 0.39049362474529331 0.19402313909591759 0 0.40033245261945649 0.18675163248018259 0 0.39049362474529331 0.19402313909591759 0 0.40337305209546198 0.19701384076058631 0 0.38914290699873061 0.21006245441290591 0 0.39049362474529331 0.19402313909591759 0 0.40337305209546198 0.19701384076058631 0 0.40033245261945649 0.18675163248018259 0 0.40337305209546198 0.19701384076058631 0 0.40919249678580571 0.18753015110824381 0 0.40337305209546198 0.19701384076058631 0 0.41837189461457608 0.19568390601669641 0 0.40656919440010802 0.2116040590131521 0 0.40337305209546198 0.19701384076058631 0 0.40919249678580571 0.18753015110824381 0 0.41837189461457608 0.19568390601669641 0 0.41564512391046532 0.1843140362463718 0 0.42239674154510132 0.1839833039984452 0 0.41837189461457608 0.19568390601669641 0 0.41564512391046532 0.1843140362463718 0 0.40919249678580571 0.18753015110824381 0 0.41837189461457608 0.19568390601669641 0 0.42239674154510132 0.1839833039984452 0 0.41837189461457608 0.19568390601669641 0 0.44405109904735762 0.1908722153746302 0 0.41837189461457608 0.19568390601669641 0 0.42628021548591671 0.21096599546912509 0 0.44405109904735762 0.1908722153746302 0 0.42628021548591671 0.21096599546912509 0 0.40656919440010802 0.2116040590131521 0 0.41005693464694692 0.23139597289766389 0 0.41837189461457608 0.19568390601669641 0 0.42628021548591671 0.21096599546912509 0 0.40656919440010802 0.2116040590131521 0 0.42628021548591671 0.21096599546912509 0 0.43148298288189357 0.23427745458552821 0 0.44514008563944679 0.21650502025438861 0 0.42628021548591671 0.21096599546912509 0 0.43148298288189357 0.23427745458552821 0 0.42628021548591671 0.21096599546912509 0 0.41005693464694692 0.23139597289766389 0 0.43148298288189357 0.23427745458552821 0 0.41284349627421091 0.25469155587667658 0 0.43668575027786721 0.25758891370193199 0 0.43148298288189357 0.23427745458552821 0 0.43668575027786721 0.25758891370193199 0 0.43148298288189357 0.23427745458552821 0 0.41284349627421091 0.25469155587667658 0 0.41005693464694692 0.23139597289766389 0 0.43148298288189357 0.23427745458552821 0 0.45283070825841942 0.24383381562730361 0 0.45145563581706238 0.22833315752901809 0 0.46884023837390099 0.2328999041853396 0 0.45283070825841942 0.24383381562730361 0 0.46884023837390099 0.2328999041853396 0 0.46919350202318177 0.2487520754501045 0 0.43668575027786721 0.25758891370193199 0 0.43148298288189357 0.23427745458552821 0 0.45283070825841942 0.24383381562730361 0 0.43148298288189357 0.23427745458552821 0 0.45283070825841942 0.24383381562730361 0 0.45145563581706238 0.22833315752901809 0 0.43148298288189357 0.23427745458552821 0 0.45145563581706238 0.22833315752901809 0 0.44514008563944679 0.21650502025438861 0 0.45145563581706238 0.22833315752901809 0 0.46020629138223967 0.22004880612356709 0 0.44514008563944679 0.21650502025438861 0 0.45145563581706238 0.22833315752901809 0 0.46020629138223967 0.22004880612356709 0 0.46884023837390099 0.2328999041853396 0 0.46020629138223967 0.22004880612356709 0 0.47328983685299719 0.21985915147455451 0 0.46884023837390099 0.2328999041853396 0 0.45900234204290269 0.20890923521900071 0 0.44822610372128319 0.20480179213394931 0 0.46657436251771872 0.2011750492020152 0 0.46020629138223967 0.22004880612356709 0 0.46847200281094331 0.2117624497645203 0 0.47328983685299719 0.21985915147455451 0 0.46020629138223967 0.22004880612356709 0 0.46847200281094331 0.2117624497645203 0 0.45900234204290269 0.20890923521900071 0 0.46847200281094331 0.2117624497645203 0 0.45900234204290269 0.20890923521900071 0 0.46657436251771872 0.2011750492020152 0 0.45900234204290269 0.20890923521900071 0 0.46657436251771872 0.2011750492020152 0 0.46020629138223967 0.22004880612356709 0 0.45900234204290269 0.20890923521900071 0 0.44514008563944679 0.21650502025438861 0 0.42628021548591671 0.21096599546912509 0 0.44514008563944679 0.21650502025438861 0 0.44822610372128319 0.20480179213394931 0 0.45900234204290269 0.20890923521900071 0 0.44514008563944679 0.21650502025438861 0 0.44822610372128319 0.20480179213394931 0 0.44822610372128319 0.20480179213394931 0 0.44405109904735762 0.1908722153746302 0 0.46657436251771872 0.2011750492020152 0 0.42628021548591671 0.21096599546912509 0 0.44822610372128319 0.20480179213394931 0 0.44405109904735762 0.1908722153746302 0 0.44405109904735762 0.1908722153746302 0 0.46657436251771872 0.2011750492020152 0 0.44405109904735762 0.1908722153746302 0 0.46657436251771872 0.2011750492020152 0 0.45969713735067053 0.18643877962062849 0 0.46657436251771872 0.2011750492020152 0 0.48745043529100762 0.19750353340972829 0 0.48328718125885822 0.20882000680346391 0 0.46657436251771872 0.2011750492020152 0 0.45969713735067053 0.18643877962062849 0 0.48328718125885839 0.18410430177838469 0 0.46657436251771872 0.2011750492020152 0 0.48745043529100762 0.19750353340972829 0 0.48328718125885839 0.18410430177838469 0 0.46657436251771872 0.2011750492020152 0 0.48328718125885839 0.18410430177838469 0 0.5 0.1917492593798332 0 0.48745043529100762 0.19750353340972829 0 0.48328718125885839 0.18410430177838469 0 0.5 0.1917492593798332 0 0.48745043529100762 0.19750353340972829 0 0.49999999999999789 0.2164649644049117 0 0.48745043529100762 0.19750353340972829 0 0.49999999999999789 0.2164649644049117 0 0.48328718125885822 0.20882000680346391 0 0.49999999999999789 0.2164649644049117 0 0.48328718125885822 0.20882000680346391 0 0.49999999999999789 0.2164649644049117 0 0.48328718125885822 0.20882000680346391 0 0.48503042921427469 0.22741421632931599 0 0.46847200281094331 0.2117624497645203 0 0.46657436251771872 0.2011750492020152 0 0.48328718125885822 0.20882000680346391 0 0.48328718125885822 0.20882000680346391 0 0.47328983685299719 0.21985915147455451 0 0.48503042921427469 0.22741421632931599 0 0.46657436251771872 0.2011750492020152 0 0.48328718125885822 0.20882000680346391 0 0.46847200281094331 0.2117624497645203 0 0.48328718125885822 0.20882000680346391 0 0.47328983685299719 0.21985915147455451 0 0.47328983685299719 0.21985915147455451 0 0.46884023837390099 0.2328999041853396 0 0.48503042921427469 0.22741421632931599 0 0.49999999999999789 0.2164649644049117 0 0.48503042921427469 0.22741421632931599 0 0.5 0.24425464330145341 0 0.47844367893881312 0.26266341971775459 0 0.5 0.24425464330145341 0 0.4815769265928514 0.2429082163709019 0 0.48503042921427469 0.22741421632931599 0 0.5 0.24425464330145341 0 0.4815769265928514 0.2429082163709019 0 0.46884023837390099 0.2328999041853396 0 0.46919350202318177 0.2487520754501045 0 0.4815769265928514 0.2429082163709019 0 0.46884023837390099 0.2328999041853396 0 0.48503042921427469 0.22741421632931599 0 0.4815769265928514 0.2429082163709019 0 0.45448671326245382 0.1474466883290069 0 0.47724335663122702 0.13889158417110309 0 0.45448671326245382 0.1474466883290069 0 0.46147882399944268 0.1251859118528921 0 0.47724335663122702 0.13889158417110309 0 0.43663842390990182 0.1299063334449567 0 0.45448671326245382 0.1474466883290069 0 0.46147882399944268 0.1251859118528921 0 0.43173006989368068 0.1560017924869106 0 0.45448671326245382 0.1474466883290069 0 0.43173006989368068 0.1560017924869106 0 0.43663842390990182 0.1299063334449567 0 0.45448671326245382 0.1474466883290069 0 0.43173006989368068 0.1560017924869106 0 0.45448671326245382 0.1474466883290069 0 0.44701837738169392 0.16111529111620931 0 0.44701837738169392 0.16111529111620931 0 0.44068642394077667 0.17285969951069821 0 0.46117030242986418 0.16815298413822169 0 0.43173006989368068 0.1560017924869106 0 0.44701837738169392 0.16111529111620931 0 0.44068642394077667 0.17285969951069821 0 0.44405109904735762 0.1908722153746302 0 0.44068642394077667 0.17285969951069821 0 0.45969713735067053 0.18643877962062849 0 0.43334261663636542 0.17817676641691749 0 0.44405109904735762 0.1908722153746302 0 0.44068642394077667 0.17285969951069821 0 0.45969713735067053 0.18643877962062849 0 0.46117030242986418 0.16815298413822169 0 0.48328718125885839 0.18410430177838469 0 0.44068642394077667 0.17285969951069821 0 0.45969713735067053 0.18643877962062849 0 0.46117030242986418 0.16815298413822169 0 0.45448671326245382 0.1474466883290069 0 0.44701837738169392 0.16111529111620931 0 0.46117030242986418 0.16815298413822169 0 0.45448671326245382 0.1474466883290069 0 0.46117030242986418 0.16815298413822169 0 0.47936459226373362 0.15905235499257461 0 0.46117030242986418 0.16815298413822169 0 0.47936459226373362 0.15905235499257461 0 0.48328718125885839 0.18410430177838469 0 0.48328718125885839 0.18410430177838469 0 0.49999999999999878 0.16703355435475489 0 0.5 0.1917492593798332 0 0.48328718125885839 0.18410430177838469 0 0.49999999999999878 0.16703355435475489 0 0.47936459226373362 0.15905235499257461 0 0.48328718125885839 0.18410430177838469 0 0.49999999999999878 0.16703355435475489 0 0.47936459226373362 0.15905235499257461 0 0.49999999999999878 0.16703355435475489 0 0.5 0.1486850171839772 0 0.47936459226373362 0.15905235499257461 0 0.5 0.1486850171839772 0 0.47724335663122702 0.13889158417110309 0 0.45448671326245382 0.1474466883290069 0 0.47936459226373362 0.15905235499257461 0 0.47724335663122702 0.13889158417110309 0 0.46147882399944268 0.1251859118528921 0 0.47724335663122702 0.13889158417110309 0 0.48287065214447811 0.1193162579019804 0 0.5 0.1486850171839772 0 0.47724335663122702 0.13889158417110309 0 0.50000000000000011 0.13033648001319939 0 0.47724335663122702 0.13889158417110309 0 0.50000000000000011 0.13033648001319939 0 0.47724335663122702 0.13889158417110309 0 0.50000000000000011 0.13033648001319939 0 0.48287065214447811 0.1193162579019804 0 0.5 0.10116600719845931 0 0.48287065214447811 0.1193162579019804 0 0.46827869727974009 0.1055288805659568 0 0.5 0.10116600719845931 0 0.47611781610698028 0.083824797529621631 0 0.46827869727974009 0.1055288805659568 0 0.50000000000000011 0.13033648001319939 0 0.5 0.10116600719845931 0 0.48287065214447811 0.1193162579019804 0 0.46147882399944268 0.1251859118528921 0 0.48287065214447811 0.1193162579019804 0 0.46827869727974009 0.1055288805659568 0 0.5 0.071995534383719084 0 0.47611781610698028 0.083824797529621631 0 0.4795409075756672 0.062908193001997903 0 0.5 0.10116600719845931 0 0.5 0.071995534383719084 0 0.47611781610698028 0.083824797529621631 0 0.47611781610698028 0.083824797529621631 0 0.4795409075756672 0.062908193001997903 0 0.45478776820432998 0.074295691495356156 0 0.4795409075756672 0.062908193001997903 0 0.45478776820432998 0.074295691495356156 0 0.45772777181770052 0.055415784619919313 0 0.47611781610698028 0.083824797529621631 0 0.45478776820432998 0.074295691495356156 0 0.4505822985290357 0.09388525880700975 0 0.45478776820432998 0.074295691495356156 0 0.4505822985290357 0.09388525880700975 0 0.43304439969592712 0.080453657587586894 0 0.45478776820432998 0.074295691495356156 0 0.43992998002053652 0.062022725091437407 0 0.45772777181770052 0.055415784619919313 0 0.45478776820432998 0.074295691495356156 0 0.43304439969592712 0.080453657587586894 0 0.43992998002053652 0.062022725091437407 0 0.46147882399944268 0.1251859118528921 0 0.46827869727974009 0.1055288805659568 0 0.44971186677116121 0.1113182260516572 0 0.47611781610698028 0.083824797529621631 0 0.46827869727974009 0.1055288805659568 0 0.4505822985290357 0.09388525880700975 0 0.46827869727974009 0.1055288805659568 0 0.4505822985290357 0.09388525880700975 0 0.44971186677116121 0.1113182260516572 0 0.4505822985290357 0.09388525880700975 0 0.4332935669487511 0.1082887424545495 0 0.43304439969592712 0.080453657587586894 0 0.4505822985290357 0.09388525880700975 0 0.44971186677116121 0.1113182260516572 0 0.4332935669487511 0.1082887424545495 0 0.43663842390990182 0.1299063334449567 0 0.44971186677116121 0.1113182260516572 0 0.4332935669487511 0.1082887424545495 0 0.43663842390990182 0.1299063334449567 0 0.46147882399944268 0.1251859118528921 0 0.44971186677116121 0.1113182260516572 0 0.42429118569117058 0.11840985397973409 0 0.41571545713347541 0.1059787742935805 0 0.4332935669487511 0.1082887424545495 0 0.43663842390990182 0.1299063334449567 0 0.42429118569117058 0.11840985397973409 0 0.4332935669487511 0.1082887424545495 0 0.41010482929320341 0.13568850945743641 0 0.40439332615130569 0.11324807341253269 0 0.41010482929320341 0.13568850945743641 0 0.41401998622703923 0.11883575184675491 0 0.40439332615130569 0.11324807341253269 0 0.42178849423668519 0.1290396678588287 0 0.42429118569117058 0.11840985397973409 0 0.41401998622703923 0.11883575184675491 0 0.42429118569117058 0.11840985397973409 0 0.41401998622703923 0.11883575184675491 0 0.41571545713347541 0.1059787742935805 0 0.41401998622703923 0.11883575184675491 0 0.40439332615130569 0.11324807341253269 0 0.41401998622703923 0.11883575184675491 0 0.41571545713347541 0.1059787742935805 0 0.40439332615130569 0.11324807341253269 0 0.41571545713347541 0.1059787742935805 0 0.40439332615130569 0.11324807341253269 0 0.39954836358834178 0.094212266229555017 0 0.41571545713347541 0.1059787742935805 0 0.41527352636835863 0.088462811186595894 0 0.39954836358834178 0.094212266229555017 0 0.41571545713347541 0.1059787742935805 0 0.4332935669487511 0.1082887424545495 0 0.41527352636835863 0.088462811186595894 0 0.4332935669487511 0.1082887424545495 0 0.41527352636835863 0.088462811186595894 0 0.4332935669487511 0.1082887424545495 0 0.43304439969592712 0.080453657587586894 0 0.41527352636835863 0.088462811186595894 0 0.43304439969592712 0.080453657587586894 0 0.42091441706711019 0.076697901571496779 0 0.41527352636835863 0.088462811186595894 0 0.43304439969592712 0.080453657587586894 0 0.42120829795794851 0.064966334518534008 0 0.43992998002053652 0.062022725091437407 0 0.43304439969592712 0.080453657587586894 0 0.42120829795794851 0.064966334518534008 0 0.42091441706711019 0.076697901571496779 0 0.41241061716172678 0.073008688827198007 0 0.41527352636835863 0.088462811186595894 0 0.39725348578796621 0.068636879918642313 0 0.42120829795794851 0.064966334518534008 0 0.42091441706711019 0.076697901571496779 0 0.41241061716172678 0.073008688827198007 0 0.42120829795794851 0.064966334518534008 0 0.41241061716172678 0.073008688827198007 0 0.40828946065134508 0.064927887639501955 0 0.42091441706711019 0.076697901571496779 0 0.41241061716172678 0.073008688827198007 0 0.41527352636835863 0.088462811186595894 0 0.39470340102537799 0.075176459046577243 0 0.39954836358834178 0.094212266229555017 0 0.41527352636835863 0.088462811186595894 0 0.39725348578796621 0.068636879918642313 0 0.41527352636835863 0.088462811186595894 0 0.39470340102537799 0.075176459046577243 0 0.39954836358834178 0.094212266229555017 0 0.39470340102537799 0.075176459046577243 0 0.39060886842902892 0.085938971049501517 0 0.39954836358834178 0.094212266229555017 0 0.39470340102537799 0.075176459046577243 0 0.38748297929006259 0.075914056174600189 0 0.39060886842902892 0.085938971049501517 0 0.41527352636835863 0.088462811186595894 0 0.39470340102537799 0.075176459046577243 0 0.39725348578796621 0.068636879918642313 0 0.41241061716172678 0.073008688827198007 0 0.40828946065134508 0.064927887639501955 0 0.39725348578796621 0.068636879918642313 0 0.40828946065134508 0.064927887639501955 0 0.39725348578796621 0.068636879918642313 0 0.40109951527299542 0.060269951741770279 0 0.39470340102537799 0.075176459046577243 0 0.39167627997771409 0.072059097118241447 0 0.38748297929006259 0.075914056174600189 0 0.39470340102537799 0.075176459046577243 0 0.39167627997771409 0.072059097118241447 0 0.39725348578796621 0.068636879918642313 0 0.39167627997771409 0.072059097118241447 0 0.39725348578796621 0.068636879918642313 0 0.38726525380744969 0.068508993333146057 0 0.39725348578796621 0.068636879918642313 0 0.38726525380744969 0.068508993333146057 0 0.38371006232658478 0.061432818185848018 0 0.38726525380744969 0.068508993333146057 0 0.38221757646618443 0.06543525012849799 0 0.38371006232658478 0.061432818185848018 0 0.38726525380744969 0.068508993333146057 0 0.37961539329696659 0.072097472282260489 0 0.38221757646618443 0.06543525012849799 0 0.38726525380744969 0.068508993333146057 0 0.38748297929006259 0.075914056174600189 0 0.37961539329696659 0.072097472282260489 0 0.39167627997771409 0.072059097118241447 0 0.38726525380744969 0.068508993333146057 0 0.38748297929006259 0.075914056174600189 0 0.36921975373312133 0.076088670573887268 0 0.37961539329696659 0.072097472282260489 0 0.38046958531655561 0.083315368016622496 0 0.38748297929006259 0.075914056174600189 0 0.37961539329696659 0.072097472282260489 0 0.38046958531655561 0.083315368016622496 0 0.37961539329696659 0.072097472282260489 0 0.37746586975022423 0.066971296969019156 0 0.38221757646618443 0.06543525012849799 0 0.37301306653167959 0.069456512048757718 0 0.37961539329696659 0.072097472282260489 0 0.37746586975022423 0.066971296969019156 0 0.37358971833934568 0.065173607592700508 0 0.37746586975022423 0.066971296969019156 0 0.37791465938860203 0.062638891402254926 0 0.37746586975022423 0.066971296969019156 0 0.37791465938860203 0.062638891402254926 0 0.38221757646618443 0.06543525012849799 0 0.37791465938860203 0.062638891402254926 0 0.38221757646618443 0.06543525012849799 0 0.38371006232658478 0.061432818185848018 0 0.39060886842902892 0.085938971049501517 0 0.38046958531655561 0.083315368016622496 0 0.38425611014452149 0.101559669883044 0 0.36411889413773729 0.089871266353555551 0 0.38046958531655561 0.083315368016622496 0 0.38425611014452149 0.101559669883044 0 0.38748297929006259 0.075914056174600189 0 0.39060886842902892 0.085938971049501517 0 0.38046958531655561 0.083315368016622496 0 0.36900559487620449 0.1069895393547772 0 0.38425611014452149 0.101559669883044 0 0.37633624597385662 0.11787314924386549 0 0.38425611014452149 0.101559669883044 0 0.37633624597385662 0.11787314924386549 0 0.38953810445822862 0.11796446396339649 0 0.38337270446516453 0.12912044581138621 0 0.37633624597385662 0.11787314924386549 0 0.38953810445822862 0.11796446396339649 0 0.38337270446516453 0.12912044581138621 0 0.3983590257911091 0.12646847041017109 0 0.38953810445822862 0.11796446396339649 0 0.38425611014452149 0.101559669883044 0 0.38953810445822862 0.11796446396339649 0 0.40439332615130569 0.11324807341253269 0 0.3983590257911091 0.12646847041017109 0 0.38953810445822862 0.11796446396339649 0 0.40439332615130569 0.11324807341253269 0 0.40439332615130569 0.11324807341253269 0 0.39954836358834178 0.094212266229555017 0 0.38425611014452149 0.101559669883044 0 0.40439332615130569 0.11324807341253269 0 0.38425611014452149 0.101559669883044 0 0.40439332615130569 0.11324807341253269 0 0.39954836358834178 0.094212266229555017 0 0.39060886842902892 0.085938971049501517 0 0.38425611014452149 0.101559669883044 0 0.39954836358834178 0.094212266229555017 0 0.40307101273951829 0.017674216847188371 0 0.38745126406920649 0.032140668296120882 0 0.39806189934447578 0.033404038949766117 0 0.40307101273951829 0.017674216847188371 0 0.3874144277584966 0.022153025360115399 0 0.38745126406920649 0.032140668296120882 0 0.40307101273951829 0.017674216847188371 0 0.38997660757523622 0.015125708964624189 0 0.3874144277584966 0.022153025360115399 0 0.40307101273951829 0.017674216847188371 0 0.39806189934447578 0.033404038949766117 0 0.41221338659120382 0.021824188338626122 0 0.40307101273951829 0.017674216847188371 0 0.38745126406920649 0.032140668296120882 0 0.39806189934447578 0.033404038949766117 0 0.41221338659120382 0.021824188338626122 0 0.40307101273951829 0.017674216847188371 0 0.40122830446044472 0.002068313897143383 0 0.41221338659120382 0.021824188338626122 0 0.40122830446044472 0.002068313897143383 0 0.39581782670029109 0.01061891317573163 0 0.38543343968564991 0.0063181098929067127 0 0.40122830446044472 0.002068313897143383 0 0.38543343968564991 0.0063181098929067127 0 0.38681010594574161 -0.0058873617999826754 0 0.40307101273951829 0.017674216847188371 0 0.40122830446044472 0.002068313897143383 0 0.39581782670029109 0.01061891317573163 0 0.40307101273951829 0.017674216847188371 0 0.39581782670029109 0.01061891317573163 0 0.38997660757523622 0.015125708964624189 0 0.38997660757523622 0.015125708964624189 0 0.38543343968564991 0.0063181098929067127 0 0.3812703089644196 0.016723609062446781 0 0.39581782670029109 0.01061891317573163 0 0.38997660757523622 0.015125708964624189 0 0.38543343968564991 0.0063181098929067127 0 0.37495508844019299 0.003652689079625755 0 0.37462966441300449 0.01149328103671185 0 0.38543343968564991 0.0063181098929067127 0 0.37495508844019299 0.003652689079625755 0 0.38543343968564991 0.0063181098929067127 0 0.37792891785728472 -0.0044163141075700763 0 0.37462966441300449 0.01149328103671185 0 0.38543343968564991 0.0063181098929067127 0 0.3812703089644196 0.016723609062446781 0 0.37109296736476011 0.024391215337483941 0 0.37931936372767239 0.02403264859453675 0 0.38745126406920649 0.032140668296120882 0 0.37285655976824289 0.01868474300795565 0 0.3812703089644196 0.016723609062446781 0 0.37931936372767239 0.02403264859453675 0 0.37462966441300449 0.01149328103671185 0 0.37285655976824289 0.01868474300795565 0 0.3812703089644196 0.016723609062446781 0 0.3812703089644196 0.016723609062446781 0 0.3874144277584966 0.022153025360115399 0 0.37931936372767239 0.02403264859453675 0 0.38997660757523622 0.015125708964624189 0 0.3812703089644196 0.016723609062446781 0 0.3874144277584966 0.022153025360115399 0 0.3874144277584966 0.022153025360115399 0 0.37931936372767239 0.02403264859453675 0 0.38745126406920649 0.032140668296120882 0 0.37736030690649891 0.041486551187629589 0 0.38745126406920649 0.032140668296120882 0 0.37240847295540969 0.041302007137853439 0 0.37736030690649891 0.041486551187629589 0 0.38745126406920649 0.032140668296120882 0 0.37736030690649891 0.041486551187629589 0 0.38771293230016463 0.041872370953561507 0 0.37736030690649891 0.041486551187629589 0 0.38771293230016463 0.041872370953561507 0 0.37923344520757368 0.048810948650688697 0 0.37476279719691319 0.043892271592934878 0 0.37736030690649891 0.041486551187629589 0 0.37476279719691319 0.043892271592934878 0 0.37736030690649891 0.041486551187629589 0 0.37923344520757368 0.048810948650688697 0 0.37476279719691319 0.043892271592934878 0 0.37923344520757368 0.048810948650688697 0 0.38771293230016463 0.041872370953561507 0 0.37923344520757368 0.048810948650688697 0 0.38771293230016463 0.041872370953561507 0 0.37923344520757368 0.048810948650688697 0 0.38865219917243199 0.048678709514218661 0 0.37736030690649891 0.041486551187629589 0 0.38771293230016463 0.041872370953561507 0 0.38745126406920649 0.032140668296120882 0 0.39725348578796621 0.068636879918642313 0 0.37923344520757368 0.048810948650688697 0 0.39725348578796621 0.068636879918642313 0 0.37923344520757368 0.048810948650688697 0 0.39178763841517977 0.055502570533772118 0 0.39725348578796621 0.068636879918642313 0 0.37923344520757368 0.048810948650688697 0 0.38371006232658478 0.061432818185848018 0 0.37830807936305533 0.058382554297730392 0 0.37923344520757368 0.048810948650688697 0 0.38371006232658478 0.061432818185848018 0 0.37237415052946049 0.060647558952129962 0 0.37830807936305533 0.058382554297730392 0 0.37923344520757368 0.048810948650688697 0 0.37791465938860203 0.062638891402254926 0 0.37830807936305533 0.058382554297730392 0 0.38371006232658478 0.061432818185848018 0 0.37237415052946049 0.060647558952129962 0 0.37791465938860203 0.062638891402254926 0 0.37830807936305533 0.058382554297730392 0 0.37923344520757368 0.048810948650688697 0 0.38865219917243199 0.048678709514218661 0 0.39178763841517977 0.055502570533772118 0 0.39587478076680899 0.048528947918851241 0 0.40169785614436532 0.052529099234015282 0 0.41150554949873491 0.042759069897005182 0 0.39178763841517977 0.055502570533772118 0 0.40169785614436532 0.052529099234015282 0 0.40109951527299542 0.060269951741770279 0 0.39725348578796621 0.068636879918642313 0 0.39178763841517977 0.055502570533772118 0 0.40109951527299542 0.060269951741770279 0 0.39178763841517977 0.055502570533772118 0 0.39587478076680899 0.048528947918851241 0 0.40169785614436532 0.052529099234015282 0 0.38865219917243199 0.048678709514218661 0 0.39178763841517977 0.055502570533772118 0 0.39587478076680899 0.048528947918851241 0 0.40169785614436532 0.052529099234015282 0 0.40109951527299542 0.060269951741770279 0 0.41032456944246071 0.056628714858314791 0 0.38771293230016463 0.041872370953561507 0 0.39806189934447578 0.033404038949766117 0 0.41150554949873491 0.042759069897005182 0 0.38771293230016463 0.041872370953561507 0 0.39587478076680899 0.048528947918851241 0 0.41150554949873491 0.042759069897005182 0 0.38771293230016463 0.041872370953561507 0 0.41150554949873491 0.042759069897005182 0 0.38745126406920649 0.032140668296120882 0 0.39806189934447578 0.033404038949766117 0 0.38771293230016463 0.041872370953561507 0 0.39806189934447578 0.033404038949766117 0 0.38771293230016463 0.041872370953561507 0 0.38745126406920649 0.032140668296120882 0 0.39806189934447578 0.033404038949766117 0 0.38771293230016463 0.041872370953561507 0 0.38865219917243199 0.048678709514218661 0 0.39587478076680899 0.048528947918851241 0 0.39806189934447578 0.033404038949766117 0 0.42420028089165179 0.03651624319802145 0 0.41405246182815941 0.025131631927776951 0 0.39806189934447578 0.033404038949766117 0 0.42420028089165179 0.03651624319802145 0 0.39806189934447578 0.033404038949766117 0 0.41150554949873491 0.042759069897005182 0 0.42420028089165179 0.03651624319802145 0 0.42120829795794851 0.064966334518534008 0 0.40828946065134508 0.064927887639501955 0 0.41032456944246071 0.056628714858314791 0 0.40828946065134508 0.064927887639501955 0 0.40109951527299542 0.060269951741770279 0 0.41032456944246071 0.056628714858314791 0 0.40169785614436532 0.052529099234015282 0 0.41150554949873491 0.042759069897005182 0 0.41032456944246071 0.056628714858314791 0 0.41150554949873491 0.042759069897005182 0 0.41032456944246071 0.056628714858314791 0 0.42349939702849421 0.0531204161665585 0 0.42120829795794851 0.064966334518534008 0 0.41032456944246071 0.056628714858314791 0 0.42349939702849421 0.0531204161665585 0 0.42120829795794851 0.064966334518534008 0 0.42349939702849421 0.0531204161665585 0 0.43992998002053652 0.062022725091437407 0 0.42349939702849421 0.0531204161665585 0 0.43529816669730498 0.043645768840450759 0 0.43992998002053652 0.062022725091437407 0 0.41150554949873491 0.042759069897005182 0 0.43529816669730498 0.043645768840450759 0 0.42420028089165179 0.03651624319802145 0 0.45033866243882759 0.039628447446279212 0 0.42420028089165179 0.03651624319802145 0 0.43529816669730498 0.043645768840450759 0 0.45033866243882759 0.039628447446279212 0 0.41150554949873491 0.042759069897005182 0 0.42349939702849421 0.0531204161665585 0 0.43529816669730498 0.043645768840450759 0 0.41150554949873491 0.042759069897005182 0 0.42420028089165179 0.03651624319802145 0 0.43529816669730498 0.043645768840450759 0 0.42872812450081682 0.022265291926841652 0 0.41221338659120382 0.021824188338626122 0 0.42989252497845631 0.0073577384249998356 0 0.42872812450081682 0.022265291926841652 0 0.42989252497845631 0.0073577384249998356 0 0.45012090269970301 0.017769439488159181 0 0.42420028089165179 0.03651624319802145 0 0.42872812450081682 0.022265291926841652 0 0.4391815018586363 0.028971531970915759 0 0.42420028089165179 0.03651624319802145 0 0.42872812450081682 0.022265291926841652 0 0.41405246182815941 0.025131631927776951 0 0.42872812450081682 0.022265291926841652 0 0.41221338659120382 0.021824188338626122 0 0.41405246182815941 0.025131631927776951 0 0.39806189934447578 0.033404038949766117 0 0.41221338659120382 0.021824188338626122 0 0.41405246182815941 0.025131631927776951 0 0.41221338659120382 0.021824188338626122 0 0.41405246182815941 0.025131631927776951 0 0.40122830446044472 0.002068313897143383 0 0.4150837533209728 0.0072961289856662429 0 0.41784801912435438 -0.0046579659203742421 0 0.41221338659120382 0.021824188338626122 0 0.42989252497845631 0.0073577384249998356 0 0.40122830446044472 0.002068313897143383 0 0.41221338659120382 0.021824188338626122 0 0.40122830446044472 0.002068313897143383 0 0.41221338659120382 0.021824188338626122 0 0.4150837533209728 0.0072961289856662429 0 0.41221338659120382 0.021824188338626122 0 0.4150837533209728 0.0072961289856662429 0 0.42989252497845631 0.0073577384249998356 0 0.4150837533209728 0.0072961289856662429 0 0.42989252497845631 0.0073577384249998356 0 0.41784801912435438 -0.0046579659203742421 0 0.45012090269970301 0.017769439488159181 0 0.45958880631411658 0.004937099069041175 0 0.44757166336570908 -0.0071087114886261146 0 0.42989252497845631 0.0073577384249998356 0 0.45012090269970301 0.017769439488159181 0 0.44757166336570908 -0.0071087114886261146 0 0.42989252497845631 0.0073577384249998356 0 0.44757166336570908 -0.0071087114886261146 0 0.42872812450081682 0.022265291926841652 0 0.45012090269970301 0.017769439488159181 0 0.4391815018586363 0.028971531970915759 0 0.45012090269970301 0.017769439488159181 0 0.4391815018586363 0.028971531970915759 0 0.45033866243882759 0.039628447446279212 0 0.45012090269970301 0.017769439488159181 0 0.46599370914406019 0.03067338648427614 0 0.47197993556995882 0.01798468398682208 0 0.45012090269970301 0.017769439488159181 0 0.46599370914406019 0.03067338648427614 0 0.45033866243882759 0.039628447446279212 0 0.45958880631411658 0.004937099069041175 0 0.47197993556995882 0.01798468398682208 0 0.4686827236210952 -0.0088970157101904458 0 0.45012090269970301 0.017769439488159181 0 0.45958880631411658 0.004937099069041175 0 0.47197993556995882 0.01798468398682208 0 0.43992998002053652 0.062022725091437407 0 0.44582364524359241 0.050178181499521669 0 0.45772777181770052 0.055415784619919313 0 0.43529816669730498 0.043645768840450759 0 0.43992998002053652 0.062022725091437407 0 0.44582364524359241 0.050178181499521669 0 0.44582364524359241 0.050178181499521669 0 0.45033866243882759 0.039628447446279212 0 0.45772777181770052 0.055415784619919313 0 0.42420028089165179 0.03651624319802145 0 0.4391815018586363 0.028971531970915759 0 0.45033866243882759 0.039628447446279212 0 0.43529816669730498 0.043645768840450759 0 0.44582364524359241 0.050178181499521669 0 0.45033866243882759 0.039628447446279212 0 0.45033866243882759 0.039628447446279212 0 0.47647704398600332 0.042740651694536981 0 0.46599370914406019 0.03067338648427614 0 0.45033866243882759 0.039628447446279212 0 0.47647704398600332 0.042740651694536981 0 0.45033866243882759 0.039628447446279212 0 0.45772777181770052 0.055415784619919313 0 0.47647704398600332 0.042740651694536981 0 0.4795409075756672 0.062908193001997903 0 0.45772777181770052 0.055415784619919313 0 0.47647704398600332 0.042740651694536981 0 0.46599370914406019 0.03067338648427614 0 0.47647704398600332 0.042740651694536981 0 0.4856287205812137 0.026650378399210011 0 0.47647704398600332 0.042740651694536981 0 0.5 0.042825061568978813 0 0.4856287205812137 0.026650378399210011 0 0.4795409075756672 0.062908193001997903 0 0.47647704398600332 0.042740651694536981 0 0.5 0.042825061568978813 0 0.5 0.071995534383719084 0 0.4795409075756672 0.062908193001997903 0 0.5 0.042825061568978813 0 0.48398858570914938 0.0028686845549908292 0 0.47197993556995882 0.01798468398682208 0 0.4686827236210952 -0.0088970157101904458 0 0.47197993556995882 0.01798468398682208 0 0.4686827236210952 -0.0088970157101904458 0 0.46599370914406019 0.03067338648427614 0 0.47197993556995882 0.01798468398682208 0 0.4856287205812137 0.026650378399210011 0 0.48398858570914938 0.0028686845549908292 0 0.47197993556995882 0.01798468398682208 0 0.4856287205812137 0.026650378399210011 0 0.5 0.042825061568978813 0 0.4856287205812137 0.026650378399210011 0 0.5 0.013654588754238641 0 0.48398858570914938 0.0028686845549908292 0 0.4856287205812137 0.026650378399210011 0 0.5 0.013654588754238641 0 0.48398858570914938 0.0028686845549908292 0 0.5 0.013654588754238641 0 0.5 -0.01551588406050153 0 0.48398858570914938 0.0028686845549908292 0 0.5 -0.01551588406050153 0 0.48209169104648081 -0.025220606485343699 0 0.48398858570914938 0.0028686845549908292 0 0.48209169104648081 -0.025220606485343699 0 0.4686827236210952 -0.0088970157101904458 0 0.48209169104648081 -0.025220606485343699 0 0.46538551167223152 -0.03577871540720301 0 0.4686827236210952 -0.0088970157101904458 0 0.5 -0.01551588406050153 0 0.48209169104648081 -0.025220606485343699 0 0.5 -0.044686356875241813 0 0.48209169104648081 -0.025220606485343699 0 0.5 -0.044686356875241813 0 0.47449332527640847 -0.049314351413916227 0 0.5 -0.044686356875241813 0 0.5 -0.073856829689982195 0 0.48357906485005359 -0.065065584091123591 0 0.5 -0.044686356875241813 0 0.47449332527640847 -0.049314351413916227 0 0.48357906485005359 -0.065065584091123591 0 0.47449332527640847 -0.049314351413916227 0 0.48357906485005359 -0.065065584091123591 0 0.47138406132687888 -0.064209057792543725 0 0.47449332527640847 -0.049314351413916227 0 0.47138406132687888 -0.064209057792543725 0 0.46208829972336801 -0.062660415104215716 0 0.48209169104648081 -0.025220606485343699 0 0.47449332527640847 -0.049314351413916227 0 0.46538551167223152 -0.03577871540720301 0 0.46538551167223152 -0.03577871540720301 0 0.45301439124091708 -0.048418461119625333 0 0.44361516441739529 -0.030949755834389369 0 0.46538551167223152 -0.03577871540720301 0 0.45301439124091708 -0.048418461119625333 0 0.46208829972336801 -0.062660415104215716 0 0.47449332527640847 -0.049314351413916227 0 0.46538551167223152 -0.03577871540720301 0 0.46208829972336801 -0.062660415104215716 0 0.46538551167223152 -0.03577871540720301 0 0.46208829972336801 -0.062660415104215716 0 0.4482644699802143 -0.062240922428110267 0 0.45301439124091708 -0.048418461119625333 0 0.46208829972336801 -0.062660415104215716 0 0.4482644699802143 -0.062240922428110267 0 0.45301439124091708 -0.048418461119625333 0 0.44053099928321521 -0.050854376816761068 0 0.4482644699802143 -0.062240922428110267 0 0.44053099928321521 -0.050854376816761068 0 0.43579702809154841 -0.064824295006519039 0 0.44053099928321521 -0.050854376816761068 0 0.44361516441739529 -0.030949755834389369 0 0.43133127445710151 -0.041690360722400677 0 0.45301439124091708 -0.048418461119625333 0 0.44053099928321521 -0.050854376816761068 0 0.44361516441739529 -0.030949755834389369 0 0.44361516441739529 -0.030949755834389369 0 0.44757166336570908 -0.0071087114886261146 0 0.42903945270355798 -0.01278563119115647 0 0.44361516441739529 -0.030949755834389369 0 0.44757166336570908 -0.0071087114886261146 0 0.45631376576910782 -0.020683549610102232 0 0.45958880631411658 0.004937099069041175 0 0.44757166336570908 -0.0071087114886261146 0 0.4686827236210952 -0.0088970157101904458 0 0.44757166336570908 -0.0071087114886261146 0 0.4686827236210952 -0.0088970157101904458 0 0.45631376576910782 -0.020683549610102232 0 0.46538551167223152 -0.03577871540720301 0 0.44361516441739529 -0.030949755834389369 0 0.45631376576910782 -0.020683549610102232 0 0.46538551167223152 -0.03577871540720301 0 0.4686827236210952 -0.0088970157101904458 0 0.46538551167223152 -0.03577871540720301 0 0.4686827236210952 -0.0088970157101904458 0 0.45631376576910782 -0.020683549610102232 0 0.48457862702696852 -0.1208743639486619 0 0.47508422907954673 -0.098398006226008777 0 0.47723327333029569 -0.1094494455293441 0 0.48457862702696852 -0.1208743639486619 0 0.47508422907954673 -0.098398006226008777 0 0.47192062706496962 -0.1173200866933788 0 0.46693628525757808 -0.1229235944934005 0 0.47402246665898218 -0.12784694419781251 0 0.47192062706496962 -0.1173200866933788 0 0.47723327333029569 -0.1094494455293441 0 0.46628919778871297 -0.1111378898664917 0 0.47192062706496962 -0.1173200866933788 0 0.47723327333029569 -0.1094494455293441 0 0.48457862702696852 -0.1208743639486619 0 0.47192062706496962 -0.1173200866933788 0 0.48457862702696852 -0.1208743639486619 0 0.47402246665898218 -0.12784694419781251 0 0.4915325987189334 -0.107338269672688 0 0.5 -0.1030273025047226 0 0.5 -0.13219777531946311 0 0.48457862702696852 -0.1208743639486619 0 0.4915325987189334 -0.107338269672688 0 0.5 -0.13219777531946311 0 0.4915325987189334 -0.107338269672688 0 0.47508422907954673 -0.098398006226008777 0 0.48913248712011048 -0.092152960514693086 0 0.4915325987189334 -0.107338269672688 0 0.5 -0.1030273025047226 0 0.48913248712011048 -0.092152960514693086 0 0.48457862702696852 -0.1208743639486619 0 0.4915325987189334 -0.107338269672688 0 0.47508422907954673 -0.098398006226008777 0 0.47723327333029569 -0.1094494455293441 0 0.47508422907954673 -0.098398006226008777 0 0.45738843594470813 -0.1009777355173966 0 0.4915325987189334 -0.107338269672688 0 0.47508422907954673 -0.098398006226008777 0 0.47508422907954673 -0.098398006226008777 0 0.48174942239086532 -0.081257156658953111 0 0.48913248712011048 -0.092152960514693086 0 0.47508422907954673 -0.098398006226008777 0 0.4691430925686309 -0.084333385147560558 0 0.48174942239086532 -0.081257156658953111 0 0.47508422907954673 -0.098398006226008777 0 0.4691430925686309 -0.084333385147560558 0 0.4691430925686309 -0.084333385147560558 0 0.48174942239086532 -0.081257156658953111 0 0.47355766072685013 -0.073736174284350517 0 0.48174942239086532 -0.081257156658953111 0 0.48913248712011048 -0.092152960514693086 0 0.5 -0.073856829689982195 0 0.5 -0.1030273025047226 0 0.48913248712011048 -0.092152960514693086 0 0.5 -0.073856829689982195 0 0.48174942239086532 -0.081257156658953111 0 0.5 -0.073856829689982195 0 0.48357906485005359 -0.065065584091123591 0 0.48174942239086532 -0.081257156658953111 0 0.48357906485005359 -0.065065584091123591 0 0.47355766072685013 -0.073736174284350517 0 0.47355766072685013 -0.073736174284350517 0 0.47138406132687888 -0.064209057792543725 0 0.46320195605771458 -0.070268764069112588 0 0.48357906485005359 -0.065065584091123591 0 0.47355766072685013 -0.073736174284350517 0 0.47138406132687888 -0.064209057792543725 0 0.46208829972336801 -0.062660415104215716 0 0.45879108777450373 -0.089542114801228298 0 0.46208829972336801 -0.062660415104215716 0 0.45207641778013918 -0.074305488561805855 0 0.45879108777450373 -0.089542114801228298 0 0.46208829972336801 -0.062660415104215716 0 0.46320195605771458 -0.070268764069112588 0 0.45879108777450373 -0.089542114801228298 0 0.47138406132687888 -0.064209057792543725 0 0.46208829972336801 -0.062660415104215716 0 0.46320195605771458 -0.070268764069112588 0 0.4691430925686309 -0.084333385147560558 0 0.46320195605771458 -0.070268764069112588 0 0.4691430925686309 -0.084333385147560558 0 0.47355766072685013 -0.073736174284350517 0 0.46320195605771458 -0.070268764069112588 0 0.4482644699802143 -0.062240922428110267 0 0.46208829972336801 -0.062660415104215716 0 0.45207641778013918 -0.074305488561805855 0 0.4482644699802143 -0.062240922428110267 0 0.44352473462833347 -0.069897738201696355 0 0.45207641778013918 -0.074305488561805855 0 0.4482644699802143 -0.062240922428110267 0 0.44352473462833347 -0.069897738201696355 0 0.43579702809154841 -0.064824295006519039 0 0.44352473462833347 -0.069897738201696355 0 0.45207641778013918 -0.074305488561805855 0 0.43796102266143222 -0.07822024681035028 0 0.44352473462833347 -0.069897738201696355 0 0.43796102266143222 -0.07822024681035028 0 0.43579702809154841 -0.064824295006519039 0 0.43796102266143222 -0.07822024681035028 0 0.44631882215236279 -0.089627549589832864 0 0.45879108777450373 -0.089542114801228298 0 0.45207641778013918 -0.074305488561805855 0 0.43796102266143222 -0.07822024681035028 0 0.45879108777450373 -0.089542114801228298 0 0.44631882215236279 -0.089627549589832864 0 0.45738843594470813 -0.1009777355173966 0 0.4311347422288071 -0.089770101230356295 0 0.43796102266143222 -0.07822024681035028 0 0.45879108777450373 -0.089542114801228298 0 0.43796102266143222 -0.07822024681035028 0 0.44631882215236279 -0.089627549589832864 0 0.4311347422288071 -0.089770101230356295 0 0.47508422907954673 -0.098398006226008777 0 0.4691430925686309 -0.084333385147560558 0 0.45879108777450373 -0.089542114801228298 0 0.4691430925686309 -0.084333385147560558 0 0.46320195605771458 -0.070268764069112588 0 0.45879108777450373 -0.089542114801228298 0 0.44631882215236279 -0.089627549589832864 0 0.45879108777450373 -0.089542114801228298 0 0.45738843594470813 -0.1009777355173966 0 0.47723327333029569 -0.1094494455293441 0 0.45738843594470813 -0.1009777355173966 0 0.46628919778871297 -0.1111378898664917 0 0.47723327333029569 -0.1094494455293441 0 0.45738843594470813 -0.1009777355173966 0 0.47508422907954673 -0.098398006226008777 0 0.45879108777450373 -0.089542114801228298 0 0.47508422907954673 -0.098398006226008777 0 0.45879108777450373 -0.089542114801228298 0 0.45738843594470813 -0.1009777355173966 0 0.45879108777450373 -0.089542114801228298 0 0.45738843594470813 -0.1009777355173966 0 0.45738843594470813 -0.1009777355173966 0 0.4311347422288071 -0.089770101230356295 0 0.45738843594470813 -0.1009777355173966 0 0.4450479382872865 -0.1099499002461672 0 0.43538815384813068 -0.1034995440441569 0 0.45738843594470813 -0.1009777355173966 0 0.43538815384813068 -0.1034995440441569 0 0.4311347422288071 -0.089770101230356295 0 0.45738843594470813 -0.1009777355173966 0 0.4450479382872865 -0.1099499002461672 0 0.44761794442740532 -0.1176854689017939 0 0.4450479382872865 -0.1099499002461672 0 0.44043790397136301 -0.1161361918813667 0 0.43538815384813068 -0.1034995440441569 0 0.4450479382872865 -0.1099499002461672 0 0.44043790397136301 -0.1161361918813667 0 0.44761794442740532 -0.1176854689017939 0 0.44043790397136301 -0.1161361918813667 0 0.44036752807406149 -0.124174720653648 0 0.44761794442740532 -0.1176854689017939 0 0.44036752807406149 -0.124174720653648 0 0.44761794442740532 -0.1176854689017939 0 0.4545843404174752 -0.1238391272185856 0 0.45738843594470813 -0.1009777355173966 0 0.44761794442740532 -0.1176854689017939 0 0.4545843404174752 -0.1238391272185856 0 0.4545843404174752 -0.1238391272185856 0 0.45657541594837803 -0.1219931254317069 0 0.45959864987757848 -0.1272507255884725 0 0.45738843594470813 -0.1009777355173966 0 0.4545843404174752 -0.1238391272185856 0 0.45738843594470813 -0.1009777355173966 0 0.45657541594837803 -0.1219931254317069 0 0.46289782867834889 -0.11638669477691339 0 0.45738843594470813 -0.1009777355173966 0 0.4545843404174752 -0.1238391272185856 0 0.45657541594837803 -0.1219931254317069 0 0.4545843404174752 -0.1238391272185856 0 0.45657541594837803 -0.1219931254317069 0 0.45657541594837803 -0.1219931254317069 0 0.46196153120451999 -0.1240358528360395 0 0.45959864987757848 -0.1272507255884725 0 0.45657541594837803 -0.1219931254317069 0 0.46289782867834889 -0.11638669477691339 0 0.46196153120451999 -0.1240358528360395 0 0.47192062706496962 -0.1173200866933788 0 0.46628919778871297 -0.1111378898664917 0 0.46289782867834889 -0.11638669477691339 0 0.45738843594470813 -0.1009777355173966 0 0.46628919778871297 -0.1111378898664917 0 0.46289782867834889 -0.11638669477691339 0 0.47192062706496962 -0.1173200866933788 0 0.46289782867834889 -0.11638669477691339 0 0.46693628525757808 -0.1229235944934005 0 0.46289782867834889 -0.11638669477691339 0 0.46693628525757808 -0.1229235944934005 0 0.46196153120451999 -0.1240358528360395 0 0.41637395449485209 -0.11489435306022699 0 0.41015873109902989 -0.104701731025877 0 0.39884518377176909 -0.1120040457010137 0 0.41637395449485209 -0.11489435306022699 0 0.42532884689079092 -0.12799747830401659 0 0.4072697773528508 -0.12796357876984479 0 0.41637395449485209 -0.11489435306022699 0 0.39884518377176909 -0.1120040457010137 0 0.4072697773528508 -0.12796357876984479 0 0.41637395449485209 -0.11489435306022699 0 0.43004432613858989 -0.1156252845566037 0 0.41858695685651648 -0.1001817212590168 0 0.41637395449485209 -0.11489435306022699 0 0.43004432613858989 -0.1156252845566037 0 0.42532884689079092 -0.12799747830401659 0 0.44043790397136301 -0.1161361918813667 0 0.44036752807406149 -0.124174720653648 0 0.43004432613858989 -0.1156252845566037 0 0.44036752807406149 -0.124174720653648 0 0.43004432613858989 -0.1156252845566037 0 0.42532884689079092 -0.12799747830401659 0 0.44043790397136301 -0.1161361918813667 0 0.43004432613858989 -0.1156252845566037 0 0.43538815384813068 -0.1034995440441569 0 0.43538815384813068 -0.1034995440441569 0 0.41858695685651648 -0.1001817212590168 0 0.4311347422288071 -0.089770101230356295 0 0.43004432613858989 -0.1156252845566037 0 0.43538815384813068 -0.1034995440441569 0 0.41858695685651648 -0.1001817212590168 0 0.41858695685651648 -0.1001817212590168 0 0.41015873109902989 -0.104701731025877 0 0.40212774167329829 -0.094218567952583807 0 0.41637395449485209 -0.11489435306022699 0 0.41858695685651648 -0.1001817212590168 0 0.41015873109902989 -0.104701731025877 0 0.41858695685651648 -0.1001817212590168 0 0.4048810485129074 -0.078562466943313231 0 0.40212774167329829 -0.094218567952583807 0 0.41858695685651648 -0.1001817212590168 0 0.4311347422288071 -0.089770101230356295 0 0.4048810485129074 -0.078562466943313231 0 0.4311347422288071 -0.089770101230356295 0 0.4048810485129074 -0.078562466943313231 0 0.4311347422288071 -0.089770101230356295 0 0.42454391497583588 -0.078082555133495768 0 0.4048810485129074 -0.078562466943313231 0 0.43796102266143222 -0.07822024681035028 0 0.4311347422288071 -0.089770101230356295 0 0.42454391497583588 -0.078082555133495768 0 0.43796102266143222 -0.07822024681035028 0 0.41713095754836138 -0.066898378819470986 0 0.43579702809154841 -0.064824295006519039 0 0.41713095754836138 -0.066898378819470986 0 0.42854083725045761 -0.056317685560221473 0 0.43796102266143222 -0.07822024681035028 0 0.43579702809154841 -0.064824295006519039 0 0.41713095754836138 -0.066898378819470986 0 0.43796102266143222 -0.07822024681035028 0 0.42454391497583588 -0.078082555133495768 0 0.41713095754836138 -0.066898378819470986 0 0.42454391497583588 -0.078082555133495768 0 0.41713095754836138 -0.066898378819470986 0 0.4048810485129074 -0.078562466943313231 0 0.37862735479700771 -0.067354832656270153 0 0.4048810485129074 -0.078562466943313231 0 0.39630089243529071 -0.055576510828591691 0 0.37862735479700771 -0.067354832656270153 0 0.4048810485129074 -0.078562466943313231 0 0.41713095754836138 -0.066898378819470986 0 0.4048810485129074 -0.078562466943313231 0 0.39630089243529071 -0.055576510828591691 0 0.37862735479700771 -0.067354832656270153 0 0.39006616988692389 -0.084301444358046054 0 0.4048810485129074 -0.078562466943313231 0 0.37862735479700771 -0.067354832656270153 0 0.37815043740894472 -0.084583127608809455 0 0.37035327860582412 -0.075415065674986681 0 0.37862735479700771 -0.067354832656270153 0 0.39006616988692389 -0.084301444358046054 0 0.37815043740894472 -0.084583127608809455 0 0.37815043740894472 -0.084583127608809455 0 0.38666442237439708 -0.097820417594717296 0 0.37369949284351162 -0.093812405013078276 0 0.39006616988692389 -0.084301444358046054 0 0.37815043740894472 -0.084583127608809455 0 0.38666442237439708 -0.097820417594717296 0 0.39006616988692389 -0.084301444358046054 0 0.40212774167329829 -0.094218567952583807 0 0.38666442237439708 -0.097820417594717296 0 0.39006616988692389 -0.084301444358046054 0 0.4048810485129074 -0.078562466943313231 0 0.40212774167329829 -0.094218567952583807 0 0.41015873109902989 -0.104701731025877 0 0.40212774167329829 -0.094218567952583807 0 0.39884518377176909 -0.1120040457010137 0 0.40212774167329829 -0.094218567952583807 0 0.38666442237439708 -0.097820417594717296 0 0.39884518377176909 -0.1120040457010137 0 0.38666442237439708 -0.097820417594717296 0 0.37660073223622048 -0.1028698213011737 0 0.37369949284351162 -0.093812405013078276 0 0.38666442237439708 -0.097820417594717296 0 0.37660073223622048 -0.1028698213011737 0 0.3838475539429913 -0.1120724215525547 0 0.38666442237439708 -0.097820417594717296 0 0.3838475539429913 -0.1120724215525547 0 0.39884518377176909 -0.1120040457010137 0 0.3838475539429913 -0.1120724215525547 0 0.37083223527879772 -0.1142633183272949 0 0.38416403906739932 -0.12943642960261181 0 0.3838475539429913 -0.1120724215525547 0 0.39884518377176909 -0.1120040457010137 0 0.38416403906739932 -0.12943642960261181 0 0.37660073223622048 -0.1028698213011737 0 0.3838475539429913 -0.1120724215525547 0 0.37083223527879772 -0.1142633183272949 0 0.37083223527879772 -0.1142633183272949 0 0.38416403906739932 -0.12943642960261181 0 0.39884518377176909 -0.1120040457010137 0 0.38416403906739932 -0.12943642960261181 0 0.4072697773528508 -0.12796357876984479 0 0.40987314776111761 -0.015670592922045621 0 0.42233475248573399 -0.03097126410080386 0 0.4057768215563522 -0.032075693096151561 0 0.40987314776111761 -0.015670592922045621 0 0.42903945270355798 -0.01278563119115647 0 0.42233475248573399 -0.03097126410080386 0 0.40987314776111761 -0.015670592922045621 0 0.41784801912435438 -0.0046579659203742421 0 0.42903945270355798 -0.01278563119115647 0 0.40122830446044472 0.002068313897143383 0 0.40987314776111761 -0.015670592922045621 0 0.41784801912435438 -0.0046579659203742421 0 0.42989252497845631 0.0073577384249998356 0 0.44757166336570908 -0.0071087114886261146 0 0.42903945270355798 -0.01278563119115647 0 0.42989252497845631 0.0073577384249998356 0 0.41784801912435438 -0.0046579659203742421 0 0.42903945270355798 -0.01278563119115647 0 0.44361516441739529 -0.030949755834389369 0 0.42903945270355798 -0.01278563119115647 0 0.42233475248573399 -0.03097126410080386 0 0.42233475248573399 -0.03097126410080386 0 0.43133127445710151 -0.041690360722400677 0 0.42060650288810242 -0.049061363332593658 0 0.44361516441739529 -0.030949755834389369 0 0.42233475248573399 -0.03097126410080386 0 0.43133127445710151 -0.041690360722400677 0 0.41713095754836138 -0.066898378819470986 0 0.42854083725045761 -0.056317685560221473 0 0.42060650288810242 -0.049061363332593658 0 0.44053099928321521 -0.050854376816761068 0 0.43579702809154841 -0.064824295006519039 0 0.42854083725045761 -0.056317685560221473 0 0.44053099928321521 -0.050854376816761068 0 0.43133127445710151 -0.041690360722400677 0 0.42854083725045761 -0.056317685560221473 0 0.43133127445710151 -0.041690360722400677 0 0.42854083725045761 -0.056317685560221473 0 0.42060650288810242 -0.049061363332593658 0 0.41713095754836138 -0.066898378819470986 0 0.40743943650443071 -0.046293721345521621 0 0.39630089243529071 -0.055576510828591691 0 0.41713095754836138 -0.066898378819470986 0 0.39630089243529071 -0.055576510828591691 0 0.41713095754836138 -0.066898378819470986 0 0.42060650288810242 -0.049061363332593658 0 0.40743943650443071 -0.046293721345521621 0 0.42233475248573399 -0.03097126410080386 0 0.40743943650443071 -0.046293721345521621 0 0.4057768215563522 -0.032075693096151561 0 0.42233475248573399 -0.03097126410080386 0 0.42060650288810242 -0.049061363332593658 0 0.40743943650443071 -0.046293721345521621 0 0.4057768215563522 -0.032075693096151561 0 0.39244709684550938 -0.042123049299836332 0 0.3974481922347024 -0.025286734903171581 0 0.39244709684550938 -0.042123049299836332 0 0.38766014046769182 -0.028972672263781699 0 0.3974481922347024 -0.025286734903171581 0 0.40743943650443071 -0.046293721345521621 0 0.4057768215563522 -0.032075693096151561 0 0.39244709684550938 -0.042123049299836332 0 0.40743943650443071 -0.046293721345521621 0 0.39244709684550938 -0.042123049299836332 0 0.39630089243529071 -0.055576510828591691 0 0.39630089243529071 -0.055576510828591691 0 0.37909706308483587 -0.056314844888528427 0 0.37547082732221992 -0.044254642837712403 0 0.39630089243529071 -0.055576510828591691 0 0.37547082732221992 -0.044254642837712403 0 0.37862735479700771 -0.067354832656270153 0 0.39630089243529071 -0.055576510828591691 0 0.37909706308483587 -0.056314844888528427 0 0.39244709684550938 -0.042123049299836332 0 0.39630089243529071 -0.055576510828591691 0 0.37547082732221992 -0.044254642837712403 0 0.39244709684550938 -0.042123049299836332 0 0.37547082732221992 -0.044254642837712403 0 0.37925814019892218 -0.037443434985819833 0 0.39244709684550938 -0.042123049299836332 0 0.37925814019892218 -0.037443434985819833 0 0.38766014046769182 -0.028972672263781699 0 0.37925814019892218 -0.037443434985819833 0 0.38766014046769182 -0.028972672263781699 0 0.37925814019892218 -0.037443434985819833 0 0.37354206353685931 -0.043206292347931448 0 0.37547082732221992 -0.044254642837712403 0 0.37925814019892218 -0.037443434985819833 0 0.37354206353685931 -0.043206292347931448 0 0.37547082732221992 -0.044254642837712403 0 0.37925814019892218 -0.037443434985819833 0 0.37925814019892218 -0.037443434985819833 0 0.37354206353685931 -0.043206292347931448 0 0.37300326549672308 -0.036075847138713382 0 0.37925814019892218 -0.037443434985819833 0 0.37581526355103467 -0.03063422975164154 0 0.37300326549672308 -0.036075847138713382 0 0.37925814019892218 -0.037443434985819833 0 0.37581526355103467 -0.03063422975164154 0 0.38137713003761098 -0.02499404653119236 0 0.37925814019892218 -0.037443434985819833 0 0.38137713003761098 -0.02499404653119236 0 0.3902432223296835 -0.017687560544338239 0 0.37925814019892218 -0.037443434985819833 0 0.3902432223296835 -0.017687560544338239 0 0.38766014046769182 -0.028972672263781699 0 0.37925814019892218 -0.037443434985819833 0 0.3902432223296835 -0.017687560544338239 0 0.37581526355103467 -0.03063422975164154 0 0.38137713003761098 -0.02499404653119236 0 0.37490207298898531 -0.025215075483239681 0 0.38137713003761098 -0.02499404653119236 0 0.37921664539564542 -0.01571935813805515 0 0.37490207298898531 -0.025215075483239681 0 0.38137713003761098 -0.02499404653119236 0 0.37921664539564542 -0.01571935813805515 0 0.3902432223296835 -0.017687560544338239 0 0.40987314776111761 -0.015670592922045621 0 0.4057768215563522 -0.032075693096151561 0 0.3974481922347024 -0.025286734903171581 0 0.3902432223296835 -0.017687560544338239 0 0.38766014046769182 -0.028972672263781699 0 0.3974481922347024 -0.025286734903171581 0 0.3902432223296835 -0.017687560544338239 0 0.3974481922347024 -0.025286734903171581 0 0.39995578905581558 -0.015682518524812759 0 0.40987314776111761 -0.015670592922045621 0 0.3974481922347024 -0.025286734903171581 0 0.39995578905581558 -0.015682518524812759 0 0.40122830446044472 0.002068313897143383 0 0.40987314776111761 -0.015670592922045621 0 0.39995578905581558 -0.015682518524812759 0 0.40122830446044472 0.002068313897143383 0 0.3902432223296835 -0.017687560544338239 0 0.39995578905581558 -0.015682518524812759 0 0.40122830446044472 0.002068313897143383 0 0.3902432223296835 -0.017687560544338239 0 0.40122830446044472 0.002068313897143383 0 0.3902432223296835 -0.017687560544338239 0 0.38681010594574161 -0.0058873617999826754 0 0.38543343968564991 0.0063181098929067127 0 0.38681010594574161 -0.0058873617999826754 0 0.37792891785728472 -0.0044163141075700763 0 0.37921664539564542 -0.01571935813805515 0 0.3902432223296835 -0.017687560544338239 0 0.38681010594574161 -0.0058873617999826754 0 0.37921664539564542 -0.01571935813805515 0 0.38681010594574161 -0.0058873617999826754 0 0.37792891785728472 -0.0044163141075700763 0 0.37921664539564542 -0.01571935813805515 0 0.37792891785728472 -0.0044163141075700763 0 0.37137092831076002 -0.01151058589817338 0 0.37792891785728472 -0.0044163141075700763 0 0.36801745464278901 -0.0041454160857303983 0 0.37137092831076002 -0.01151058589817338 0 0.37495508844019299 0.003652689079625755 0 0.37792891785728472 -0.0044163141075700763 0 0.36801745464278901 -0.0041454160857303983 0 0.36801745464278901 -0.0041454160857303983 0 0.37137092831076002 -0.01151058589817338 0 0.36307114698497528 -0.014109989248248181 0 0.37137092831076002 -0.01151058589817338 0 0.36307114698497528 -0.014109989248248181 0 0.37052099469490402 -0.020199405540563629 0 0.36801745464278901 -0.0041454160857303983 0 0.36307114698497528 -0.014109989248248181 0 0.35935228663599039 -0.0048114488478301484 0 0.36678757346642171 0.0041515566250526431 0 0.36801745464278901 -0.0041454160857303983 0 0.35935228663599039 -0.0048114488478301484 0 0.37053570903293198 -0.029442744619242438 0 0.37490207298898531 -0.025215075483239681 0 0.37052099469490402 -0.020199405540563629 0 0.37053570903293198 -0.029442744619242438 0 0.37052099469490402 -0.020199405540563629 0 0.36316400628722578 -0.02565437818207205 0 0.37581526355103467 -0.03063422975164154 0 0.37053570903293198 -0.029442744619242438 0 0.37490207298898531 -0.025215075483239681 0 0.37921664539564542 -0.01571935813805515 0 0.37490207298898531 -0.025215075483239681 0 0.37052099469490402 -0.020199405540563629 0 0.37921664539564542 -0.01571935813805515 0 0.37137092831076002 -0.01151058589817338 0 0.37052099469490402 -0.020199405540563629 0 0.36307114698497528 -0.014109989248248181 0 0.36316400628722578 -0.02565437818207205 0 0.35540019743968948 -0.020946478144897841 0 0.36307114698497528 -0.014109989248248181 0 0.37052099469490402 -0.020199405540563629 0 0.36316400628722578 -0.02565437818207205 0 0.36316400628722578 -0.02565437818207205 0 0.35559124272102871 -0.03017918813093997 0 0.36390380479447121 -0.03796756205347996 0 0.37053570903293198 -0.029442744619242438 0 0.36316400628722578 -0.02565437818207205 0 0.36390380479447121 -0.03796756205347996 0 0.35559124272102871 -0.03017918813093997 0 0.35540019743968948 -0.020946478144897841 0 0.34861595247796251 -0.024658334240011449 0 0.36316400628722578 -0.02565437818207205 0 0.35559124272102871 -0.03017918813093997 0 0.35540019743968948 -0.020946478144897841 0 0.35540019743968948 -0.020946478144897841 0 0.34541657957365418 -0.0170438157353037 0 0.3531076195632793 -0.01169200417873709 0 0.35540019743968948 -0.020946478144897841 0 0.34541657957365418 -0.0170438157353037 0 0.34861595247796251 -0.024658334240011449 0 0.34541657957365418 -0.0170438157353037 0 0.34861595247796251 -0.024658334240011449 0 0.33904986281313892 -0.024598374645882371 0 0.34861595247796251 -0.024658334240011449 0 0.33904986281313892 -0.024598374645882371 0 0.3481937725527573 -0.032926241063543922 0 0.35559124272102871 -0.03017918813093997 0 0.34861595247796251 -0.024658334240011449 0 0.3481937725527573 -0.032926241063543922 0 0.35843567287196809 0.0035144151888312882 0 0.35174757496052972 -0.004401562338937336 0 0.35935228663599039 -0.0048114488478301484 0 0.35174757496052972 -0.004401562338937336 0 0.35935228663599039 -0.0048114488478301484 0 0.3531076195632793 -0.01169200417873709 0 0.36307114698497528 -0.014109989248248181 0 0.35540019743968948 -0.020946478144897841 0 0.3531076195632793 -0.01169200417873709 0 0.36307114698497528 -0.014109989248248181 0 0.35935228663599039 -0.0048114488478301484 0 0.3531076195632793 -0.01169200417873709 0 0.35174757496052972 -0.004401562338937336 0 0.3531076195632793 -0.01169200417873709 0 0.34359161373870423 -0.0079143431722975451 0 0.34541657957365418 -0.0170438157353037 0 0.3531076195632793 -0.01169200417873709 0 0.34359161373870423 -0.0079143431722975451 0 0.3478527058335168 0.0029985318458475431 0 0.35174757496052972 -0.004401562338937336 0 0.34359161373870423 -0.0079143431722975451 0 0.33398308021336398 0.0037047267811294682 0 0.33273423140915148 -0.012453360029995879 0 0.32153595636847943 -0.0024912293887817561 0 0.3478527058335168 0.0029985318458475431 0 0.33398308021336398 0.0037047267811294682 0 0.34359161373870423 -0.0079143431722975451 0 0.33398308021336398 0.0037047267811294682 0 0.33273423140915148 -0.012453360029995879 0 0.34359161373870423 -0.0079143431722975451 0 0.34541657957365418 -0.0170438157353037 0 0.33273423140915148 -0.012453360029995879 0 0.34359161373870423 -0.0079143431722975451 0 0.34541657957365418 -0.0170438157353037 0 0.33273423140915148 -0.012453360029995879 0 0.33904986281313892 -0.024598374645882371 0 0.33904986281313892 -0.024598374645882371 0 0.33978542704927239 -0.034514944730254779 0 0.3481937725527573 -0.032926241063543922 0 0.33904986281313892 -0.024598374645882371 0 0.33005806417573819 -0.029791516830785351 0 0.33978542704927239 -0.034514944730254779 0 0.33904986281313892 -0.024598374645882371 0 0.33005806417573819 -0.029791516830785351 0 0.32779220461820141 -0.021852582218092709 0 0.33273423140915148 -0.012453360029995879 0 0.33904986281313892 -0.024598374645882371 0 0.32779220461820141 -0.021852582218092709 0 0.32779220461820141 -0.021852582218092709 0 0.32011265375519982 -0.027441159132489439 0 0.31700621093777859 -0.0149785004513105 0 0.33273423140915148 -0.012453360029995879 0 0.32779220461820141 -0.021852582218092709 0 0.31700621093777859 -0.0149785004513105 0 0.33005806417573819 -0.029791516830785351 0 0.32779220461820141 -0.021852582218092709 0 0.32011265375519982 -0.027441159132489439 0 0.33005806417573819 -0.029791516830785351 0 0.32011265375519982 -0.027441159132489439 0 0.32286656594845931 -0.035950499284148812 0 0.32011265375519982 -0.027441159132489439 0 0.31436541653503342 -0.037847209100729758 0 0.3096823084425116 -0.02513066571267741 0 0.32011265375519982 -0.027441159132489439 0 0.31700621093777859 -0.0149785004513105 0 0.3096823084425116 -0.02513066571267741 0 0.33273423140915148 -0.012453360029995879 0 0.31700621093777859 -0.0149785004513105 0 0.32153595636847943 -0.0024912293887817561 0 0.30588981492172601 0.002439841043038488 0 0.31700621093777859 -0.0149785004513105 0 0.32153595636847943 -0.0024912293887817561 0 0.32506564663451087 -0.062175727390415728 0 0.31113295128629848 -0.046318733075493397 0 0.31036746154564732 -0.062027684197694027 0 0.32506564663451087 -0.062175727390415728 0 0.32277327848006138 -0.044859011319668941 0 0.33378349612105218 -0.04854115539460796 0 0.32506564663451087 -0.062175727390415728 0 0.31113295128629848 -0.046318733075493397 0 0.32506564663451087 -0.062175727390415728 0 0.32277327848006138 -0.044859011319668941 0 0.31113295128629848 -0.046318733075493397 0 0.31436541653503342 -0.037847209100729758 0 0.32277327848006138 -0.044859011319668941 0 0.31113295128629848 -0.046318733075493397 0 0.31436541653503342 -0.037847209100729758 0 0.32286656594845931 -0.035950499284148812 0 0.32277327848006138 -0.044859011319668941 0 0.32011265375519982 -0.027441159132489439 0 0.31436541653503342 -0.037847209100729758 0 0.32286656594845931 -0.035950499284148812 0 0.33005806417573819 -0.029791516830785351 0 0.32286656594845931 -0.035950499284148812 0 0.3300577463441593 -0.037927886734604219 0 0.32286656594845931 -0.035950499284148812 0 0.32277327848006138 -0.044859011319668941 0 0.3300577463441593 -0.037927886734604219 0 0.32277327848006138 -0.044859011319668941 0 0.3300577463441593 -0.037927886734604219 0 0.33378349612105218 -0.04854115539460796 0 0.3300577463441593 -0.037927886734604219 0 0.33978542704927239 -0.034514944730254779 0 0.33378349612105218 -0.04854115539460796 0 0.33005806417573819 -0.029791516830785351 0 0.3300577463441593 -0.037927886734604219 0 0.33978542704927239 -0.034514944730254779 0 0.33978542704927239 -0.034514944730254779 0 0.33378349612105218 -0.04854115539460796 0 0.34579273532640598 -0.044835322437751859 0 0.33378349612105218 -0.04854115539460796 0 0.34056358843413809 -0.059305518396024728 0 0.34579273532640598 -0.044835322437751859 0 0.32506564663451087 -0.062175727390415728 0 0.33378349612105218 -0.04854115539460796 0 0.34056358843413809 -0.059305518396024728 0 0.34056358843413809 -0.059305518396024728 0 0.34916116467956299 -0.053794456825601231 0 0.35627020275978938 -0.060619507026634781 0 0.34916116467956299 -0.053794456825601231 0 0.35587238325576309 -0.047286778119967877 0 0.34579273532640598 -0.044835322437751859 0 0.34056358843413809 -0.059305518396024728 0 0.34916116467956299 -0.053794456825601231 0 0.34579273532640598 -0.044835322437751859 0 0.35587238325576309 -0.047286778119967877 0 0.35627020275978938 -0.060619507026634781 0 0.36239711358672061 -0.04727003488700366 0 0.34916116467956299 -0.053794456825601231 0 0.35587238325576309 -0.047286778119967877 0 0.35627020275978938 -0.060619507026634781 0 0.33978542704927239 -0.034514944730254779 0 0.3481937725527573 -0.032926241063543922 0 0.34579273532640598 -0.044835322437751859 0 0.3481937725527573 -0.032926241063543922 0 0.34579273532640598 -0.044835322437751859 0 0.35426972277406599 -0.038922135101634607 0 0.35587238325576309 -0.047286778119967877 0 0.35426972277406599 -0.038922135101634607 0 0.36390380479447121 -0.03796756205347996 0 0.35587238325576309 -0.047286778119967877 0 0.34579273532640598 -0.044835322437751859 0 0.35426972277406599 -0.038922135101634607 0 0.35559124272102871 -0.03017918813093997 0 0.3481937725527573 -0.032926241063543922 0 0.35426972277406599 -0.038922135101634607 0 0.35559124272102871 -0.03017918813093997 0 0.35426972277406599 -0.038922135101634607 0 0.36390380479447121 -0.03796756205347996 0 0.36390380479447121 -0.03796756205347996 0 0.37354206353685931 -0.043206292347931448 0 0.36239711358672061 -0.04727003488700366 0 0.35587238325576309 -0.047286778119967877 0 0.36390380479447121 -0.03796756205347996 0 0.36239711358672061 -0.04727003488700366 0 0.36390380479447121 -0.03796756205347996 0 0.37354206353685931 -0.043206292347931448 0 0.37547082732221992 -0.044254642837712403 0 0.37354206353685931 -0.043206292347931448 0 0.36390380479447121 -0.03796756205347996 0 0.37354206353685931 -0.043206292347931448 0 0.37300326549672308 -0.036075847138713382 0 0.37053570903293198 -0.029442744619242438 0 0.36390380479447121 -0.03796756205347996 0 0.37300326549672308 -0.036075847138713382 0 0.37581526355103467 -0.03063422975164154 0 0.37053570903293198 -0.029442744619242438 0 0.37300326549672308 -0.036075847138713382 0 0.35627020275978938 -0.060619507026634781 0 0.37354206353685931 -0.043206292347931448 0 0.36717428205574448 -0.059175378489163967 0 0.35627020275978938 -0.060619507026634781 0 0.37354206353685931 -0.043206292347931448 0 0.35627020275978938 -0.060619507026634781 0 0.37354206353685931 -0.043206292347931448 0 0.36239711358672061 -0.04727003488700366 0 0.37547082732221992 -0.044254642837712403 0 0.37354206353685931 -0.043206292347931448 0 0.36717428205574448 -0.059175378489163967 0 0.37909706308483587 -0.056314844888528427 0 0.37547082732221992 -0.044254642837712403 0 0.36717428205574448 -0.059175378489163967 0 0.37547082732221992 -0.044254642837712403 0 0.36717428205574448 -0.059175378489163967 0 0.37862735479700771 -0.067354832656270153 0 0.37909706308483587 -0.056314844888528427 0 0.36717428205574448 -0.059175378489163967 0 0.36717428205574448 -0.059175378489163967 0 0.37035327860582412 -0.075415065674986681 0 0.35887773678926849 -0.074096114140615288 0 0.37862735479700771 -0.067354832656270153 0 0.36717428205574448 -0.059175378489163967 0 0.37035327860582412 -0.075415065674986681 0 0.35627020275978938 -0.060619507026634781 0 0.36717428205574448 -0.059175378489163967 0 0.35887773678926849 -0.074096114140615288 0 0.36717428205574448 -0.059175378489163967 0 0.35887773678926849 -0.074096114140615288 0 0.37815043740894472 -0.084583127608809455 0 0.37035327860582412 -0.075415065674986681 0 0.36664220709714651 -0.086394837120612966 0 0.37815043740894472 -0.084583127608809455 0 0.36664220709714651 -0.086394837120612966 0 0.37369949284351162 -0.093812405013078276 0 0.36664220709714651 -0.086394837120612966 0 0.37369949284351162 -0.093812405013078276 0 0.36493999534927252 -0.096641073223385027 0 0.36664220709714651 -0.086394837120612966 0 0.3616448355603889 -0.092170281115243016 0 0.35749670830494001 -0.086555007064996428 0 0.36664220709714651 -0.086394837120612966 0 0.3616448355603889 -0.092170281115243016 0 0.36493999534927252 -0.096641073223385027 0 0.37035327860582412 -0.075415065674986681 0 0.36664220709714651 -0.086394837120612966 0 0.35887773678926849 -0.074096114140615288 0 0.36664220709714651 -0.086394837120612966 0 0.35749670830494001 -0.086555007064996428 0 0.35887773678926849 -0.074096114140615288 0 0.35749670830494001 -0.086555007064996428 0 0.34959320818317752 -0.079372941561664093 0 0.35750043149019672 -0.099090207051977658 0 0.35750043149019672 -0.099090207051977658 0 0.33899834198272139 -0.078032721705339786 0 0.35750043149019672 -0.099090207051977658 0 0.33878701840273112 -0.094312116824765771 0 0.33899834198272139 -0.078032721705339786 0 0.35749670830494001 -0.086555007064996428 0 0.34959320818317752 -0.079372941561664093 0 0.35887773678926849 -0.074096114140615288 0 0.34959320818317752 -0.079372941561664093 0 0.35750043149019672 -0.099090207051977658 0 0.33899834198272139 -0.078032721705339786 0 0.3616448355603889 -0.092170281115243016 0 0.35749670830494001 -0.086555007064996428 0 0.35750043149019672 -0.099090207051977658 0 0.35627020275978938 -0.060619507026634781 0 0.34959320818317752 -0.079372941561664093 0 0.33899834198272139 -0.078032721705339786 0 0.35627020275978938 -0.060619507026634781 0 0.33899834198272139 -0.078032721705339786 0 0.35627020275978938 -0.060619507026634781 0 0.34959320818317752 -0.079372941561664093 0 0.35887773678926849 -0.074096114140615288 0 0.34056358843413809 -0.059305518396024728 0 0.35627020275978938 -0.060619507026634781 0 0.33899834198272139 -0.078032721705339786 0 0.37083223527879772 -0.1142633183272949 0 0.3645220312317623 -0.12711866232442429 0 0.38416403906739932 -0.12943642960261181 0 0.37083223527879772 -0.1142633183272949 0 0.35330618538989689 -0.1150346783735349 0 0.3645220312317623 -0.12711866232442429 0 0.37083223527879772 -0.1142633183272949 0 0.35750043149019672 -0.099090207051977658 0 0.35330618538989689 -0.1150346783735349 0 0.37660073223622048 -0.1028698213011737 0 0.37083223527879772 -0.1142633183272949 0 0.36493999534927252 -0.096641073223385027 0 0.37083223527879772 -0.1142633183272949 0 0.36493999534927252 -0.096641073223385027 0 0.35750043149019672 -0.099090207051977658 0 0.37083223527879772 -0.1142633183272949 0 0.35750043149019672 -0.099090207051977658 0 0.37660073223622048 -0.1028698213011737 0 0.37369949284351162 -0.093812405013078276 0 0.36493999534927252 -0.096641073223385027 0 0.36493999534927252 -0.096641073223385027 0 0.35750043149019672 -0.099090207051977658 0 0.3616448355603889 -0.092170281115243016 0 0.36493999534927252 -0.096641073223385027 0 0.35750043149019672 -0.099090207051977658 0 0.35750043149019672 -0.099090207051977658 0 0.33517779536459952 -0.1064389070986628 0 0.33878701840273112 -0.094312116824765771 0 0.35750043149019672 -0.099090207051977658 0 0.33517779536459952 -0.1064389070986628 0 0.35750043149019672 -0.099090207051977658 0 0.35330618538989689 -0.1150346783735349 0 0.33517779536459952 -0.1064389070986628 0 0.34194721545948442 -0.11813474255047859 0 0.34171275992893951 -0.12855883172445051 0 0.35272473646533092 -0.12592332995563141 0 0.35330618538989689 -0.1150346783735349 0 0.34194721545948442 -0.11813474255047859 0 0.35272473646533092 -0.12592332995563141 0 0.35330618538989689 -0.1150346783735349 0 0.35272473646533092 -0.12592332995563141 0 0.3645220312317623 -0.12711866232442429 0 0.35330618538989689 -0.1150346783735349 0 0.34194721545948442 -0.11813474255047859 0 0.33517779536459952 -0.1064389070986628 0 0.34194721545948442 -0.11813474255047859 0 0.32709037834302501 -0.11925294025698301 0 0.34171275992893951 -0.12855883172445051 0 0.34194721545948442 -0.11813474255047859 0 0.33517779536459952 -0.1064389070986628 0 0.32709037834302501 -0.11925294025698301 0 0.33517779536459952 -0.1064389070986628 0 0.33878701840273112 -0.094312116824765771 0 0.32347150477340703 -0.093686631443082868 0 0.31285515923900281 -0.11378760714534961 0 0.32347150477340703 -0.093686631443082868 0 0.30794466756409289 -0.10934054118082601 0 0.32347150477340703 -0.093686631443082868 0 0.30794466756409289 -0.10934054118082601 0 0.33517779536459952 -0.1064389070986628 0 0.31285515923900281 -0.11378760714534961 0 0.32347150477340703 -0.093686631443082868 0 0.33517779536459952 -0.1064389070986628 0 0.31285515923900281 -0.11378760714534961 0 0.32709037834302501 -0.11925294025698301 0 0.33517779536459952 -0.1064389070986628 0 0.31285515923900281 -0.11378760714534961 0 0.31285515923900281 -0.11378760714534961 0 0.31263206581756581 -0.1246184782079808 0 0.32709037834302501 -0.11925294025698301 0 0.32506564663451087 -0.062175727390415728 0 0.34056358843413809 -0.059305518396024728 0 0.33899834198272139 -0.078032721705339786 0 0.32506564663451087 -0.062175727390415728 0 0.33899834198272139 -0.078032721705339786 0 0.33899834198272139 -0.078032721705339786 0 0.32347150477340703 -0.093686631443082868 0 0.33878701840273112 -0.094312116824765771 0 0.33899834198272139 -0.078032721705339786 0 0.32347150477340703 -0.093686631443082868 0 0.33899834198272139 -0.078032721705339786 0 0.32347150477340703 -0.093686631443082868 0 0.3164947429594272 -0.076387574759410146 0 0.32347150477340703 -0.093686631443082868 0 0.3164947429594272 -0.076387574759410146 0 0.30623039874679048 -0.087340288008887934 0 0.32506564663451087 -0.062175727390415728 0 0.33899834198272139 -0.078032721705339786 0 0.3164947429594272 -0.076387574759410146 0 0.32506564663451087 -0.062175727390415728 0 0.3164947429594272 -0.076387574759410146 0 0.31036746154564732 -0.062027684197694027 0 0.3164947429594272 -0.076387574759410146 0 0.29637320172173481 -0.07193385738136876 0 0.31036746154564732 -0.062027684197694027 0 0.29637320172173481 -0.07193385738136876 0 0.31036746154564732 -0.062027684197694027 0 0.30197889413066781 -0.053856732328805217 0 0.3164947429594272 -0.076387574759410146 0 0.30623039874679048 -0.087340288008887934 0 0.29637320172173481 -0.07193385738136876 0 0.30623039874679048 -0.087340288008887934 0 0.29318377961615227 -0.090205640281894983 0 0.29637320172173481 -0.07193385738136876 0 0.32347150477340703 -0.093686631443082868 0 0.30623039874679048 -0.087340288008887934 0 0.30419749820388292 -0.099330126385906409 0 0.30623039874679048 -0.087340288008887934 0 0.29318377961615227 -0.090205640281894983 0 0.30419749820388292 -0.099330126385906409 0 0.28131879187908659 -0.079804578183908709 0 0.29318377961615227 -0.090205640281894983 0 0.27758228432752607 -0.09690403761899688 0 0.28131879187908659 -0.079804578183908709 0 0.29318377961615227 -0.090205640281894983 0 0.29637320172173481 -0.07193385738136876 0 0.28131879187908659 -0.079804578183908709 0 0.29637320172173481 -0.07193385738136876 0 0.272923741657424 -0.057628665127676428 0 0.31285515923900281 -0.11378760714534961 0 0.30030916661130502 -0.1120277604189073 0 0.29053252311340377 -0.12113630719202929 0 0.31285515923900281 -0.11378760714534961 0 0.30689958682404239 -0.1199387678679668 0 0.29053252311340377 -0.12113630719202929 0 0.30395117826758877 -0.12348624817723459 0 0.30689958682404239 -0.1199387678679668 0 0.29053252311340377 -0.12113630719202929 0 0.31285515923900281 -0.11378760714534961 0 0.29053252311340377 -0.12113630719202929 0 0.30395117826758877 -0.12348624817723459 0 0.29053252311340377 -0.12113630719202929 0 0.30287604890511521 -0.12989837909869181 0 0.31263206581756581 -0.1246184782079808 0 0.30395117826758877 -0.12348624817723459 0 0.30689958682404239 -0.1199387678679668 0 0.31285515923900281 -0.11378760714534961 0 0.31263206581756581 -0.1246184782079808 0 0.30689958682404239 -0.1199387678679668 0 0.31285515923900281 -0.11378760714534961 0 0.30030916661130502 -0.1120277604189073 0 0.30794466756409289 -0.10934054118082601 0 0.32347150477340703 -0.093686631443082868 0 0.30794466756409289 -0.10934054118082601 0 0.30419749820388292 -0.099330126385906409 0 0.30142954617030021 -0.10648453790793749 0 0.30419749820388292 -0.099330126385906409 0 0.29326685230191962 -0.1052397236461103 0 0.30030916661130502 -0.1120277604189073 0 0.30142954617030021 -0.10648453790793749 0 0.29326685230191962 -0.1052397236461103 0 0.30142954617030021 -0.10648453790793749 0 0.30794466756409289 -0.10934054118082601 0 0.30419749820388292 -0.099330126385906409 0 0.30030916661130502 -0.1120277604189073 0 0.30142954617030021 -0.10648453790793749 0 0.30794466756409289 -0.10934054118082601 0 0.29318377961615227 -0.090205640281894983 0 0.29326685230191962 -0.1052397236461103 0 0.27758228432752607 -0.09690403761899688 0 0.29053252311340377 -0.12113630719202929 0 0.27758228432752607 -0.09690403761899688 0 0.29326685230191962 -0.1052397236461103 0 0.29053252311340377 -0.12113630719202929 0 0.27758228432752607 -0.09690403761899688 0 0.29318377961615227 -0.090205640281894983 0 0.30419749820388292 -0.099330126385906409 0 0.29326685230191962 -0.1052397236461103 0 0.30030916661130502 -0.1120277604189073 0 0.29326685230191962 -0.1052397236461103 0 0.29053252311340377 -0.12113630719202929 0 0.29053252311340377 -0.12113630719202929 0 0.26621299636361728 -0.1109602703181366 0 0.27758228432752607 -0.09690403761899688 0 0.29053252311340377 -0.12113630719202929 0 0.26779886846306861 -0.1286203161616909 0 0.29053252311340377 -0.12113630719202929 0 0.26621299636361728 -0.1109602703181366 0 0.26779886846306861 -0.1286203161616909 0 0.26621299636361728 -0.1109602703181366 0 0.27758228432752607 -0.09690403761899688 0 0.25961984685612011 -0.093126683285004813 0 0.26621299636361728 -0.1109602703181366 0 0.25961984685612011 -0.093126683285004813 0 0.24897545887496439 -0.10594155461709021 0 0.25961984685612011 -0.093126683285004813 0 0.2417216083416906 -0.088042422810306248 0 0.24897545887496439 -0.10594155461709021 0 0.26621299636361728 -0.1109602703181366 0 0.25319152970752512 -0.1199813278217059 0 0.26779886846306861 -0.1286203161616909 0 0.26621299636361728 -0.1109602703181366 0 0.25319152970752512 -0.1199813278217059 0 0.24897545887496439 -0.10594155461709021 0 0.28131879187908659 -0.079804578183908709 0 0.26463204554164721 -0.072671768045964993 0 0.272923741657424 -0.057628665127676428 0 0.27758228432752607 -0.09690403761899688 0 0.25961984685612011 -0.093126683285004813 0 0.26463204554164721 -0.072671768045964993 0 0.27758228432752607 -0.09690403761899688 0 0.26463204554164721 -0.072671768045964993 0 0.28131879187908659 -0.079804578183908709 0 0.27758228432752607 -0.09690403761899688 0 0.26463204554164721 -0.072671768045964993 0 0.25961984685612011 -0.093126683285004813 0 0.26463204554164721 -0.072671768045964993 0 0.2417216083416906 -0.088042422810306248 0 0.26463204554164721 -0.072671768045964993 0 0.25168180675576829 -0.0484394984729331 0 0.235224419053954 -0.069314274665983888 0 0.26463204554164721 -0.072671768045964993 0 0.25168180675576829 -0.0484394984729331 0 0.272923741657424 -0.057628665127676428 0 0.25168180675576829 -0.0484394984729331 0 0.272923741657424 -0.057628665127676428 0 0.27234608096301699 -0.040461444094301392 0 0.26463204554164721 -0.072671768045964993 0 0.25168180675576829 -0.0484394984729331 0 0.272923741657424 -0.057628665127676428 0 0.27234608096301699 -0.040461444094301392 0 0.28807507437399182 -0.050209357418049057 0 0.27234608096301699 -0.040461444094301392 0 0.27381977251918882 -0.020402067844379441 0 0.28602428649565248 -0.036949082311414909 0 0.25168180675576829 -0.0484394984729331 0 0.27234608096301699 -0.040461444094301392 0 0.25740370346163088 -0.0287705272479407 0 0.25740370346163088 -0.0287705272479407 0 0.25043928910029101 -0.01034239692818836 0 0.27381977251918882 -0.020402067844379441 0 0.25043928910029101 -0.01034239692818836 0 0.27381977251918882 -0.020402067844379441 0 0.25043928910029101 -0.01034239692818836 0 0.26326902946290959 -0.004775168129690267 0 0.27381977251918882 -0.020402067844379441 0 0.25612279108826141 0.002394243423969229 0 0.25043928910029101 -0.01034239692818836 0 0.26326902946290959 -0.004775168129690267 0 0.24637522602358761 0.00088169354209314784 0 0.25612279108826141 0.002394243423969229 0 0.25043928910029101 -0.01034239692818836 0 0.26326902946290959 -0.004775168129690267 0 0.27384820699535511 -0.0038844471402397912 0 0.27381977251918882 -0.020402067844379441 0 0.27384820699535511 -0.0038844471402397912 0 0.27381977251918882 -0.020402067844379441 0 0.28552423146672062 -0.01717309295040545 0 0.26747992533006892 0.0031544748770629999 0 0.26326902946290959 -0.004775168129690267 0 0.27384820699535511 -0.0038844471402397912 0 0.27384820699535511 -0.0038844471402397912 0 0.28552423146672062 -0.01717309295040545 0 0.27878433021538401 0.0042887798269855698 0 0.27384820699535511 -0.0038844471402397912 0 0.28515541689400048 -0.002871929595754245 0 0.27234608096301699 -0.040461444094301392 0 0.25740370346163088 -0.0287705272479407 0 0.27381977251918882 -0.020402067844379441 0 0.27381977251918882 -0.020402067844379441 0 0.29720025593808641 -0.030461738760570831 0 0.27381977251918882 -0.020402067844379441 0 0.28552423146672062 -0.01717309295040545 0 0.29720025593808641 -0.030461738760570831 0 0.28552423146672062 -0.01717309295040545 0 0.30147996767922508 -0.014396542609430119 0 0.29720025593808641 -0.030461738760570831 0 0.27381977251918882 -0.020402067844379441 0 0.29720025593808641 -0.030461738760570831 0 0.28602428649565248 -0.036949082311414909 0 0.28552423146672062 -0.01717309295040545 0 0.29720025593808641 -0.030461738760570831 0 0.28552423146672062 -0.01717309295040545 0 0.29606097689681582 -0.0036238285357404151 0 0.30147996767922508 -0.014396542609430119 0 0.28552423146672062 -0.01717309295040545 0 0.28515541689400048 -0.002871929595754245 0 0.29606097689681582 -0.0036238285357404151 0 0.27384820699535511 -0.0038844471402397912 0 0.28552423146672062 -0.01717309295040545 0 0.28515541689400048 -0.002871929595754245 0 0.29050114513402753 0.0055669712844677597 0 0.28515541689400048 -0.002871929595754245 0 0.29606097689681582 -0.0036238285357404151 0 0.30588981492172601 0.002439841043038488 0 0.29606097689681582 -0.0036238285357404151 0 0.30147996767922508 -0.014396542609430119 0 0.30588981492172601 0.002439841043038488 0 0.31700621093777859 -0.0149785004513105 0 0.30147996767922508 -0.014396542609430119 0 0.31436541653503342 -0.037847209100729758 0 0.29720025593808641 -0.030461738760570831 0 0.3096823084425116 -0.02513066571267741 0 0.30147996767922508 -0.014396542609430119 0 0.29720025593808641 -0.030461738760570831 0 0.3096823084425116 -0.02513066571267741 0 0.31700621093777859 -0.0149785004513105 0 0.30147996767922508 -0.014396542609430119 0 0.3096823084425116 -0.02513066571267741 0 0.31436541653503342 -0.037847209100729758 0 0.29720025593808641 -0.030461738760570831 0 0.31113295128629848 -0.046318733075493397 0 0.31436541653503342 -0.037847209100729758 0 0.29720025593808641 -0.030461738760570831 0 0.29720025593808641 -0.030461738760570831 0 0.31113295128629848 -0.046318733075493397 0 0.29720025593808641 -0.030461738760570831 0 0.29704066664405893 -0.043452287989462067 0 0.31113295128629848 -0.046318733075493397 0 0.31113295128629848 -0.046318733075493397 0 0.31036746154564732 -0.062027684197694027 0 0.30197889413066781 -0.053856732328805217 0 0.29704066664405893 -0.043452287989462067 0 0.31113295128629848 -0.046318733075493397 0 0.30197889413066781 -0.053856732328805217 0 0.29704066664405893 -0.043452287989462067 0 0.30197889413066781 -0.053856732328805217 0 0.28807507437399182 -0.050209357418049057 0 0.29637320172173481 -0.07193385738136876 0 0.272923741657424 -0.057628665127676428 0 0.28807507437399182 -0.050209357418049057 0 0.29637320172173481 -0.07193385738136876 0 0.30197889413066781 -0.053856732328805217 0 0.28807507437399182 -0.050209357418049057 0 0.27234608096301699 -0.040461444094301392 0 0.28807507437399182 -0.050209357418049057 0 0.28602428649565248 -0.036949082311414909 0 0.29720025593808641 -0.030461738760570831 0 0.29704066664405893 -0.043452287989462067 0 0.28602428649565248 -0.036949082311414909 0 0.29704066664405893 -0.043452287989462067 0 0.28807507437399182 -0.050209357418049057 0 0.28602428649565248 -0.036949082311414909 0 0.28312812166476148 -0.21625319370565871 0 0.30316688160309052 -0.21845427707228279 0 0.30077284986598413 -0.20405568166375429 0 0.28312812166476148 -0.21625319370565871 0 0.29134006210115698 -0.19408848385949301 0 0.30077284986598413 -0.20405568166375429 0 0.29134006210115698 -0.19408848385949301 0 0.30086945709688651 -0.18809180106188239 0 0.30077284986598413 -0.20405568166375429 0 0.30086945709688651 -0.18809180106188239 0 0.30077284986598413 -0.20405568166375429 0 0.31393352345355541 -0.19733853709613011 0 0.30086945709688651 -0.18809180106188239 0 0.31256067029280521 -0.18333578159869821 0 0.31393352345355541 -0.19733853709613011 0 0.31214470089965118 -0.20084680944662969 0 0.30077284986598413 -0.20405568166375429 0 0.31393352345355541 -0.19733853709613011 0 0.31214470089965118 -0.20084680944662969 0 0.30316688160309052 -0.21845427707228279 0 0.31214470089965118 -0.20084680944662969 0 0.30316688160309052 -0.21845427707228279 0 0.31591583260612449 -0.21676549703571771 0 0.31214470089965118 -0.20084680944662969 0 0.30316688160309052 -0.21845427707228279 0 0.30077284986598413 -0.20405568166375429 0 0.30316688160309052 -0.21845427707228279 0 0.29240023975262569 -0.23957001704843539 0 0.30316688160309052 -0.21845427707228279 0 0.29240023975262569 -0.23957001704843539 0 0.31589985389236408 -0.23613744592621541 0 0.30316688160309052 -0.21845427707228279 0 0.31591583260612449 -0.21676549703571771 0 0.31589985389236408 -0.23613744592621541 0 0.29240023975262569 -0.23957001704843539 0 0.31589985389236408 -0.23613744592621541 0 0.30476182525195827 -0.25957377036775842 0 0.29240023975262569 -0.23957001704843539 0 0.27143109150891648 -0.2415107638217012 0 0.2816335979021608 -0.26068575702458813 0 0.28312812166476148 -0.21625319370565871 0 0.30316688160309052 -0.21845427707228279 0 0.29240023975262569 -0.23957001704843539 0 0.28312812166476148 -0.21625319370565871 0 0.29240023975262569 -0.23957001704843539 0 0.27143109150891648 -0.2415107638217012 0 0.28312812166476148 -0.21625319370565871 0 0.27143109150891648 -0.2415107638217012 0 0.25704903750092761 -0.21882432125349521 0 0.27143109150891648 -0.2415107638217012 0 0.24526921964682971 -0.24063744974456469 0 0.27143109150891648 -0.2415107638217012 0 0.2594473866772527 -0.25292556575876157 0 0.24526921964682971 -0.24063744974456469 0 0.27143109150891648 -0.2415107638217012 0 0.25704903750092761 -0.21882432125349521 0 0.24526921964682971 -0.24063744974456469 0 0.25704903750092761 -0.21882432125349521 0 0.26577383853197878 -0.19611783256229881 0 0.2402076149628006 -0.19814718126510469 0 0.28312812166476148 -0.21625319370565871 0 0.25704903750092761 -0.21882432125349521 0 0.26577383853197878 -0.19611783256229881 0 0.29134006210115698 -0.19408848385949301 0 0.26577383853197878 -0.19611783256229881 0 0.29134006210115698 -0.19408848385949301 0 0.26577383853197878 -0.19611783256229881 0 0.28418252934652072 -0.1794232442945746 0 0.28312812166476148 -0.21625319370565871 0 0.29134006210115698 -0.19408848385949301 0 0.26577383853197878 -0.19611783256229881 0 0.26577383853197878 -0.19611783256229881 0 0.24996303159379901 -0.183188987894852 0 0.2402076149628006 -0.19814718126510469 0 0.26577383853197878 -0.19611783256229881 0 0.2402076149628006 -0.19814718126510469 0 0.26577383853197878 -0.19611783256229881 0 0.26310009752486901 -0.16998338846823521 0 0.24996303159379901 -0.183188987894852 0 0.26310009752486901 -0.16998338846823521 0 0.24070752816411781 -0.16844925241014941 0 0.24996303159379901 -0.183188987894852 0 0.26310009752486901 -0.16998338846823521 0 0.2490460831933104 -0.15352089187826709 0 0.24070752816411781 -0.16844925241014941 0 0.26310009752486901 -0.16998338846823521 0 0.26496851004081567 -0.14794164194619361 0 0.2490460831933104 -0.15352089187826709 0 0.26310009752486901 -0.16998338846823521 0 0.26496851004081567 -0.14794164194619361 0 0.28487180626890057 -0.159778958761044 0 0.26310009752486901 -0.16998338846823521 0 0.28418252934652072 -0.1794232442945746 0 0.28487180626890057 -0.159778958761044 0 0.26577383853197878 -0.19611783256229881 0 0.26310009752486901 -0.16998338846823521 0 0.28418252934652072 -0.1794232442945746 0 0.26779886846306861 -0.1286203161616909 0 0.2450652138127303 -0.13610432513134399 0 0.25319152970752512 -0.1199813278217059 0 0.26779886846306861 -0.1286203161616909 0 0.2450652138127303 -0.13610432513134399 0 0.26496851004081567 -0.14794164194619361 0 0.26779886846306861 -0.1286203161616909 0 0.2450652138127303 -0.13610432513134399 0 0.26496851004081567 -0.14794164194619361 0 0.2450652138127303 -0.13610432513134399 0 0.2490460831933104 -0.15352089187826709 0 0.26496851004081567 -0.14794164194619361 0 0.2450652138127303 -0.13610432513134399 0 0.26496851004081567 -0.14794164194619361 0 0.28424919640204382 -0.1451839790957932 0 0.28487180626890057 -0.159778958761044 0 0.26496851004081567 -0.14794164194619361 0 0.27782013194212118 -0.1351732077024749 0 0.28424919640204382 -0.1451839790957932 0 0.26496851004081567 -0.14794164194619361 0 0.28487180626890057 -0.159778958761044 0 0.29053252311340377 -0.12113630719202929 0 0.26779886846306861 -0.1286203161616909 0 0.28254002240345499 -0.1256610480603649 0 0.26496851004081567 -0.14794164194619361 0 0.27782013194212118 -0.1351732077024749 0 0.26779886846306861 -0.1286203161616909 0 0.27782013194212118 -0.1351732077024749 0 0.26779886846306861 -0.1286203161616909 0 0.28254002240345499 -0.1256610480603649 0 0.28254002240345499 -0.1256610480603649 0 0.28701265600015952 -0.13639661184581561 0 0.29777883694706048 -0.1346954880790604 0 0.29053252311340377 -0.12113630719202929 0 0.28254002240345499 -0.1256610480603649 0 0.29777883694706048 -0.1346954880790604 0 0.28254002240345499 -0.1256610480603649 0 0.29777883694706048 -0.1346954880790604 0 0.29053252311340377 -0.12113630719202929 0 0.29777883694706048 -0.1346954880790604 0 0.27782013194212118 -0.1351732077024749 0 0.28254002240345499 -0.1256610480603649 0 0.28701265600015952 -0.13639661184581561 0 0.27782013194212118 -0.1351732077024749 0 0.28701265600015952 -0.13639661184581561 0 0.28424919640204382 -0.1451839790957932 0 0.28701265600015952 -0.13639661184581561 0 0.29360384721635308 -0.14217764367733851 0 0.29777883694706048 -0.1346954880790604 0 0.29360384721635308 -0.14217764367733851 0 0.28424919640204382 -0.1451839790957932 0 0.29737412037113919 -0.15275827255002961 0 0.28701265600015952 -0.13639661184581561 0 0.29360384721635308 -0.14217764367733851 0 0.28424919640204382 -0.1451839790957932 0 0.28424919640204382 -0.1451839790957932 0 0.29737412037113919 -0.15275827255002961 0 0.28487180626890057 -0.159778958761044 0 0.29777883694706048 -0.1346954880790604 0 0.32310965583117318 -0.1497130449354819 0 0.29737412037113919 -0.15275827255002961 0 0.30160442636136231 -0.1418538668159938 0 0.3103126940729361 -0.15843285139947541 0 0.30160442636136231 -0.1418538668159938 0 0.29777883694706048 -0.1346954880790604 0 0.32310965583117318 -0.1497130449354819 0 0.30160442636136231 -0.1418538668159938 0 0.3103126940729361 -0.15843285139947541 0 0.32310965583117318 -0.1497130449354819 0 0.29360384721635308 -0.14217764367733851 0 0.29737412037113919 -0.15275827255002961 0 0.30160442636136231 -0.1418538668159938 0 0.29777883694706048 -0.1346954880790604 0 0.31167343167080069 -0.13415813992631301 0 0.32310965583117318 -0.1497130449354819 0 0.29360384721635308 -0.14217764367733851 0 0.30160442636136231 -0.1418538668159938 0 0.29777883694706048 -0.1346954880790604 0 0.29777883694706048 -0.1346954880790604 0 0.31167343167080069 -0.13415813992631301 0 0.30287604890511521 -0.12989837909869181 0 0.30160442636136231 -0.1418538668159938 0 0.29777883694706048 -0.1346954880790604 0 0.31263206581756581 -0.1246184782079808 0 0.30395117826758877 -0.12348624817723459 0 0.30287604890511521 -0.12989837909869181 0 0.31263206581756581 -0.1246184782079808 0 0.31167343167080069 -0.13415813992631301 0 0.30287604890511521 -0.12989837909869181 0 0.29053252311340377 -0.12113630719202929 0 0.29777883694706048 -0.1346954880790604 0 0.30287604890511521 -0.12989837909869181 0 0.30086945709688651 -0.18809180106188239 0 0.28418252934652072 -0.1794232442945746 0 0.30477510249698542 -0.17161627557589451 0 0.29134006210115698 -0.19408848385949301 0 0.30086945709688651 -0.18809180106188239 0 0.28418252934652072 -0.1794232442945746 0 0.28487180626890057 -0.159778958761044 0 0.30477510249698542 -0.17161627557589451 0 0.28418252934652072 -0.1794232442945746 0 0.28487180626890057 -0.159778958761044 0 0.30477510249698542 -0.17161627557589451 0 0.29737412037113919 -0.15275827255002961 0 0.28487180626890057 -0.159778958761044 0 0.30477510249698542 -0.17161627557589451 0 0.29737412037113919 -0.15275827255002961 0 0.30477510249698542 -0.17161627557589451 0 0.3103126940729361 -0.15843285139947541 0 0.30086945709688651 -0.18809180106188239 0 0.30477510249698542 -0.17161627557589451 0 0.31256067029280521 -0.18333578159869821 0 0.31256067029280521 -0.18333578159869821 0 0.32470016530402029 -0.17622279711997729 0 0.31393352345355541 -0.19733853709613011 0 0.32470016530402029 -0.17622279711997729 0 0.31393352345355541 -0.19733853709613011 0 0.30477510249698542 -0.17161627557589451 0 0.31256067029280521 -0.18333578159869821 0 0.32470016530402029 -0.17622279711997729 0 0.30477510249698542 -0.17161627557589451 0 0.3103126940729361 -0.15843285139947541 0 0.32470016530402029 -0.17622279711997729 0 0.3103126940729361 -0.15843285139947541 0 0.32470016530402029 -0.17622279711997729 0 0.32310965583117318 -0.1497130449354819 0 0.32310965583117318 -0.1497130449354819 0 0.34844047471528677 -0.16473060179190141 0 0.32470016530402029 -0.17622279711997729 0 0.32310965583117318 -0.1497130449354819 0 0.34844047471528677 -0.16473060179190141 0 0.32470016530402029 -0.17622279711997729 0 0.33608959819895579 -0.19398910558975241 0 0.32453844635545742 -0.1918879709756626 0 0.32470016530402029 -0.17622279711997729 0 0.34844047471528677 -0.16473060179190141 0 0.33608959819895579 -0.19398910558975241 0 0.32709037834302501 -0.11925294025698301 0 0.32109236995812318 -0.13265975697570359 0 0.33559854085949958 -0.1390988339808982 0 0.31167343167080069 -0.13415813992631301 0 0.32109236995812318 -0.13265975697570359 0 0.32310965583117318 -0.1497130449354819 0 0.32109236995812318 -0.13265975697570359 0 0.32310965583117318 -0.1497130449354819 0 0.33559854085949958 -0.1390988339808982 0 0.31263206581756581 -0.1246184782079808 0 0.32709037834302501 -0.11925294025698301 0 0.32109236995812318 -0.13265975697570359 0 0.31263206581756581 -0.1246184782079808 0 0.31167343167080069 -0.13415813992631301 0 0.32109236995812318 -0.13265975697570359 0 0.32310965583117318 -0.1497130449354819 0 0.33559854085949958 -0.1390988339808982 0 0.34844047471528677 -0.16473060179190141 0 0.32709037834302501 -0.11925294025698301 0 0.33559854085949958 -0.1390988339808982 0 0.34171275992893951 -0.12855883172445051 0 0.33559854085949958 -0.1390988339808982 0 0.34171275992893951 -0.12855883172445051 0 0.35214560638045023 -0.13967782820086919 0 0.35272473646533092 -0.12592332995563141 0 0.35214560638045023 -0.13967782820086919 0 0.3645220312317623 -0.12711866232442429 0 0.34171275992893951 -0.12855883172445051 0 0.35272473646533092 -0.12592332995563141 0 0.35214560638045023 -0.13967782820086919 0 0.35214560638045023 -0.13967782820086919 0 0.37170013598968732 -0.15267947513826091 0 0.34844047471528677 -0.16473060179190141 0 0.33559854085949958 -0.1390988339808982 0 0.35214560638045023 -0.13967782820086919 0 0.34844047471528677 -0.16473060179190141 0 0.37170013598968732 -0.15267947513826091 0 0.3645220312317623 -0.12711866232442429 0 0.38416403906739932 -0.12943642960261181 0 0.35214560638045023 -0.13967782820086919 0 0.37170013598968732 -0.15267947513826091 0 0.3645220312317623 -0.12711866232442429 0 0.37170013598968732 -0.15267947513826091 0 0.3645220312317623 -0.12711866232442429 0 0.34844047471528677 -0.16473060179190141 0 0.36045398808751139 -0.178707247814896 0 0.33608959819895579 -0.19398910558975241 0 0.37170013598968732 -0.15267947513826091 0 0.34844047471528677 -0.16473060179190141 0 0.36045398808751139 -0.178707247814896 0 0.37170013598968732 -0.15267947513826091 0 0.36045398808751139 -0.178707247814896 0 0.37887824074761228 -0.1782402879520974 0 0.36045398808751139 -0.178707247814896 0 0.36339845469548743 -0.19766700368826651 0 0.37887824074761228 -0.1782402879520974 0 0.36339845469548743 -0.19766700368826651 0 0.37173943603492399 -0.22184664825150091 0 0.38605634550553719 -0.20380110076593411 0 0.36339845469548743 -0.19766700368826651 0 0.35023463715948139 -0.21153480860225149 0 0.37173943603492399 -0.22184664825150091 0 0.36339845469548743 -0.19766700368826651 0 0.35023463715948139 -0.21153480860225149 0 0.33608959819895579 -0.19398910558975241 0 0.36045398808751139 -0.178707247814896 0 0.36339845469548743 -0.19766700368826651 0 0.33608959819895579 -0.19398910558975241 0 0.33608959819895579 -0.19398910558975241 0 0.33081612086022028 -0.21506687218071119 0 0.32343049846529831 -0.20000144409679069 0 0.35023463715948139 -0.21153480860225149 0 0.33608959819895579 -0.19398910558975241 0 0.33081612086022028 -0.21506687218071119 0 0.35023463715948139 -0.21153480860225149 0 0.33081612086022028 -0.21506687218071119 0 0.34912957600781958 -0.2291044133010266 0 0.31214470089965118 -0.20084680944662969 0 0.33081612086022028 -0.21506687218071119 0 0.32343049846529831 -0.20000144409679069 0 0.31214470089965118 -0.20084680944662969 0 0.33081612086022028 -0.21506687218071119 0 0.31214470089965118 -0.20084680944662969 0 0.33081612086022028 -0.21506687218071119 0 0.31591583260612449 -0.21676549703571771 0 0.31214470089965118 -0.20084680944662969 0 0.31393352345355541 -0.19733853709613011 0 0.32343049846529831 -0.20000144409679069 0 0.32470016530402029 -0.17622279711997729 0 0.31393352345355541 -0.19733853709613011 0 0.32453844635545742 -0.1918879709756626 0 0.31214470089965118 -0.20084680944662969 0 0.31393352345355541 -0.19733853709613011 0 0.33608959819895579 -0.19398910558975241 0 0.32453844635545742 -0.1918879709756626 0 0.32343049846529831 -0.20000144409679069 0 0.31393352345355541 -0.19733853709613011 0 0.32453844635545742 -0.1918879709756626 0 0.32343049846529831 -0.20000144409679069 0 0.31589985389236408 -0.23613744592621541 0 0.33567366894457662 -0.240294157883194 0 0.32718197596664278 -0.26536067425496052 0 0.33081612086022028 -0.21506687218071119 0 0.31591583260612449 -0.21676549703571771 0 0.31589985389236408 -0.23613744592621541 0 0.33081612086022028 -0.21506687218071119 0 0.31589985389236408 -0.23613744592621541 0 0.33567366894457662 -0.240294157883194 0 0.33081612086022028 -0.21506687218071119 0 0.34912957600781958 -0.2291044133010266 0 0.33081612086022028 -0.21506687218071119 0 0.33567366894457662 -0.240294157883194 0 0.34912957600781958 -0.2291044133010266 0 0.34912957600781958 -0.2291044133010266 0 0.36744303115541888 -0.24314195442134201 0 0.33567366894457662 -0.240294157883194 0 0.34912957600781958 -0.2291044133010266 0 0.34704615863022192 -0.2537686885145734 0 0.34912957600781958 -0.2291044133010266 0 0.36744303115541888 -0.24314195442134201 0 0.34704615863022192 -0.2537686885145734 0 0.35023463715948139 -0.21153480860225149 0 0.34912957600781958 -0.2291044133010266 0 0.37173943603492399 -0.22184664825150091 0 0.34912957600781958 -0.2291044133010266 0 0.37173943603492399 -0.22184664825150091 0 0.36744303115541888 -0.24314195442134201 0 0.37173943603492399 -0.22184664825150091 0 0.36744303115541888 -0.24314195442134201 0 0.3859251326645482 -0.24096032397227021 0 0.36744303115541888 -0.24314195442134201 0 0.3859251326645482 -0.24096032397227021 0 0.38575648630301818 -0.25717949554165742 0 0.3859251326645482 -0.24096032397227021 0 0.40248009157848758 -0.22926916540829639 0 0.40220661825089221 -0.25336435623855441 0 0.37173943603492399 -0.22184664825150091 0 0.3859251326645482 -0.24096032397227021 0 0.40248009157848758 -0.22926916540829639 0 0.37173943603492399 -0.22184664825150091 0 0.40248009157848758 -0.22926916540829639 0 0.38605634550553719 -0.20380110076593411 0 0.36339845469548743 -0.19766700368826651 0 0.38605634550553719 -0.20380110076593411 0 0.37887824074761228 -0.1782402879520974 0 0.38605634550553719 -0.20380110076593411 0 0.39961796455389331 -0.1922674143806947 0 0.37887824074761228 -0.1782402879520974 0 0.38605634550553719 -0.20380110076593411 0 0.37887824074761228 -0.1782402879520974 0 0.38605634550553719 -0.20380110076593411 0 0.39961796455389331 -0.1922674143806947 0 0.40448450924811252 -0.20946869000050361 0 0.40248009157848758 -0.22926916540829639 0 0.38605634550553719 -0.20380110076593411 0 0.40448450924811252 -0.20946869000050361 0 0.40248009157848758 -0.22926916540829639 0 0.40448450924811252 -0.20946869000050361 0 0.42388064247197399 -0.20731116846063979 0 0.39961796455389331 -0.1922674143806947 0 0.40448450924811252 -0.20946869000050361 0 0.41578607552086178 -0.188920369687675 0 0.40448450924811252 -0.20946869000050361 0 0.41578607552086178 -0.188920369687675 0 0.42388064247197399 -0.20731116846063979 0 0.42388064247197399 -0.20731116846063979 0 0.43721407627090397 -0.18203099945244519 0 0.44625851268894562 -0.19647480572808149 0 0.42388064247197399 -0.20731116846063979 0 0.43721407627090397 -0.18203099945244519 0 0.41578607552086178 -0.188920369687675 0 0.42388064247197399 -0.20731116846063979 0 0.43721407627090397 -0.18203099945244519 0 0.42388064247197399 -0.20731116846063979 0 0.43322622938527078 -0.2337405811247521 0 0.45016668601619553 -0.2153112061130312 0 0.43322622938527078 -0.2337405811247521 0 0.43897716117048308 -0.26301066855777683 0 0.42261833832217532 -0.25235314954125387 0 0.40248009157848758 -0.22926916540829639 0 0.43322622938527078 -0.2337405811247521 0 0.42261833832217532 -0.25235314954125387 0 0.40248009157848758 -0.22926916540829639 0 0.40220661825089221 -0.25336435623855441 0 0.42261833832217532 -0.25235314954125387 0 0.40248009157848758 -0.22926916540829639 0 0.42388064247197399 -0.20731116846063979 0 0.43322622938527078 -0.2337405811247521 0 0.38416403906739932 -0.12943642960261181 0 0.39829717305439399 -0.14779067191054759 0 0.4072697773528508 -0.12796357876984479 0 0.37170013598968732 -0.15267947513826091 0 0.38416403906739932 -0.12943642960261181 0 0.39829717305439399 -0.14779067191054759 0 0.37170013598968732 -0.15267947513826091 0 0.39829717305439399 -0.14779067191054759 0 0.38689677415827028 -0.16220018603426861 0 0.39829717305439399 -0.14779067191054759 0 0.39997651196716433 -0.17446812010821799 0 0.41817912145060121 -0.15759178914500699 0 0.39829717305439399 -0.14779067191054759 0 0.38689677415827028 -0.16220018603426861 0 0.39997651196716433 -0.17446812010821799 0 0.37170013598968732 -0.15267947513826091 0 0.37887824074761228 -0.1782402879520974 0 0.37170013598968732 -0.15267947513826091 0 0.38689677415827028 -0.16220018603426861 0 0.37887824074761228 -0.1782402879520974 0 0.38689677415827028 -0.16220018603426861 0 0.37887824074761228 -0.1782402879520974 0 0.39997651196716433 -0.17446812010821799 0 0.39961796455389331 -0.1922674143806947 0 0.37887824074761228 -0.1782402879520974 0 0.39997651196716433 -0.17446812010821799 0 0.39961796455389331 -0.1922674143806947 0 0.41578607552086178 -0.188920369687675 0 0.39997651196716433 -0.17446812010821799 0 0.41578607552086178 -0.188920369687675 0 0.39997651196716433 -0.17446812010821799 0 0.42321421476540533 -0.1744532979865821 0 0.41578607552086178 -0.188920369687675 0 0.43721407627090397 -0.18203099945244519 0 0.42321421476540533 -0.1744532979865821 0 0.43721407627090397 -0.18203099945244519 0 0.42321421476540533 -0.1744532979865821 0 0.43429149948128171 -0.16460633216066839 0 0.42321421476540533 -0.1744532979865821 0 0.43429149948128171 -0.16460633216066839 0 0.41817912145060121 -0.15759178914500699 0 0.43429149948128171 -0.16460633216066839 0 0.41817912145060121 -0.15759178914500699 0 0.43880420531040198 -0.15285019324733179 0 0.39997651196716433 -0.17446812010821799 0 0.41817912145060121 -0.15759178914500699 0 0.39997651196716433 -0.17446812010821799 0 0.42321421476540533 -0.1744532979865821 0 0.41817912145060121 -0.15759178914500699 0 0.39829717305439399 -0.14779067191054759 0 0.41817912145060121 -0.15759178914500699 0 0.41709132993653492 -0.1404117952622424 0 0.41817912145060121 -0.15759178914500699 0 0.43638173093403798 -0.14071545818179609 0 0.43880420531040198 -0.15285019324733179 0 0.41817912145060121 -0.15759178914500699 0 0.43638173093403798 -0.14071545818179609 0 0.41817912145060121 -0.15759178914500699 0 0.43638173093403798 -0.14071545818179609 0 0.41709132993653492 -0.1404117952622424 0 0.43638173093403798 -0.14071545818179609 0 0.42532884689079092 -0.12799747830401659 0 0.41709132993653492 -0.1404117952622424 0 0.44036752807406149 -0.124174720653648 0 0.43638173093403798 -0.14071545818179609 0 0.42532884689079092 -0.12799747830401659 0 0.39829717305439399 -0.14779067191054759 0 0.41709132993653492 -0.1404117952622424 0 0.4072697773528508 -0.12796357876984479 0 0.42532884689079092 -0.12799747830401659 0 0.41709132993653492 -0.1404117952622424 0 0.4072697773528508 -0.12796357876984479 0 0.4545843404174752 -0.1238391272185856 0 0.45256592524365469 -0.140294978831418 0 0.4545843404174752 -0.1238391272185856 0 0.45959864987757848 -0.1272507255884725 0 0.45256592524365469 -0.140294978831418 0 0.46379947626071633 -0.1316251238897044 0 0.46376177257197598 -0.14887432349026031 0 0.47206486252468172 -0.14102213766414601 0 0.46693628525757808 -0.1229235944934005 0 0.46379947626071633 -0.1316251238897044 0 0.47402246665898218 -0.12784694419781251 0 0.46693628525757808 -0.1229235944934005 0 0.46196153120451999 -0.1240358528360395 0 0.46379947626071633 -0.1316251238897044 0 0.46196153120451999 -0.1240358528360395 0 0.46379947626071633 -0.1316251238897044 0 0.45959864987757848 -0.1272507255884725 0 0.46379947626071633 -0.1316251238897044 0 0.45959864987757848 -0.1272507255884725 0 0.45256592524365469 -0.140294978831418 0 0.4545843404174752 -0.1238391272185856 0 0.43638173093403798 -0.14071545818179609 0 0.45256592524365469 -0.140294978831418 0 0.44036752807406149 -0.124174720653648 0 0.4545843404174752 -0.1238391272185856 0 0.43638173093403798 -0.14071545818179609 0 0.4545843404174752 -0.1238391272185856 0 0.43638173093403798 -0.14071545818179609 0 0.45256592524365469 -0.140294978831418 0 0.45054751006983368 -0.15675083044425039 0 0.43638173093403798 -0.14071545818179609 0 0.45256592524365469 -0.140294978831418 0 0.43880420531040198 -0.15285019324733179 0 0.45256592524365469 -0.140294978831418 0 0.43880420531040198 -0.15285019324733179 0 0.45054751006983368 -0.15675083044425039 0 0.46379947626071633 -0.1316251238897044 0 0.45054751006983368 -0.15675083044425039 0 0.46379947626071633 -0.1316251238897044 0 0.45256592524365469 -0.140294978831418 0 0.45054751006983368 -0.15675083044425039 0 0.46376177257197598 -0.14887432349026031 0 0.46266460570117529 -0.16193061886067439 0 0.45054751006983368 -0.15675083044425039 0 0.46379947626071633 -0.1316251238897044 0 0.46376177257197598 -0.14887432349026031 0 0.45054751006983368 -0.15675083044425039 0 0.46376177257197598 -0.14887432349026031 0 0.46266460570117529 -0.16193061886067439 0 0.47308974458770431 -0.1525826316726222 0 0.46266460570117529 -0.16193061886067439 0 0.45883862055006108 -0.17134585948566169 0 0.46929781148266431 -0.1744956853771846 0 0.46266460570117529 -0.16193061886067439 0 0.46929781148266431 -0.1744956853771846 0 0.47260847541826012 -0.1634147616176013 0 0.46266460570117529 -0.16193061886067439 0 0.45883862055006108 -0.17134585948566169 0 0.44923723215256411 -0.16743333980001029 0 0.46266460570117529 -0.16193061886067439 0 0.45054751006983368 -0.15675083044425039 0 0.44923723215256411 -0.16743333980001029 0 0.45054751006983368 -0.15675083044425039 0 0.44923723215256411 -0.16743333980001029 0 0.43429149948128171 -0.16460633216066839 0 0.43880420531040198 -0.15285019324733179 0 0.45054751006983368 -0.15675083044425039 0 0.43721407627090397 -0.18203099945244519 0 0.45054751006983368 -0.15675083044425039 0 0.43721407627090397 -0.18203099945244519 0 0.43429149948128171 -0.16460633216066839 0 0.45054751006983368 -0.15675083044425039 0 0.43721407627090397 -0.18203099945244519 0 0.45054751006983368 -0.15675083044425039 0 0.44923723215256411 -0.16743333980001029 0 0.43721407627090397 -0.18203099945244519 0 0.45415483286384078 -0.18152379390477771 0 0.44625851268894562 -0.19647480572808149 0 0.43721407627090397 -0.18203099945244519 0 0.44923723215256411 -0.16743333980001029 0 0.45415483286384078 -0.18152379390477771 0 0.45415483286384078 -0.18152379390477771 0 0.46929781148266431 -0.1744956853771846 0 0.46587632582181399 -0.19619686070951331 0 0.45883862055006108 -0.17134585948566169 0 0.44923723215256411 -0.16743333980001029 0 0.45415483286384078 -0.18152379390477771 0 0.45883862055006108 -0.17134585948566169 0 0.45415483286384078 -0.18152379390477771 0 0.46929781148266431 -0.1744956853771846 0 0.48402172884681732 -0.18181991527000299 0 0.46929781148266431 -0.1744956853771846 0 0.46587632582181399 -0.19619686070951331 0 0.48402172884681732 -0.18181991527000299 0 0.46929781148266431 -0.1744956853771846 0 0.48387434757441022 -0.16515523042799299 0 0.48402172884681732 -0.18181991527000299 0 0.5 -0.1613682481342035 0 0.5 -0.19053872094894389 0 0.5 -0.1613682481342035 0 0.48387434757441022 -0.16515523042799299 0 0.48388315841141921 -0.15004577608733319 0 0.48402172884681732 -0.18181991527000299 0 0.5 -0.1613682481342035 0 0.48387434757441022 -0.16515523042799299 0 0.46929781148266431 -0.1744956853771846 0 0.48387434757441022 -0.16515523042799299 0 0.47260847541826012 -0.1634147616176013 0 0.46266460570117529 -0.16193061886067439 0 0.47260847541826012 -0.1634147616176013 0 0.47308974458770431 -0.1525826316726222 0 0.48387434757441022 -0.16515523042799299 0 0.47260847541826012 -0.1634147616176013 0 0.47308974458770431 -0.1525826316726222 0 0.47308974458770431 -0.1525826316726222 0 0.47206486252468172 -0.14102213766414601 0 0.48388315841141921 -0.15004577608733319 0 0.46376177257197598 -0.14887432349026031 0 0.47308974458770431 -0.1525826316726222 0 0.47206486252468172 -0.14102213766414601 0 0.47206486252468172 -0.14102213766414601 0 0.48388315841141921 -0.15004577608733319 0 0.48019697080732898 -0.13679568695371949 0 0.48387434757441022 -0.16515523042799299 0 0.47308974458770431 -0.1525826316726222 0 0.48388315841141921 -0.15004577608733319 0 0.5 -0.1613682481342035 0 0.48388315841141921 -0.15004577608733319 0 0.4940730249743896 -0.1433507216713153 0 0.5 -0.1613682481342035 0 0.4940730249743896 -0.1433507216713153 0 0.5 -0.13219777531946311 0 0.48388315841141921 -0.15004577608733319 0 0.4940730249743896 -0.1433507216713153 0 0.48019697080732898 -0.13679568695371949 0 0.48457862702696852 -0.1208743639486619 0 0.4940730249743896 -0.1433507216713153 0 0.48457862702696852 -0.1208743639486619 0 0.4940730249743896 -0.1433507216713153 0 0.5 -0.13219777531946311 0 0.48457862702696852 -0.1208743639486619 0 0.4940730249743896 -0.1433507216713153 0 0.48019697080732898 -0.13679568695371949 0 0.48457862702696852 -0.1208743639486619 0 0.48019697080732898 -0.13679568695371949 0 0.47402246665898218 -0.12784694419781251 0 0.46379947626071633 -0.1316251238897044 0 0.47206486252468172 -0.14102213766414601 0 0.47402246665898218 -0.12784694419781251 0 0.47206486252468172 -0.14102213766414601 0 0.48019697080732898 -0.13679568695371949 0 0.47402246665898218 -0.12784694419781251 0 0.45842887216400441 -0.23971464764598449 0 0.45016668601619553 -0.2153112061130312 0 0.47419973680132521 -0.21939882590554829 0 0.43322622938527078 -0.2337405811247521 0 0.45842887216400441 -0.23971464764598449 0 0.43897716117048308 -0.26301066855777683 0 0.43322622938527078 -0.2337405811247521 0 0.45842887216400441 -0.23971464764598449 0 0.45016668601619553 -0.2153112061130312 0 0.42388064247197399 -0.20731116846063979 0 0.45016668601619553 -0.2153112061130312 0 0.44625851268894562 -0.19647480572808149 0 0.45016668601619553 -0.2153112061130312 0 0.44625851268894562 -0.19647480572808149 0 0.46587632582181399 -0.19619686070951331 0 0.45415483286384078 -0.18152379390477771 0 0.44625851268894562 -0.19647480572808149 0 0.46587632582181399 -0.19619686070951331 0 0.45016668601619553 -0.2153112061130312 0 0.46587632582181399 -0.19619686070951331 0 0.47419973680132521 -0.21939882590554829 0 0.46587632582181399 -0.19619686070951331 0 0.4850818882020157 -0.20316474602217979 0 0.47419973680132521 -0.21939882590554829 0 0.48402172884681732 -0.18181991527000299 0 0.46587632582181399 -0.19619686070951331 0 0.4850818882020157 -0.20316474602217979 0 0.48402172884681732 -0.18181991527000299 0 0.5 -0.19053872094894389 0 0.4850818882020157 -0.20316474602217979 0 0.5 -0.19053872094894389 0 0.4850818882020157 -0.20316474602217979 0 0.5 -0.2197091937636842 0 0.4850818882020157 -0.20316474602217979 0 0.5 -0.2197091937636842 0 0.47419973680132521 -0.21939882590554829 0 0.5 -0.2197091937636842 0 0.47419973680132521 -0.21939882590554829 0 0.48229726631115932 -0.2371760859088112 0 0.45842887216400441 -0.23971464764598449 0 0.47419973680132521 -0.21939882590554829 0 0.48229726631115932 -0.2371760859088112 0 0.45842887216400441 -0.23971464764598449 0 0.48229726631115932 -0.2371760859088112 0 0.47885772259046661 -0.25817809565041472 0 0.5 -0.2197091937636842 0 0.48229726631115932 -0.2371760859088112 0 0.5 -0.2488796665784245 0 0.48229726631115932 -0.2371760859088112 0 0.5 -0.2488796665784245 0 0.47885772259046661 -0.25817809565041472 0 0.5 -0.2488796665784245 0 0.49999999999999872 -0.27805013939316492 0 0.47885772259046661 -0.25817809565041472 0 0.49999999999999872 -0.27805013939316492 0 0.47303326206656549 -0.27962620973078561 0 0.49999999999999872 -0.27805013939316492 0 0.47303326206656549 -0.27962620973078561 0 0.47885772259046661 -0.25817809565041472 0 0.47303326206656549 -0.27962620973078561 0 0.47885772259046661 -0.25817809565041472 0 0.45936534916764232 -0.26447454082894117 0 0.45842887216400441 -0.23971464764598449 0 0.47885772259046661 -0.25817809565041472 0 0.45936534916764232 -0.26447454082894117 0 0.47303326206656549 -0.27962620973078561 0 0.45936534916764232 -0.26447454082894117 0 0.44606652413313241 -0.28120228006840631 0 0.47303326206656549 -0.27962620973078561 0 0.44606652413313241 -0.28120228006840631 0 0.45936534916764232 -0.26447454082894117 0 0.44606652413313241 -0.28120228006840631 0 0.43897716117048308 -0.26301066855777683 0 0.45842887216400441 -0.23971464764598449 0 0.45936534916764232 -0.26447454082894117 0 0.43897716117048308 -0.26301066855777683 0 0.44113296603686519 -0.29751323667061502 0 0.44893265244590419 -0.31448345842003989 0 0.42911397646561511 -0.30837151532587381 0 0.44113296603686519 -0.29751323667061502 0 0.45873850458667959 -0.29620831054673269 0 0.44893265244590419 -0.31448345842003989 0 0.44606652413313241 -0.28120228006840631 0 0.44113296603686519 -0.29751323667061502 0 0.45873850458667959 -0.29620831054673269 0 0.47303326206656549 -0.27962620973078561 0 0.44606652413313241 -0.28120228006840631 0 0.45873850458667959 -0.29620831054673269 0 0.45873850458667959 -0.29620831054673269 0 0.46371716571889882 -0.31074562291920549 0 0.44893265244590419 -0.31448345842003989 0 0.45873850458667959 -0.29620831054673269 0 0.46371716571889882 -0.31074562291920549 0 0.47936925229334088 -0.30925787688942119 0 0.45873850458667959 -0.29620831054673269 0 0.47936925229334088 -0.30925787688942119 0 0.45873850458667959 -0.29620831054673269 0 0.47936925229334088 -0.30925787688942119 0 0.4843915806396133 -0.29269074767369169 0 0.47303326206656549 -0.27962620973078561 0 0.45873850458667959 -0.29620831054673269 0 0.4843915806396133 -0.29269074767369169 0 0.49999999999999872 -0.27805013939316492 0 0.47303326206656549 -0.27962620973078561 0 0.4843915806396133 -0.29269074767369169 0 0.49999999999999872 -0.27805013939316492 0 0.4843915806396133 -0.29269074767369169 0 0.5 -0.30017879131263769 0 0.47936925229334088 -0.30925787688942119 0 0.4843915806396133 -0.29269074767369169 0 0.5 -0.30017879131263769 0 0.47936925229334088 -0.30925787688942119 0 0.5 -0.30017879131263769 0 0.50000000000000178 -0.32230744323211052 0 0.50000000000000178 -0.32230744323211052 0 0.48246276500133828 -0.35299407453115328 0 0.5 -0.38718678963051117 0 0.47936925229334088 -0.30925787688942119 0 0.50000000000000178 -0.32230744323211052 0 0.47868124085481661 -0.33004704259879292 0 0.47936925229334088 -0.30925787688942119 0 0.50000000000000178 -0.32230744323211052 0 0.50000000000000178 -0.32230744323211052 0 0.47868124085481661 -0.33004704259879292 0 0.48246276500133828 -0.35299407453115328 0 0.47868124085481661 -0.33004704259879292 0 0.48246276500133828 -0.35299407453115328 0 0.46374593342973269 -0.34264297252065101 0 0.47868124085481661 -0.33004704259879292 0 0.46782825354967061 -0.32303284582062858 0 0.46374593342973269 -0.34264297252065101 0 0.47936925229334088 -0.30925787688942119 0 0.47868124085481661 -0.33004704259879292 0 0.46782825354967061 -0.32303284582062858 0 0.46371716571889882 -0.31074562291920549 0 0.47936925229334088 -0.30925787688942119 0 0.46782825354967061 -0.32303284582062858 0 0.48246276500133828 -0.35299407453115328 0 0.5 -0.38718678963051117 0 0.46403374170748879 -0.38323310035397351 0 0.48246276500133828 -0.35299407453115328 0 0.45302466098171401 -0.36330264189320338 0 0.46403374170748879 -0.38323310035397351 0 0.45302466098171401 -0.36330264189320338 0 0.44400200054878131 -0.37388719447789343 0 0.46403374170748879 -0.38323310035397351 0 0.48246276500133828 -0.35299407453115328 0 0.45302466098171401 -0.36330264189320338 0 0.46374593342973269 -0.34264297252065101 0 0.44941780113002461 -0.34966970776142348 0 0.45302466098171401 -0.36330264189320338 0 0.46374593342973269 -0.34264297252065101 0 0.44941780113002461 -0.34966970776142348 0 0.44452580122755192 -0.33644342075465489 0 0.43712400494357367 -0.35657831879094332 0 0.44941780113002461 -0.34966970776142348 0 0.45302466098171401 -0.36330264189320338 0 0.43712400494357367 -0.35657831879094332 0 0.45302466098171401 -0.36330264189320338 0 0.43712400494357367 -0.35657831879094332 0 0.45302466098171401 -0.36330264189320338 0 0.44400200054878131 -0.37388719447789343 0 0.43712400494357367 -0.35657831879094332 0 0.46371716571889882 -0.31074562291920549 0 0.46782825354967061 -0.32303284582062858 0 0.44893265244590419 -0.31448345842003989 0 0.46782825354967061 -0.32303284582062858 0 0.44452580122755192 -0.33644342075465489 0 0.44893265244590419 -0.31448345842003989 0 0.46782825354967061 -0.32303284582062858 0 0.44452580122755192 -0.33644342075465489 0 0.46782825354967061 -0.32303284582062858 0 0.46374593342973269 -0.34264297252065101 0 0.44452580122755192 -0.33644342075465489 0 0.44941780113002461 -0.34966970776142348 0 0.46374593342973269 -0.34264297252065101 0 0.44452580122755192 -0.33644342075465489 0 0.44893265244590419 -0.31448345842003989 0 0.43560637983272182 -0.32170033352030208 0 0.42911397646561511 -0.30837151532587381 0 0.44452580122755192 -0.33644342075465489 0 0.44893265244590419 -0.31448345842003989 0 0.43560637983272182 -0.32170033352030208 0 0.43560637983272182 -0.32170033352030208 0 0.41985308919181591 -0.32750293958063997 0 0.42911397646561511 -0.30837151532587381 0 0.44452580122755192 -0.33644342075465489 0 0.41985308919181591 -0.32750293958063997 0 0.42122334890543378 -0.34985399568868247 0 0.44452580122755192 -0.33644342075465489 0 0.42122334890543378 -0.34985399568868247 0 0.44452580122755192 -0.33644342075465489 0 0.43560637983272182 -0.32170033352030208 0 0.41985308919181591 -0.32750293958063997 0 0.41985308919181591 -0.32750293958063997 0 0.42122334890543378 -0.34985399568868247 0 0.40201658922389583 -0.34173153473258627 0 0.41985308919181591 -0.32750293958063997 0 0.39721644750754859 -0.31841697498793159 0 0.40201658922389583 -0.34173153473258627 0 0.41985308919181591 -0.32750293958063997 0 0.42911397646561511 -0.30837151532587381 0 0.41279967254661482 -0.30799295903981089 0 0.41985308919181591 -0.32750293958063997 0 0.39721644750754859 -0.31841697498793159 0 0.41279967254661482 -0.30799295903981089 0 0.42245978649298099 -0.36342501769900282 0 0.4312668279380758 -0.37476687698253752 0 0.43712400494357367 -0.35657831879094332 0 0.42245978649298099 -0.36342501769900282 0 0.4312668279380758 -0.37476687698253752 0 0.41801362277382481 -0.37980015093191222 0 0.44400200054878131 -0.37388719447789343 0 0.4312668279380758 -0.37476687698253752 0 0.43712400494357367 -0.35657831879094332 0 0.42245978649298099 -0.36342501769900282 0 0.43712400494357367 -0.35657831879094332 0 0.42122334890543378 -0.34985399568868247 0 0.43712400494357367 -0.35657831879094332 0 0.42122334890543378 -0.34985399568868247 0 0.44452580122755192 -0.33644342075465489 0 0.43712400494357367 -0.35657831879094332 0 0.42122334890543378 -0.34985399568868247 0 0.42122334890543378 -0.34985399568868247 0 0.40394883971288309 -0.35979548582769721 0 0.40201658922389583 -0.34173153473258627 0 0.42122334890543378 -0.34985399568868247 0 0.40201658922389583 -0.34173153473258627 0 0.42245978649298099 -0.36342501769900282 0 0.42122334890543378 -0.34985399568868247 0 0.40394883971288309 -0.35979548582769721 0 0.42122334890543378 -0.34985399568868247 0 0.40394883971288309 -0.35979548582769721 0 0.42245978649298099 -0.36342501769900282 0 0.41184873499587837 -0.36958165421369182 0 0.41801362277382481 -0.37980015093191222 0 0.42245978649298099 -0.36342501769900282 0 0.41184873499587837 -0.36958165421369182 0 0.40394883971288309 -0.35979548582769721 0 0.41184873499587837 -0.36958165421369182 0 0.40394883971288309 -0.35979548582769721 0 0.41184873499587837 -0.36958165421369182 0 0.40131679309654927 -0.36907442298859439 0 0.40588071922485902 -0.37585083043731699 0 0.40131679309654927 -0.36907442298859439 0 0.40394883971288309 -0.35979548582769721 0 0.38075929691825522 -0.37314108126264328 0 0.40131679309654927 -0.36907442298859439 0 0.38075929691825522 -0.37314108126264328 0 0.39648117338784822 -0.3752339274408254 0 0.40394883971288309 -0.35979548582769721 0 0.38075929691825522 -0.37314108126264328 0 0.40394883971288309 -0.35979548582769721 0 0.38761221196339912 -0.35807010630989589 0 0.38075929691825522 -0.37314108126264328 0 0.40131679309654927 -0.36907442298859439 0 0.40588071922485902 -0.37585083043731699 0 0.39648117338784822 -0.3752339274408254 0 0.41184873499587837 -0.36958165421369182 0 0.40131679309654927 -0.36907442298859439 0 0.40394883971288309 -0.35979548582769721 0 0.40394883971288309 -0.35979548582769721 0 0.39337933462761959 -0.34670227980209412 0 0.40201658922389583 -0.34173153473258627 0 0.40394883971288309 -0.35979548582769721 0 0.39337933462761959 -0.34670227980209412 0 0.38761221196339912 -0.35807010630989589 0 0.40394883971288309 -0.35979548582769721 0 0.39337933462761959 -0.34670227980209412 0 0.39337933462761959 -0.34670227980209412 0 0.38761221196339912 -0.35807010630989589 0 0.3746690352680444 -0.35036594953474198 0 0.38075929691825522 -0.37314108126264328 0 0.3746690352680444 -0.35036594953474198 0 0.38761221196339912 -0.35807010630989589 0 0.38075929691825522 -0.37314108126264328 0 0.3746690352680444 -0.35036594953474198 0 0.40201658922389583 -0.34173153473258627 0 0.38280982954235809 -0.33360907377648952 0 0.39721644750754859 -0.31841697498793159 0 0.40201658922389583 -0.34173153473258627 0 0.38280982954235809 -0.33360907377648952 0 0.39337933462761959 -0.34670227980209412 0 0.40201658922389583 -0.34173153473258627 0 0.38280982954235809 -0.33360907377648952 0 0.39337933462761959 -0.34670227980209412 0 0.38280982954235809 -0.33360907377648952 0 0.3746690352680444 -0.35036594953474198 0 0.38280982954235809 -0.33360907377648952 0 0.36857877361783298 -0.32759081780684068 0 0.3746690352680444 -0.35036594953474198 0 0.39337933462761959 -0.34670227980209412 0 0.38280982954235809 -0.33360907377648952 0 0.38280982954235809 -0.33360907377648952 0 0.36857877361783298 -0.32759081780684068 0 0.39721644750754859 -0.31841697498793159 0 0.38064121864366218 -0.31536543698069558 0 0.38478486503811832 -0.30392655108923311 0 0.39721644750754859 -0.31841697498793159 0 0.38280982954235809 -0.33360907377648952 0 0.38064121864366218 -0.31536543698069558 0 0.38280982954235809 -0.33360907377648952 0 0.38064121864366218 -0.31536543698069558 0 0.36404478450140298 -0.31036346304836071 0 0.38478486503811832 -0.30392655108923311 0 0.37519233250025458 -0.28742322934635028 0 0.37333747175387211 -0.30073574079472498 0 0.38064121864366218 -0.31536543698069558 0 0.38478486503811832 -0.30392655108923311 0 0.37333747175387211 -0.30073574079472498 0 0.39721644750754859 -0.31841697498793159 0 0.38478486503811832 -0.30392655108923311 0 0.3975368547852538 -0.29769137333646262 0 0.39721644750754859 -0.31841697498793159 0 0.3975368547852538 -0.29769137333646262 0 0.41279967254661482 -0.30799295903981089 0 0.3975368547852538 -0.29769137333646262 0 0.38809507931481452 -0.28070585993704988 0 0.39959209080275671 -0.27397924900749038 0 0.3975368547852538 -0.29769137333646262 0 0.37519233250025458 -0.28742322934635028 0 0.3975368547852538 -0.29769137333646262 0 0.37815027749241431 -0.28549680323647331 0 0.37519233250025458 -0.28742322934635028 0 0.38478486503811832 -0.30392655108923311 0 0.3975368547852538 -0.29769137333646262 0 0.37519233250025458 -0.28742322934635028 0 0.3975368547852538 -0.29769137333646262 0 0.37815027749241431 -0.28549680323647331 0 0.38809507931481452 -0.28070585993704988 0 0.37815027749241431 -0.28549680323647331 0 0.38144471256600609 -0.27961829355502937 0 0.38809507931481452 -0.28070585993704988 0 0.37815027749241431 -0.28549680323647331 0 0.37519233250025458 -0.28742322934635028 0 0.37689862621175851 -0.2792746807397844 0 0.37815027749241431 -0.28549680323647331 0 0.37519233250025458 -0.28742322934635028 0 0.37815027749241431 -0.28549680323647331 0 0.37689862621175851 -0.2792746807397844 0 0.38144471256600609 -0.27961829355502937 0 0.38216534951540931 -0.27139508523828659 0 0.38575648630301818 -0.25717949554165742 0 0.36754045898470822 -0.27243999232278249 0 0.38216534951540931 -0.27139508523828659 0 0.38575648630301818 -0.25717949554165742 0 0.39959209080275671 -0.27397924900749038 0 0.37689862621175851 -0.2792746807397844 0 0.38216534951540931 -0.27139508523828659 0 0.36754045898470822 -0.27243999232278249 0 0.38216534951540931 -0.27139508523828659 0 0.38809507931481452 -0.28070585993704988 0 0.39959209080275671 -0.27397924900749038 0 0.37689862621175851 -0.2792746807397844 0 0.38144471256600609 -0.27961829355502937 0 0.38216534951540931 -0.27139508523828659 0 0.38144471256600609 -0.27961829355502937 0 0.38216534951540931 -0.27139508523828659 0 0.38809507931481452 -0.28070585993704988 0 0.36744303115541888 -0.24314195442134201 0 0.38575648630301818 -0.25717949554165742 0 0.3859251326645482 -0.24096032397227021 0 0.38575648630301818 -0.25717949554165742 0 0.40220661825089221 -0.25336435623855441 0 0.38575648630301818 -0.25717949554165742 0 0.40220661825089221 -0.25336435623855441 0 0.39959209080275671 -0.27397924900749038 0 0.39959209080275671 -0.27397924900749038 0 0.41754548191359109 -0.2674614199230661 0 0.42281317255299439 -0.28730061899202208 0 0.40220661825089221 -0.25336435623855441 0 0.41754548191359109 -0.2674614199230661 0 0.42261833832217532 -0.25235314954125387 0 0.40220661825089221 -0.25336435623855441 0 0.39959209080275671 -0.27397924900749038 0 0.41754548191359109 -0.2674614199230661 0 0.43897716117048308 -0.26301066855777683 0 0.41754548191359109 -0.2674614199230661 0 0.42261833832217532 -0.25235314954125387 0 0.43897716117048308 -0.26301066855777683 0 0.41754548191359109 -0.2674614199230661 0 0.42281317255299439 -0.28730061899202208 0 0.44606652413313241 -0.28120228006840631 0 0.43897716117048308 -0.26301066855777683 0 0.42281317255299439 -0.28730061899202208 0 0.44606652413313241 -0.28120228006840631 0 0.44113296603686519 -0.29751323667061502 0 0.42281317255299439 -0.28730061899202208 0 0.44113296603686519 -0.29751323667061502 0 0.42281317255299439 -0.28730061899202208 0 0.42911397646561511 -0.30837151532587381 0 0.3975368547852538 -0.29769137333646262 0 0.42281317255299439 -0.28730061899202208 0 0.41279967254661482 -0.30799295903981089 0 0.42281317255299439 -0.28730061899202208 0 0.42911397646561511 -0.30837151532587381 0 0.41279967254661482 -0.30799295903981089 0 0.3975368547852538 -0.29769137333646262 0 0.39959209080275671 -0.27397924900749038 0 0.42281317255299439 -0.28730061899202208 0 0.5 -0.5 0 0.47981055076334328 -0.45914924072773428 0 0.5 -0.43584139244379438 0 0.44990320948981349 -0.5 0 0.44652158285945748 -0.47288874860322427 0 0.42039094905436802 -0.47159507155143171 0 0.44990320948981349 -0.5 0 0.44652158285945748 -0.47288874860322427 0 0.4707446317673557 -0.47905568818606042 0 0.44652158285945748 -0.47288874860322427 0 0.4707446317673557 -0.47905568818606042 0 0.45602241983646252 -0.45558283402644489 0 0.44990320948981349 -0.5 0 0.5 -0.5 0 0.4707446317673557 -0.47905568818606042 0 0.5 -0.5 0 0.4707446317673557 -0.47905568818606042 0 0.47981055076334328 -0.45914924072773428 0 0.47981055076334328 -0.45914924072773428 0 0.46717463679221127 -0.43273802970993469 0 0.5 -0.43584139244379438 0 0.4707446317673557 -0.47905568818606042 0 0.47981055076334328 -0.45914924072773428 0 0.45602241983646252 -0.45558283402644489 0 0.47981055076334328 -0.45914924072773428 0 0.45602241983646252 -0.45558283402644489 0 0.46717463679221127 -0.43273802970993469 0 0.45602241983646252 -0.45558283402644489 0 0.44130020790556918 -0.43210997986682947 0 0.46717463679221127 -0.43273802970993469 0 0.4707446317673557 -0.47905568818606042 0 0.45602241983646252 -0.45558283402644489 0 0.44652158285945748 -0.47288874860322427 0 0.45602241983646252 -0.45558283402644489 0 0.43554670414928781 -0.45821014925218401 0 0.45602241983646252 -0.45558283402644489 0 0.44130020790556918 -0.43210997986682947 0 0.45602241983646252 -0.45558283402644489 0 0.44130020790556918 -0.43210997986682947 0 0.43554670414928781 -0.45821014925218401 0 0.44130020790556918 -0.43210997986682947 0 0.45041889235077032 -0.40934695193714982 0 0.46717463679221127 -0.43273802970993469 0 0.44130020790556918 -0.43210997986682947 0 0.45041889235077032 -0.40934695193714982 0 0.42657799597467588 -0.40863712570721389 0 0.45041889235077032 -0.40934695193714982 0 0.46717463679221127 -0.43273802970993469 0 0.47632545417009409 -0.40966925281507272 0 0.46717463679221127 -0.43273802970993469 0 0.5 -0.43584139244379438 0 0.47632545417009409 -0.40966925281507272 0 0.5 -0.43584139244379438 0 0.47632545417009409 -0.40966925281507272 0 0.5 -0.38718678963051117 0 0.47632545417009409 -0.40966925281507272 0 0.5 -0.38718678963051117 0 0.46403374170748879 -0.38323310035397351 0 0.45041889235077032 -0.40934695193714982 0 0.46403374170748879 -0.38323310035397351 0 0.44538765588303908 -0.38778040038646672 0 0.45041889235077032 -0.40934695193714982 0 0.47632545417009409 -0.40966925281507272 0 0.46403374170748879 -0.38323310035397351 0 0.45041889235077032 -0.40934695193714982 0 0.44538765588303908 -0.38778040038646672 0 0.43140380744026707 -0.39401105211451881 0 0.44400200054878131 -0.37388719447789343 0 0.46403374170748879 -0.38323310035397351 0 0.44538765588303908 -0.38778040038646672 0 0.44400200054878131 -0.37388719447789343 0 0.4312668279380758 -0.37476687698253752 0 0.44538765588303908 -0.38778040038646672 0 0.4312668279380758 -0.37476687698253752 0 0.44538765588303908 -0.38778040038646672 0 0.43140380744026707 -0.39401105211451881 0 0.4312668279380758 -0.37476687698253752 0 0.43140380744026707 -0.39401105211451881 0 0.41801362277382481 -0.37980015093191222 0 0.43140380744026707 -0.39401105211451881 0 0.41737739010887109 -0.39498091355836729 0 0.41801362277382481 -0.37980015093191222 0 0.45041889235077032 -0.40934695193714982 0 0.43140380744026707 -0.39401105211451881 0 0.42657799597467588 -0.40863712570721389 0 0.43140380744026707 -0.39401105211451881 0 0.41737739010887109 -0.39498091355836729 0 0.42657799597467588 -0.40863712570721389 0 0.41737739010887109 -0.39498091355836729 0 0.40099236020556078 -0.39698410333219508 0 0.40410751787597571 -0.41012567492382312 0 0.41737739010887109 -0.39498091355836729 0 0.40563683398417499 -0.38493023838088192 0 0.40099236020556078 -0.39698410333219508 0 0.41737739010887109 -0.39498091355836729 0 0.41801362277382481 -0.37980015093191222 0 0.40563683398417499 -0.38493023838088192 0 0.41184873499587837 -0.36958165421369182 0 0.41801362277382481 -0.37980015093191222 0 0.40588071922485902 -0.37585083043731699 0 0.41801362277382481 -0.37980015093191222 0 0.40588071922485902 -0.37585083043731699 0 0.40563683398417499 -0.38493023838088192 0 0.40588071922485902 -0.37585083043731699 0 0.40563683398417499 -0.38493023838088192 0 0.39648117338784822 -0.3752339274408254 0 0.40563683398417499 -0.38493023838088192 0 0.39820213520511122 -0.38919008131289867 0 0.40099236020556078 -0.39698410333219508 0 0.40563683398417499 -0.38493023838088192 0 0.39820213520511122 -0.38919008131289867 0 0.39264387179431859 -0.38276145317610988 0 0.39820213520511122 -0.38919008131289867 0 0.39264387179431859 -0.38276145317610988 0 0.39053878301854172 -0.39291323196607558 0 0.40563683398417499 -0.38493023838088192 0 0.39648117338784822 -0.3752339274408254 0 0.39264387179431859 -0.38276145317610988 0 0.39648117338784822 -0.3752339274408254 0 0.39264387179431859 -0.38276145317610988 0 0.38837632626436341 -0.37874475610368291 0 0.39264387179431859 -0.38276145317610988 0 0.38837632626436341 -0.37874475610368291 0 0.3836209629570318 -0.38384256253515259 0 0.38075929691825522 -0.37314108126264328 0 0.38837632626436341 -0.37874475610368291 0 0.3836209629570318 -0.38384256253515259 0 0.38075929691825522 -0.37314108126264328 0 0.39648117338784822 -0.3752339274408254 0 0.38837632626436341 -0.37874475610368291 0 0.39264387179431859 -0.38276145317610988 0 0.38699733470268632 -0.38659968513638998 0 0.3836209629570318 -0.38384256253515259 0 0.38699733470268632 -0.38659968513638998 0 0.38118572104085269 -0.3868814928682216 0 0.39053878301854172 -0.39291323196607558 0 0.39264387179431859 -0.38276145317610988 0 0.38699733470268632 -0.38659968513638998 0 0.39053878301854172 -0.39291323196607558 0 0.38699733470268632 -0.38659968513638998 0 0.3836209629570318 -0.38384256253515259 0 0.38118572104085269 -0.3868814928682216 0 0.38075929691825522 -0.37314108126264328 0 0.3836209629570318 -0.38384256253515259 0 0.38118572104085269 -0.3868814928682216 0 0.38075929691825522 -0.37314108126264328 0 0.3836209629570318 -0.38384256253515259 0 0.38118572104085269 -0.3868814928682216 0 0.38415242553389539 -0.41337303409949899 0 0.37224484264380842 -0.39773967704345942 0 0.38118572104085269 -0.3868814928682216 0 0.39053878301854172 -0.39291323196607558 0 0.38415242553389539 -0.41337303409949899 0 0.38118572104085269 -0.3868814928682216 0 0.38415242553389539 -0.41337303409949899 0 0.39053878301854172 -0.39291323196607558 0 0.40099236020556078 -0.39698410333219508 0 0.38415242553389539 -0.41337303409949899 0 0.39820213520511122 -0.38919008131289867 0 0.39053878301854172 -0.39291323196607558 0 0.40099236020556078 -0.39698410333219508 0 0.40099236020556078 -0.39698410333219508 0 0.40410751787597571 -0.41012567492382312 0 0.38415242553389539 -0.41337303409949899 0 0.40410751787597571 -0.41012567492382312 0 0.38415242553389539 -0.41337303409949899 0 0.40107315963134538 -0.42757473459414791 0 0.38415242553389539 -0.41337303409949899 0 0.38711913002693821 -0.43986457533077672 0 0.36964639770883467 -0.43152355928672459 0 0.38415242553389539 -0.41337303409949899 0 0.38711913002693821 -0.43986457533077672 0 0.38415242553389539 -0.41337303409949899 0 0.40107315963134538 -0.42757473459414791 0 0.38711913002693821 -0.43986457533077672 0 0.40107315963134538 -0.42757473459414791 0 0.41838190975737011 -0.42051896622272211 0 0.41938642940586912 -0.44605701888707677 0 0.41838190975737011 -0.42051896622272211 0 0.41938642940586912 -0.44605701888707677 0 0.40410751787597571 -0.41012567492382312 0 0.40107315963134538 -0.42757473459414791 0 0.41838190975737011 -0.42051896622272211 0 0.41737739010887109 -0.39498091355836729 0 0.41838190975737011 -0.42051896622272211 0 0.41737739010887109 -0.39498091355836729 0 0.41838190975737011 -0.42051896622272211 0 0.42657799597467588 -0.40863712570721389 0 0.41737739010887109 -0.39498091355836729 0 0.40410751787597571 -0.41012567492382312 0 0.41838190975737011 -0.42051896622272211 0 0.44130020790556918 -0.43210997986682947 0 0.42657799597467588 -0.40863712570721389 0 0.44130020790556918 -0.43210997986682947 0 0.41838190975737011 -0.42051896622272211 0 0.42657799597467588 -0.40863712570721389 0 0.44130020790556918 -0.43210997986682947 0 0.41838190975737011 -0.42051896622272211 0 0.41938642940586912 -0.44605701888707677 0 0.44990320948981349 -0.5 0 0.40324169843890822 -0.482491290103225 0 0.38355723912334772 -0.50000000000000355 0 0.44130020790556918 -0.43210997986682947 0 0.43554670414928781 -0.45821014925218401 0 0.41938642940586912 -0.44605701888707677 0 0.43554670414928781 -0.45821014925218401 0 0.41938642940586912 -0.44605701888707677 0 0.42039094905436802 -0.47159507155143171 0 0.44652158285945748 -0.47288874860322427 0 0.43554670414928781 -0.45821014925218401 0 0.42039094905436802 -0.47159507155143171 0 0.41938642940586912 -0.44605701888707677 0 0.40232271569584932 -0.45115838103892092 0 0.42039094905436802 -0.47159507155143171 0 0.41938642940586912 -0.44605701888707677 0 0.42039094905436802 -0.47159507155143171 0 0.40107315963134538 -0.42757473459414791 0 0.41938642940586912 -0.44605701888707677 0 0.40232271569584932 -0.45115838103892092 0 0.40107315963134538 -0.42757473459414791 0 0.40232271569584932 -0.45115838103892092 0 0.38711913002693821 -0.43986457533077672 0 0.40232271569584932 -0.45115838103892092 0 0.38711913002693821 -0.43986457533077672 0 0.39008583451998091 -0.46635611656205422 0 0.38711913002693821 -0.43986457533077672 0 0.37365738185297809 -0.44379120506177788 0 0.36964639770883467 -0.43152355928672459 0 0.38711913002693821 -0.43986457533077672 0 0.39008583451998091 -0.46635611656205422 0 0.38711913002693821 -0.43986457533077672 0 0.376878718785425 -0.45476616082433668 0 0.37365738185297809 -0.44379120506177788 0 0.38711913002693821 -0.43986457533077672 0 0.39008583451998091 -0.46635611656205422 0 0.376878718785425 -0.45476616082433668 0 0.39008583451998091 -0.46635611656205422 0 0.376878718785425 -0.45476616082433668 0 0.37227126000703048 -0.47450526240263913 0 0.40232271569584932 -0.45115838103892092 0 0.39008583451998091 -0.46635611656205422 0 0.42039094905436802 -0.47159507155143171 0 0.39008583451998091 -0.46635611656205422 0 0.40324169843890822 -0.482491290103225 0 0.42039094905436802 -0.47159507155143171 0 0.39008583451998091 -0.46635611656205422 0 0.40324169843890822 -0.482491290103225 0 0.37227126000703048 -0.47450526240263913 0 0.38355723912334772 -0.50000000000000355 0 0.37227126000703048 -0.47450526240263913 0 0.40324169843890822 -0.482491290103225 0 0.38355723912334772 -0.50000000000000355 0 0.37227126000703048 -0.47450526240263913 0 0.44990320948981349 -0.5 0 0.40324169843890822 -0.482491290103225 0 0.42039094905436802 -0.47159507155143171 0 0.32437280247586381 -0.48822277930022018 0 0.31581425375088418 -0.49816091645046218 0 0.31487957854472071 -0.47506475079335259 0 0.31581425375088418 -0.49816091645046218 0 0.31487957854472071 -0.47506475079335259 0 0.32437280247586381 -0.48822277930022018 0 0.32212381714565891 -0.5 0 0.33482594849438663 -0.48973557597787498 0 0.32437280247586381 -0.48822277930022018 0 0.32212381714565891 -0.5 0 0.31581425375088418 -0.49816091645046218 0 0.31487957854472071 -0.47506475079335259 0 0.33220265572777652 -0.47820034934429573 0 0.33154148844814069 -0.46326284894539582 0 0.32437280247586381 -0.48822277930022018 0 0.31487957854472071 -0.47506475079335259 0 0.33220265572777652 -0.47820034934429573 0 0.33220265572777652 -0.47820034934429573 0 0.33482594849438663 -0.48973557597787498 0 0.3478332917462324 -0.47817474095902918 0 0.33220265572777652 -0.47820034934429573 0 0.3478332917462324 -0.47817474095902918 0 0.33154148844814069 -0.46326284894539582 0 0.32212381714565891 -0.5 0 0.33482594849438663 -0.48973557597787498 0 0.34491287275735721 -0.49999999999999939 0 0.33482594849438663 -0.48973557597787498 0 0.34491287275735721 -0.49999999999999939 0 0.3478332917462324 -0.47817474095902918 0 0.32437280247586381 -0.48822277930022018 0 0.33220265572777652 -0.47820034934429573 0 0.33482594849438663 -0.48973557597787498 0 0.34491287275735721 -0.49999999999999939 0 0.36136483292322918 -0.48508136014698028 0 0.3478332917462324 -0.47817474095902918 0 0.34491287275735721 -0.49999999999999939 0 0.3478332917462324 -0.47817474095902918 0 0.34491287275735721 -0.49999999999999939 0 0.36423505594035238 -0.5 0 0.36136483292322918 -0.48508136014698028 0 0.38355723912334772 -0.50000000000000355 0 0.36423505594035238 -0.5 0 0.36136483292322918 -0.48508136014698028 0 0.38355723912334772 -0.50000000000000355 0 0.36136483292322918 -0.48508136014698028 0 0.37227126000703048 -0.47450526240263913 0 0.36136483292322918 -0.48508136014698028 0 0.37227126000703048 -0.47450526240263913 0 0.3478332917462324 -0.47817474095902918 0 0.37227126000703048 -0.47450526240263913 0 0.3478332917462324 -0.47817474095902918 0 0.35075371073510758 -0.45634948191805902 0 0.3478332917462324 -0.47817474095902918 0 0.35075371073510758 -0.45634948191805902 0 0.37227126000703048 -0.47450526240263913 0 0.36098528089071452 -0.44901052480527393 0 0.376878718785425 -0.45476616082433668 0 0.37227126000703048 -0.47450526240263913 0 0.36098528089071452 -0.44901052480527393 0 0.37227126000703048 -0.47450526240263913 0 0.35075371073510758 -0.45634948191805902 0 0.36098528089071452 -0.44901052480527393 0 0.37365738185297809 -0.44379120506177788 0 0.36098528089071452 -0.44901052480527393 0 0.36964639770883467 -0.43152355928672459 0 0.36098528089071452 -0.44901052480527393 0 0.35442529987269661 -0.43419169579855721 0 0.36964639770883467 -0.43152355928672459 0 0.376878718785425 -0.45476616082433668 0 0.37365738185297809 -0.44379120506177788 0 0.36098528089071452 -0.44901052480527393 0 0.35075371073510758 -0.45634948191805902 0 0.343116764060588 -0.44414501554252811 0 0.35442529987269661 -0.43419169579855721 0 0.36098528089071452 -0.44901052480527393 0 0.35442529987269661 -0.43419169579855721 0 0.35075371073510758 -0.45634948191805902 0 0.36098528089071452 -0.44901052480527393 0 0.35442529987269661 -0.43419169579855721 0 0.35075371073510758 -0.45634948191805902 0 0.35442529987269661 -0.43419169579855721 0 0.35075371073510758 -0.45634948191805902 0 0.343116764060588 -0.44414501554252811 0 0.33908156657363819 -0.45237216078945769 0 0.3308655236991076 -0.44288772908962792 0 0.33908156657363819 -0.45237216078945769 0 0.33154148844814069 -0.46326284894539582 0 0.343116764060588 -0.44414501554252811 0 0.3308655236991076 -0.44288772908962792 0 0.34117840247634801 -0.43281425324951928 0 0.343116764060588 -0.44414501554252811 0 0.3308655236991076 -0.44288772908962792 0 0.33908156657363819 -0.45237216078945769 0 0.3478332917462324 -0.47817474095902918 0 0.35075371073510758 -0.45634948191805902 0 0.33154148844814069 -0.46326284894539582 0 0.35075371073510758 -0.45634948191805902 0 0.33908156657363819 -0.45237216078945769 0 0.33154148844814069 -0.46326284894539582 0 0.31487957854472071 -0.47506475079335259 0 0.31394490333855718 -0.45196858513624288 0 0.31487957854472071 -0.47506475079335259 0 0.33154148844814069 -0.46326284894539582 0 0.31394490333855718 -0.45196858513624288 0 0.3308655236991076 -0.44288772908962792 0 0.33154148844814069 -0.46326284894539582 0 0.31394490333855718 -0.45196858513624288 0 0.3308655236991076 -0.44288772908962792 0 0.31394490333855718 -0.45196858513624288 0 0.31301022813239371 -0.42887241947913318 0 0.31394490333855718 -0.45196858513624288 0 0.31301022813239371 -0.42887241947913318 0 0.3308655236991076 -0.44288772908962792 0 0.31301022813239371 -0.42887241947913318 0 0.33087372194442682 -0.42198124874312609 0 0.31301022813239371 -0.42887241947913318 0 0.33087372194442682 -0.42198124874312609 0 0.31207555292623013 -0.40577625382202348 0 0.33087372194442682 -0.42198124874312609 0 0.33841332265808272 -0.39802104961054391 0 0.31207555292623013 -0.40577625382202348 0 0.31301022813239371 -0.42887241947913318 0 0.31207555292623013 -0.40577625382202348 0 0.33087372194442682 -0.42198124874312609 0 0.34969930177439862 -0.42351578720790889 0 0.33841332265808272 -0.39802104961054391 0 0.3308655236991076 -0.44288772908962792 0 0.33087372194442682 -0.42198124874312609 0 0.34117840247634801 -0.43281425324951928 0 0.33087372194442682 -0.42198124874312609 0 0.34117840247634801 -0.43281425324951928 0 0.34969930177439862 -0.42351578720790889 0 0.343116764060588 -0.44414501554252811 0 0.34117840247634801 -0.43281425324951928 0 0.35442529987269661 -0.43419169579855721 0 0.34969930177439862 -0.42351578720790889 0 0.35442529987269661 -0.43419169579855721 0 0.36964639770883467 -0.43152355928672459 0 0.34117840247634801 -0.43281425324951928 0 0.34969930177439862 -0.42351578720790889 0 0.35442529987269661 -0.43419169579855721 0 0.34969930177439862 -0.42351578720790889 0 0.35442529987269661 -0.43419169579855721 0 0.34969930177439862 -0.42351578720790889 0 0.36964639770883467 -0.43152355928672459 0 0.36524993203417527 -0.41882378958633598 0 0.38415242553389539 -0.41337303409949899 0 0.36524993203417527 -0.41882378958633598 0 0.36271723910289139 -0.40614786627982918 0 0.38415242553389539 -0.41337303409949899 0 0.36964639770883467 -0.43152355928672459 0 0.36524993203417527 -0.41882378958633598 0 0.34969930177439862 -0.42351578720790889 0 0.33841332265808272 -0.39802104961054391 0 0.34969930177439862 -0.42351578720790889 0 0.36271723910289139 -0.40614786627982918 0 0.33841332265808272 -0.39802104961054391 0 0.34969930177439862 -0.42351578720790889 0 0.36524993203417527 -0.41882378958633598 0 0.36271723910289139 -0.40614786627982918 0 0.36271723910289139 -0.40614786627982918 0 0.36092398489759381 -0.38455631492628772 0 0.33841332265808272 -0.39802104961054391 0 0.38415242553389539 -0.41337303409949899 0 0.37224484264380842 -0.39773967704345942 0 0.36271723910289139 -0.40614786627982918 0 0.37224484264380842 -0.39773967704345942 0 0.36271723910289139 -0.40614786627982918 0 0.36092398489759381 -0.38455631492628772 0 0.38118572104085269 -0.3868814928682216 0 0.37224484264380842 -0.39773967704345942 0 0.36092398489759381 -0.38455631492628772 0 0.38075929691825522 -0.37314108126264328 0 0.36092398489759381 -0.38455631492628772 0 0.36473034313665248 -0.36968874496257642 0 0.38075929691825522 -0.37314108126264328 0 0.36092398489759381 -0.38455631492628772 0 0.38075929691825522 -0.37314108126264328 0 0.38118572104085269 -0.3868814928682216 0 0.36092398489759381 -0.38455631492628772 0 0.36092398489759381 -0.38455631492628772 0 0.34548730561691099 -0.37591428766200302 0 0.33841332265808272 -0.39802104961054391 0 0.36092398489759381 -0.38455631492628772 0 0.34548730561691099 -0.37591428766200302 0 0.36473034313665248 -0.36968874496257642 0 0.34548730561691099 -0.37591428766200302 0 0.33841332265808272 -0.39802104961054391 0 0.32712734354176659 -0.37252631201317882 0 0.33841332265808272 -0.39802104961054391 0 0.32712734354176659 -0.37252631201317882 0 0.33841332265808272 -0.39802104961054391 0 0.3105824067190644 -0.38506848706742891 0 0.31207555292623013 -0.40577625382202348 0 0.33841332265808272 -0.39802104961054391 0 0.3105824067190644 -0.38506848706742891 0 0.32712734354176659 -0.37252631201317882 0 0.3105824067190644 -0.38506848706742891 0 0.32712734354176659 -0.37252631201317882 0 0.29668884470463269 -0.36964091356704343 0 0.3105824067190644 -0.38506848706742891 0 0.31207555292623013 -0.40577625382202348 0 0.28200432926146463 -0.39470565903980231 0 0.28200432926146463 -0.39470565903980231 0 0.29668884470463269 -0.36964091356704343 0 0.27572585523170928 -0.37408705933719461 0 0.3105824067190644 -0.38506848706742891 0 0.28200432926146463 -0.39470565903980231 0 0.29668884470463269 -0.36964091356704343 0 0.28200432926146463 -0.39470565903980231 0 0.29668884470463269 -0.36964091356704343 0 0.28200432926146463 -0.39470565903980231 0 0.2659212665642271 -0.38814992128129527 0 0.27572585523170928 -0.37408705933719461 0 0.2659212665642271 -0.38814992128129527 0 0.27572585523170928 -0.37408705933719461 0 0.26134499116997428 -0.3713958081505585 0 0.28200432926146463 -0.39470565903980231 0 0.2659212665642271 -0.38814992128129527 0 0.2673198138182965 -0.41977040451256109 0 0.2659212665642271 -0.38814992128129527 0 0.25186898246318867 -0.39708843324282372 0 0.2673198138182965 -0.41977040451256109 0 0.2659212665642271 -0.38814992128129527 0 0.25186898246318867 -0.39708843324282372 0 0.24446699196463481 -0.3787350506051812 0 0.2659212665642271 -0.38814992128129527 0 0.26134499116997428 -0.3713958081505585 0 0.24446699196463481 -0.3787350506051812 0 0.28200432926146463 -0.39470565903980231 0 0.2673198138182965 -0.41977040451256109 0 0.28200432926146463 -0.39470565903980231 0 0.2673198138182965 -0.41977040451256109 0 0.29190894056088412 -0.42206220661327598 0 0.25186898246318867 -0.39708843324282372 0 0.2673198138182965 -0.41977040451256109 0 0.2436958264271526 -0.408051313151996 0 0.2673198138182965 -0.41977040451256109 0 0.2436958264271526 -0.408051313151996 0 0.2419996013455222 -0.42165693498934059 0 0.2673198138182965 -0.41977040451256109 0 0.24827358551642789 -0.43362636784661318 0 0.2419996013455222 -0.42165693498934059 0 0.2673198138182965 -0.41977040451256109 0 0.26526205694459892 -0.4412652080535821 0 0.25263529837512833 -0.44483514998531992 0 0.2673198138182965 -0.41977040451256109 0 0.25263529837512833 -0.44483514998531992 0 0.2673198138182965 -0.41977040451256109 0 0.25263529837512833 -0.44483514998531992 0 0.24827358551642789 -0.43362636784661318 0 0.2673198138182965 -0.41977040451256109 0 0.27932920946223988 -0.44100502997337732 0 0.26526205694459892 -0.4412652080535821 0 0.2673198138182965 -0.41977040451256109 0 0.29190894056088412 -0.42206220661327598 0 0.27932920946223988 -0.44100502997337732 0 0.29190894056088412 -0.42206220661327598 0 0.29785977271704128 -0.44040336910804651 0 0.27932920946223988 -0.44100502997337732 0 0.31207555292623013 -0.40577625382202348 0 0.28200432926146463 -0.39470565903980231 0 0.29190894056088412 -0.42206220661327598 0 0.31301022813239371 -0.42887241947913318 0 0.31207555292623013 -0.40577625382202348 0 0.29190894056088412 -0.42206220661327598 0 0.31301022813239371 -0.42887241947913318 0 0.29190894056088412 -0.42206220661327598 0 0.29785977271704128 -0.44040336910804651 0 0.31394490333855718 -0.45196858513624288 0 0.29785977271704128 -0.44040336910804651 0 0.29110558209113202 -0.45810860433820288 0 0.31394490333855718 -0.45196858513624288 0 0.31301022813239371 -0.42887241947913318 0 0.29785977271704128 -0.44040336910804651 0 0.31487957854472071 -0.47506475079335259 0 0.31394490333855718 -0.45196858513624288 0 0.30243233700083472 -0.46787792090096147 0 0.31394490333855718 -0.45196858513624288 0 0.30243233700083472 -0.46787792090096147 0 0.29110558209113202 -0.45810860433820288 0 0.30243233700083472 -0.46787792090096147 0 0.29110558209113202 -0.45810860433820288 0 0.2918468391647423 -0.477727203414332 0 0.29110558209113202 -0.45810860433820288 0 0.27799989806913389 -0.45560728956315533 0 0.27506589031477507 -0.4691427592466334 0 0.29110558209113202 -0.45810860433820288 0 0.27506589031477507 -0.4691427592466334 0 0.2918468391647423 -0.477727203414332 0 0.29785977271704128 -0.44040336910804651 0 0.29110558209113202 -0.45810860433820288 0 0.27932920946223988 -0.44100502997337732 0 0.29110558209113202 -0.45810860433820288 0 0.27932920946223988 -0.44100502997337732 0 0.27799989806913389 -0.45560728956315533 0 0.27932920946223988 -0.44100502997337732 0 0.26649891040838858 -0.4541727646944077 0 0.27799989806913389 -0.45560728956315533 0 0.27932920946223988 -0.44100502997337732 0 0.26526205694459892 -0.4412652080535821 0 0.26649891040838858 -0.4541727646944077 0 0.26526205694459892 -0.4412652080535821 0 0.25976530489853772 -0.44905536405345658 0 0.25263529837512833 -0.44483514998531992 0 0.25976530489853772 -0.44905536405345658 0 0.25466495386603472 -0.45594833348051678 0 0.26649891040838858 -0.4541727646944077 0 0.26526205694459892 -0.4412652080535821 0 0.25976530489853772 -0.44905536405345658 0 0.26649891040838858 -0.4541727646944077 0 0.25976530489853772 -0.44905536405345658 0 0.25263529837512833 -0.44483514998531992 0 0.25466495386603472 -0.45594833348051678 0 0.25571272495575492 -0.46429116616253269 0 0.25466495386603472 -0.45594833348051678 0 0.26649891040838858 -0.4541727646944077 0 0.25571272495575492 -0.46429116616253269 0 0.26649891040838858 -0.4541727646944077 0 0.26325989238450948 -0.46952332866781182 0 0.26649891040838858 -0.4541727646944077 0 0.27506589031477507 -0.4691427592466334 0 0.26325989238450948 -0.46952332866781182 0 0.26649891040838858 -0.4541727646944077 0 0.27799989806913389 -0.45560728956315533 0 0.27506589031477507 -0.4691427592466334 0 0.27506589031477507 -0.4691427592466334 0 0.27904976540520338 -0.48389393294856842 0 0.26403086415747312 -0.48404051328633779 0 0.27506589031477507 -0.4691427592466334 0 0.26325989238450948 -0.46952332866781182 0 0.26403086415747312 -0.48404051328633779 0 0.26325989238450948 -0.46952332866781182 0 0.26403086415747312 -0.48404051328633779 0 0.25499107208615562 -0.47596943994914748 0 0.26403086415747312 -0.48404051328633779 0 0.25499107208615562 -0.47596943994914748 0 0.24585371662126221 -0.48494994772904099 0 0.25571272495575492 -0.46429116616253269 0 0.26325989238450948 -0.46952332866781182 0 0.25499107208615562 -0.47596943994914748 0 0.26403086415747312 -0.48404051328633779 0 0.25375665031056382 -0.500000000000003 0 0.27654570592226208 -0.5 0 0.26403086415747312 -0.48404051328633779 0 0.25375665031056382 -0.500000000000003 0 0.24585371662126221 -0.48494994772904099 0 0.27904976540520338 -0.48389393294856842 0 0.26403086415747312 -0.48404051328633779 0 0.27654570592226208 -0.5 0 0.27904976540520338 -0.48389393294856842 0 0.27654570592226208 -0.5 0 0.28978280782814247 -0.48931826519308902 0 0.27654570592226208 -0.5 0 0.28978280782814247 -0.48931826519308902 0 0.29933476153396049 -0.5 0 0.27506589031477507 -0.4691427592466334 0 0.27904976540520338 -0.48389393294856842 0 0.2918468391647423 -0.477727203414332 0 0.27904976540520338 -0.48389393294856842 0 0.28978280782814247 -0.48931826519308902 0 0.2918468391647423 -0.477727203414332 0 0.28978280782814247 -0.48931826519308902 0 0.2918468391647423 -0.477727203414332 0 0.30213696711454452 -0.48497018960254468 0 0.31487957854472071 -0.47506475079335259 0 0.30243233700083472 -0.46787792090096147 0 0.30213696711454452 -0.48497018960254468 0 0.30243233700083472 -0.46787792090096147 0 0.2918468391647423 -0.477727203414332 0 0.30213696711454452 -0.48497018960254468 0 0.31581425375088418 -0.49816091645046218 0 0.29933476153396049 -0.5 0 0.30213696711454452 -0.48497018960254468 0 0.31581425375088418 -0.49816091645046218 0 0.31487957854472071 -0.47506475079335259 0 0.30213696711454452 -0.48497018960254468 0 0.32212381714565891 -0.5 0 0.31581425375088418 -0.49816091645046218 0 0.29933476153396049 -0.5 0 0.28978280782814247 -0.48931826519308902 0 0.29933476153396049 -0.5 0 0.30213696711454452 -0.48497018960254468 0 0.33723071509829522 -0.2865120851202434 0 0.33618570570157053 -0.29870676342742092 0 0.32330242941689341 -0.29339547233441848 0 0.33723071509829522 -0.2865120851202434 0 0.33618570570157053 -0.29870676342742092 0 0.34931246609612809 -0.29880966962151068 0 0.33618570570157053 -0.29870676342742092 0 0.34321461816681031 -0.3082494123853754 0 0.34931246609612809 -0.29880966962151068 0 0.34321461816681031 -0.3082494123853754 0 0.32813638946585599 -0.30557368799106072 0 0.32605787559096899 -0.31951142262152582 0 0.33618570570157053 -0.29870676342742092 0 0.34321461816681031 -0.3082494123853754 0 0.32813638946585599 -0.30557368799106072 0 0.33618570570157053 -0.29870676342742092 0 0.32813638946585599 -0.30557368799106072 0 0.32330242941689341 -0.29339547233441848 0 0.32813638946585599 -0.30557368799106072 0 0.31320814918646372 -0.30323661870098462 0 0.32605787559096899 -0.31951142262152582 0 0.32813638946585599 -0.30557368799106072 0 0.31320814918646372 -0.30323661870098462 0 0.32330242941689341 -0.29339547233441848 0 0.33723071509829522 -0.2865120851202434 0 0.32330242941689341 -0.29339547233441848 0 0.31953589004324229 -0.27769964521392942 0 0.31320814918646372 -0.30323661870098462 0 0.32330242941689341 -0.29339547233441848 0 0.30520250448242198 -0.28365622399226631 0 0.32330242941689341 -0.29339547233441848 0 0.31953589004324229 -0.27769964521392942 0 0.30520250448242198 -0.28365622399226631 0 0.31953589004324229 -0.27769964521392942 0 0.32718197596664278 -0.26536067425496052 0 0.30476182525195827 -0.25957377036775842 0 0.33723071509829522 -0.2865120851202434 0 0.31953589004324229 -0.27769964521392942 0 0.32718197596664278 -0.26536067425496052 0 0.31589985389236408 -0.23613744592621541 0 0.32718197596664278 -0.26536067425496052 0 0.30476182525195827 -0.25957377036775842 0 0.33567366894457662 -0.240294157883194 0 0.32718197596664278 -0.26536067425496052 0 0.34704615863022192 -0.2537686885145734 0 0.32718197596664278 -0.26536067425496052 0 0.35118715423344821 -0.27639195180065651 0 0.34704615863022192 -0.2537686885145734 0 0.33723071509829522 -0.2865120851202434 0 0.32718197596664278 -0.26536067425496052 0 0.35118715423344821 -0.27639195180065651 0 0.32718197596664278 -0.26536067425496052 0 0.35118715423344821 -0.27639195180065651 0 0.35118715423344821 -0.27639195180065651 0 0.34704615863022192 -0.2537686885145734 0 0.3621177634158278 -0.25780884403524379 0 0.36744303115541888 -0.24314195442134201 0 0.34704615863022192 -0.2537686885145734 0 0.3621177634158278 -0.25780884403524379 0 0.36744303115541888 -0.24314195442134201 0 0.38575648630301818 -0.25717949554165742 0 0.3621177634158278 -0.25780884403524379 0 0.38575648630301818 -0.25717949554165742 0 0.3621177634158278 -0.25780884403524379 0 0.36754045898470822 -0.27243999232278249 0 0.35118715423344821 -0.27639195180065651 0 0.3621177634158278 -0.25780884403524379 0 0.36754045898470822 -0.27243999232278249 0 0.37519233250025458 -0.28742322934635028 0 0.35118715423344821 -0.27639195180065651 0 0.36754045898470822 -0.27243999232278249 0 0.37519233250025458 -0.28742322934635028 0 0.37689862621175851 -0.2792746807397844 0 0.36754045898470822 -0.27243999232278249 0 0.37519233250025458 -0.28742322934635028 0 0.35118715423344821 -0.27639195180065651 0 0.37519233250025458 -0.28742322934635028 0 0.35118715423344821 -0.27639195180065651 0 0.3598089102425403 -0.29479505219287672 0 0.37519233250025458 -0.28742322934635028 0 0.36041174430233319 -0.29704940937987517 0 0.37519233250025458 -0.28742322934635028 0 0.36041174430233319 -0.29704940937987517 0 0.37333747175387211 -0.30073574079472498 0 0.37519233250025458 -0.28742322934635028 0 0.3598089102425403 -0.29479505219287672 0 0.36041174430233319 -0.29704940937987517 0 0.3598089102425403 -0.29479505219287672 0 0.36041174430233319 -0.29704940937987517 0 0.35118715423344821 -0.27639195180065651 0 0.3598089102425403 -0.29479505219287672 0 0.34931246609612809 -0.29880966962151068 0 0.33723071509829522 -0.2865120851202434 0 0.35118715423344821 -0.27639195180065651 0 0.34931246609612809 -0.29880966962151068 0 0.3598089102425403 -0.29479505219287672 0 0.34931246609612809 -0.29880966962151068 0 0.36041174430233319 -0.29704940937987517 0 0.34321461816681031 -0.3082494123853754 0 0.36041174430233319 -0.29704940937987517 0 0.34321461816681031 -0.3082494123853754 0 0.35417660735847067 -0.30875877693295189 0 0.36041174430233319 -0.29704940937987517 0 0.34321461816681031 -0.3082494123853754 0 0.34931246609612809 -0.29880966962151068 0 0.36041174430233319 -0.29704940937987517 0 0.34321461816681031 -0.3082494123853754 0 0.35417660735847067 -0.30875877693295189 0 0.34910317779718097 -0.31935466713526262 0 0.35417660735847067 -0.30875877693295189 0 0.36404478450140298 -0.31036346304836071 0 0.36041174430233319 -0.29704940937987517 0 0.38064121864366218 -0.31536543698069558 0 0.36404478450140298 -0.31036346304836071 0 0.37333747175387211 -0.30073574079472498 0 0.36404478450140298 -0.31036346304836071 0 0.36041174430233319 -0.29704940937987517 0 0.36404478450140298 -0.31036346304836071 0 0.36041174430233319 -0.29704940937987517 0 0.37333747175387211 -0.30073574079472498 0 0.38280982954235809 -0.33360907377648952 0 0.36404478450140298 -0.31036346304836071 0 0.36857877361783298 -0.32759081780684068 0 0.38280982954235809 -0.33360907377648952 0 0.36404478450140298 -0.31036346304836071 0 0.36404478450140298 -0.31036346304836071 0 0.36857877361783298 -0.32759081780684068 0 0.34910317779718097 -0.31935466713526262 0 0.36404478450140298 -0.31036346304836071 0 0.36857877361783298 -0.32759081780684068 0 0.36857877361783298 -0.32759081780684068 0 0.3746690352680444 -0.35036594953474198 0 0.36857877361783298 -0.32759081780684068 0 0.35344903623973672 -0.33794522825258011 0 0.3746690352680444 -0.35036594953474198 0 0.35344903623973672 -0.33794522825258011 0 0.34910317779718097 -0.31935466713526262 0 0.33900330365980152 -0.32835684620857652 0 0.36857877361783298 -0.32759081780684068 0 0.35344903623973672 -0.33794522825258011 0 0.34910317779718097 -0.31935466713526262 0 0.36857877361783298 -0.32759081780684068 0 0.34910317779718097 -0.31935466713526262 0 0.35417660735847067 -0.30875877693295189 0 0.36404478450140298 -0.31036346304836071 0 0.34910317779718097 -0.31935466713526262 0 0.36473034313665248 -0.36968874496257642 0 0.3746690352680444 -0.35036594953474198 0 0.35295878252217688 -0.35865160264113699 0 0.38075929691825522 -0.37314108126264328 0 0.36473034313665248 -0.36968874496257642 0 0.3746690352680444 -0.35036594953474198 0 0.35344903623973672 -0.33794522825258011 0 0.3746690352680444 -0.35036594953474198 0 0.35295878252217688 -0.35865160264113699 0 0.35344903623973672 -0.33794522825258011 0 0.35295878252217688 -0.35865160264113699 0 0.33774212785038238 -0.34319073000159428 0 0.34548730561691099 -0.37591428766200302 0 0.36473034313665248 -0.36968874496257642 0 0.35295878252217688 -0.35865160264113699 0 0.34548730561691099 -0.37591428766200302 0 0.35295878252217688 -0.35865160264113699 0 0.33769382823975991 -0.36110136824368139 0 0.34548730561691099 -0.37591428766200302 0 0.33769382823975991 -0.36110136824368139 0 0.32712734354176659 -0.37252631201317882 0 0.33769382823975991 -0.36110136824368139 0 0.3251535816675627 -0.35522390890049382 0 0.32712734354176659 -0.37252631201317882 0 0.33769382823975991 -0.36110136824368139 0 0.3251535816675627 -0.35522390890049382 0 0.33774212785038238 -0.34319073000159428 0 0.35295878252217688 -0.35865160264113699 0 0.33769382823975991 -0.36110136824368139 0 0.33774212785038238 -0.34319073000159428 0 0.3251535816675627 -0.35522390890049382 0 0.33774212785038238 -0.34319073000159428 0 0.32786604978330319 -0.33817181516529488 0 0.3251535816675627 -0.35522390890049382 0 0.32786604978330319 -0.33817181516529488 0 0.31137336014780093 -0.3445761680942846 0 0.3251535816675627 -0.35522390890049382 0 0.32712734354176659 -0.37252631201317882 0 0.29668884470463269 -0.36964091356704343 0 0.34321461816681031 -0.3082494123853754 0 0.33900330365980152 -0.32835684620857652 0 0.32605787559096899 -0.31951142262152582 0 0.34321461816681031 -0.3082494123853754 0 0.34910317779718097 -0.31935466713526262 0 0.33900330365980152 -0.32835684620857652 0 0.34321461816681031 -0.3082494123853754 0 0.32605787559096899 -0.31951142262152582 0 0.35344903623973672 -0.33794522825258011 0 0.33900330365980152 -0.32835684620857652 0 0.33774212785038238 -0.34319073000159428 0 0.33900330365980152 -0.32835684620857652 0 0.32786604978330319 -0.33817181516529488 0 0.32605787559096899 -0.31951142262152582 0 0.33900330365980152 -0.32835684620857652 0 0.33774212785038238 -0.34319073000159428 0 0.32786604978330319 -0.33817181516529488 0 0.32786604978330319 -0.33817181516529488 0 0.32605787559096899 -0.31951142262152582 0 0.31137336014780093 -0.3445761680942846 0 0.32605787559096899 -0.31951142262152582 0 0.31137336014780093 -0.3445761680942846 0 0.32605787559096899 -0.31951142262152582 0 0.30757783391548887 -0.33145864441494871 0 0.31137336014780093 -0.3445761680942846 0 0.32605787559096899 -0.31951142262152582 0 0.30401205052713359 -0.31553628635644437 0 0.30757783391548887 -0.33145864441494871 0 0.31320814918646372 -0.30323661870098462 0 0.32605787559096899 -0.31951142262152582 0 0.30401205052713359 -0.31553628635644437 0 0.32605787559096899 -0.31951142262152582 0 0.30757783391548887 -0.33145864441494871 0 0.30401205052713359 -0.31553628635644437 0 0.30757783391548887 -0.33145864441494871 0 0.29297354867597608 -0.3259473074410808 0 0.30757783391548887 -0.33145864441494871 0 0.28913817579968931 -0.34346787343902002 0 0.30757783391548887 -0.33145864441494871 0 0.30079840573677608 -0.34113583356524307 0 0.28913817579968931 -0.34346787343902002 0 0.30757783391548887 -0.33145864441494871 0 0.30079840573677608 -0.34113583356524307 0 0.31137336014780093 -0.3445761680942846 0 0.28913817579968931 -0.34346787343902002 0 0.29297354867597608 -0.3259473074410808 0 0.27734516765934702 -0.3260044354304994 0 0.30757783391548887 -0.33145864441494871 0 0.28913817579968931 -0.34346787343902002 0 0.29297354867597608 -0.3259473074410808 0 0.28913817579968931 -0.34346787343902002 0 0.27734516765934702 -0.3260044354304994 0 0.30079840573677608 -0.34113583356524307 0 0.28913817579968931 -0.34346787343902002 0 0.29546561630371537 -0.34580766910325161 0 0.28861897270940401 -0.31279063263500428 0 0.29297354867597608 -0.3259473074410808 0 0.27734516765934702 -0.3260044354304994 0 0.30401205052713359 -0.31553628635644437 0 0.28861897270940401 -0.31279063263500428 0 0.29297354867597608 -0.3259473074410808 0 0.3251535816675627 -0.35522390890049382 0 0.31137336014780093 -0.3445761680942846 0 0.29668884470463269 -0.36964091356704343 0 0.31137336014780093 -0.3445761680942846 0 0.29668884470463269 -0.36964091356704343 0 0.31137336014780093 -0.3445761680942846 0 0.29830033952539309 -0.35154531218404023 0 0.29668884470463269 -0.36964091356704343 0 0.30079840573677608 -0.34113583356524307 0 0.29830033952539309 -0.35154531218404023 0 0.29546561630371537 -0.34580766910325161 0 0.30079840573677608 -0.34113583356524307 0 0.31137336014780093 -0.3445761680942846 0 0.29830033952539309 -0.35154531218404023 0 0.29830033952539309 -0.35154531218404023 0 0.29546561630371537 -0.34580766910325161 0 0.2925197811405284 -0.3515643994762061 0 0.29546561630371537 -0.34580766910325161 0 0.2925197811405284 -0.3515643994762061 0 0.29084998869190443 -0.34600277699964083 0 0.2925197811405284 -0.3515643994762061 0 0.29084998869190443 -0.34600277699964083 0 0.28544661835506879 -0.35320743006869099 0 0.28913817579968931 -0.34346787343902002 0 0.29546561630371537 -0.34580766910325161 0 0.29084998869190443 -0.34600277699964083 0 0.28913817579968931 -0.34346787343902002 0 0.29084998869190443 -0.34600277699964083 0 0.28913817579968931 -0.34346787343902002 0 0.29084998869190443 -0.34600277699964083 0 0.28544661835506879 -0.35320743006869099 0 0.28544661835506879 -0.35320743006869099 0 0.29171850287479151 -0.35730090803063358 0 0.2831232986440359 -0.36161907486230188 0 0.2925197811405284 -0.3515643994762061 0 0.28544661835506879 -0.35320743006869099 0 0.29171850287479151 -0.35730090803063358 0 0.29830033952539309 -0.35154531218404023 0 0.2925197811405284 -0.3515643994762061 0 0.29171850287479151 -0.35730090803063358 0 0.2831232986440359 -0.36161907486230188 0 0.29668884470463269 -0.36964091356704343 0 0.27572585523170928 -0.37408705933719461 0 0.29830033952539309 -0.35154531218404023 0 0.29171850287479151 -0.35730090803063358 0 0.29668884470463269 -0.36964091356704343 0 0.29171850287479151 -0.35730090803063358 0 0.2831232986440359 -0.36161907486230188 0 0.29668884470463269 -0.36964091356704343 0 0.2831232986440359 -0.36161907486230188 0 0.27572585523170928 -0.37408705933719461 0 0.26527240104592159 -0.35901097912216662 0 0.27572585523170928 -0.37408705933719461 0 0.26527240104592159 -0.35901097912216662 0 0.26134499116997428 -0.3713958081505585 0 0.28913817579968931 -0.34346787343902002 0 0.26527240104592159 -0.35901097912216662 0 0.28913817579968931 -0.34346787343902002 0 0.26527240104592159 -0.35901097912216662 0 0.27173057903878739 -0.34168401871284471 0 0.28544661835506879 -0.35320743006869099 0 0.2831232986440359 -0.36161907486230188 0 0.26527240104592159 -0.35901097912216662 0 0.26274738061965131 -0.35044420457436531 0 0.26527240104592159 -0.35901097912216662 0 0.27173057903878739 -0.34168401871284471 0 0.28913817579968931 -0.34346787343902002 0 0.28544661835506879 -0.35320743006869099 0 0.26527240104592159 -0.35901097912216662 0 0.26274738061965131 -0.35044420457436531 0 0.25032263630442081 -0.35008157720292121 0 0.25613587229754547 -0.33790463840568002 0 0.26274738061965131 -0.35044420457436531 0 0.25032263630442081 -0.35008157720292121 0 0.25086883960272288 -0.3622536114626545 0 0.26274738061965131 -0.35044420457436531 0 0.25086883960272288 -0.3622536114626545 0 0.26134499116997428 -0.3713958081505585 0 0.25086883960272288 -0.3622536114626545 0 0.26134499116997428 -0.3713958081505585 0 0.24446699196463481 -0.3787350506051812 0 0.26274738061965131 -0.35044420457436531 0 0.26527240104592159 -0.35901097912216662 0 0.26134499116997428 -0.3713958081505585 0 0.26274738061965131 -0.35044420457436531 0 0.26134499116997428 -0.3713958081505585 0 0.27734516765934702 -0.3260044354304994 0 0.26555215951900479 -0.30854099742197871 0 0.27738966176237428 -0.30848369137867809 0 0.28861897270940401 -0.31279063263500428 0 0.27734516765934702 -0.3260044354304994 0 0.27738966176237428 -0.30848369137867809 0 0.27734516765934702 -0.3260044354304994 0 0.26555215951900479 -0.30854099742197871 0 0.27734516765934702 -0.3260044354304994 0 0.26414977006932833 -0.32949260099817201 0 0.26555215951900479 -0.30854099742197871 0 0.26274738061965131 -0.35044420457436531 0 0.27173057903878739 -0.34168401871284471 0 0.26414977006932833 -0.32949260099817201 0 0.27734516765934702 -0.3260044354304994 0 0.27173057903878739 -0.34168401871284471 0 0.26414977006932833 -0.32949260099817201 0 0.28913817579968931 -0.34346787343902002 0 0.27734516765934702 -0.3260044354304994 0 0.27173057903878739 -0.34168401871284471 0 0.25613587229754547 -0.33790463840568002 0 0.2496268880601259 -0.31894486535450689 0 0.2458462188327416 -0.33644000311294758 0 0.26274738061965131 -0.35044420457436531 0 0.26414977006932833 -0.32949260099817201 0 0.25613587229754547 -0.33790463840568002 0 0.26274738061965131 -0.35044420457436531 0 0.26414977006932833 -0.32949260099817201 0 0.26414977006932833 -0.32949260099817201 0 0.25613587229754547 -0.33790463840568002 0 0.2496268880601259 -0.31894486535450689 0 0.25032263630442081 -0.35008157720292121 0 0.25613587229754547 -0.33790463840568002 0 0.2458462188327416 -0.33644000311294758 0 0.26414977006932833 -0.32949260099817201 0 0.26555215951900479 -0.30854099742197871 0 0.2496268880601259 -0.31894486535450689 0 0.26414977006932833 -0.32949260099817201 0 0.26555215951900479 -0.30854099742197871 0 0.26555215951900479 -0.30854099742197871 0 0.25699295834393748 -0.29586627716872038 0 0.25940224876281037 -0.29256921091542382 0 0.25464020935113851 -0.30718240022799531 0 0.24638883148148591 -0.30537746096677498 0 0.2496268880601259 -0.31894486535450689 0 0.25464020935113851 -0.30718240022799531 0 0.26555215951900479 -0.30854099742197871 0 0.2496268880601259 -0.31894486535450689 0 0.25464020935113851 -0.30718240022799531 0 0.25699295834393748 -0.29586627716872038 0 0.24638883148148591 -0.30537746096677498 0 0.26555215951900479 -0.30854099742197871 0 0.25699295834393748 -0.29586627716872038 0 0.25464020935113851 -0.30718240022799531 0 0.26555215951900479 -0.30854099742197871 0 0.25699295834393748 -0.29586627716872038 0 0.26555215951900479 -0.30854099742197871 0 0.25940224876281037 -0.29256921091542382 0 0.26694633117944738 -0.28771216706142871 0 0.25940224876281037 -0.29256921091542382 0 0.2484337571688702 -0.28319155691546211 0 0.25940224876281037 -0.29256921091542382 0 0.25914962772555028 -0.27967209955443251 0 0.2484337571688702 -0.28319155691546211 0 0.25699295834393748 -0.29586627716872038 0 0.25940224876281037 -0.29256921091542382 0 0.2484337571688702 -0.28319155691546211 0 0.25699295834393748 -0.29586627716872038 0 0.2484337571688702 -0.28319155691546211 0 0.25940224876281037 -0.29256921091542382 0 0.26694633117944738 -0.28771216706142871 0 0.25914962772555028 -0.27967209955443251 0 0.26694633117944738 -0.28771216706142871 0 0.27927808298048268 -0.28898708992635219 0 0.27452216006970859 -0.29871106192329239 0 0.27927808298048268 -0.28898708992635219 0 0.27452216006970859 -0.29871106192329239 0 0.28344456490723402 -0.29983136382802422 0 0.27927808298048268 -0.28898708992635219 0 0.28767186852285698 -0.28017222751665932 0 0.27632589015940989 -0.27858911428801941 0 0.26694633117944738 -0.28771216706142871 0 0.27927808298048268 -0.28898708992635219 0 0.27632589015940989 -0.27858911428801941 0 0.26555215951900479 -0.30854099742197871 0 0.26694633117944738 -0.28771216706142871 0 0.26555215951900479 -0.30854099742197871 0 0.26694633117944738 -0.28771216706142871 0 0.27452216006970859 -0.29871106192329239 0 0.26555215951900479 -0.30854099742197871 0 0.27452216006970859 -0.29871106192329239 0 0.27738966176237428 -0.30848369137867809 0 0.27452216006970859 -0.29871106192329239 0 0.27738966176237428 -0.30848369137867809 0 0.28344456490723402 -0.29983136382802422 0 0.28861897270940401 -0.31279063263500428 0 0.27738966176237428 -0.30848369137867809 0 0.28344456490723402 -0.29983136382802422 0 0.30401205052713359 -0.31553628635644437 0 0.28861897270940401 -0.31279063263500428 0 0.29765748573654432 -0.29993020882471161 0 0.28344456490723402 -0.29983136382802422 0 0.28998551247912829 -0.291422141087886 0 0.29765748573654432 -0.29993020882471161 0 0.28861897270940401 -0.31279063263500428 0 0.28344456490723402 -0.29983136382802422 0 0.29765748573654432 -0.29993020882471161 0 0.28998551247912829 -0.291422141087886 0 0.30520250448242198 -0.28365622399226631 0 0.28767186852285698 -0.28017222751665932 0 0.27927808298048268 -0.28898708992635219 0 0.28344456490723402 -0.29983136382802422 0 0.28998551247912829 -0.291422141087886 0 0.27927808298048268 -0.28898708992635219 0 0.28998551247912829 -0.291422141087886 0 0.28767186852285698 -0.28017222751665932 0 0.31320814918646372 -0.30323661870098462 0 0.30520250448242198 -0.28365622399226631 0 0.29765748573654432 -0.29993020882471161 0 0.28998551247912829 -0.291422141087886 0 0.30520250448242198 -0.28365622399226631 0 0.29765748573654432 -0.29993020882471161 0 0.31320814918646372 -0.30323661870098462 0 0.30401205052713359 -0.31553628635644437 0 0.29765748573654432 -0.29993020882471161 0 0.31953589004324229 -0.27769964521392942 0 0.30520250448242198 -0.28365622399226631 0 0.30476182525195827 -0.25957377036775842 0 0.30520250448242198 -0.28365622399226631 0 0.30476182525195827 -0.25957377036775842 0 0.293213510197192 -0.26942469252435469 0 0.30520250448242198 -0.28365622399226631 0 0.293213510197192 -0.26942469252435469 0 0.28767186852285698 -0.28017222751665932 0 0.293213510197192 -0.26942469252435469 0 0.28767186852285698 -0.28017222751665932 0 0.28344159356751492 -0.27141705929380072 0 0.28767186852285698 -0.28017222751665932 0 0.28344159356751492 -0.27141705929380072 0 0.27632589015940989 -0.27858911428801941 0 0.293213510197192 -0.26942469252435469 0 0.28344159356751492 -0.27141705929380072 0 0.2816335979021608 -0.26068575702458813 0 0.29240023975262569 -0.23957001704843539 0 0.30476182525195827 -0.25957377036775842 0 0.2816335979021608 -0.26068575702458813 0 0.29240023975262569 -0.23957001704843539 0 0.2816335979021608 -0.26068575702458813 0 0.30476182525195827 -0.25957377036775842 0 0.293213510197192 -0.26942469252435469 0 0.2816335979021608 -0.26068575702458813 0 0.27143109150891648 -0.2415107638217012 0 0.2816335979021608 -0.26068575702458813 0 0.2594473866772527 -0.25292556575876157 0 0.2816335979021608 -0.26068575702458813 0 0.26834050283988953 -0.26688333670087883 0 0.2594473866772527 -0.25292556575876157 0 0.26694633117944738 -0.28771216706142871 0 0.26834050283988953 -0.26688333670087883 0 0.26694633117944738 -0.28771216706142871 0 0.27632589015940989 -0.27858911428801941 0 0.26834050283988953 -0.26688333670087883 0 0.28344159356751492 -0.27141705929380072 0 0.2816335979021608 -0.26068575702458813 0 0.26834050283988953 -0.26688333670087883 0 0.28344159356751492 -0.27141705929380072 0 0.27632589015940989 -0.27858911428801941 0 0.26834050283988953 -0.26688333670087883 0 0.26694633117944738 -0.28771216706142871 0 0.26834050283988953 -0.26688333670087883 0 0.25914962772555028 -0.27967209955443251 0 0.26834050283988953 -0.26688333670087883 0 0.25914962772555028 -0.27967209955443251 0 0.25262529867673411 -0.26800422617896952 0 0.25914962772555028 -0.27967209955443251 0 0.25262529867673411 -0.26800422617896952 0 0.2484337571688702 -0.28319155691546211 0 0.26834050283988953 -0.26688333670087883 0 0.25262529867673411 -0.26800422617896952 0 0.2594473866772527 -0.25292556575876157 0 0.25262529867673411 -0.26800422617896952 0 0.2594473866772527 -0.25292556575876157 0 0.2337705524768075 -0.26147784629144322 0 0.2594473866772527 -0.25292556575876157 0 0.2337705524768075 -0.26147784629144322 0 0.24526921964682971 -0.24063744974456469 0 0.25262529867673411 -0.26800422617896952 0 0.2337705524768075 -0.26147784629144322 0 0.2484337571688702 -0.28319155691546211 0 0.23121150279175909 -0.26846716739802928 0 0.22881375730060349 -0.28576811004761382 0 0.2484337571688702 -0.28319155691546211 0 0.2337705524768075 -0.26147784629144322 0 0.2484337571688702 -0.28319155691546211 0 0.23121150279175909 -0.26846716739802928 0 0.2484337571688702 -0.28319155691546211 0 0.23121150279175909 -0.26846716739802928 0 0.2337705524768075 -0.26147784629144322 0 0.2484337571688702 -0.28319155691546211 0 0.23121150279175909 -0.26846716739802928 0 0.20646288860942641 -0.26998265799118221 0 0.22881375730060349 -0.28576811004761382 0 0.2337705524768075 -0.26147784629144322 0 0.21398924841464809 -0.25374277788059629 0 0.2222999292097457 -0.24783714094851481 0 0.2337705524768075 -0.26147784629144322 0 0.21910734778474311 -0.23976413566742549 0 0.23121150279175909 -0.26846716739802928 0 0.2337705524768075 -0.26147784629144322 0 0.21398924841464809 -0.25374277788059629 0 0.23121150279175909 -0.26846716739802928 0 0.21398924841464809 -0.25374277788059629 0 0.21398924841464809 -0.25374277788059629 0 0.20646288860942641 -0.26998265799118221 0 0.18977212596430351 -0.25276072220782819 0 0.23121150279175909 -0.26846716739802928 0 0.21398924841464809 -0.25374277788059629 0 0.20646288860942641 -0.26998265799118221 0 0.20646288860942641 -0.26998265799118221 0 0.2086376826818867 -0.28774920151169431 0 0.22881375730060349 -0.28576811004761382 0 0.20646288860942641 -0.26998265799118221 0 0.1927027996422947 -0.28097584908312873 0 0.2086376826818867 -0.28774920151169431 0 0.20646288860942641 -0.26998265799118221 0 0.1927027996422947 -0.28097584908312873 0 0.1863994636234069 -0.26634255969885928 0 0.20646288860942641 -0.26998265799118221 0 0.18977212596430351 -0.25276072220782819 0 0.1863994636234069 -0.26634255969885928 0 0.19123927818816239 -0.29936826362363478 0 0.2086376826818867 -0.28774920151169431 0 0.20516736985157871 -0.31300302689421072 0 0.19123927818816239 -0.29936826362363478 0 0.20516736985157871 -0.31300302689421072 0 0.17445293575001111 -0.32234291034255319 0 0.1927027996422947 -0.28097584908312873 0 0.19123927818816239 -0.29936826362363478 0 0.2086376826818867 -0.28774920151169431 0 0.2086376826818867 -0.28774920151169431 0 0.2200633390293226 -0.29924950058790922 0 0.20516736985157871 -0.31300302689421072 0 0.22305450390795939 -0.31185705717169959 0 0.2200633390293226 -0.29924950058790922 0 0.20516736985157871 -0.31300302689421072 0 0.22305450390795939 -0.31185705717169959 0 0.2200633390293226 -0.29924950058790922 0 0.23400373991600371 -0.30174240855519879 0 0.22305450390795939 -0.31185705717169959 0 0.23400373991600371 -0.30174240855519879 0 0.23558730033335831 -0.31353830098130159 0 0.2200633390293226 -0.29924950058790922 0 0.23400373991600371 -0.30174240855519879 0 0.22881375730060349 -0.28576811004761382 0 0.2086376826818867 -0.28774920151169431 0 0.2200633390293226 -0.29924950058790922 0 0.22881375730060349 -0.28576811004761382 0 0.22881375730060349 -0.28576811004761382 0 0.2435690729302126 -0.29422524708165421 0 0.2484337571688702 -0.28319155691546211 0 0.23400373991600371 -0.30174240855519879 0 0.22881375730060349 -0.28576811004761382 0 0.2435690729302126 -0.29422524708165421 0 0.25699295834393748 -0.29586627716872038 0 0.2435690729302126 -0.29422524708165421 0 0.2484337571688702 -0.28319155691546211 0 0.23400373991600371 -0.30174240855519879 0 0.24638883148148591 -0.30537746096677498 0 0.23558730033335831 -0.31353830098130159 0 0.23400373991600371 -0.30174240855519879 0 0.2435690729302126 -0.29422524708165421 0 0.24638883148148591 -0.30537746096677498 0 0.25699295834393748 -0.29586627716872038 0 0.2435690729302126 -0.29422524708165421 0 0.24638883148148591 -0.30537746096677498 0 0.24638883148148591 -0.30537746096677498 0 0.2496268880601259 -0.31894486535450689 0 0.23558730033335831 -0.31353830098130159 0 0.2496268880601259 -0.31894486535450689 0 0.2248625383012165 -0.32976971285832762 0 0.2496268880601259 -0.31894486535450689 0 0.23558730033335831 -0.31353830098130159 0 0.2248625383012165 -0.32976971285832762 0 0.2496268880601259 -0.31894486535450689 0 0.2458462188327416 -0.33644000311294758 0 0.2248625383012165 -0.32976971285832762 0 0.2458462188327416 -0.33644000311294758 0 0.2248625383012165 -0.32976971285832762 0 0.2309842069453085 -0.34609800352352121 0 0.2248625383012165 -0.32976971285832762 0 0.2309842069453085 -0.34609800352352121 0 0.21812907978992691 -0.3552893399374159 0 0.22305450390795939 -0.31185705717169959 0 0.23558730033335831 -0.31353830098130159 0 0.2248625383012165 -0.32976971285832762 0 0.25086883960272288 -0.3622536114626545 0 0.23509899085734889 -0.36289295818539369 0 0.24446699196463481 -0.3787350506051812 0 0.2458462188327416 -0.33644000311294758 0 0.23509899085734889 -0.36289295818539369 0 0.25032263630442081 -0.35008157720292121 0 0.25086883960272288 -0.3622536114626545 0 0.23509899085734889 -0.36289295818539369 0 0.25032263630442081 -0.35008157720292121 0 0.2458462188327416 -0.33644000311294758 0 0.23509899085734889 -0.36289295818539369 0 0.2458462188327416 -0.33644000311294758 0 0.23509899085734889 -0.36289295818539369 0 0.2309842069453085 -0.34609800352352121 0 0.23509899085734889 -0.36289295818539369 0 0.2309842069453085 -0.34609800352352121 0 0.21812907978992691 -0.3552893399374159 0 0.23509899085734889 -0.36289295818539369 0 0.22197715464324411 -0.3727082184059376 0 0.2243517628819561 -0.38934591325783968 0 0.23509899085734889 -0.36289295818539369 0 0.22197715464324411 -0.3727082184059376 0 0.21812907978992691 -0.3552893399374159 0 0.21812907978992691 -0.3552893399374159 0 0.20930086591837949 -0.38246577413112037 0 0.20415430725050321 -0.36098115877853432 0 0.19689027694237041 -0.37199823457542758 0 0.20930086591837949 -0.38246577413112037 0 0.20415430725050321 -0.36098115877853432 0 0.21812907978992691 -0.3552893399374159 0 0.20930086591837949 -0.38246577413112037 0 0.22197715464324411 -0.3727082184059376 0 0.21812907978992691 -0.3552893399374159 0 0.20930086591837949 -0.38246577413112037 0 0.20415430725050321 -0.36098115877853432 0 0.21812907978992691 -0.3552893399374159 0 0.20009818854230721 -0.34059456036214819 0 0.19341391277759939 -0.35792725864219199 0 0.20009818854230721 -0.34059456036214819 0 0.17533383878339789 -0.35141940786596909 0 0.20009818854230721 -0.34059456036214819 0 0.17533383878339789 -0.35141940786596909 0 0.20415430725050321 -0.36098115877853432 0 0.19341391277759939 -0.35792725864219199 0 0.20009818854230721 -0.34059456036214819 0 0.20415430725050321 -0.36098115877853432 0 0.19341391277759939 -0.35792725864219199 0 0.19689027694237041 -0.37199823457542758 0 0.19341391277759939 -0.35792725864219199 0 0.19689027694237041 -0.37199823457542758 0 0.18536412316407949 -0.36687654181349399 0 0.19689027694237041 -0.37199823457542758 0 0.18536412316407949 -0.36687654181349399 0 0.19043031547029729 -0.37934042881566399 0 0.22305450390795939 -0.31185705717169959 0 0.2248625383012165 -0.32976971285832762 0 0.20516736985157871 -0.31300302689421072 0 0.2248625383012165 -0.32976971285832762 0 0.20516736985157871 -0.31300302689421072 0 0.20009818854230721 -0.34059456036214819 0 0.2248625383012165 -0.32976971285832762 0 0.21812907978992691 -0.3552893399374159 0 0.20009818854230721 -0.34059456036214819 0 0.2248625383012165 -0.32976971285832762 0 0.20009818854230721 -0.34059456036214819 0 0.20516736985157871 -0.31300302689421072 0 0.20009818854230721 -0.34059456036214819 0 0.17445293575001111 -0.32234291034255319 0 0.17445293575001111 -0.32234291034255319 0 0.17533383878339789 -0.35141940786596909 0 0.20009818854230721 -0.34059456036214819 0 0.17445293575001111 -0.32234291034255319 0 0.17533383878339789 -0.35141940786596909 0 0.17445293575001111 -0.32234291034255319 0 0.16113531838319781 -0.3372979742520712 0 0.17533383878339789 -0.35141940786596909 0 0.17445293575001111 -0.32234291034255319 0 0.16113531838319781 -0.3372979742520712 0 0.15386359468184971 -0.31552579027915462 0 0.17588761253622309 -0.36969815199816353 0 0.17533383878339789 -0.35141940786596909 0 0.17588761253622309 -0.36969815199816353 0 0.17533383878339789 -0.35141940786596909 0 0.17031550963697761 -0.36242921484301033 0 0.17588761253622309 -0.36969815199816353 0 0.18536412316407949 -0.36687654181349399 0 0.17533383878339789 -0.35141940786596909 0 0.17588761253622309 -0.36969815199816353 0 0.17031550963697761 -0.36242921484301033 0 0.17310874902495649 -0.3765904306241995 0 0.17588761253622309 -0.36969815199816353 0 0.17310874902495649 -0.3765904306241995 0 0.1823787960384492 -0.37743544494837949 0 0.17588761253622309 -0.36969815199816353 0 0.18536412316407949 -0.36687654181349399 0 0.1823787960384492 -0.37743544494837949 0 0.18536412316407949 -0.36687654181349399 0 0.19043031547029729 -0.37934042881566399 0 0.1823787960384492 -0.37743544494837949 0 0.19341391277759939 -0.35792725864219199 0 0.18536412316407949 -0.36687654181349399 0 0.17533383878339789 -0.35141940786596909 0 0.17533383878339789 -0.35141940786596909 0 0.15911431805322321 -0.35850918975802237 0 0.17031550963697761 -0.36242921484301033 0 0.16113531838319781 -0.3372979742520712 0 0.17533383878339789 -0.35141940786596909 0 0.15911431805322321 -0.35850918975802237 0 0.17533383878339789 -0.35141940786596909 0 0.15911431805322321 -0.35850918975802237 0 0.15911431805322321 -0.35850918975802237 0 0.17310874902495649 -0.3765904306241995 0 0.15911431805322321 -0.35850918975802237 0 0.17031550963697761 -0.36242921484301033 0 0.17310874902495649 -0.3765904306241995 0 0.15911431805322321 -0.35850918975802237 0 0.16049845358428891 -0.36509126704871248 0 0.17310874902495649 -0.3765904306241995 0 0.15911431805322321 -0.35850918975802237 0 0.16049845358428891 -0.36509126704871248 0 0.1506535389967619 -0.36580345785204038 0 0.16049845358428891 -0.36509126704871248 0 0.1589245510183889 -0.37192046755229119 0 0.1506535389967619 -0.36580345785204038 0 0.16049845358428891 -0.36509126704871248 0 0.1589245510183889 -0.37192046755229119 0 0.17310874902495649 -0.3765904306241995 0 0.1506535389967619 -0.36580345785204038 0 0.1430935863833192 -0.35187115740869263 0 0.13051310213717859 -0.36754656043808909 0 0.13051310213717859 -0.36754656043808909 0 0.1527662536114468 -0.37944978555343112 0 0.1506535389967619 -0.36580345785204038 0 0.13051310213717859 -0.36754656043808909 0 0.1527662536114468 -0.37944978555343112 0 0.1589245510183889 -0.37192046755229119 0 0.1506535389967619 -0.36580345785204038 0 0.1527662536114468 -0.37944978555343112 0 0.15911431805322321 -0.35850918975802237 0 0.1430935863833192 -0.35187115740869263 0 0.14120327428943161 -0.3353675631272649 0 0.15911431805322321 -0.35850918975802237 0 0.1506535389967619 -0.36580345785204038 0 0.1430935863833192 -0.35187115740869263 0 0.15911431805322321 -0.35850918975802237 0 0.14120327428943161 -0.3353675631272649 0 0.1430935863833192 -0.35187115740869263 0 0.12521623110419669 -0.35069627961407202 0 0.14120327428943161 -0.3353675631272649 0 0.1430935863833192 -0.35187115740869263 0 0.12521623110419669 -0.35069627961407202 0 0.13051310213717859 -0.36754656043808909 0 0.16113531838319781 -0.3372979742520712 0 0.15911431805322321 -0.35850918975802237 0 0.14120327428943161 -0.3353675631272649 0 0.16113531838319781 -0.3372979742520712 0 0.15386359468184971 -0.31552579027915462 0 0.14120327428943161 -0.3353675631272649 0 0.12521623110419669 -0.35069627961407202 0 0.14120327428943161 -0.3353675631272649 0 0.1203527444544976 -0.33440109300481358 0 0.15386359468184971 -0.31552579027915462 0 0.14120327428943161 -0.3353675631272649 0 0.1232922305256398 -0.31222593649650732 0 0.14120327428943161 -0.3353675631272649 0 0.1232922305256398 -0.31222593649650732 0 0.1203527444544976 -0.33440109300481358 0 0.14120327428943161 -0.3353675631272649 0 0.1232922305256398 -0.31222593649650732 0 0.14952577642619391 -0.2926539446373938 0 0.12755474367724071 -0.28641496218900248 0 0.1232922305256398 -0.31222593649650732 0 0.15386359468184971 -0.31552579027915462 0 0.14952577642619391 -0.2926539446373938 0 0.1232922305256398 -0.31222593649650732 0 0.14952577642619391 -0.2926539446373938 0 0.12755474367724071 -0.28641496218900248 0 0.14729305821045541 -0.27167855240190641 0 0.12755474367724071 -0.28641496218900248 0 0.14729305821045541 -0.27167855240190641 0 0.1247109941767834 -0.26487205333737063 0 0.14385042888010149 -0.25110660899300591 0 0.1247109941767834 -0.26487205333737063 0 0.12667741575706271 -0.2414737984356386 0 0.14385042888010149 -0.25110660899300591 0 0.14729305821045541 -0.27167855240190641 0 0.1247109941767834 -0.26487205333737063 0 0.14385042888010149 -0.25110660899300591 0 0.14729305821045541 -0.27167855240190641 0 0.16759502608367921 -0.2565130419660393 0 0.14952577642619391 -0.2926539446373938 0 0.14729305821045541 -0.27167855240190641 0 0.17249785243163329 -0.27433700647487103 0 0.14729305821045541 -0.27167855240190641 0 0.16759502608367921 -0.2565130419660393 0 0.17249785243163329 -0.27433700647487103 0 0.18977212596430351 -0.25276072220782819 0 0.16759502608367921 -0.2565130419660393 0 0.17418733597878611 -0.24446685408066859 0 0.18977212596430351 -0.25276072220782819 0 0.16759502608367921 -0.2565130419660393 0 0.1863994636234069 -0.26634255969885928 0 0.16759502608367921 -0.2565130419660393 0 0.17249785243163329 -0.27433700647487103 0 0.1863994636234069 -0.26634255969885928 0 0.1927027996422947 -0.28097584908312873 0 0.17249785243163329 -0.27433700647487103 0 0.1863994636234069 -0.26634255969885928 0 0.1927027996422947 -0.28097584908312873 0 0.17249785243163329 -0.27433700647487103 0 0.17357203271662419 -0.29326641281913729 0 0.1927027996422947 -0.28097584908312873 0 0.19123927818816239 -0.29936826362363478 0 0.17357203271662419 -0.29326641281913729 0 0.19123927818816239 -0.29936826362363478 0 0.17445293575001111 -0.32234291034255319 0 0.17357203271662419 -0.29326641281913729 0 0.17445293575001111 -0.32234291034255319 0 0.17357203271662419 -0.29326641281913729 0 0.17445293575001111 -0.32234291034255319 0 0.15386359468184971 -0.31552579027915462 0 0.17357203271662419 -0.29326641281913729 0 0.15386359468184971 -0.31552579027915462 0 0.14952577642619391 -0.2926539446373938 0 0.17357203271662419 -0.29326641281913729 0 0.14952577642619391 -0.2926539446373938 0 0.17249785243163329 -0.27433700647487103 0 0.17357203271662419 -0.29326641281913729 0 0.20005363574267959 -0.5 0 0.1915311769682061 -0.47012967318325061 0 0.18020504700524159 -0.49800752296376938 0 0.20005363574267959 -0.5 0 0.1915311769682061 -0.47012967318325061 0 0.20916213003883879 -0.48163771706048741 0 0.1915311769682061 -0.47012967318325061 0 0.20916213003883879 -0.48163771706048741 0 0.21003783955674421 -0.46230079400857171 0 0.20916213003883879 -0.48163771706048741 0 0.2221355499160699 -0.47024437201250252 0 0.21003783955674421 -0.46230079400857171 0 0.20005363574267959 -0.5 0 0.20916213003883879 -0.48163771706048741 0 0.21592097080152439 -0.49231709581759919 0 0.20916213003883879 -0.48163771706048741 0 0.21592097080152439 -0.49231709581759919 0 0.22756297439795761 -0.48763066620990908 0 0.20005363574267959 -0.5 0 0.21592097080152439 -0.49231709581759919 0 0.22690514302662171 -0.5 0 0.21592097080152439 -0.49231709581759919 0 0.22756297439795761 -0.48763066620990908 0 0.22690514302662171 -0.5 0 0.22756297439795761 -0.48763066620990908 0 0.22690514302662171 -0.5 0 0.24585371662126221 -0.48494994772904099 0 0.25375665031056382 -0.500000000000003 0 0.22690514302662171 -0.5 0 0.24585371662126221 -0.48494994772904099 0 0.25375665031056382 -0.500000000000003 0 0.24585371662126221 -0.48494994772904099 0 0.22756297439795761 -0.48763066620990908 0 0.24585371662126221 -0.48494994772904099 0 0.23795078293196081 -0.46989989545807909 0 0.25499107208615562 -0.47596943994914748 0 0.24585371662126221 -0.48494994772904099 0 0.23795078293196081 -0.46989989545807909 0 0.25571272495575492 -0.46429116616253269 0 0.25499107208615562 -0.47596943994914748 0 0.23795078293196081 -0.46989989545807909 0 0.24585371662126221 -0.48494994772904099 0 0.23795078293196081 -0.46989989545807909 0 0.22756297439795761 -0.48763066620990908 0 0.23795078293196081 -0.46989989545807909 0 0.22756297439795761 -0.48763066620990908 0 0.23795078293196081 -0.46989989545807909 0 0.2221355499160699 -0.47024437201250252 0 0.20916213003883879 -0.48163771706048741 0 0.22756297439795761 -0.48763066620990908 0 0.2221355499160699 -0.47024437201250252 0 0.23795078293196081 -0.46989989545807909 0 0.22451048220216521 -0.44430468784615551 0 0.23795078293196081 -0.46989989545807909 0 0.2221355499160699 -0.47024437201250252 0 0.22451048220216521 -0.44430468784615551 0 0.2221355499160699 -0.47024437201250252 0 0.22451048220216521 -0.44430468784615551 0 0.21003783955674421 -0.46230079400857171 0 0.25263529837512833 -0.44483514998531992 0 0.23795078293196081 -0.46989989545807909 0 0.24797189258948071 -0.44652898495611432 0 0.23795078293196081 -0.46989989545807909 0 0.24797189258948071 -0.44652898495611432 0 0.22451048220216521 -0.44430468784615551 0 0.25263529837512833 -0.44483514998531992 0 0.23795078293196081 -0.46989989545807909 0 0.25571272495575492 -0.46429116616253269 0 0.25466495386603472 -0.45594833348051678 0 0.23795078293196081 -0.46989989545807909 0 0.25263529837512833 -0.44483514998531992 0 0.25466495386603472 -0.45594833348051678 0 0.23795078293196081 -0.46989989545807909 0 0.24797189258948071 -0.44652898495611432 0 0.23919535229391539 -0.43905783787065938 0 0.22451048220216521 -0.44430468784615551 0 0.24797189258948071 -0.44652898495611432 0 0.22451048220216521 -0.44430468784615551 0 0.24701903219373811 -0.44101208516467671 0 0.24797189258948071 -0.44652898495611432 0 0.23919535229391539 -0.43905783787065938 0 0.25263529837512833 -0.44483514998531992 0 0.24701903219373811 -0.44101208516467671 0 0.24827358551642789 -0.43362636784661318 0 0.24701903219373811 -0.44101208516467671 0 0.23919535229391539 -0.43905783787065938 0 0.24827358551642789 -0.43362636784661318 0 0.25263529837512833 -0.44483514998531992 0 0.24701903219373811 -0.44101208516467671 0 0.24797189258948071 -0.44652898495611432 0 0.23919535229391539 -0.43905783787065938 0 0.22451048220216521 -0.44430468784615551 0 0.22921947730699679 -0.4354083635323226 0 0.22451048220216521 -0.44430468784615551 0 0.2198175771413067 -0.43536769441494377 0 0.22451048220216521 -0.44430468784615551 0 0.2198175771413067 -0.43536769441494377 0 0.22921947730699679 -0.4354083635323226 0 0.22451048220216521 -0.44430468784615551 0 0.21003783955674421 -0.46230079400857171 0 0.2028573069311701 -0.44225182340273173 0 0.22451048220216521 -0.44430468784615551 0 0.2028573069311701 -0.44225182340273173 0 0.22451048220216521 -0.44430468784615551 0 0.2028573069311701 -0.44225182340273173 0 0.2198175771413067 -0.43536769441494377 0 0.1915311769682061 -0.47012967318325061 0 0.21003783955674421 -0.46230079400857171 0 0.2028573069311701 -0.44225182340273173 0 0.1915311769682061 -0.47012967318325061 0 0.2028573069311701 -0.44225182340273173 0 0.18668188755457199 -0.45290458390687471 0 0.1915311769682061 -0.47012967318325061 0 0.2028573069311701 -0.44225182340273173 0 0.2028573069311701 -0.44225182340273173 0 0.18685428604859949 -0.44073463102119359 0 0.2028573069311701 -0.44225182340273173 0 0.18685428604859949 -0.44073463102119359 0 0.18668188755457199 -0.45290458390687471 0 0.2028573069311701 -0.44225182340273173 0 0.19164443817528459 -0.43681864251852992 0 0.18685428604859949 -0.44073463102119359 0 0.19164443817528459 -0.43681864251852992 0 0.20047265204683209 -0.40964220832482517 0 0.2028573069311701 -0.44225182340273173 0 0.20214473301496261 -0.42612788564409321 0 0.19164443817528459 -0.43681864251852992 0 0.19164443817528459 -0.43681864251852992 0 0.1922701558911718 -0.42060656962014531 0 0.18556558978508331 -0.42801384641365359 0 0.19164443817528459 -0.43681864251852992 0 0.1922701558911718 -0.42060656962014531 0 0.20047265204683209 -0.40964220832482517 0 0.20214473301496261 -0.42612788564409321 0 0.19164443817528459 -0.43681864251852992 0 0.20047265204683209 -0.40964220832482517 0 0.1922701558911718 -0.42060656962014531 0 0.20047265204683209 -0.40964220832482517 0 0.18690515398158311 -0.40683904523045128 0 0.20214473301496261 -0.42612788564409321 0 0.20047265204683209 -0.40964220832482517 0 0.21360453490656339 -0.41579886833028579 0 0.20047265204683209 -0.40964220832482517 0 0.21360453490656339 -0.41579886833028579 0 0.21222188491842289 -0.39954412181928212 0 0.21360453490656339 -0.41579886833028579 0 0.21580217853724259 -0.42939796240240669 0 0.2269292951699303 -0.42417346346166551 0 0.2028573069311701 -0.44225182340273173 0 0.21360453490656339 -0.41579886833028579 0 0.2028573069311701 -0.44225182340273173 0 0.21580217853724259 -0.42939796240240669 0 0.2198175771413067 -0.43536769441494377 0 0.2028573069311701 -0.44225182340273173 0 0.20214473301496261 -0.42612788564409321 0 0.21360453490656339 -0.41579886833028579 0 0.2028573069311701 -0.44225182340273173 0 0.21360453490656339 -0.41579886833028579 0 0.21580217853724259 -0.42939796240240669 0 0.2198175771413067 -0.43536769441494377 0 0.2269292951699303 -0.42417346346166551 0 0.22921947730699679 -0.4354083635323226 0 0.21580217853724259 -0.42939796240240669 0 0.2198175771413067 -0.43536769441494377 0 0.2269292951699303 -0.42417346346166551 0 0.2269292951699303 -0.42417346346166551 0 0.22921947730699679 -0.4354083635323226 0 0.23719998690784291 -0.43187554435228559 0 0.23919535229391539 -0.43905783787065938 0 0.22921947730699679 -0.4354083635323226 0 0.23719998690784291 -0.43187554435228559 0 0.23919535229391539 -0.43905783787065938 0 0.23719998690784291 -0.43187554435228559 0 0.24827358551642789 -0.43362636784661318 0 0.2269292951699303 -0.42417346346166551 0 0.23719998690784291 -0.43187554435228559 0 0.2419996013455222 -0.42165693498934059 0 0.23719998690784291 -0.43187554435228559 0 0.24827358551642789 -0.43362636784661318 0 0.2419996013455222 -0.42165693498934059 0 0.2436958264271526 -0.408051313151996 0 0.2419996013455222 -0.42165693498934059 0 0.23071792503288521 -0.40753268715402408 0 0.21360453490656339 -0.41579886833028579 0 0.2269292951699303 -0.42417346346166551 0 0.23071792503288521 -0.40753268715402408 0 0.2269292951699303 -0.42417346346166551 0 0.2419996013455222 -0.42165693498934059 0 0.23071792503288521 -0.40753268715402408 0 0.21360453490656339 -0.41579886833028579 0 0.23071792503288521 -0.40753268715402408 0 0.2243517628819561 -0.38934591325783968 0 0.21360453490656339 -0.41579886833028579 0 0.2243517628819561 -0.38934591325783968 0 0.23071792503288521 -0.40753268715402408 0 0.23871193083615469 -0.39460347867686218 0 0.2243517628819561 -0.38934591325783968 0 0.2436958264271526 -0.408051313151996 0 0.23071792503288521 -0.40753268715402408 0 0.23871193083615469 -0.39460347867686218 0 0.25186898246318867 -0.39708843324282372 0 0.2436958264271526 -0.408051313151996 0 0.23871193083615469 -0.39460347867686218 0 0.23509899085734889 -0.36289295818539369 0 0.24446699196463481 -0.3787350506051812 0 0.2243517628819561 -0.38934591325783968 0 0.23871193083615469 -0.39460347867686218 0 0.24446699196463481 -0.3787350506051812 0 0.2243517628819561 -0.38934591325783968 0 0.25186898246318867 -0.39708843324282372 0 0.23871193083615469 -0.39460347867686218 0 0.24446699196463481 -0.3787350506051812 0 0.23509899085734889 -0.36289295818539369 0 0.2243517628819561 -0.38934591325783968 0 0.2243517628819561 -0.38934591325783968 0 0.20930086591837949 -0.38246577413112037 0 0.21222188491842289 -0.39954412181928212 0 0.22197715464324411 -0.3727082184059376 0 0.2243517628819561 -0.38934591325783968 0 0.20930086591837949 -0.38246577413112037 0 0.21360453490656339 -0.41579886833028579 0 0.2243517628819561 -0.38934591325783968 0 0.21222188491842289 -0.39954412181928212 0 0.20047265204683209 -0.40964220832482517 0 0.20930086591837949 -0.38246577413112037 0 0.20047265204683209 -0.40964220832482517 0 0.20930086591837949 -0.38246577413112037 0 0.21222188491842289 -0.39954412181928212 0 0.20047265204683209 -0.40964220832482517 0 0.20930086591837949 -0.38246577413112037 0 0.19619807657517629 -0.39594032626523029 0 0.20047265204683209 -0.40964220832482517 0 0.19619807657517629 -0.39594032626523029 0 0.18690515398158311 -0.40683904523045128 0 0.19619807657517629 -0.39594032626523029 0 0.18710317999668971 -0.39467167149037669 0 0.18690515398158311 -0.40683904523045128 0 0.19619807657517629 -0.39594032626523029 0 0.19720853093239721 -0.38608293214937822 0 0.18710317999668971 -0.39467167149037669 0 0.19043031547029729 -0.37934042881566399 0 0.19720853093239721 -0.38608293214937822 0 0.18710317999668971 -0.39467167149037669 0 0.19689027694237041 -0.37199823457542758 0 0.19043031547029729 -0.37934042881566399 0 0.19720853093239721 -0.38608293214937822 0 0.19689027694237041 -0.37199823457542758 0 0.20930086591837949 -0.38246577413112037 0 0.19720853093239721 -0.38608293214937822 0 0.20930086591837949 -0.38246577413112037 0 0.19619807657517629 -0.39594032626523029 0 0.19720853093239721 -0.38608293214937822 0 0.17310874902495649 -0.3765904306241995 0 0.18710317999668971 -0.39467167149037669 0 0.17501940508571501 -0.39135301066877309 0 0.17310874902495649 -0.3765904306241995 0 0.18710317999668971 -0.39467167149037669 0 0.17310874902495649 -0.3765904306241995 0 0.1823787960384492 -0.37743544494837949 0 0.18710317999668971 -0.39467167149037669 0 0.19043031547029729 -0.37934042881566399 0 0.1823787960384492 -0.37743544494837949 0 0.18710317999668971 -0.39467167149037669 0 0.18710317999668971 -0.39467167149037669 0 0.1798517919870867 -0.39963361675349252 0 0.17501940508571501 -0.39135301066877309 0 0.18710317999668971 -0.39467167149037669 0 0.1798517919870867 -0.39963361675349252 0 0.18690515398158311 -0.40683904523045128 0 0.1798517919870867 -0.39963361675349252 0 0.17145091355929851 -0.40531695761778258 0 0.18690515398158311 -0.40683904523045128 0 0.1798517919870867 -0.39963361675349252 0 0.17501940508571501 -0.39135301066877309 0 0.17145091355929851 -0.40531695761778258 0 0.17501940508571501 -0.39135301066877309 0 0.17145091355929851 -0.40531695761778258 0 0.16023327855805161 -0.39579848230895148 0 0.17145091355929851 -0.40531695761778258 0 0.16023327855805161 -0.39579848230895148 0 0.15752252533736941 -0.40847121437701461 0 0.1589245510183889 -0.37192046755229119 0 0.17310874902495649 -0.3765904306241995 0 0.1527662536114468 -0.37944978555343112 0 0.17501940508571501 -0.39135301066877309 0 0.16023327855805161 -0.39579848230895148 0 0.1527662536114468 -0.37944978555343112 0 0.17501940508571501 -0.39135301066877309 0 0.1527662536114468 -0.37944978555343112 0 0.17310874902495649 -0.3765904306241995 0 0.17501940508571501 -0.39135301066877309 0 0.1527662536114468 -0.37944978555343112 0 0.16023327855805161 -0.39579848230895148 0 0.1527662536114468 -0.37944978555343112 0 0.1444072951964282 -0.39440144332775612 0 0.13051310213717859 -0.36754656043808909 0 0.1527662536114468 -0.37944978555343112 0 0.1444072951964282 -0.39440144332775612 0 0.13051310213717859 -0.36754656043808909 0 0.1271295551360567 -0.39420498256280928 0 0.1444072951964282 -0.39440144332775612 0 0.1271295551360567 -0.39420498256280928 0 0.1444072951964282 -0.39440144332775612 0 0.14399564629234129 -0.40751756902157787 0 0.1271295551360567 -0.39420498256280928 0 0.14399564629234129 -0.40751756902157787 0 0.13240106959053241 -0.41517194668310881 0 0.16023327855805161 -0.39579848230895148 0 0.1444072951964282 -0.39440144332775612 0 0.15752252533736941 -0.40847121437701461 0 0.1444072951964282 -0.39440144332775612 0 0.14399564629234129 -0.40751756902157787 0 0.15752252533736941 -0.40847121437701461 0 0.14399564629234129 -0.40751756902157787 0 0.14800446824338021 -0.42387990016654709 0 0.15752252533736941 -0.40847121437701461 0 0.14399564629234129 -0.40751756902157787 0 0.13240106959053241 -0.41517194668310881 0 0.14800446824338021 -0.42387990016654709 0 0.14800446824338021 -0.42387990016654709 0 0.16269242445885229 -0.42388974343562619 0 0.15752252533736941 -0.40847121437701461 0 0.13344201599251879 -0.43532582983253731 0 0.1224111102215333 -0.44467792579444021 0 0.1207242030152797 -0.42729137993425442 0 0.13240106959053241 -0.41517194668310881 0 0.13344201599251879 -0.43532582983253731 0 0.14800446824338021 -0.42387990016654709 0 0.13240106959053241 -0.41517194668310881 0 0.13344201599251879 -0.43532582983253731 0 0.1207242030152797 -0.42729137993425442 0 0.14800446824338021 -0.42387990016654709 0 0.15842192868248281 -0.43596859069599231 0 0.1469948287597958 -0.4408990351065174 0 0.13344201599251879 -0.43532582983253731 0 0.14800446824338021 -0.42387990016654709 0 0.1469948287597958 -0.4408990351065174 0 0.15842192868248281 -0.43596859069599231 0 0.16269242445885229 -0.42388974343562619 0 0.17085126516602861 -0.43921743863965762 0 0.16269242445885229 -0.42388974343562619 0 0.17250490771399599 -0.42528612233783991 0 0.17085126516602861 -0.43921743863965762 0 0.14800446824338021 -0.42387990016654709 0 0.15842192868248281 -0.43596859069599231 0 0.16269242445885229 -0.42388974343562619 0 0.16269242445885229 -0.42388974343562619 0 0.15752252533736941 -0.40847121437701461 0 0.1687218727878759 -0.41538154782849263 0 0.17145091355929851 -0.40531695761778258 0 0.15752252533736941 -0.40847121437701461 0 0.1687218727878759 -0.41538154782849263 0 0.16269242445885229 -0.42388974343562619 0 0.1687218727878759 -0.41538154782849263 0 0.17250490771399599 -0.42528612233783991 0 0.1687218727878759 -0.41538154782849263 0 0.1804905784321191 -0.41882008732886372 0 0.17250490771399599 -0.42528612233783991 0 0.17145091355929851 -0.40531695761778258 0 0.1687218727878759 -0.41538154782849263 0 0.1804905784321191 -0.41882008732886372 0 0.17145091355929851 -0.40531695761778258 0 0.18690515398158311 -0.40683904523045128 0 0.1804905784321191 -0.41882008732886372 0 0.1922701558911718 -0.42060656962014531 0 0.18690515398158311 -0.40683904523045128 0 0.1804905784321191 -0.41882008732886372 0 0.1922701558911718 -0.42060656962014531 0 0.1804905784321191 -0.41882008732886372 0 0.18556558978508331 -0.42801384641365359 0 0.1804905784321191 -0.41882008732886372 0 0.17976839772510411 -0.42912179445655901 0 0.18556558978508331 -0.42801384641365359 0 0.19164443817528459 -0.43681864251852992 0 0.18365437870173679 -0.4347021381441703 0 0.18685428604859949 -0.44073463102119359 0 0.19164443817528459 -0.43681864251852992 0 0.18556558978508331 -0.42801384641365359 0 0.18365437870173679 -0.4347021381441703 0 0.17976839772510411 -0.42912179445655901 0 0.18556558978508331 -0.42801384641365359 0 0.18365437870173679 -0.4347021381441703 0 0.17976839772510411 -0.42912179445655901 0 0.18365437870173679 -0.4347021381441703 0 0.17085126516602861 -0.43921743863965762 0 0.17976839772510411 -0.42912179445655901 0 0.17250490771399599 -0.42528612233783991 0 0.17085126516602861 -0.43921743863965762 0 0.1804905784321191 -0.41882008732886372 0 0.17976839772510411 -0.42912179445655901 0 0.17250490771399599 -0.42528612233783991 0 0.17631717317614309 -0.44975589597711652 0 0.18685428604859949 -0.44073463102119359 0 0.17085126516602861 -0.43921743863965762 0 0.18365437870173679 -0.4347021381441703 0 0.18685428604859949 -0.44073463102119359 0 0.17085126516602861 -0.43921743863965762 0 0.18685428604859949 -0.44073463102119359 0 0.17085126516602861 -0.43921743863965762 0 0.17631717317614309 -0.44975589597711652 0 0.18685428604859949 -0.44073463102119359 0 0.18668188755457199 -0.45290458390687471 0 0.1915311769682061 -0.47012967318325061 0 0.18668188755457199 -0.45290458390687471 0 0.17584949464874131 -0.46165089595008107 0 0.17631717317614309 -0.44975589597711652 0 0.18668188755457199 -0.45290458390687471 0 0.17584949464874131 -0.46165089595008107 0 0.17631717317614309 -0.44975589597711652 0 0.17584949464874131 -0.46165089595008107 0 0.15890542422653381 -0.45401727103783368 0 0.17584949464874131 -0.46165089595008107 0 0.15890542422653381 -0.45401727103783368 0 0.16195934490803221 -0.47215723566967149 0 0.17631717317614309 -0.44975589597711652 0 0.15890542422653381 -0.45401727103783368 0 0.17085126516602861 -0.43921743863965762 0 0.15842192868248281 -0.43596859069599231 0 0.15890542422653381 -0.45401727103783368 0 0.17085126516602861 -0.43921743863965762 0 0.15842192868248281 -0.43596859069599231 0 0.15890542422653381 -0.45401727103783368 0 0.1469948287597958 -0.4408990351065174 0 0.15890542422653381 -0.45401727103783368 0 0.1469948287597958 -0.4408990351065174 0 0.1354236525146138 -0.46047691704941512 0 0.13344201599251879 -0.43532582983253731 0 0.1469948287597958 -0.4408990351065174 0 0.1354236525146138 -0.46047691704941512 0 0.13344201599251879 -0.43532582983253731 0 0.1354236525146138 -0.46047691704941512 0 0.1224111102215333 -0.44467792579444021 0 0.1354236525146138 -0.46047691704941512 0 0.12746138320273351 -0.48023845852470698 0 0.113189568141478 -0.45859552203128229 0 0.15890542422653381 -0.45401727103783368 0 0.1354236525146138 -0.46047691704941512 0 0.14569321230895041 -0.47566457410252672 0 0.15890542422653381 -0.45401727103783368 0 0.14569321230895041 -0.47566457410252672 0 0.16195934490803221 -0.47215723566967149 0 0.14569321230895041 -0.47566457410252672 0 0.15949114326838851 -0.48754319556822689 0 0.16195934490803221 -0.47215723566967149 0 0.1354236525146138 -0.46047691704941512 0 0.12746138320273351 -0.48023845852470698 0 0.1354236525146138 -0.46047691704941512 0 0.14569321230895041 -0.47566457410252672 0 0.12746138320273351 -0.48023845852470698 0 0.14569321230895041 -0.47566457410252672 0 0.12746138320273351 -0.48023845852470698 0 0.1463506211747955 -0.5 0 0.12746138320273351 -0.48023845852470698 0 0.1463506211747955 -0.5 0 0.1194991138908534 -0.49999999999999911 0 0.14569321230895041 -0.47566457410252672 0 0.1463506211747955 -0.5 0 0.15949114326838851 -0.48754319556822689 0 0.1463506211747955 -0.5 0 0.15949114326838851 -0.48754319556822689 0 0.17320212845873759 -0.5 0 0.15949114326838851 -0.48754319556822689 0 0.1725119777858716 -0.48427159518956142 0 0.17320212845873759 -0.5 0 0.17584949464874131 -0.46165089595008107 0 0.16195934490803221 -0.47215723566967149 0 0.1725119777858716 -0.48427159518956142 0 0.15949114326838851 -0.48754319556822689 0 0.16195934490803221 -0.47215723566967149 0 0.1725119777858716 -0.48427159518956142 0 0.1915311769682061 -0.47012967318325061 0 0.18020504700524159 -0.49800752296376938 0 0.1915311769682061 -0.47012967318325061 0 0.17584949464874131 -0.46165089595008107 0 0.1725119777858716 -0.48427159518956142 0 0.1915311769682061 -0.47012967318325061 0 0.1725119777858716 -0.48427159518956142 0 0.18020504700524159 -0.49800752296376938 0 0.20005363574267959 -0.5 0 0.17320212845873759 -0.5 0 0.18020504700524159 -0.49800752296376938 0 0.1725119777858716 -0.48427159518956142 0 0.17320212845873759 -0.5 0 0.18020504700524159 -0.49800752296376938 0 0.065103422714369308 -0.5 0 0.073324087130090601 -0.48540711124660008 0 0.054903448894268361 -0.47937521450655279 0 0.065103422714369308 -0.5 0 0.073324087130090601 -0.48540711124660008 0 0.087954554136954188 -0.5 0 0.073324087130090601 -0.48540711124660008 0 0.07182495370891516 -0.46837484974445232 0 0.054903448894268361 -0.47937521450655279 0 0.073324087130090601 -0.48540711124660008 0 0.086834056195946002 -0.47928549198199549 0 0.07182495370891516 -0.46837484974445232 0 0.086834056195946002 -0.47928549198199549 0 0.08683754292265522 -0.46073049747511041 0 0.07182495370891516 -0.46837484974445232 0 0.086834056195946002 -0.47928549198199549 0 0.10426813496943289 -0.47447878906635199 0 0.08683754292265522 -0.46073049747511041 0 0.073324087130090601 -0.48540711124660008 0 0.086834056195946002 -0.47928549198199549 0 0.087954554136954188 -0.5 0 0.086834056195946002 -0.47928549198199549 0 0.087954554136954188 -0.5 0 0.097465607715468028 -0.48844107026208688 0 0.087954554136954188 -0.5 0 0.097465607715468028 -0.48844107026208688 0 0.1108056855595391 -0.49999999999999972 0 0.097465607715468028 -0.48844107026208688 0 0.1108056855595391 -0.49999999999999972 0 0.10426813496943289 -0.47447878906635199 0 0.1108056855595391 -0.49999999999999972 0 0.10426813496943289 -0.47447878906635199 0 0.12746138320273351 -0.48023845852470698 0 0.1194991138908534 -0.49999999999999911 0 0.1108056855595391 -0.49999999999999972 0 0.1151523997251962 -0.48676379389871632 0 0.10426813496943289 -0.47447878906635199 0 0.1108056855595391 -0.49999999999999972 0 0.1151523997251962 -0.48676379389871632 0 0.1194991138908534 -0.49999999999999911 0 0.12746138320273351 -0.48023845852470698 0 0.1151523997251962 -0.48676379389871632 0 0.1194991138908534 -0.49999999999999911 0 0.12746138320273351 -0.48023845852470698 0 0.1151523997251962 -0.48676379389871632 0 0.10426813496943289 -0.47447878906635199 0 0.12746138320273351 -0.48023845852470698 0 0.10426813496943289 -0.47447878906635199 0 0.113189568141478 -0.45859552203128229 0 0.086834056195946002 -0.47928549198199549 0 0.097465607715468028 -0.48844107026208688 0 0.10426813496943289 -0.47447878906635199 0 0.10426813496943289 -0.47447878906635199 0 0.113189568141478 -0.45859552203128229 0 0.097730584379326579 -0.4489575781327042 0 0.10426813496943289 -0.47447878906635199 0 0.097730584379326579 -0.4489575781327042 0 0.08683754292265522 -0.46073049747511041 0 0.10426813496943289 -0.47447878906635199 0 0.097730584379326579 -0.4489575781327042 0 0.1354236525146138 -0.46047691704941512 0 0.113189568141478 -0.45859552203128229 0 0.1224111102215333 -0.44467792579444021 0 0.1224111102215333 -0.44467792579444021 0 0.10927883550336551 -0.44085759050986012 0 0.1207242030152797 -0.42729137993425442 0 0.113189568141478 -0.45859552203128229 0 0.1224111102215333 -0.44467792579444021 0 0.10927883550336551 -0.44085759050986012 0 0.10927883550336551 -0.44085759050986012 0 0.097730584379326579 -0.4489575781327042 0 0.097925689873200078 -0.4365424904418691 0 0.113189568141478 -0.45859552203128229 0 0.10927883550336551 -0.44085759050986012 0 0.097730584379326579 -0.4489575781327042 0 0.097730584379326579 -0.4489575781327042 0 0.087231262133171228 -0.44251177238591072 0 0.097925689873200078 -0.4365424904418691 0 0.087231262133171228 -0.44251177238591072 0 0.08683754292265522 -0.46073049747511041 0 0.073804935431522639 -0.45154380014289131 0 0.097730584379326579 -0.4489575781327042 0 0.087231262133171228 -0.44251177238591072 0 0.08683754292265522 -0.46073049747511041 0 0.087231262133171228 -0.44251177238591072 0 0.073547023199318121 -0.43972844077220219 0 0.073804935431522639 -0.45154380014289131 0 0.07182495370891516 -0.46837484974445232 0 0.073804935431522639 -0.45154380014289131 0 0.05978486853259006 -0.45761018829386663 0 0.08683754292265522 -0.46073049747511041 0 0.07182495370891516 -0.46837484974445232 0 0.073804935431522639 -0.45154380014289131 0 0.065259175641918882 -0.44566739578098719 0 0.073804935431522639 -0.45154380014289131 0 0.05978486853259006 -0.45761018829386663 0 0.065259175641918882 -0.44566739578098719 0 0.073547023199318121 -0.43972844077220219 0 0.066211117733072589 -0.43603709250012967 0 0.065259175641918882 -0.44566739578098719 0 0.073547023199318121 -0.43972844077220219 0 0.073804935431522639 -0.45154380014289131 0 0.073547023199318121 -0.43972844077220219 0 0.069896473786004484 -0.42204046017193031 0 0.066211117733072589 -0.43603709250012967 0 0.087231262133171228 -0.44251177238591072 0 0.073547023199318121 -0.43972844077220219 0 0.069896473786004484 -0.42204046017193031 0 0.069896473786004484 -0.42204046017193031 0 0.083872643525673266 -0.40586970224329649 0 0.068366080923945513 -0.40434983966925803 0 0.069896473786004484 -0.42204046017193031 0 0.068366080923945513 -0.40434983966925803 0 0.052561685438837741 -0.40156914795794979 0 0.090351191920293145 -0.42412449290448218 0 0.09881700781710763 -0.41148126655886852 0 0.083872643525673266 -0.40586970224329649 0 0.069896473786004484 -0.42204046017193031 0 0.090351191920293145 -0.42412449290448218 0 0.083872643525673266 -0.40586970224329649 0 0.087231262133171228 -0.44251177238591072 0 0.069896473786004484 -0.42204046017193031 0 0.090351191920293145 -0.42412449290448218 0 0.087231262133171228 -0.44251177238591072 0 0.090351191920293145 -0.42412449290448218 0 0.097925689873200078 -0.4365424904418691 0 0.087231262133171228 -0.44251177238591072 0 0.069896473786004484 -0.42204046017193031 0 0.090351191920293145 -0.42412449290448218 0 0.1059970883158927 -0.42424699795622911 0 0.097925689873200078 -0.4365424904418691 0 0.10927883550336551 -0.44085759050986012 0 0.1059970883158927 -0.42424699795622911 0 0.097925689873200078 -0.4365424904418691 0 0.10927883550336551 -0.44085759050986012 0 0.1059970883158927 -0.42424699795622911 0 0.1207242030152797 -0.42729137993425442 0 0.13240106959053241 -0.41517194668310881 0 0.1207242030152797 -0.42729137993425442 0 0.1138445232088411 -0.40800144148281831 0 0.1059970883158927 -0.42424699795622911 0 0.1207242030152797 -0.42729137993425442 0 0.1138445232088411 -0.40800144148281831 0 0.1059970883158927 -0.42424699795622911 0 0.1138445232088411 -0.40800144148281831 0 0.09881700781710763 -0.41148126655886852 0 0.090351191920293145 -0.42412449290448218 0 0.1059970883158927 -0.42424699795622911 0 0.09881700781710763 -0.41148126655886852 0 0.1138445232088411 -0.40800144148281831 0 0.09881700781710763 -0.41148126655886852 0 0.100019592114838 -0.39516369820751662 0 0.1138445232088411 -0.40800144148281831 0 0.100019592114838 -0.39516369820751662 0 0.1125265821136805 -0.38848715890165247 0 0.09881700781710763 -0.41148126655886852 0 0.100019592114838 -0.39516369820751662 0 0.083872643525673266 -0.40586970224329649 0 0.1271295551360567 -0.39420498256280928 0 0.1138445232088411 -0.40800144148281831 0 0.1125265821136805 -0.38848715890165247 0 0.1271295551360567 -0.39420498256280928 0 0.13240106959053241 -0.41517194668310881 0 0.1138445232088411 -0.40800144148281831 0 0.13051310213717859 -0.36754656043808909 0 0.1271295551360567 -0.39420498256280928 0 0.1125265821136805 -0.38848715890165247 0 0.13051310213717859 -0.36754656043808909 0 0.1125265821136805 -0.38848715890165247 0 0.10526129348521621 -0.37420965642663939 0 0.100019592114838 -0.39516369820751662 0 0.1125265821136805 -0.38848715890165247 0 0.10526129348521621 -0.37420965642663939 0 0.100019592114838 -0.39516369820751662 0 0.092937257131231521 -0.38108199574319529 0 0.10526129348521621 -0.37420965642663939 0 0.092937257131231521 -0.38108199574319529 0 0.082223994090069044 -0.37903146932620713 0 0.089140180544142883 -0.36676520956777953 0 0.082223994090069044 -0.37903146932620713 0 0.086567766809477281 -0.39074860806406297 0 0.073785347185574612 -0.39259617480009917 0 0.100019592114838 -0.39516369820751662 0 0.092937257131231521 -0.38108199574319529 0 0.086567766809477281 -0.39074860806406297 0 0.092937257131231521 -0.38108199574319529 0 0.082223994090069044 -0.37903146932620713 0 0.086567766809477281 -0.39074860806406297 0 0.100019592114838 -0.39516369820751662 0 0.086567766809477281 -0.39074860806406297 0 0.083872643525673266 -0.40586970224329649 0 0.086567766809477281 -0.39074860806406297 0 0.083872643525673266 -0.40586970224329649 0 0.073785347185574612 -0.39259617480009917 0 0.083872643525673266 -0.40586970224329649 0 0.073785347185574612 -0.39259617480009917 0 0.068366080923945513 -0.40434983966925803 0 0.073785347185574612 -0.39259617480009917 0 0.060293847976171239 -0.38669187640898511 0 0.062118148236372239 -0.39602464323671988 0 0.073785347185574612 -0.39259617480009917 0 0.068366080923945513 -0.40434983966925803 0 0.062118148236372239 -0.39602464323671988 0 0.073785347185574612 -0.39259617480009917 0 0.070781789378480467 -0.37970355015002782 0 0.060293847976171239 -0.38669187640898511 0 0.070781789378480467 -0.37970355015002782 0 0.059098870892386579 -0.37682530815890142 0 0.066574804624867909 -0.37081013146750502 0 0.070781789378480467 -0.37970355015002782 0 0.059098870892386579 -0.37682530815890142 0 0.060293847976171239 -0.38669187640898511 0 0.082223994090069044 -0.37903146932620713 0 0.070781789378480467 -0.37970355015002782 0 0.076617488481454041 -0.36707769799892698 0 0.082223994090069044 -0.37903146932620713 0 0.073785347185574612 -0.39259617480009917 0 0.070781789378480467 -0.37970355015002782 0 0.049351188314067762 -0.38708238941692807 0 0.052862704060863283 -0.38042178129951382 0 0.060293847976171239 -0.38669187640898511 0 0.052862704060863283 -0.38042178129951382 0 0.059098870892386579 -0.37682530815890142 0 0.050251492880901423 -0.37289633439820441 0 0.049351188314067762 -0.38708238941692807 0 0.052862704060863283 -0.38042178129951382 0 0.045318120240789392 -0.37861299811455001 0 0.052862704060863283 -0.38042178129951382 0 0.045318120240789392 -0.37861299811455001 0 0.050251492880901423 -0.37289633439820441 0 0.052862704060863283 -0.38042178129951382 0 0.059098870892386579 -0.37682530815890142 0 0.060293847976171239 -0.38669187640898511 0 0.049351188314067762 -0.38708238941692807 0 0.060293847976171239 -0.38669187640898511 0 0.056081217491362252 -0.3928420142551457 0 0.060293847976171239 -0.38669187640898511 0 0.062118148236372239 -0.39602464323671988 0 0.056081217491362252 -0.3928420142551457 0 0.062118148236372239 -0.39602464323671988 0 0.056081217491362252 -0.3928420142551457 0 0.052561685438837741 -0.40156914795794979 0 0.068366080923945513 -0.40434983966925803 0 0.062118148236372239 -0.39602464323671988 0 0.052561685438837741 -0.40156914795794979 0 0.049351188314067762 -0.38708238941692807 0 0.056081217491362252 -0.3928420142551457 0 0.052561685438837741 -0.40156914795794979 0 0.052561685438837741 -0.40156914795794979 0 0.03522689709167115 -0.3810978357439696 0 0.037096927083253177 -0.40267520161553749 0 0.034125464078810237 -0.38786822092598539 0 0.050168290905941451 -0.41195265671305759 0 0.034125464078810237 -0.38786822092598539 0 0.050168290905941451 -0.41195265671305759 0 0.052561685438837741 -0.40156914795794979 0 0.034125464078810237 -0.38786822092598539 0 0.050168290905941451 -0.41195265671305759 0 0.037096927083253177 -0.40267520161553749 0 0.030564923844285989 -0.39670593954238292 0 0.030321993771234599 -0.40427492137098731 0 0.034125464078810237 -0.38786822092598539 0 0.029525221198283481 -0.39113438944256551 0 0.030564923844285989 -0.39670593954238292 0 0.037096927083253177 -0.40267520161553749 0 0.034125464078810237 -0.38786822092598539 0 0.030564923844285989 -0.39670593954238292 0 0.049351188314067762 -0.38708238941692807 0 0.052561685438837741 -0.40156914795794979 0 0.03522689709167115 -0.3810978357439696 0 0.052561685438837741 -0.40156914795794979 0 0.034125464078810237 -0.38786822092598539 0 0.03522689709167115 -0.3810978357439696 0 0.049351188314067762 -0.38708238941692807 0 0.045318120240789392 -0.37861299811455001 0 0.03522689709167115 -0.3810978357439696 0 0.045318120240789392 -0.37861299811455001 0 0.03522689709167115 -0.3810978357439696 0 0.040393679305873183 -0.37214177666348031 0 0.034125464078810237 -0.38786822092598539 0 0.03522689709167115 -0.3810978357439696 0 0.031101114544173261 -0.37224831155107851 0 0.03522689709167115 -0.3810978357439696 0 0.040393679305873183 -0.37214177666348031 0 0.031101114544173261 -0.37224831155107851 0 0.034125464078810237 -0.38786822092598539 0 0.01808263725167919 -0.36378378513891352 0 0.034125464078810237 -0.38786822092598539 0 0.022369484585921071 -0.37929554194519888 0 0.01808263725167919 -0.36378378513891352 0 0.034125464078810237 -0.38786822092598539 0 0.024871844481241051 -0.38794437745703209 0 0.029525221198283481 -0.39113438944256551 0 0.034125464078810237 -0.38786822092598539 0 0.024871844481241051 -0.38794437745703209 0 0.022369484585921071 -0.37929554194519888 0 0.024871844481241051 -0.38794437745703209 0 0.016862964720009029 -0.38330831011025318 0 0.014843963304895531 -0.39211223106426951 0 0.024871844481241051 -0.38794437745703209 0 0.016862964720009029 -0.38330831011025318 0 0.022369484585921071 -0.37929554194519888 0 0.016862964720009029 -0.38330831011025318 0 0.022369484585921071 -0.37929554194519888 0 0.01790451239786588 -0.37357301609381022 0 0.016862964720009029 -0.38330831011025318 0 0.013161563691787731 -0.37830627156774532 0 0.01790451239786588 -0.37357301609381022 0 0.016862964720009029 -0.38330831011025318 0 0.013161563691787731 -0.37830627156774532 0 0.008128558531585995 -0.3857719851584242 0 0.013161563691787731 -0.37830627156774532 0 0.008128558531585995 -0.3857719851584242 0 0.0072716361955047232 -0.37739596970801342 0 0.013161563691787731 -0.37830627156774532 0 0.0072716361955047232 -0.37739596970801342 0 0.012113544340059739 -0.37262793853163961 0 0.016862964720009029 -0.38330831011025318 0 0.008128558531585995 -0.3857719851584242 0 0.014843963304895531 -0.39211223106426951 0 -0.0019023268811386069 -0.38812108031404702 0 0.008128558531585995 -0.3857719851584242 0 0.0046112937987620997 -0.39629612094955691 0 -0.0019023268811386069 -0.38812108031404702 0 0.008128558531585995 -0.3857719851584242 0 0.0023126715974343039 -0.38121453777462277 0 0.008128558531585995 -0.3857719851584242 0 0.0023126715974343039 -0.38121453777462277 0 0.0072716361955047232 -0.37739596970801342 0 0.0023126715974343039 -0.38121453777462277 0 0.0072716361955047232 -0.37739596970801342 0 0.00083080919627883981 -0.37495933448478602 0 -0.0040835555638557286 -0.39851387390366932 0 0.0046086086085545663 -0.4058911627348869 0 0.0046112937987620997 -0.39629612094955691 0 0.0046086086085545663 -0.4058911627348869 0 0.0046112937987620997 -0.39629612094955691 0 0.011565495098515731 -0.39869910333154179 0 0.0046112937987620997 -0.39629612094955691 0 0.014843963304895531 -0.39211223106426951 0 0.011565495098515731 -0.39869910333154179 0 0.008128558531585995 -0.3857719851584242 0 0.0046112937987620997 -0.39629612094955691 0 0.014843963304895531 -0.39211223106426951 0 0.0046086086085545663 -0.4058911627348869 0 0.011565495098515731 -0.39869910333154179 0 0.01493505906973425 -0.40592388012888903 0 0.01493505906973425 -0.40592388012888903 0 0.022508104658168961 -0.39732000227645459 0 0.024964806412868131 -0.41158737045031352 0 0.011565495098515731 -0.39869910333154179 0 0.01493505906973425 -0.40592388012888903 0 0.022508104658168961 -0.39732000227645459 0 0.014843963304895531 -0.39211223106426951 0 0.011565495098515731 -0.39869910333154179 0 0.022508104658168961 -0.39732000227645459 0 0.024871844481241051 -0.38794437745703209 0 0.014843963304895531 -0.39211223106426951 0 0.022508104658168961 -0.39732000227645459 0 0.024871844481241051 -0.38794437745703209 0 0.022508104658168961 -0.39732000227645459 0 0.029525221198283481 -0.39113438944256551 0 0.022508104658168961 -0.39732000227645459 0 0.029525221198283481 -0.39113438944256551 0 0.030564923844285989 -0.39670593954238292 0 0.022508104658168961 -0.39732000227645459 0 0.030564923844285989 -0.39670593954238292 0 0.030321993771234599 -0.40427492137098731 0 0.022508104658168961 -0.39732000227645459 0 0.030321993771234599 -0.40427492137098731 0 0.024964806412868131 -0.41158737045031352 0 0.024964806412868131 -0.41158737045031352 0 0.01804802526854124 -0.42642337400008679 0 0.034321808785502811 -0.4240338008032189 0 0.030321993771234599 -0.40427492137098731 0 0.024964806412868131 -0.41158737045031352 0 0.037981389994237863 -0.41257216880948011 0 0.024964806412868131 -0.41158737045031352 0 0.01424648788479733 -0.41499726253337049 0 0.01804802526854124 -0.42642337400008679 0 0.01493505906973425 -0.40592388012888903 0 0.024964806412868131 -0.41158737045031352 0 0.01424648788479733 -0.41499726253337049 0 0.0046086086085545663 -0.4058911627348869 0 0.01493505906973425 -0.40592388012888903 0 0.01424648788479733 -0.41499726253337049 0 0.01424648788479733 -0.41499726253337049 0 0.0028022247942034251 -0.41946384022854472 0 0.01804802526854124 -0.42642337400008679 0 0.0046086086085545663 -0.4058911627348869 0 0.01424648788479733 -0.41499726253337049 0 0.0028022247942034251 -0.41946384022854472 0 -0.006097273337609779 -0.40725715184949118 0 0.0046086086085545663 -0.4058911627348869 0 0.0028022247942034251 -0.41946384022854472 0 -0.0082599908264913632 -0.42809619331814092 0 0.0028022247942034251 -0.41946384022854472 0 0.0075572732535143317 -0.43656391431578739 0 0.0028022247942034251 -0.41946384022854472 0 0.0075572732535143317 -0.43656391431578739 0 0.01804802526854124 -0.42642337400008679 0 0.0075572732535143317 -0.43656391431578739 0 0.01804802526854124 -0.42642337400008679 0 0.027287794360870501 -0.44009349117191038 0 0.01804802526854124 -0.42642337400008679 0 0.034321808785502811 -0.4240338008032189 0 0.027287794360870501 -0.44009349117191038 0 0.04249210421230952 -0.43690005563391671 0 0.034321808785502811 -0.4240338008032189 0 0.027287794360870501 -0.44009349117191038 0 0.04249210421230952 -0.43690005563391671 0 0.044329186446120501 -0.42226219049426628 0 0.034321808785502811 -0.4240338008032189 0 0.04249210421230952 -0.43690005563391671 0 0.044329186446120501 -0.42226219049426628 0 0.052249866653983512 -0.42916225246932882 0 0.024964806412868131 -0.41158737045031352 0 0.034321808785502811 -0.4240338008032189 0 0.037981389994237863 -0.41257216880948011 0 0.044329186446120501 -0.42226219049426628 0 0.034321808785502811 -0.4240338008032189 0 0.037981389994237863 -0.41257216880948011 0 0.037096927083253177 -0.40267520161553749 0 0.030321993771234599 -0.40427492137098731 0 0.037981389994237863 -0.41257216880948011 0 0.037096927083253177 -0.40267520161553749 0 0.037981389994237863 -0.41257216880948011 0 0.050168290905941451 -0.41195265671305759 0 0.044329186446120501 -0.42226219049426628 0 0.037981389994237863 -0.41257216880948011 0 0.050168290905941451 -0.41195265671305759 0 0.069896473786004484 -0.42204046017193031 0 0.052561685438837741 -0.40156914795794979 0 0.044329186446120501 -0.42226219049426628 0 0.050168290905941451 -0.41195265671305759 0 0.052249866653983512 -0.42916225246932882 0 0.069896473786004484 -0.42204046017193031 0 0.052561685438837741 -0.40156914795794979 0 0.050168290905941451 -0.41195265671305759 0 0.066211117733072589 -0.43603709250012967 0 0.050168290905941451 -0.41195265671305759 0 0.069896473786004484 -0.42204046017193031 0 0.066211117733072589 -0.43603709250012967 0 0.050168290905941451 -0.41195265671305759 0 0.066211117733072589 -0.43603709250012967 0 0.050168290905941451 -0.41195265671305759 0 0.052249866653983512 -0.42916225246932882 0 0.066211117733072589 -0.43603709250012967 0 0.052249866653983512 -0.42916225246932882 0 0.055314602520596529 -0.44317091553046528 0 0.04249210421230952 -0.43690005563391671 0 0.052249866653983512 -0.42916225246932882 0 0.055314602520596529 -0.44317091553046528 0 0.04249210421230952 -0.43690005563391671 0 0.055314602520596529 -0.44317091553046528 0 0.043343454970130917 -0.46211394368697689 0 0.055314602520596529 -0.44317091553046528 0 0.043343454970130917 -0.46211394368697689 0 0.065259175641918882 -0.44566739578098719 0 0.066211117733072589 -0.43603709250012967 0 0.055314602520596529 -0.44317091553046528 0 0.065259175641918882 -0.44566739578098719 0 0.055314602520596529 -0.44317091553046528 0 0.05978486853259006 -0.45761018829386663 0 0.05978486853259006 -0.45761018829386663 0 0.043343454970130917 -0.46211394368697689 0 0.054903448894268361 -0.47937521450655279 0 0.055314602520596529 -0.44317091553046528 0 0.05978486853259006 -0.45761018829386663 0 0.043343454970130917 -0.46211394368697689 0 0.07182495370891516 -0.46837484974445232 0 0.05978486853259006 -0.45761018829386663 0 0.054903448894268361 -0.47937521450655279 0 0.04249210421230952 -0.43690005563391671 0 0.043343454970130917 -0.46211394368697689 0 0.027287794360870501 -0.44009349117191038 0 0.027287794360870501 -0.44009349117191038 0 0.013671953577505081 -0.46006232744794029 0 0.0075572732535143317 -0.43656391431578739 0 0.027287794360870501 -0.44009349117191038 0 0.013671953577505081 -0.46006232744794029 0 -0.0082063676535428925 -0.44524425972810189 0 0.0075572732535143317 -0.43656391431578739 0 0.013671953577505081 -0.46006232744794029 0 -0.0097957142331583924 -0.46367350718703881 0 0.013671953577505081 -0.46006232744794029 0 5.6112794139664267e-05 -0.48003116372397031 0 0.043343454970130917 -0.46211394368697689 0 0.013671953577505081 -0.46006232744794029 0 0.031372307419665298 -0.48105697184348861 0 0.043343454970130917 -0.46211394368697689 0 0.027287794360870501 -0.44009349117191038 0 0.013671953577505081 -0.46006232744794029 0 0.013671953577505081 -0.46006232744794029 0 0.01482264280616514 -0.484298268143738 0 0.031372307419665298 -0.48105697184348861 0 0.013671953577505081 -0.46006232744794029 0 5.6112794139664267e-05 -0.48003116372397031 0 0.013671953577505081 -0.46006232744794029 0 0.01482264280616514 -0.484298268143738 0 5.6112794139664267e-05 -0.48003116372397031 0 0.01482264280616514 -0.484298268143738 0 0.0029207159399868838 -0.5 0 0.019401159869199561 -0.50000000000000022 0 0.01482264280616514 -0.484298268143738 0 5.6112794139664267e-05 -0.48003116372397031 0 0.0029207159399868838 -0.5 0 0.019401159869199561 -0.50000000000000022 0 0.042252291291784427 -0.5 0 0.031372307419665298 -0.48105697184348861 0 0.019401159869199561 -0.50000000000000022 0 0.031372307419665298 -0.48105697184348861 0 0.01482264280616514 -0.484298268143738 0 0.019401159869199561 -0.50000000000000022 0 0.031372307419665298 -0.48105697184348861 0 0.042252291291784427 -0.5 0 0.031372307419665298 -0.48105697184348861 0 0.054903448894268361 -0.47937521450655279 0 0.043343454970130917 -0.46211394368697689 0 0.031372307419665298 -0.48105697184348861 0 0.043343454970130917 -0.46211394368697689 0 0.031372307419665298 -0.48105697184348861 0 0.054903448894268361 -0.47937521450655279 0 0.065103422714369308 -0.5 0 0.042252291291784427 -0.5 0 0.054903448894268361 -0.47937521450655279 0 0.080498337639898512 -0.29297153920991531 0 0.076616789065301741 -0.2682117956753729 0 0.105381186761848 -0.28908430986574979 0 0.080498337639898512 -0.29297153920991531 0 0.105381186761848 -0.28908430986574979 0 0.091134281719600266 -0.31318922272693739 0 0.080498337639898512 -0.29297153920991531 0 0.063148348304658306 -0.31063867301566261 0 0.091134281719600266 -0.31318922272693739 0 0.080498337639898512 -0.29297153920991531 0 0.063148348304658306 -0.31063867301566261 0 0.05470572945442749 -0.28416599925583302 0 0.080498337639898512 -0.29297153920991531 0 0.076616789065301741 -0.2682117956753729 0 0.05470572945442749 -0.28416599925583302 0 0.076616789065301741 -0.2682117956753729 0 0.055472053722707589 -0.25771443812942069 0 0.077745524782181524 -0.24239224933435519 0 0.076616789065301741 -0.2682117956753729 0 0.10212968042667139 -0.25906173996291992 0 0.077745524782181524 -0.24239224933435519 0 0.076616789065301741 -0.2682117956753729 0 0.10212968042667139 -0.25906173996291992 0 0.105381186761848 -0.28908430986574979 0 0.10212968042667139 -0.25906173996291992 0 0.1247109941767834 -0.26487205333737063 0 0.12667741575706271 -0.2414737984356386 0 0.10212968042667139 -0.25906173996291992 0 0.1247109941767834 -0.26487205333737063 0 0.105381186761848 -0.28908430986574979 0 0.12755474367724071 -0.28641496218900248 0 0.1247109941767834 -0.26487205333737063 0 0.105381186761848 -0.28908430986574979 0 0.105381186761848 -0.28908430986574979 0 0.1232922305256398 -0.31222593649650732 0 0.091134281719600266 -0.31318922272693739 0 0.12755474367724071 -0.28641496218900248 0 0.105381186761848 -0.28908430986574979 0 0.1232922305256398 -0.31222593649650732 0 0.105381186761848 -0.28908430986574979 0 0.1232922305256398 -0.31222593649650732 0 0.1232922305256398 -0.31222593649650732 0 0.1203527444544976 -0.33440109300481358 0 0.10345683989573851 -0.33006290880897893 0 0.1232922305256398 -0.31222593649650732 0 0.10345683989573851 -0.33006290880897893 0 0.091134281719600266 -0.31318922272693739 0 0.12521623110419669 -0.35069627961407202 0 0.1203527444544976 -0.33440109300481358 0 0.1109054595019635 -0.34317205624697839 0 0.1203527444544976 -0.33440109300481358 0 0.1109054595019635 -0.34317205624697839 0 0.10345683989573851 -0.33006290880897893 0 0.10345683989573851 -0.33006290880897893 0 0.097241531392474143 -0.34505666448428052 0 0.08741437236548398 -0.3300805571394696 0 0.1109054595019635 -0.34317205624697839 0 0.10345683989573851 -0.33006290880897893 0 0.097241531392474143 -0.34505666448428052 0 0.10345683989573851 -0.33006290880897893 0 0.091134281719600266 -0.31318922272693739 0 0.08741437236548398 -0.3300805571394696 0 0.13051310213717859 -0.36754656043808909 0 0.1082599506629104 -0.35564333532274711 0 0.13051310213717859 -0.36754656043808909 0 0.1082599506629104 -0.35564333532274711 0 0.10526129348521621 -0.37420965642663939 0 0.12521623110419669 -0.35069627961407202 0 0.13051310213717859 -0.36754656043808909 0 0.1082599506629104 -0.35564333532274711 0 0.12521623110419669 -0.35069627961407202 0 0.1109054595019635 -0.34317205624697839 0 0.1082599506629104 -0.35564333532274711 0 0.1082599506629104 -0.35564333532274711 0 0.08600679918864218 -0.34374011020740503 0 0.095193664038123557 -0.35877694988099113 0 0.1082599506629104 -0.35564333532274711 0 0.08600679918864218 -0.34374011020740503 0 0.097241531392474143 -0.34505666448428052 0 0.1082599506629104 -0.35564333532274711 0 0.08600679918864218 -0.34374011020740503 0 0.1109054595019635 -0.34317205624697839 0 0.097241531392474143 -0.34505666448428052 0 0.1082599506629104 -0.35564333532274711 0 0.095193664038123557 -0.35877694988099113 0 0.1082599506629104 -0.35564333532274711 0 0.10526129348521621 -0.37420965642663939 0 0.092937257131231521 -0.38108199574319529 0 0.10526129348521621 -0.37420965642663939 0 0.089140180544142883 -0.36676520956777953 0 0.095193664038123557 -0.35877694988099113 0 0.10526129348521621 -0.37420965642663939 0 0.089140180544142883 -0.36676520956777953 0 0.082223994090069044 -0.37903146932620713 0 0.089140180544142883 -0.36676520956777953 0 0.076617488481454041 -0.36707769799892698 0 0.095193664038123557 -0.35877694988099113 0 0.089140180544142883 -0.36676520956777953 0 0.083947617798393839 -0.35588112716789572 0 0.089140180544142883 -0.36676520956777953 0 0.083947617798393839 -0.35588112716789572 0 0.076617488481454041 -0.36707769799892698 0 0.083947617798393839 -0.35588112716789572 0 0.07435366776517971 -0.35582513909945562 0 0.076617488481454041 -0.36707769799892698 0 0.083947617798393839 -0.35588112716789572 0 0.076538081335913527 -0.34832555132890308 0 0.07435366776517971 -0.35582513909945562 0 0.095193664038123557 -0.35877694988099113 0 0.083947617798393839 -0.35588112716789572 0 0.08600679918864218 -0.34374011020740503 0 0.083947617798393839 -0.35588112716789572 0 0.076538081335913527 -0.34832555132890308 0 0.08600679918864218 -0.34374011020740503 0 0.06661674705127392 -0.35126716141560821 0 0.071538049984112936 -0.33828653927123042 0 0.052420629320357529 -0.34817005851393779 0 0.076538081335913527 -0.34832555132890308 0 0.06661674705127392 -0.35126716141560821 0 0.071538049984112936 -0.33828653927123042 0 0.06661674705127392 -0.35126716141560821 0 0.07435366776517971 -0.35582513909945562 0 0.066775976019321143 -0.36177348348094412 0 0.06661674705127392 -0.35126716141560821 0 0.066775976019321143 -0.36177348348094412 0 0.05842262646209409 -0.35777266687605519 0 0.076538081335913527 -0.34832555132890308 0 0.06661674705127392 -0.35126716141560821 0 0.07435366776517971 -0.35582513909945562 0 0.07435366776517971 -0.35582513909945562 0 0.076617488481454041 -0.36707769799892698 0 0.066775976019321143 -0.36177348348094412 0 0.076617488481454041 -0.36707769799892698 0 0.066775976019321143 -0.36177348348094412 0 0.066574804624867909 -0.37081013146750502 0 0.066775976019321143 -0.36177348348094412 0 0.066574804624867909 -0.37081013146750502 0 0.058434966913684473 -0.36741677462509548 0 0.070781789378480467 -0.37970355015002782 0 0.076617488481454041 -0.36707769799892698 0 0.066574804624867909 -0.37081013146750502 0 0.091134281719600266 -0.31318922272693739 0 0.08741437236548398 -0.3300805571394696 0 0.074471368846139266 -0.32362029888176402 0 0.097241531392474143 -0.34505666448428052 0 0.08600679918864218 -0.34374011020740503 0 0.071538049984112936 -0.33828653927123042 0 0.097241531392474143 -0.34505666448428052 0 0.071538049984112936 -0.33828653927123042 0 0.097241531392474143 -0.34505666448428052 0 0.08741437236548398 -0.3300805571394696 0 0.071538049984112936 -0.33828653927123042 0 0.071538049984112936 -0.33828653927123042 0 0.074471368846139266 -0.32362029888176402 0 0.045834568575751647 -0.33151641405818028 0 0.08741437236548398 -0.3300805571394696 0 0.071538049984112936 -0.33828653927123042 0 0.074471368846139266 -0.32362029888176402 0 0.076538081335913527 -0.34832555132890308 0 0.08600679918864218 -0.34374011020740503 0 0.071538049984112936 -0.33828653927123042 0 0.063148348304658306 -0.31063867301566261 0 0.091134281719600266 -0.31318922272693739 0 0.074471368846139266 -0.32362029888176402 0 0.063148348304658306 -0.31063867301566261 0 0.045834568575751647 -0.33151641405818028 0 0.039113527494017503 -0.31435764281876039 0 0.063148348304658306 -0.31063867301566261 0 0.074471368846139266 -0.32362029888176402 0 0.045834568575751647 -0.33151641405818028 0 0.071538049984112936 -0.33828653927123042 0 0.045834568575751647 -0.33151641405818028 0 0.052420629320357529 -0.34817005851393779 0 0.071538049984112936 -0.33828653927123042 0 0.045834568575751647 -0.33151641405818028 0 0.045834568575751647 -0.33151641405818028 0 0.036746949228848497 -0.34385976491770598 0 0.02013108716739033 -0.32474628884513029 0 0.045834568575751647 -0.33151641405818028 0 0.052420629320357529 -0.34817005851393779 0 0.036746949228848497 -0.34385976491770598 0 0.045834568575751647 -0.33151641405818028 0 0.039113527494017503 -0.31435764281876039 0 0.02013108716739033 -0.32474628884513029 0 0.045834568575751647 -0.33151641405818028 0 0.02013108716739033 -0.32474628884513029 0 0.050251492880901423 -0.37289633439820441 0 0.058434966913684473 -0.36741677462509548 0 0.050003503011025657 -0.3627972639336563 0 0.059098870892386579 -0.37682530815890142 0 0.050251492880901423 -0.37289633439820441 0 0.058434966913684473 -0.36741677462509548 0 0.059098870892386579 -0.37682530815890142 0 0.066574804624867909 -0.37081013146750502 0 0.058434966913684473 -0.36741677462509548 0 0.066775976019321143 -0.36177348348094412 0 0.058434966913684473 -0.36741677462509548 0 0.05842262646209409 -0.35777266687605519 0 0.058434966913684473 -0.36741677462509548 0 0.050003503011025657 -0.3627972639336563 0 0.05842262646209409 -0.35777266687605519 0 0.050003503011025657 -0.3627972639336563 0 0.052420629320357529 -0.34817005851393779 0 0.040097623183243267 -0.35838597252516458 0 0.050003503011025657 -0.3627972639336563 0 0.05842262646209409 -0.35777266687605519 0 0.052420629320357529 -0.34817005851393779 0 0.06661674705127392 -0.35126716141560821 0 0.05842262646209409 -0.35777266687605519 0 0.052420629320357529 -0.34817005851393779 0 0.052420629320357529 -0.34817005851393779 0 0.036746949228848497 -0.34385976491770598 0 0.040097623183243267 -0.35838597252516458 0 0.036746949228848497 -0.34385976491770598 0 0.040097623183243267 -0.35838597252516458 0 0.027165138739454951 -0.3563003334076878 0 0.050003503011025657 -0.3627972639336563 0 0.040097623183243267 -0.35838597252516458 0 0.040393679305873183 -0.37214177666348031 0 0.040097623183243267 -0.35838597252516458 0 0.03323201144555097 -0.36500969052806947 0 0.040393679305873183 -0.37214177666348031 0 0.040097623183243267 -0.35838597252516458 0 0.03323201144555097 -0.36500969052806947 0 0.027165138739454951 -0.3563003334076878 0 0.03323201144555097 -0.36500969052806947 0 0.040393679305873183 -0.37214177666348031 0 0.031101114544173261 -0.37224831155107851 0 0.050251492880901423 -0.37289633439820441 0 0.050003503011025657 -0.3627972639336563 0 0.040393679305873183 -0.37214177666348031 0 0.045318120240789392 -0.37861299811455001 0 0.050251492880901423 -0.37289633439820441 0 0.040393679305873183 -0.37214177666348031 0 0.034125464078810237 -0.38786822092598539 0 0.031101114544173261 -0.37224831155107851 0 0.01808263725167919 -0.36378378513891352 0 0.01790451239786588 -0.37357301609381022 0 0.01808263725167919 -0.36378378513891352 0 0.01485134797080574 -0.36908141484168561 0 0.022369484585921071 -0.37929554194519888 0 0.01790451239786588 -0.37357301609381022 0 0.01808263725167919 -0.36378378513891352 0 0.031101114544173261 -0.37224831155107851 0 0.02739522549521459 -0.36433553015643733 0 0.01808263725167919 -0.36378378513891352 0 0.03323201144555097 -0.36500969052806947 0 0.031101114544173261 -0.37224831155107851 0 0.02739522549521459 -0.36433553015643733 0 0.02739522549521459 -0.36433553015643733 0 0.01808263725167919 -0.36378378513891352 0 0.027165138739454951 -0.3563003334076878 0 0.03323201144555097 -0.36500969052806947 0 0.02739522549521459 -0.36433553015643733 0 0.027165138739454951 -0.3563003334076878 0 0.01808263725167919 -0.36378378513891352 0 0.016637804351719739 -0.35277688064265172 0 0.027165138739454951 -0.3563003334076878 0 0.036746949228848497 -0.34385976491770598 0 0.027165138739454951 -0.3563003334076878 0 0.022423580451222901 -0.34265234577095288 0 0.016637804351719739 -0.35277688064265172 0 0.022423580451222901 -0.34265234577095288 0 0.01002283631236158 -0.33799074154270642 0 0.016637804351719739 -0.35277688064265172 0 0.027165138739454951 -0.3563003334076878 0 0.022423580451222901 -0.34265234577095288 0 -0.0090340080922087593 -0.34887205868579768 0 0.0058620391971661648 -0.35010810301374962 0 0.0085706341203948943 -0.35637634941669832 0 -0.0090340080922087593 -0.34887205868579768 0 0.01130469789361814 -0.36634091960237891 0 -0.0090340080922087593 -0.34887205868579768 0 0.0085706341203948943 -0.35637634941669832 0 0.01130469789361814 -0.36634091960237891 0 0.016637804351719739 -0.35277688064265172 0 0.0058620391971661648 -0.35010810301374962 0 0.01002283631236158 -0.33799074154270642 0 0.01808263725167919 -0.36378378513891352 0 0.016637804351719739 -0.35277688064265172 0 0.0085706341203948943 -0.35637634941669832 0 0.016637804351719739 -0.35277688064265172 0 0.0058620391971661648 -0.35010810301374962 0 0.0085706341203948943 -0.35637634941669832 0 -0.005690371318418405 -0.36081602155646109 0 -0.0012546639663679939 -0.36725540300579651 0 0.01130469789361814 -0.36634091960237891 0 0.01808263725167919 -0.36378378513891352 0 0.0085706341203948943 -0.35637634941669832 0 0.01130469789361814 -0.36634091960237891 0 0.01808263725167919 -0.36378378513891352 0 0.01130469789361814 -0.36634091960237891 0 0.01485134797080574 -0.36908141484168561 0 -0.0012546639663679939 -0.36725540300579651 0 0.01130469789361814 -0.36634091960237891 0 0.006259621561635652 -0.37174723970534718 0 -0.0012546639663679939 -0.36725540300579651 0 0.00083080919627883981 -0.37495933448478602 0 0.006259621561635652 -0.37174723970534718 0 0.0072716361955047232 -0.37739596970801342 0 0.00083080919627883981 -0.37495933448478602 0 0.006259621561635652 -0.37174723970534718 0 0.0072716361955047232 -0.37739596970801342 0 0.006259621561635652 -0.37174723970534718 0 0.012113544340059739 -0.37262793853163961 0 0.01130469789361814 -0.36634091960237891 0 0.006259621561635652 -0.37174723970534718 0 0.012113544340059739 -0.37262793853163961 0 0.01130469789361814 -0.36634091960237891 0 0.01485134797080574 -0.36908141484168561 0 0.012113544340059739 -0.37262793853163961 0 0.01790451239786588 -0.37357301609381022 0 0.01485134797080574 -0.36908141484168561 0 0.012113544340059739 -0.37262793853163961 0 0.013161563691787731 -0.37830627156774532 0 0.01790451239786588 -0.37357301609381022 0 0.012113544340059739 -0.37262793853163961 0 0.02013108716739033 -0.32474628884513029 0 0.022423580451222901 -0.34265234577095288 0 0.01002283631236158 -0.33799074154270642 0 0.036746949228848497 -0.34385976491770598 0 0.02013108716739033 -0.32474628884513029 0 0.022423580451222901 -0.34265234577095288 0 -0.0057410480103785074 -0.33737668460918963 0 0.0058620391971661648 -0.35010810301374962 0 0.01002283631236158 -0.33799074154270642 0 -0.0057410480103785074 -0.33737668460918963 0 0.01002283631236158 -0.33799074154270642 0 0.002600192195030319 -0.32665160973773938 0 0.02013108716739033 -0.32474628884513029 0 0.01002283631236158 -0.33799074154270642 0 0.002600192195030319 -0.32665160973773938 0 -0.0057410480103785074 -0.33737668460918963 0 0.0058620391971661648 -0.35010810301374962 0 0.02013108716739033 -0.32474628884513029 0 0.002600192195030319 -0.32665160973773938 0 0.0066724863395269743 -0.31115217722169719 0 -0.0056478410678713056 -0.30411194231184918 0 0.0066724863395269743 -0.31115217722169719 0 0.0099837880404236162 -0.29200566735500899 0 -0.0056478410678713056 -0.30411194231184918 0 -0.003550042800243684 -0.28209207201754433 0 0.0099837880404236162 -0.29200566735500899 0 -0.003550042800243684 -0.28209207201754433 0 0.0099837880404236162 -0.29200566735500899 0 0.015818706233289421 -0.27544737059380742 0 0.0099837880404236162 -0.29200566735500899 0 0.030689107896977139 -0.29765908823876508 0 0.015818706233289421 -0.27544737059380742 0 0.0066724863395269743 -0.31115217722169719 0 0.0099837880404236162 -0.29200566735500899 0 0.030689107896977139 -0.29765908823876508 0 0.039113527494017503 -0.31435764281876039 0 0.02013108716739033 -0.32474628884513029 0 0.030689107896977139 -0.29765908823876508 0 0.0066724863395269743 -0.31115217722169719 0 0.030689107896977139 -0.29765908823876508 0 0.02013108716739033 -0.32474628884513029 0 0.0066724863395269743 -0.31115217722169719 0 0.030689107896977139 -0.29765908823876508 0 0.039113527494017503 -0.31435764281876039 0 0.030689107896977139 -0.29765908823876508 0 0.048017229958548471 -0.30182858614120828 0 0.030689107896977139 -0.29765908823876508 0 0.05470572945442749 -0.28416599925583302 0 0.034040356907415019 -0.2672071805216879 0 0.030689107896977139 -0.29765908823876508 0 0.05470572945442749 -0.28416599925583302 0 0.048017229958548471 -0.30182858614120828 0 0.030689107896977139 -0.29765908823876508 0 0.05470572945442749 -0.28416599925583302 0 0.063148348304658306 -0.31063867301566261 0 0.05470572945442749 -0.28416599925583302 0 0.048017229958548471 -0.30182858614120828 0 0.063148348304658306 -0.31063867301566261 0 0.039113527494017503 -0.31435764281876039 0 0.048017229958548471 -0.30182858614120828 0 0.05470572945442749 -0.28416599925583302 0 0.055472053722707589 -0.25771443812942069 0 0.034040356907415019 -0.2672071805216879 0 0.076616789065301741 -0.2682117956753729 0 0.05470572945442749 -0.28416599925583302 0 0.055472053722707589 -0.25771443812942069 0 0.055472053722707589 -0.25771443812942069 0 0.034040356907415019 -0.2672071805216879 0 0.036082377741047653 -0.2446025910734928 0 0.034040356907415019 -0.2672071805216879 0 0.01618333810639196 -0.2510448806925592 0 0.015818706233289421 -0.27544737059380742 0 0.034040356907415019 -0.2672071805216879 0 0.01618333810639196 -0.2510448806925592 0 0.036082377741047653 -0.2446025910734928 0 0.030689107896977139 -0.29765908823876508 0 0.034040356907415019 -0.2672071805216879 0 0.015818706233289421 -0.27544737059380742 0 -0.003550042800243684 -0.28209207201754433 0 0.015818706233289421 -0.27544737059380742 0 0.00027413042534417219 -0.26461719389675081 0 -0.0070936043338453089 -0.2410739498827342 0 0.01618333810639196 -0.2510448806925592 0 0.00027413042534417219 -0.26461719389675081 0 0.01618333810639196 -0.2510448806925592 0 0.015818706233289421 -0.27544737059380742 0 0.00027413042534417219 -0.26461719389675081 0 0.01618333810639196 -0.2510448806925592 0 0.0065026017270185072 -0.22838774414485091 0 0.023163800674440162 -0.2345731859420267 0 -0.0070936043338453089 -0.2410739498827342 0 0.01618333810639196 -0.2510448806925592 0 0.0065026017270185072 -0.22838774414485091 0 0.023163800674440162 -0.2345731859420267 0 0.020298871589354742 -0.2123995351440342 0 0.034829614135152939 -0.22460844048451031 0 0.0065026017270185072 -0.22838774414485091 0 0.023163800674440162 -0.2345731859420267 0 0.020298871589354742 -0.2123995351440342 0 0.01618333810639196 -0.2510448806925592 0 0.023163800674440162 -0.2345731859420267 0 0.036082377741047653 -0.2446025910734928 0 -0.0065513521457199854 -0.19632683165197301 0 0.0085513850884246061 -0.19558393661854651 0 0.001144493214242684 -0.1794645347638037 0 -0.0041227302505375974 -0.21312671679935091 0 0.0085513850884246061 -0.19558393661854651 0 0.020298871589354742 -0.2123995351440342 0 -0.0041227302505375974 -0.21312671679935091 0 0.0065026017270185072 -0.22838774414485091 0 0.020298871589354742 -0.2123995351440342 0 0.020298871589354742 -0.2123995351440342 0 0.025490019120888059 -0.1949094829374404 0 0.044225257461586558 -0.20859755016112261 0 0.0085513850884246061 -0.19558393661854651 0 0.020298871589354742 -0.2123995351440342 0 0.025490019120888059 -0.1949094829374404 0 0.0085513850884246061 -0.19558393661854651 0 0.025490019120888059 -0.1949094829374404 0 0.01532427685385861 -0.17989547150447671 0 0.025490019120888059 -0.1949094829374404 0 0.041711805838670721 -0.19186723458155111 0 0.044225257461586558 -0.20859755016112261 0 0.025490019120888059 -0.1949094829374404 0 0.041711805838670721 -0.19186723458155111 0 0.02921018352945241 -0.17817593152082789 0 0.020298871589354742 -0.2123995351440342 0 0.044225257461586558 -0.20859755016112261 0 0.034829614135152939 -0.22460844048451031 0 0.044225257461586558 -0.20859755016112261 0 0.057808301890047008 -0.1980609751908233 0 0.068524129866936095 -0.21535292836873571 0 0.041711805838670721 -0.19186723458155111 0 0.057808301890047008 -0.1980609751908233 0 0.052199567212260913 -0.17941995702689559 0 0.041711805838670721 -0.19186723458155111 0 0.044225257461586558 -0.20859755016112261 0 0.057808301890047008 -0.1980609751908233 0 0.057808301890047008 -0.1980609751908233 0 0.074050860356336179 -0.1924308950386896 0 0.052199567212260913 -0.17941995702689559 0 0.023163800674440162 -0.2345731859420267 0 0.036082377741047653 -0.2446025910734928 0 0.034829614135152939 -0.22460844048451031 0 0.036082377741047653 -0.2446025910734928 0 0.034829614135152939 -0.22460844048451031 0 0.052805102900178293 -0.2324674206707521 0 0.044225257461586558 -0.20859755016112261 0 0.034829614135152939 -0.22460844048451031 0 0.052805102900178293 -0.2324674206707521 0 0.044225257461586558 -0.20859755016112261 0 0.052805102900178293 -0.2324674206707521 0 0.068524129866936095 -0.21535292836873571 0 0.055472053722707589 -0.25771443812942069 0 0.036082377741047653 -0.2446025910734928 0 0.052805102900178293 -0.2324674206707521 0 0.055472053722707589 -0.25771443812942069 0 0.052805102900178293 -0.2324674206707521 0 0.077745524782181524 -0.24239224933435519 0 0.077745524782181524 -0.24239224933435519 0 0.087789927933103584 -0.2235255912135963 0 0.10334591481477499 -0.23623910043752541 0 0.077745524782181524 -0.24239224933435519 0 0.087789927933103584 -0.2235255912135963 0 0.068524129866936095 -0.21535292836873571 0 0.052805102900178293 -0.2324674206707521 0 0.077745524782181524 -0.24239224933435519 0 0.068524129866936095 -0.21535292836873571 0 0.057808301890047008 -0.1980609751908233 0 0.068524129866936095 -0.21535292836873571 0 0.074050860356336179 -0.1924308950386896 0 0.074050860356336179 -0.1924308950386896 0 0.092474860065774586 -0.2037975428747883 0 0.091651255766235756 -0.1814616882985714 0 0.087789927933103584 -0.2235255912135963 0 0.068524129866936095 -0.21535292836873571 0 0.092474860065774586 -0.2037975428747883 0 0.068524129866936095 -0.21535292836873571 0 0.074050860356336179 -0.1924308950386896 0 0.092474860065774586 -0.2037975428747883 0 0.092474860065774586 -0.2037975428747883 0 0.1031844816796003 -0.21866582240683161 0 0.1170580782270865 -0.2060148146536252 0 0.087789927933103584 -0.2235255912135963 0 0.092474860065774586 -0.2037975428747883 0 0.1031844816796003 -0.21866582240683161 0 0.092474860065774586 -0.2037975428747883 0 0.1094515552401167 -0.18896787638367449 0 0.091651255766235756 -0.1814616882985714 0 0.092474860065774586 -0.2037975428747883 0 0.1094515552401167 -0.18896787638367449 0 0.1170580782270865 -0.2060148146536252 0 0.1094515552401167 -0.18896787638367449 0 0.1222182451498562 -0.19330575787805229 0 0.1170580782270865 -0.2060148146536252 0 0.1222182451498562 -0.19330575787805229 0 0.1170580782270865 -0.2060148146536252 0 0.13061884817719299 -0.20025999803693481 0 0.1094515552401167 -0.18896787638367449 0 0.1222182451498562 -0.19330575787805229 0 0.12065875384489649 -0.18321088020553991 0 0.1031844816796003 -0.21866582240683161 0 0.1170580782270865 -0.2060148146536252 0 0.1175708266106259 -0.22449432508942729 0 0.1170580782270865 -0.2060148146536252 0 0.1175708266106259 -0.22449432508942729 0 0.1352122890592968 -0.21828087165203969 0 0.1175708266106259 -0.22449432508942729 0 0.10334591481477499 -0.23623910043752541 0 0.12667741575706271 -0.2414737984356386 0 0.10212968042667139 -0.25906173996291992 0 0.10334591481477499 -0.23623910043752541 0 0.12667741575706271 -0.2414737984356386 0 0.10212968042667139 -0.25906173996291992 0 0.077745524782181524 -0.24239224933435519 0 0.10334591481477499 -0.23623910043752541 0 0.087789927933103584 -0.2235255912135963 0 0.1031844816796003 -0.21866582240683161 0 0.10334591481477499 -0.23623910043752541 0 0.1031844816796003 -0.21866582240683161 0 0.1175708266106259 -0.22449432508942729 0 0.10334591481477499 -0.23623910043752541 0 0.1060184350400344 -0.13383624783242151 0 0.091357880567193739 -0.14807159718613089 0 0.088564875622436243 -0.14042287703379361 0 0.10422516602672589 -0.1467112504384197 0 0.11093479104935219 -0.15624307044526581 0 0.095000356571741718 -0.16171112828146139 0 0.10422516602672589 -0.1467112504384197 0 0.1060184350400344 -0.13383624783242151 0 0.1159511816575593 -0.1438091946787666 0 0.10422516602672589 -0.1467112504384197 0 0.095000356571741718 -0.16171112828146139 0 0.091357880567193739 -0.14807159718613089 0 0.10422516602672589 -0.1467112504384197 0 0.1060184350400344 -0.13383624783242151 0 0.091357880567193739 -0.14807159718613089 0 0.09432628697257682 -0.12653696392950761 0 0.1060184350400344 -0.13383624783242151 0 0.1157828793289597 -0.12352226144999449 0 0.09432628697257682 -0.12653696392950761 0 0.1157828793289597 -0.12352226144999449 0 0.1159511816575593 -0.1438091946787666 0 0.1157828793289597 -0.12352226144999449 0 0.1347057150977084 -0.1448639487213616 0 0.1060184350400344 -0.13383624783242151 0 0.1159511816575593 -0.1438091946787666 0 0.1157828793289597 -0.12352226144999449 0 0.1159511816575593 -0.1438091946787666 0 0.12390896705349359 -0.1583903110764619 0 0.1347057150977084 -0.1448639487213616 0 0.1159511816575593 -0.1438091946787666 0 0.11093479104935219 -0.15624307044526581 0 0.12390896705349359 -0.1583903110764619 0 0.10422516602672589 -0.1467112504384197 0 0.1159511816575593 -0.1438091946787666 0 0.11093479104935219 -0.15624307044526581 0 0.12390896705349359 -0.1583903110764619 0 0.1118779952070206 -0.1723564905297244 0 0.13047619484393319 -0.1738274831090994 0 0.11093479104935219 -0.15624307044526581 0 0.12390896705349359 -0.1583903110764619 0 0.1118779952070206 -0.1723564905297244 0 0.1118779952070206 -0.1723564905297244 0 0.12065875384489649 -0.18321088020553991 0 0.13047619484393319 -0.1738274831090994 0 0.1094515552401167 -0.18896787638367449 0 0.1118779952070206 -0.1723564905297244 0 0.12065875384489649 -0.18321088020553991 0 0.1094515552401167 -0.18896787638367449 0 0.1118779952070206 -0.1723564905297244 0 0.091651255766235756 -0.1814616882985714 0 0.1118779952070206 -0.1723564905297244 0 0.095000356571741718 -0.16171112828146139 0 0.091651255766235756 -0.1814616882985714 0 0.11093479104935219 -0.15624307044526581 0 0.1118779952070206 -0.1723564905297244 0 0.095000356571741718 -0.16171112828146139 0 0.095000356571741718 -0.16171112828146139 0 0.080316474658508871 -0.15894486419489451 0 0.07514701647660757 -0.17344874071424229 0 0.095000356571741718 -0.16171112828146139 0 0.091651255766235756 -0.1814616882985714 0 0.07514701647660757 -0.17344874071424229 0 0.074050860356336179 -0.1924308950386896 0 0.091651255766235756 -0.1814616882985714 0 0.07514701647660757 -0.17344874071424229 0 0.074050860356336179 -0.1924308950386896 0 0.07514701647660757 -0.17344874071424229 0 0.052199567212260913 -0.17941995702689559 0 0.080316474658508871 -0.15894486419489451 0 0.07514701647660757 -0.17344874071424229 0 0.068717736182514019 -0.15608803466396201 0 0.07514701647660757 -0.17344874071424229 0 0.068717736182514019 -0.15608803466396201 0 0.05445096732396823 -0.16173890242207131 0 0.078167418232593711 -0.14658235475614301 0 0.078715768649923065 -0.13320130836047919 0 0.062509043358395799 -0.14663304950323261 0 0.068717736182514019 -0.15608803466396201 0 0.078167418232593711 -0.14658235475614301 0 0.062509043358395799 -0.14663304950323261 0 0.080316474658508871 -0.15894486419489451 0 0.068717736182514019 -0.15608803466396201 0 0.078167418232593711 -0.14658235475614301 0 0.080316474658508871 -0.15894486419489451 0 0.078167418232593711 -0.14658235475614301 0 0.091357880567193739 -0.14807159718613089 0 0.078167418232593711 -0.14658235475614301 0 0.091357880567193739 -0.14807159718613089 0 0.088564875622436243 -0.14042287703379361 0 0.095000356571741718 -0.16171112828146139 0 0.080316474658508871 -0.15894486419489451 0 0.091357880567193739 -0.14807159718613089 0 0.09432628697257682 -0.12653696392950761 0 0.078715768649923065 -0.13320130836047919 0 0.072869694616194275 -0.1295516664090226 0 0.09432628697257682 -0.12653696392950761 0 0.1060184350400344 -0.13383624783242151 0 0.078715768649923065 -0.13320130836047919 0 0.1060184350400344 -0.13383624783242151 0 0.088564875622436243 -0.14042287703379361 0 0.078715768649923065 -0.13320130836047919 0 0.09432628697257682 -0.12653696392950761 0 0.072869694616194275 -0.1295516664090226 0 0.1060184350400344 -0.13383624783242151 0 0.078715768649923065 -0.13320130836047919 0 0.078167418232593711 -0.14658235475614301 0 0.088564875622436243 -0.14042287703379361 0 0.078715768649923065 -0.13320130836047919 0 0.078715768649923065 -0.13320130836047919 0 0.072869694616194275 -0.1295516664090226 0 0.051413102259811598 -0.13256636888853721 0 0.078715768649923065 -0.13320130836047919 0 0.051413102259811598 -0.13256636888853721 0 0.078715768649923065 -0.13320130836047919 0 0.051413102259811598 -0.13256636888853721 0 0.062509043358395799 -0.14663304950323261 0 0.072869694616194275 -0.1295516664090226 0 0.051413102259811598 -0.13256636888853721 0 0.072869694616194275 -0.1295516664090226 0 0.051413102259811598 -0.13256636888853721 0 0.059810329764016783 -0.11446806360527879 0 0.051413102259811598 -0.13256636888853721 0 0.062509043358395799 -0.14663304950323261 0 0.04411277782945635 -0.1493711089511788 0 0.062509043358395799 -0.14663304950323261 0 0.04411277782945635 -0.1493711089511788 0 0.05445096732396823 -0.16173890242207131 0 0.068717736182514019 -0.15608803466396201 0 0.062509043358395799 -0.14663304950323261 0 0.05445096732396823 -0.16173890242207131 0 0.051413102259811598 -0.13256636888853721 0 0.04411277782945635 -0.1493711089511788 0 0.035082207185403308 -0.1445518294902749 0 0.04411277782945635 -0.1493711089511788 0 0.031928154480373477 -0.15096223440395751 0 0.032945304571004877 -0.161206390202247 0 0.04411277782945635 -0.1493711089511788 0 0.031928154480373477 -0.15096223440395751 0 0.035082207185403308 -0.1445518294902749 0 0.051413102259811598 -0.13256636888853721 0 0.028070881296824089 -0.13202353189084459 0 0.051413102259811598 -0.13256636888853721 0 0.035082207185403308 -0.1445518294902749 0 0.02929618306635676 -0.1356738488659863 0 0.051413102259811598 -0.13256636888853721 0 0.028070881296824089 -0.13202353189084459 0 0.02929618306635676 -0.1356738488659863 0 0.051413102259811598 -0.13256636888853721 0 0.028070881296824089 -0.13202353189084459 0 0.035838777635118883 -0.1239872734274379 0 0.051413102259811598 -0.13256636888853721 0 0.02929618306635676 -0.1356738488659863 0 0.07514701647660757 -0.17344874071424229 0 0.052199567212260913 -0.17941995702689559 0 0.05445096732396823 -0.16173890242207131 0 0.04411277782945635 -0.1493711089511788 0 0.05445096732396823 -0.16173890242207131 0 0.032945304571004877 -0.161206390202247 0 0.052199567212260913 -0.17941995702689559 0 0.05445096732396823 -0.16173890242207131 0 0.032945304571004877 -0.161206390202247 0 0.052199567212260913 -0.17941995702689559 0 0.032945304571004877 -0.161206390202247 0 0.02921018352945241 -0.17817593152082789 0 0.041711805838670721 -0.19186723458155111 0 0.052199567212260913 -0.17941995702689559 0 0.02921018352945241 -0.17817593152082789 0 0.025490019120888059 -0.1949094829374404 0 0.02921018352945241 -0.17817593152082789 0 0.01532427685385861 -0.17989547150447671 0 0.02921018352945241 -0.17817593152082789 0 0.020154203331441831 -0.16557236038556639 0 0.01532427685385861 -0.17989547150447671 0 0.032945304571004877 -0.161206390202247 0 0.02921018352945241 -0.17817593152082789 0 0.020154203331441831 -0.16557236038556639 0 0.032945304571004877 -0.161206390202247 0 0.020154203331441831 -0.16557236038556639 0 0.02240224396669899 -0.15384120311436281 0 0.020154203331441831 -0.16557236038556639 0 0.02240224396669899 -0.15384120311436281 0 0.0124541533386179 -0.15607525223768901 0 0.020154203331441831 -0.16557236038556639 0 0.0081573486176358592 -0.1665093974518341 0 0.0124541533386179 -0.15607525223768901 0 -0.0029138897130330508 -0.1646766099163092 0 0.0081573486176358592 -0.1665093974518341 0 0.002067714751090347 -0.15592293470848509 0 0.0081573486176358592 -0.1665093974518341 0 0.0124541533386179 -0.15607525223768901 0 0.002067714751090347 -0.15592293470848509 0 -0.0029138897130330508 -0.1646766099163092 0 0.0081573486176358592 -0.1665093974518341 0 0.001144493214242684 -0.1794645347638037 0 0.020154203331441831 -0.16557236038556639 0 0.0081573486176358592 -0.1665093974518341 0 0.01532427685385861 -0.17989547150447671 0 0.0085513850884246061 -0.19558393661854651 0 0.001144493214242684 -0.1794645347638037 0 0.01532427685385861 -0.17989547150447671 0 0.0081573486176358592 -0.1665093974518341 0 0.001144493214242684 -0.1794645347638037 0 0.01532427685385861 -0.17989547150447671 0 0.028070881296824089 -0.13202353189084459 0 0.0047286603338365027 -0.13148069489315239 0 0.014161217171826831 -0.12329118371946809 0 0.021816412945016701 -0.13583356577503369 0 0.028070881296824089 -0.13202353189084459 0 0.0047286603338365027 -0.13148069489315239 0 0.028070881296824089 -0.13202353189084459 0 0.0047286603338365027 -0.13148069489315239 0 0.021816412945016701 -0.13583356577503369 0 0.026233021719322291 -0.13945261949707999 0 0.02113090302492859 -0.1406804044455334 0 0.021816412945016701 -0.13583356577503369 0 0.016687958820121342 -0.13778752072429759 0 0.02113090302492859 -0.1406804044455334 0 0.028070881296824089 -0.13202353189084459 0 0.014161217171826831 -0.12329118371946809 0 0.02415421694528494 -0.1219201645913723 0 0.028070881296824089 -0.13202353189084459 0 0.02415421694528494 -0.1219201645913723 0 0.035838777635118883 -0.1239872734274379 0 0.035082207185403308 -0.1445518294902749 0 0.02929618306635676 -0.1356738488659863 0 0.026233021719322291 -0.13945261949707999 0 0.028070881296824089 -0.13202353189084459 0 0.02929618306635676 -0.1356738488659863 0 0.026354124756879961 -0.13574589150723609 0 0.021816412945016701 -0.13583356577503369 0 0.028070881296824089 -0.13202353189084459 0 0.026354124756879961 -0.13574589150723609 0 0.021816412945016701 -0.13583356577503369 0 0.026354124756879961 -0.13574589150723609 0 0.026233021719322291 -0.13945261949707999 0 0.02929618306635676 -0.1356738488659863 0 0.026354124756879961 -0.13574589150723609 0 0.026233021719322291 -0.13945261949707999 0 0.031928154480373477 -0.15096223440395751 0 0.035082207185403308 -0.1445518294902749 0 0.025098238849303879 -0.14584064026172389 0 0.035082207185403308 -0.1445518294902749 0 0.026233021719322291 -0.13945261949707999 0 0.025098238849303879 -0.14584064026172389 0 0.026233021719322291 -0.13945261949707999 0 0.025098238849303879 -0.14584064026172389 0 0.02113090302492859 -0.1406804044455334 0 0.031928154480373477 -0.15096223440395751 0 0.025098238849303879 -0.14584064026172389 0 0.02240224396669899 -0.15384120311436281 0 0.031928154480373477 -0.15096223440395751 0 0.032945304571004877 -0.161206390202247 0 0.02240224396669899 -0.15384120311436281 0 0.02240224396669899 -0.15384120311436281 0 0.015109305225129091 -0.14535807122593369 0 0.0124541533386179 -0.15607525223768901 0 0.025098238849303879 -0.14584064026172389 0 0.02240224396669899 -0.15384120311436281 0 0.015109305225129091 -0.14535807122593369 0 0.025098238849303879 -0.14584064026172389 0 0.02113090302492859 -0.1406804044455334 0 0.015109305225129091 -0.14535807122593369 0 0.016687958820121342 -0.13778752072429759 0 0.02113090302492859 -0.1406804044455334 0 0.015109305225129091 -0.14535807122593369 0 0.015109305225129091 -0.14535807122593369 0 0.0060602331583362191 -0.14253165815561269 0 0.01064653938435579 -0.1392894862497491 0 0.015109305225129091 -0.14535807122593369 0 0.0065641345929547991 -0.1495373656929172 0 0.0060602331583362191 -0.14253165815561269 0 0.016687958820121342 -0.13778752072429759 0 0.015109305225129091 -0.14535807122593369 0 0.01064653938435579 -0.1392894862497491 0 0.015109305225129091 -0.14535807122593369 0 0.0124541533386179 -0.15607525223768901 0 0.0065641345929547991 -0.1495373656929172 0 0.0124541533386179 -0.15607525223768901 0 0.0065641345929547991 -0.1495373656929172 0 0.002067714751090347 -0.15592293470848509 0 -0.0025921059873258989 -0.14943225635359239 0 0.0065641345929547991 -0.1495373656929172 0 0.002067714751090347 -0.15592293470848509 0 -0.001050597315567052 -0.13813025709692589 0 0.0065641345929547991 -0.1495373656929172 0 0.0060602331583362191 -0.14253165815561269 0 -0.001050597315567052 -0.13813025709692589 0 -0.0025921059873258989 -0.14943225635359239 0 0.0065641345929547991 -0.1495373656929172 0 0.0060602331583362191 -0.14253165815561269 0 0.01064653938435579 -0.1392894862497491 0 0.0047286603338365027 -0.13148069489315239 0 0.0060602331583362191 -0.14253165815561269 0 0.00086023052013748129 -0.1199770268960285 0 0.0060602331583362191 -0.14253165815561269 0 0.0047286603338365027 -0.13148069489315239 0 0.00086023052013748129 -0.1199770268960285 0 -0.001050597315567052 -0.13813025709692589 0 0.0060602331583362191 -0.14253165815561269 0 0.00086023052013748129 -0.1199770268960285 0 0.021816412945016701 -0.13583356577503369 0 0.016687958820121342 -0.13778752072429759 0 0.0047286603338365027 -0.13148069489315239 0 0.016687958820121342 -0.13778752072429759 0 0.01064653938435579 -0.1392894862497491 0 0.0047286603338365027 -0.13148069489315239 0 0.0047286603338365027 -0.13148069489315239 0 0.00086023052013748129 -0.1199770268960285 0 0.014161217171826831 -0.12329118371946809 0 0.00086023052013748129 -0.1199770268960285 0 0.0080224134638564697 -0.1083308779116527 0 0.002709564413051732 -0.1056825328365129 0 0.00086023052013748129 -0.1199770268960285 0 0.010325183829069891 -0.11634481034824851 0 0.0080224134638564697 -0.1083308779116527 0 0.010325183829069891 -0.11634481034824851 0 0.016078138634399629 -0.1108125780942452 0 0.0080224134638564697 -0.1083308779116527 0 0.010325183829069891 -0.11634481034824851 0 0.016828130105808071 -0.1180008736971622 0 0.016078138634399629 -0.1108125780942452 0 0.00086023052013748129 -0.1199770268960285 0 0.010325183829069891 -0.11634481034824851 0 0.014161217171826831 -0.12329118371946809 0 0.010325183829069891 -0.11634481034824851 0 0.014161217171826831 -0.12329118371946809 0 0.016828130105808071 -0.1180008736971622 0 0.014161217171826831 -0.12329118371946809 0 0.016828130105808071 -0.1180008736971622 0 0.02415421694528494 -0.1219201645913723 0 0.016828130105808071 -0.1180008736971622 0 0.024501135473856541 -0.1139550229203958 0 0.02415421694528494 -0.1219201645913723 0 0.016828130105808071 -0.1180008736971622 0 0.016078138634399629 -0.1108125780942452 0 0.024501135473856541 -0.1139550229203958 0 0.016078138634399629 -0.1108125780942452 0 0.024501135473856541 -0.1139550229203958 0 0.023339044616789179 -0.1048221165123645 0 0.024501135473856541 -0.1139550229203958 0 0.032674748597760622 -0.1173074244612564 0 0.034668170707617997 -0.1069679018099671 0 0.024501135473856541 -0.1139550229203958 0 0.02415421694528494 -0.1219201645913723 0 0.032674748597760622 -0.1173074244612564 0 0.02415421694528494 -0.1219201645913723 0 0.032674748597760622 -0.1173074244612564 0 0.035838777635118883 -0.1239872734274379 0 0.023339044616789179 -0.1048221165123645 0 0.016603353865569871 -0.093961065111323239 0 0.031222442704548142 -0.092758684545199949 0 0.023339044616789179 -0.1048221165123645 0 0.031222442704548142 -0.092758684545199949 0 0.034668170707617997 -0.1069679018099671 0 0.024501135473856541 -0.1139550229203958 0 0.023339044616789179 -0.1048221165123645 0 0.034668170707617997 -0.1069679018099671 0 0.016078138634399629 -0.1108125780942452 0 0.023339044616789179 -0.1048221165123645 0 0.01448248242312564 -0.1029225478526847 0 0.023339044616789179 -0.1048221165123645 0 0.016603353865569871 -0.093961065111323239 0 0.01448248242312564 -0.1029225478526847 0 0.016603353865569871 -0.093961065111323239 0 0.01448248242312564 -0.1029225478526847 0 0.0062953857862742459 -0.096999830901925987 0 0.016078138634399629 -0.1108125780942452 0 0.01448248242312564 -0.1029225478526847 0 0.0080224134638564697 -0.1083308779116527 0 0.01448248242312564 -0.1029225478526847 0 0.0080224134638564697 -0.1083308779116527 0 0.0062953857862742459 -0.096999830901925987 0 0.0080224134638564697 -0.1083308779116527 0 0.002709564413051732 -0.1056825328365129 0 0.0062953857862742459 -0.096999830901925987 0 -0.0043397721180612678 -0.097422395636444323 0 0.002709564413051732 -0.1056825328365129 0 0.0062953857862742459 -0.096999830901925987 0 -0.0043397721180612678 -0.097422395636444323 0 0.0062953857862742459 -0.096999830901925987 0 0.001450329805512745 -0.089832183652915371 0 0.0062953857862742459 -0.096999830901925987 0 0.001450329805512745 -0.089832183652915371 0 0.0071670952254411363 -0.083617543796308008 0 -0.00124953766244034 -0.083680151025063834 0 0.001450329805512745 -0.089832183652915371 0 0.0071670952254411363 -0.083617543796308008 0 -0.00098556646883425636 -0.072660867662791256 0 -0.00124953766244034 -0.083680151025063834 0 0.0071670952254411363 -0.083617543796308008 0 0.016603353865569871 -0.093961065111323239 0 0.0071670952254411363 -0.083617543796308008 0 0.020370648998675189 -0.082893660550879308 0 0.016603353865569871 -0.093961065111323239 0 0.0062953857862742459 -0.096999830901925987 0 0.0071670952254411363 -0.083617543796308008 0 0.0071670952254411363 -0.083617543796308008 0 0.0069434715276529601 -0.057332706572141401 0 0.0071670952254411363 -0.083617543796308008 0 0.01899980052887058 -0.067866664088409051 0 0.020370648998675189 -0.082893660550879308 0 0.0071670952254411363 -0.083617543796308008 0 0.01899980052887058 -0.067866664088409051 0 0.0069434715276529601 -0.057332706572141401 0 -0.00098556646883425636 -0.072660867662791256 0 0.0071670952254411363 -0.083617543796308008 0 0.0069434715276529601 -0.057332706572141401 0 -0.0035180734766415999 -0.061635968702166158 0 -0.00098556646883425636 -0.072660867662791256 0 0.0069434715276529601 -0.057332706572141401 0 0.01899980052887058 -0.067866664088409051 0 0.03081631383123901 -0.076100947255968276 0 0.02971595969857186 -0.060146191816345521 0 0.01899980052887058 -0.067866664088409051 0 0.03081631383123901 -0.076100947255968276 0 0.020370648998675189 -0.082893660550879308 0 0.03081631383123901 -0.076100947255968276 0 0.020370648998675189 -0.082893660550879308 0 0.031222442704548142 -0.092758684545199949 0 0.016603353865569871 -0.093961065111323239 0 0.020370648998675189 -0.082893660550879308 0 0.031222442704548142 -0.092758684545199949 0 0.03081631383123901 -0.076100947255968276 0 0.031222442704548142 -0.092758684545199949 0 0.045816759847534368 -0.085116481308961517 0 0.031222442704548142 -0.092758684545199949 0 0.045816759847534368 -0.085116481308961517 0 0.045705883349959668 -0.099772065629615339 0 0.03081631383123901 -0.076100947255968276 0 0.045816759847534368 -0.085116481308961517 0 0.044773386704571212 -0.066866527350278773 0 0.03081631383123901 -0.076100947255968276 0 0.044773386704571212 -0.066866527350278773 0 0.02971595969857186 -0.060146191816345521 0 0.044773386704571212 -0.066866527350278773 0 0.058600980711495852 -0.077121428604614045 0 0.058124634909701461 -0.058447941046064461 0 0.045816759847534368 -0.085116481308961517 0 0.044773386704571212 -0.066866527350278773 0 0.058600980711495852 -0.077121428604614045 0 0.045816759847534368 -0.085116481308961517 0 0.058600980711495852 -0.077121428604614045 0 0.060481656343859533 -0.095009356929905753 0 0.045816759847534368 -0.085116481308961517 0 0.060481656343859533 -0.095009356929905753 0 0.045705883349959668 -0.099772065629615339 0 0.060481656343859533 -0.095009356929905753 0 0.059810329764016783 -0.11446806360527879 0 0.045705883349959668 -0.099772065629615339 0 0.059810329764016783 -0.11446806360527879 0 0.042880939075913192 -0.1161188773051792 0 0.045705883349959668 -0.099772065629615339 0 0.051413102259811598 -0.13256636888853721 0 0.059810329764016783 -0.11446806360527879 0 0.042880939075913192 -0.1161188773051792 0 0.051413102259811598 -0.13256636888853721 0 0.042880939075913192 -0.1161188773051792 0 0.035838777635118883 -0.1239872734274379 0 0.042880939075913192 -0.1161188773051792 0 0.032674748597760622 -0.1173074244612564 0 0.035838777635118883 -0.1239872734274379 0 0.042880939075913192 -0.1161188773051792 0 0.032674748597760622 -0.1173074244612564 0 0.034668170707617997 -0.1069679018099671 0 0.042880939075913192 -0.1161188773051792 0 0.034668170707617997 -0.1069679018099671 0 0.045705883349959668 -0.099772065629615339 0 0.031222442704548142 -0.092758684545199949 0 0.034668170707617997 -0.1069679018099671 0 0.045705883349959668 -0.099772065629615339 0 0.020281757731820671 -0.0018734506954683099 0 0.0064962241320766084 -0.0047630321238083806 0 0.02216605385747893 -0.016214214550202079 0 0.020281757731820671 -0.0018734506954683099 0 0.02216605385747893 -0.016214214550202079 0 0.032691075133301987 -0.0070539885296975148 0 0.0023837959628292779 0.0045896394564886181 0 0.020281757731820671 -0.0018734506954683099 0 0.0064962241320766084 -0.0047630321238083806 0 -0.0071981610143054264 -0.0025996853953654721 0 0.0023837959628292779 0.0045896394564886181 0 0.0064962241320766084 -0.0047630321238083806 0 0.0064962241320766084 -0.0047630321238083806 0 0.0067198478298647838 -0.03104786934797488 0 0.02216605385747893 -0.016214214550202079 0 0.0064962241320766084 -0.0047630321238083806 0 0.0067198478298647838 -0.03104786934797488 0 -0.0042138432274254111 -0.01568410281411094 0 0.0064962241320766084 -0.0047630321238083806 0 0.0067198478298647838 -0.03104786934797488 0 0.02216605385747893 -0.016214214550202079 0 0.02602774704593519 -0.031458514140811182 0 0.039603326793835623 -0.01892812608791224 0 0.0067198478298647838 -0.03104786934797488 0 0.02216605385747893 -0.016214214550202079 0 0.02602774704593519 -0.031458514140811182 0 0.02602774704593519 -0.031458514140811182 0 0.021028068193772939 -0.04820319226642681 0 0.042664192856853238 -0.043993426179154853 0 0.0067198478298647838 -0.03104786934797488 0 0.02602774704593519 -0.031458514140811182 0 0.021028068193772939 -0.04820319226642681 0 -0.0046721550023658262 -0.04514305419859705 0 0.0067198478298647838 -0.03104786934797488 0 0.0069434715276529601 -0.057332706572141401 0 0.0067198478298647838 -0.03104786934797488 0 0.0069434715276529601 -0.057332706572141401 0 0.0067198478298647838 -0.03104786934797488 0 0.0069434715276529601 -0.057332706572141401 0 0.021028068193772939 -0.04820319226642681 0 0.021028068193772939 -0.04820319226642681 0 0.02971595969857186 -0.060146191816345521 0 0.042664192856853238 -0.043993426179154853 0 0.01899980052887058 -0.067866664088409051 0 0.0069434715276529601 -0.057332706572141401 0 0.021028068193772939 -0.04820319226642681 0 0.01899980052887058 -0.067866664088409051 0 0.021028068193772939 -0.04820319226642681 0 0.02971595969857186 -0.060146191816345521 0 0.044773386704571212 -0.066866527350278773 0 0.02971595969857186 -0.060146191816345521 0 0.042664192856853238 -0.043993426179154853 0 0.058124634909701461 -0.058447941046064461 0 0.042664192856853238 -0.043993426179154853 0 0.066134218914168791 -0.044259144853946171 0 0.044773386704571212 -0.066866527350278773 0 0.058124634909701461 -0.058447941046064461 0 0.042664192856853238 -0.043993426179154853 0 0.042664192856853238 -0.043993426179154853 0 0.059247074204304098 -0.02842039955605458 0 0.066134218914168791 -0.044259144853946171 0 0.02602774704593519 -0.031458514140811182 0 0.042664192856853238 -0.043993426179154853 0 0.039603326793835623 -0.01892812608791224 0 0.039603326793835623 -0.01892812608791224 0 0.059247074204304098 -0.02842039955605458 0 0.061444324376100902 -0.0063476516563641602 0 0.042664192856853238 -0.043993426179154853 0 0.039603326793835623 -0.01892812608791224 0 0.059247074204304098 -0.02842039955605458 0 0.04163462684118531 0.0029880238916752339 0 0.039603326793835623 -0.01892812608791224 0 0.061444324376100902 -0.0063476516563641602 0 0.04163462684118531 0.0029880238916752339 0 0.039603326793835623 -0.01892812608791224 0 0.032691075133301987 -0.0070539885296975148 0 0.04163462684118531 0.0029880238916752339 0 0.020281757731820671 -0.0018734506954683099 0 0.032691075133301987 -0.0070539885296975148 0 0.02216605385747893 -0.016214214550202079 0 0.039603326793835623 -0.01892812608791224 0 0.032691075133301987 -0.0070539885296975148 0 0.093597261146655245 0.0059525947911385994 0 0.093387508118366561 -0.008100978704088907 0 0.080795155288386974 -0.0023845122825129298 0 0.093387508118366561 -0.008100978704088907 0 0.080795155288386974 -0.0023845122825129298 0 0.077765132828952338 -0.01718970687935473 0 0.061444324376100902 -0.0063476516563641602 0 0.080795155288386974 -0.0023845122825129298 0 0.077765132828952338 -0.01718970687935473 0 0.059247074204304098 -0.02842039955605458 0 0.061444324376100902 -0.0063476516563641602 0 0.077765132828952338 -0.01718970687935473 0 0.059247074204304098 -0.02842039955605458 0 0.077765132828952338 -0.01718970687935473 0 0.081078015513820892 -0.034968919648752012 0 0.077765132828952338 -0.01718970687935473 0 0.081078015513820892 -0.034968919648752012 0 0.094896927372088269 -0.023383271060397299 0 0.093387508118366561 -0.008100978704088907 0 0.077765132828952338 -0.01718970687935473 0 0.094896927372088269 -0.023383271060397299 0 0.081078015513820892 -0.034968919648752012 0 0.086046330342865074 -0.050721679271807221 0 0.1046203582724221 -0.040521073771373858 0 0.081078015513820892 -0.034968919648752012 0 0.1046203582724221 -0.040521073771373858 0 0.094896927372088269 -0.023383271060397299 0 0.081078015513820892 -0.034968919648752012 0 0.066134218914168791 -0.044259144853946171 0 0.086046330342865074 -0.050721679271807221 0 0.059247074204304098 -0.02842039955605458 0 0.081078015513820892 -0.034968919648752012 0 0.066134218914168791 -0.044259144853946171 0 0.066134218914168791 -0.044259144853946171 0 0.073315473490562166 -0.057282706315070667 0 0.086046330342865074 -0.050721679271807221 0 0.058124634909701461 -0.058447941046064461 0 0.066134218914168791 -0.044259144853946171 0 0.073315473490562166 -0.057282706315070667 0 0.058124634909701461 -0.058447941046064461 0 0.073315473490562166 -0.057282706315070667 0 0.07241713199806521 -0.071144861456594585 0 0.073315473490562166 -0.057282706315070667 0 0.086046330342865074 -0.050721679271807221 0 0.086283997165046047 -0.066095792069314388 0 0.086046330342865074 -0.050721679271807221 0 0.1005997658745194 -0.061083150141552689 0 0.086283997165046047 -0.066095792069314388 0 0.1005997658745194 -0.061083150141552689 0 0.1162510765354154 -0.058742110579983228 0 0.1046203582724221 -0.040521073771373858 0 0.086046330342865074 -0.050721679271807221 0 0.1005997658745194 -0.061083150141552689 0 0.1046203582724221 -0.040521073771373858 0 0.1162510765354154 -0.058742110579983228 0 0.12229826314630721 -0.04468569224134368 0 0.1046203582724221 -0.040521073771373858 0 0.1162510765354154 -0.058742110579983228 0 0.12229826314630721 -0.04468569224134368 0 0.13480339281256751 -0.054628753971160182 0 0.12229826314630721 -0.04468569224134368 0 0.1046203582724221 -0.040521073771373858 0 0.12228151457318751 -0.03046400584978436 0 0.093387508118366561 -0.008100978704088907 0 0.094896927372088269 -0.023383271060397299 0 0.11121983999959879 -0.019492185680265232 0 0.1046203582724221 -0.040521073771373858 0 0.094896927372088269 -0.023383271060397299 0 0.11121983999959879 -0.019492185680265232 0 0.11121983999959879 -0.019492185680265232 0 0.12228151457318751 -0.03046400584978436 0 0.12573481051604249 -0.0146176494491717 0 0.1046203582724221 -0.040521073771373858 0 0.11121983999959879 -0.019492185680265232 0 0.12228151457318751 -0.03046400584978436 0 0.11174088851103479 -0.001136892071535788 0 0.12573481051604249 -0.0146176494491717 0 0.12922997235240771 -5.3501747736912381e-05 0 0.11121983999959879 -0.019492185680265232 0 0.11174088851103479 -0.001136892071535788 0 0.12573481051604249 -0.0146176494491717 0 0.093387508118366561 -0.008100978704088907 0 0.11121983999959879 -0.019492185680265232 0 0.11174088851103479 -0.001136892071535788 0 0.093597261146655245 0.0059525947911385994 0 0.093387508118366561 -0.008100978704088907 0 0.11174088851103479 -0.001136892071535788 0 0.091899619126475873 -0.094453989362038998 0 0.075073389768851889 -0.10331679112897731 0 0.072864170275635839 -0.088352024036691262 0 0.091899619126475873 -0.094453989362038998 0 0.087811323597402874 -0.1056266004829767 0 0.075073389768851889 -0.10331679112897731 0 0.087811323597402874 -0.1056266004829767 0 0.081963279923370977 -0.11640956015836609 0 0.075073389768851889 -0.10331679112897731 0 0.09432628697257682 -0.12653696392950761 0 0.081963279923370977 -0.11640956015836609 0 0.1023090055709128 -0.1083260612825243 0 0.087811323597402874 -0.1056266004829767 0 0.081963279923370977 -0.11640956015836609 0 0.1023090055709128 -0.1083260612825243 0 0.09432628697257682 -0.12653696392950761 0 0.072869694616194275 -0.1295516664090226 0 0.081963279923370977 -0.11640956015836609 0 0.081963279923370977 -0.11640956015836609 0 0.071917113319261733 -0.1166088203488358 0 0.075073389768851889 -0.10331679112897731 0 0.072869694616194275 -0.1295516664090226 0 0.081963279923370977 -0.11640956015836609 0 0.071917113319261733 -0.1166088203488358 0 0.072869694616194275 -0.1295516664090226 0 0.059810329764016783 -0.11446806360527879 0 0.071917113319261733 -0.1166088203488358 0 0.059810329764016783 -0.11446806360527879 0 0.071917113319261733 -0.1166088203488358 0 0.075073389768851889 -0.10331679112897731 0 0.060481656343859533 -0.095009356929905753 0 0.059810329764016783 -0.11446806360527879 0 0.075073389768851889 -0.10331679112897731 0 0.060481656343859533 -0.095009356929905753 0 0.075073389768851889 -0.10331679112897731 0 0.072864170275635839 -0.088352024036691262 0 0.072864170275635839 -0.088352024036691262 0 0.07241713199806521 -0.071144861456594585 0 0.084373035024790599 -0.08000624129247394 0 0.058600980711495852 -0.077121428604614045 0 0.060481656343859533 -0.095009356929905753 0 0.072864170275635839 -0.088352024036691262 0 0.058600980711495852 -0.077121428604614045 0 0.072864170275635839 -0.088352024036691262 0 0.07241713199806521 -0.071144861456594585 0 0.058600980711495852 -0.077121428604614045 0 0.058124634909701461 -0.058447941046064461 0 0.07241713199806521 -0.071144861456594585 0 0.073315473490562166 -0.057282706315070667 0 0.07241713199806521 -0.071144861456594585 0 0.086283997165046047 -0.066095792069314388 0 0.07241713199806521 -0.071144861456594585 0 0.086283997165046047 -0.066095792069314388 0 0.084373035024790599 -0.08000624129247394 0 0.086283997165046047 -0.066095792069314388 0 0.084373035024790599 -0.08000624129247394 0 0.098695045272691559 -0.077384829037574043 0 0.091899619126475873 -0.094453989362038998 0 0.084373035024790599 -0.08000624129247394 0 0.098695045272691559 -0.077384829037574043 0 0.091899619126475873 -0.094453989362038998 0 0.072864170275635839 -0.088352024036691262 0 0.084373035024790599 -0.08000624129247394 0 0.091899619126475873 -0.094453989362038998 0 0.098695045272691559 -0.077384829037574043 0 0.1148090311131727 -0.085469249644047868 0 0.091899619126475873 -0.094453989362038998 0 0.1148090311131727 -0.085469249644047868 0 0.11357041719659899 -0.10024314631284149 0 0.098695045272691559 -0.077384829037574043 0 0.1130228310968463 -0.072060282168001186 0 0.1148090311131727 -0.085469249644047868 0 0.1005997658745194 -0.061083150141552689 0 0.086283997165046047 -0.066095792069314388 0 0.098695045272691559 -0.077384829037574043 0 0.1005997658745194 -0.061083150141552689 0 0.098695045272691559 -0.077384829037574043 0 0.1130228310968463 -0.072060282168001186 0 0.1162510765354154 -0.058742110579983228 0 0.1130228310968463 -0.072060282168001186 0 0.12912161484544879 -0.067199493127979168 0 0.1130228310968463 -0.072060282168001186 0 0.1281599527412528 -0.081187263491076078 0 0.12912161484544879 -0.067199493127979168 0 0.1005997658745194 -0.061083150141552689 0 0.1162510765354154 -0.058742110579983228 0 0.1130228310968463 -0.072060282168001186 0 0.1130228310968463 -0.072060282168001186 0 0.1148090311131727 -0.085469249644047868 0 0.1281599527412528 -0.081187263491076078 0 0.1148090311131727 -0.085469249644047868 0 0.12732973906487871 -0.096698775995889122 0 0.1281599527412528 -0.081187263491076078 0 0.1148090311131727 -0.085469249644047868 0 0.11357041719659899 -0.10024314631284149 0 0.12732973906487871 -0.096698775995889122 0 0.11357041719659899 -0.10024314631284149 0 0.1023090055709128 -0.1083260612825243 0 0.1202960084509687 -0.1103397285690132 0 0.11357041719659899 -0.10024314631284149 0 0.1202960084509687 -0.1103397285690132 0 0.12732973906487871 -0.096698775995889122 0 0.091899619126475873 -0.094453989362038998 0 0.11357041719659899 -0.10024314631284149 0 0.1023090055709128 -0.1083260612825243 0 0.091899619126475873 -0.094453989362038998 0 0.087811323597402874 -0.1056266004829767 0 0.1023090055709128 -0.1083260612825243 0 0.09432628697257682 -0.12653696392950761 0 0.1023090055709128 -0.1083260612825243 0 0.1157828793289597 -0.12352226144999449 0 0.1023090055709128 -0.1083260612825243 0 0.1157828793289597 -0.12352226144999449 0 0.1023090055709128 -0.1083260612825243 0 0.1157828793289597 -0.12352226144999449 0 0.1202960084509687 -0.1103397285690132 0 0.1157828793289597 -0.12352226144999449 0 0.1202960084509687 -0.1103397285690132 0 0.12834220282660791 -0.1217576464980696 0 0.1157828793289597 -0.12352226144999449 0 0.12834220282660791 -0.1217576464980696 0 0.1202960084509687 -0.1103397285690132 0 0.12834220282660791 -0.1217576464980696 0 0.13435414411384669 -0.1107313787598119 0 0.12834220282660791 -0.1217576464980696 0 0.13435414411384669 -0.1107313787598119 0 0.1437960177424894 -0.1248392895565119 0 0.14742797541210681 -0.1117011279116906 0 0.15991447535410391 -0.1241506182142616 0 0.1583758961948831 -0.1008379888139886 0 0.1437960177424894 -0.1248392895565119 0 0.14742797541210681 -0.1117011279116906 0 0.15991447535410391 -0.1241506182142616 0 0.13435414411384669 -0.1107313787598119 0 0.1437960177424894 -0.1248392895565119 0 0.14742797541210681 -0.1117011279116906 0 0.14165740182705 -0.1014450708691927 0 0.14079925434953469 -0.087256082864583487 0 0.1583758961948831 -0.1008379888139886 0 0.14742797541210681 -0.1117011279116906 0 0.14165740182705 -0.1014450708691927 0 0.1583758961948831 -0.1008379888139886 0 0.13435414411384669 -0.1107313787598119 0 0.14742797541210681 -0.1117011279116906 0 0.14165740182705 -0.1014450708691927 0 0.14165740182705 -0.1014450708691927 0 0.12732973906487871 -0.096698775995889122 0 0.14079925434953469 -0.087256082864583487 0 0.13435414411384669 -0.1107313787598119 0 0.14165740182705 -0.1014450708691927 0 0.12732973906487871 -0.096698775995889122 0 0.1202960084509687 -0.1103397285690132 0 0.13435414411384669 -0.1107313787598119 0 0.12732973906487871 -0.096698775995889122 0 0.1281599527412528 -0.081187263491076078 0 0.143580874778932 -0.069450244554223439 0 0.14079925434953469 -0.087256082864583487 0 0.12732973906487871 -0.096698775995889122 0 0.1281599527412528 -0.081187263491076078 0 0.14079925434953469 -0.087256082864583487 0 0.1281599527412528 -0.081187263491076078 0 0.12912161484544879 -0.067199493127979168 0 0.143580874778932 -0.069450244554223439 0 0.12912161484544879 -0.067199493127979168 0 0.143580874778932 -0.069450244554223439 0 0.13480339281256751 -0.054628753971160182 0 0.143580874778932 -0.069450244554223439 0 0.1611735126487252 -0.082579157827720448 0 0.15981249130108949 -0.063836959106504818 0 0.143580874778932 -0.069450244554223439 0 0.14079925434953469 -0.087256082864583487 0 0.1611735126487252 -0.082579157827720448 0 0.14079925434953469 -0.087256082864583487 0 0.1611735126487252 -0.082579157827720448 0 0.1583758961948831 -0.1008379888139886 0 0.1611735126487252 -0.082579157827720448 0 0.17610456527324481 -0.097209526810298943 0 0.1583758961948831 -0.1008379888139886 0 0.1611735126487252 -0.082579157827720448 0 0.17584157409773291 -0.082302241579396834 0 0.17610456527324481 -0.097209526810298943 0 0.1611735126487252 -0.082579157827720448 0 0.15981249130108949 -0.063836959106504818 0 0.1756582808100583 -0.067439111085672701 0 0.1611735126487252 -0.082579157827720448 0 0.1756582808100583 -0.067439111085672701 0 0.17584157409773291 -0.082302241579396834 0 0.1756582808100583 -0.067439111085672701 0 0.19042993765890329 -0.081981170593895231 0 0.1912427868252754 -0.066088962504123244 0 0.1756582808100583 -0.067439111085672701 0 0.17584157409773291 -0.082302241579396834 0 0.19042993765890329 -0.081981170593895231 0 0.17584157409773291 -0.082302241579396834 0 0.17610456527324481 -0.097209526810298943 0 0.19042993765890329 -0.081981170593895231 0 0.17610456527324481 -0.097209526810298943 0 0.19276774965745719 -0.10278035224788951 0 0.19042993765890329 -0.081981170593895231 0 0.17610456527324481 -0.097209526810298943 0 0.17661901693631871 -0.1144190506566045 0 0.19276774965745719 -0.10278035224788951 0 0.17661901693631871 -0.1144190506566045 0 0.15991447535410391 -0.1241506182142616 0 0.18242421602901329 -0.13509997998797191 0 0.17661901693631871 -0.1144190506566045 0 0.19403753590495559 -0.1197311872584899 0 0.18242421602901329 -0.13509997998797191 0 0.17661901693631871 -0.1144190506566045 0 0.15991447535410391 -0.1241506182142616 0 0.1583758961948831 -0.1008379888139886 0 0.17610456527324481 -0.097209526810298943 0 0.17661901693631871 -0.1144190506566045 0 0.1583758961948831 -0.1008379888139886 0 0.14348211511946171 0.0012410676157907699 0 0.14151458063397521 -0.013223674838098561 0 0.1578193898324004 -0.010591738142313369 0 0.15661445415562739 0.0050079149201050811 0 0.14348211511946171 0.0012410676157907699 0 0.1578193898324004 -0.010591738142313369 0 0.14348211511946171 0.0012410676157907699 0 0.14151458063397521 -0.013223674838098561 0 0.12922997235240771 -5.3501747736912381e-05 0 0.14151458063397521 -0.013223674838098561 0 0.12573481051604249 -0.0146176494491717 0 0.12922997235240771 -5.3501747736912381e-05 0 0.14151458063397521 -0.013223674838098561 0 0.12573481051604249 -0.0146176494491717 0 0.136386910331836 -0.025537715040810802 0 0.12228151457318751 -0.03046400584978436 0 0.12573481051604249 -0.0146176494491717 0 0.136386910331836 -0.025537715040810802 0 0.14151458063397521 -0.013223674838098561 0 0.15643428565170309 -0.029782512264349359 0 0.1578193898324004 -0.010591738142313369 0 0.14151458063397521 -0.013223674838098561 0 0.136386910331836 -0.025537715040810802 0 0.15643428565170309 -0.029782512264349359 0 0.13657795972895209 -0.040948220499263367 0 0.15061739910762181 -0.051056144254393823 0 0.15643428565170309 -0.029782512264349359 0 0.136386910331836 -0.025537715040810802 0 0.13657795972895209 -0.040948220499263367 0 0.15643428565170309 -0.029782512264349359 0 0.12228151457318751 -0.03046400584978436 0 0.136386910331836 -0.025537715040810802 0 0.13657795972895209 -0.040948220499263367 0 0.12229826314630721 -0.04468569224134368 0 0.12228151457318751 -0.03046400584978436 0 0.13657795972895209 -0.040948220499263367 0 0.12229826314630721 -0.04468569224134368 0 0.13657795972895209 -0.040948220499263367 0 0.13480339281256751 -0.054628753971160182 0 0.1162510765354154 -0.058742110579983228 0 0.12912161484544879 -0.067199493127979168 0 0.13480339281256751 -0.054628753971160182 0 0.13657795972895209 -0.040948220499263367 0 0.13480339281256751 -0.054628753971160182 0 0.15061739910762181 -0.051056144254393823 0 0.143580874778932 -0.069450244554223439 0 0.15981249130108949 -0.063836959106504818 0 0.15061739910762181 -0.051056144254393823 0 0.143580874778932 -0.069450244554223439 0 0.13480339281256751 -0.054628753971160182 0 0.15061739910762181 -0.051056144254393823 0 0.15981249130108949 -0.063836959106504818 0 0.1756582808100583 -0.067439111085672701 0 0.16803238916011029 -0.048660137810513628 0 0.15981249130108949 -0.063836959106504818 0 0.15061739910762181 -0.051056144254393823 0 0.16803238916011029 -0.048660137810513628 0 0.1756582808100583 -0.067439111085672701 0 0.1860089911017099 -0.051205468426790912 0 0.1912427868252754 -0.066088962504123244 0 0.1756582808100583 -0.067439111085672701 0 0.16803238916011029 -0.048660137810513628 0 0.1860089911017099 -0.051205468426790912 0 0.16803238916011029 -0.048660137810513628 0 0.1860089911017099 -0.051205468426790912 0 0.18133253610656741 -0.029739650927050311 0 0.16803238916011029 -0.048660137810513628 0 0.15643428565170309 -0.029782512264349359 0 0.18133253610656741 -0.029739650927050311 0 0.15061739910762181 -0.051056144254393823 0 0.16803238916011029 -0.048660137810513628 0 0.15643428565170309 -0.029782512264349359 0 0.15643428565170309 -0.029782512264349359 0 0.1687208583724194 -0.019522504129211991 0 0.18133253610656741 -0.029739650927050311 0 0.15643428565170309 -0.029782512264349359 0 0.1687208583724194 -0.019522504129211991 0 0.1578193898324004 -0.010591738142313369 0 0.18133253610656741 -0.029739650927050311 0 0.17726970188525989 -0.0068487750443640347 0 0.19194506312002221 -0.01156253982079491 0 0.1687208583724194 -0.019522504129211991 0 0.18133253610656741 -0.029739650927050311 0 0.17726970188525989 -0.0068487750443640347 0 0.19184439553761021 0.015053411376240109 0 0.17726970188525989 -0.0068487750443640347 0 0.19194506312002221 -0.01156253982079491 0 0.1687208583724194 -0.019522504129211991 0 0.17726970188525989 -0.0068487750443640347 0 0.1578193898324004 -0.010591738142313369 0 0.15661445415562739 0.0050079149201050811 0 0.17726970188525989 -0.0068487750443640347 0 0.1578193898324004 -0.010591738142313369 0 0.2103161558829155 0.0073366999870678358 0 0.21702532397159671 -0.0047453557277351852 0 0.20834725607445961 -0.0096561038045452699 0 0.21702532397159671 -0.0047453557277351852 0 0.20834725607445961 -0.0096561038045452699 0 0.2236565547450011 -0.016687059766593841 0 0.19184439553761021 0.015053411376240109 0 0.20834725607445961 -0.0096561038045452699 0 0.19194506312002221 -0.01156253982079491 0 0.20834725607445961 -0.0096561038045452699 0 0.19194506312002221 -0.01156253982079491 0 0.19701142346161599 -0.026095576698936609 0 0.18133253610656741 -0.029739650927050311 0 0.19194506312002221 -0.01156253982079491 0 0.19701142346161599 -0.026095576698936609 0 0.20834725607445961 -0.0096561038045452699 0 0.19701142346161599 -0.026095576698936609 0 0.21372085308604971 -0.030924099819484671 0 0.20834725607445961 -0.0096561038045452699 0 0.21372085308604971 -0.030924099819484671 0 0.2236565547450011 -0.016687059766593841 0 0.21372085308604971 -0.030924099819484671 0 0.19996429483141359 -0.041914175135778942 0 0.22294336767747669 -0.052556169831410628 0 0.19701142346161599 -0.026095576698936609 0 0.21372085308604971 -0.030924099819484671 0 0.19996429483141359 -0.041914175135778942 0 0.18133253610656741 -0.029739650927050311 0 0.19701142346161599 -0.026095576698936609 0 0.19996429483141359 -0.041914175135778942 0 0.1860089911017099 -0.051205468426790912 0 0.18133253610656741 -0.029739650927050311 0 0.19996429483141359 -0.041914175135778942 0 0.1860089911017099 -0.051205468426790912 0 0.19996429483141359 -0.041914175135778942 0 0.20366148343401699 -0.058496674531501758 0 0.1860089911017099 -0.051205468426790912 0 0.20366148343401699 -0.058496674531501758 0 0.1912427868252754 -0.066088962504123244 0 0.19996429483141359 -0.041914175135778942 0 0.20366148343401699 -0.058496674531501758 0 0.22294336767747669 -0.052556169831410628 0 0.20366148343401699 -0.058496674531501758 0 0.22294336767747669 -0.052556169831410628 0 0.21807185100012591 -0.067558116346482996 0 0.25168180675576829 -0.0484394984729331 0 0.22294336767747669 -0.052556169831410628 0 0.235224419053954 -0.069314274665983888 0 0.25168180675576829 -0.0484394984729331 0 0.25740370346163088 -0.0287705272479407 0 0.23873156796988951 -0.02420722889990121 0 0.25168180675576829 -0.0484394984729331 0 0.2306816153681053 -0.037400936567742793 0 0.23873156796988951 -0.02420722889990121 0 0.25168180675576829 -0.0484394984729331 0 0.22294336767747669 -0.052556169831410628 0 0.2306816153681053 -0.037400936567742793 0 0.25168180675576829 -0.0484394984729331 0 0.23873156796988951 -0.02420722889990121 0 0.21372085308604971 -0.030924099819484671 0 0.22294336767747669 -0.052556169831410628 0 0.2306816153681053 -0.037400936567742793 0 0.21372085308604971 -0.030924099819484671 0 0.2306816153681053 -0.037400936567742793 0 0.2236565547450011 -0.016687059766593841 0 0.2306816153681053 -0.037400936567742793 0 0.2236565547450011 -0.016687059766593841 0 0.23873156796988951 -0.02420722889990121 0 0.25740370346163088 -0.0287705272479407 0 0.25043928910029101 -0.01034239692818836 0 0.23873156796988951 -0.02420722889990121 0 0.25043928910029101 -0.01034239692818836 0 0.23550274798389609 -0.0087018277917390967 0 0.22705880568139331 -0.0002827260119973446 0 0.25043928910029101 -0.01034239692818836 0 0.23873156796988951 -0.02420722889990121 0 0.23550274798389609 -0.0087018277917390967 0 0.25043928910029101 -0.01034239692818836 0 0.22705880568139331 -0.0002827260119973446 0 0.25043928910029101 -0.01034239692818836 0 0.2392704882312289 -0.00010989444563926339 0 0.22705880568139331 -0.0002827260119973446 0 0.24637522602358761 0.00088169354209314784 0 0.25043928910029101 -0.01034239692818836 0 0.2392704882312289 -0.00010989444563926339 0 0.23873156796988951 -0.02420722889990121 0 0.22705880568139331 -0.0002827260119973446 0 0.23873156796988951 -0.02420722889990121 0 0.23550274798389609 -0.0087018277917390967 0 0.22705880568139331 -0.0002827260119973446 0 0.21702532397159671 -0.0047453557277351852 0 0.2236565547450011 -0.016687059766593841 0 0.22705880568139331 -0.0002827260119973446 0 0.2236565547450011 -0.016687059766593841 0 0.23873156796988951 -0.02420722889990121 0 0.22705880568139331 -0.0002827260119973446 0 0.21001049798468899 -0.1108794427840479 0 0.20918374728339459 -0.092955358070756583 0 0.2279726898337236 -0.1035069912773941 0 0.21001049798468899 -0.1108794427840479 0 0.19276774965745719 -0.10278035224788951 0 0.20918374728339459 -0.092955358070756583 0 0.21001049798468899 -0.1108794427840479 0 0.22316436535703341 -0.12307898105198881 0 0.2077524689131767 -0.1327717040802085 0 0.21001049798468899 -0.1108794427840479 0 0.19403753590495559 -0.1197311872584899 0 0.2077524689131767 -0.1327717040802085 0 0.17661901693631871 -0.1144190506566045 0 0.19403753590495559 -0.1197311872584899 0 0.19276774965745719 -0.10278035224788951 0 0.21001049798468899 -0.1108794427840479 0 0.19403753590495559 -0.1197311872584899 0 0.19276774965745719 -0.10278035224788951 0 0.19276774965745719 -0.10278035224788951 0 0.19042993765890329 -0.081981170593895231 0 0.20918374728339459 -0.092955358070756583 0 0.19042993765890329 -0.081981170593895231 0 0.2058616488209711 -0.075166061578124665 0 0.20918374728339459 -0.092955358070756583 0 0.19042993765890329 -0.081981170593895231 0 0.1912427868252754 -0.066088962504123244 0 0.2058616488209711 -0.075166061578124665 0 0.20366148343401699 -0.058496674531501758 0 0.1912427868252754 -0.066088962504123244 0 0.2058616488209711 -0.075166061578124665 0 0.20366148343401699 -0.058496674531501758 0 0.21807185100012591 -0.067558116346482996 0 0.2058616488209711 -0.075166061578124665 0 0.21807185100012591 -0.067558116346482996 0 0.2058616488209711 -0.075166061578124665 0 0.22266833601421079 -0.082257401125394092 0 0.2058616488209711 -0.075166061578124665 0 0.20918374728339459 -0.092955358070756583 0 0.22266833601421079 -0.082257401125394092 0 0.22266833601421079 -0.082257401125394092 0 0.2417216083416906 -0.088042422810306248 0 0.2279726898337236 -0.1035069912773941 0 0.22266833601421079 -0.082257401125394092 0 0.235224419053954 -0.069314274665983888 0 0.2417216083416906 -0.088042422810306248 0 0.20918374728339459 -0.092955358070756583 0 0.22266833601421079 -0.082257401125394092 0 0.2279726898337236 -0.1035069912773941 0 0.21807185100012591 -0.067558116346482996 0 0.22266833601421079 -0.082257401125394092 0 0.235224419053954 -0.069314274665983888 0 0.22294336767747669 -0.052556169831410628 0 0.21807185100012591 -0.067558116346482996 0 0.235224419053954 -0.069314274665983888 0 0.26463204554164721 -0.072671768045964993 0 0.235224419053954 -0.069314274665983888 0 0.2417216083416906 -0.088042422810306248 0 0.2417216083416906 -0.088042422810306248 0 0.24897545887496439 -0.10594155461709021 0 0.2279726898337236 -0.1035069912773941 0 0.24897545887496439 -0.10594155461709021 0 0.2279726898337236 -0.1035069912773941 0 0.23967385151719531 -0.11772263597990459 0 0.2279726898337236 -0.1035069912773941 0 0.22316436535703341 -0.12307898105198881 0 0.23967385151719531 -0.11772263597990459 0 0.21001049798468899 -0.1108794427840479 0 0.2279726898337236 -0.1035069912773941 0 0.22316436535703341 -0.12307898105198881 0 0.25319152970752512 -0.1199813278217059 0 0.23967385151719531 -0.11772263597990459 0 0.2450652138127303 -0.13610432513134399 0 0.25319152970752512 -0.1199813278217059 0 0.24897545887496439 -0.10594155461709021 0 0.23967385151719531 -0.11772263597990459 0 0.22316436535703341 -0.12307898105198881 0 0.23967385151719531 -0.11772263597990459 0 0.2450652138127303 -0.13610432513134399 0 0.2450652138127303 -0.13610432513134399 0 0.2490460831933104 -0.15352089187826709 0 0.2352449213378412 -0.15344743893270649 0 0.2450652138127303 -0.13610432513134399 0 0.2352449213378412 -0.15344743893270649 0 0.2224185823687416 -0.1435596857174955 0 0.2352449213378412 -0.15344743893270649 0 0.2224185823687416 -0.1435596857174955 0 0.21898719915030579 -0.16560303952627639 0 0.22316436535703341 -0.12307898105198881 0 0.2450652138127303 -0.13610432513134399 0 0.2450652138127303 -0.13610432513134399 0 0.2224185823687416 -0.1435596857174955 0 0.22316436535703341 -0.12307898105198881 0 0.2450652138127303 -0.13610432513134399 0 0.2224185823687416 -0.1435596857174955 0 0.22316436535703341 -0.12307898105198881 0 0.2224185823687416 -0.1435596857174955 0 0.2077524689131767 -0.1327717040802085 0 0.2224185823687416 -0.1435596857174955 0 0.1997719509247522 -0.15101504630364559 0 0.2224185823687416 -0.1435596857174955 0 0.2077524689131767 -0.1327717040802085 0 0.1997719509247522 -0.15101504630364559 0 0.2224185823687416 -0.1435596857174955 0 0.1997719509247522 -0.15101504630364559 0 0.21898719915030579 -0.16560303952627639 0 0.1997719509247522 -0.15101504630364559 0 0.17712531948076271 -0.1584704068897958 0 0.2077524689131767 -0.1327717040802085 0 0.1997719509247522 -0.15101504630364559 0 0.18242421602901329 -0.13509997998797191 0 0.19403753590495559 -0.1197311872584899 0 0.2077524689131767 -0.1327717040802085 0 0.18242421602901329 -0.13509997998797191 0 0.19568935043845909 -0.17631896694128321 0 0.21160674623780421 -0.1843191738711614 0 0.19958778264282909 -0.1971230115196658 0 0.1997719509247522 -0.15101504630364559 0 0.19568935043845909 -0.17631896694128321 0 0.17712531948076271 -0.1584704068897958 0 0.1997719509247522 -0.15101504630364559 0 0.19568935043845909 -0.17631896694128321 0 0.21898719915030579 -0.16560303952627639 0 0.19568935043845909 -0.17631896694128321 0 0.21160674623780421 -0.1843191738711614 0 0.21898719915030579 -0.16560303952627639 0 0.21160674623780421 -0.1843191738711614 0 0.22912800756380461 -0.18237432140067089 0 0.21898719915030579 -0.16560303952627639 0 0.22912800756380461 -0.18237432140067089 0 0.21898719915030579 -0.16560303952627639 0 0.24070752816411781 -0.16844925241014941 0 0.2352449213378412 -0.15344743893270649 0 0.21898719915030579 -0.16560303952627639 0 0.24070752816411781 -0.16844925241014941 0 0.2490460831933104 -0.15352089187826709 0 0.2352449213378412 -0.15344743893270649 0 0.24070752816411781 -0.16844925241014941 0 0.22912800756380461 -0.18237432140067089 0 0.24070752816411781 -0.16844925241014941 0 0.24996303159379901 -0.183188987894852 0 0.22912800756380461 -0.18237432140067089 0 0.24996303159379901 -0.183188987894852 0 0.2402076149628006 -0.19814718126510469 0 0.25704903750092761 -0.21882432125349521 0 0.2402076149628006 -0.19814718126510469 0 0.23648433869027871 -0.22027950642164301 0 0.2402076149628006 -0.19814718126510469 0 0.23648433869027871 -0.22027950642164301 0 0.21774122139128499 -0.21453037521863039 0 0.2402076149628006 -0.19814718126510469 0 0.21464139139362229 -0.20017652996791049 0 0.21774122139128499 -0.21453037521863039 0 0.2402076149628006 -0.19814718126510469 0 0.21464139139362229 -0.20017652996791049 0 0.22912800756380461 -0.18237432140067089 0 0.2402076149628006 -0.19814718126510469 0 0.21464139139362229 -0.20017652996791049 0 0.25704903750092761 -0.21882432125349521 0 0.24526921964682971 -0.24063744974456469 0 0.23648433869027871 -0.22027950642164301 0 0.24526921964682971 -0.24063744974456469 0 0.23648433869027871 -0.22027950642164301 0 0.22588226492657101 -0.2285374907687433 0 0.23648433869027871 -0.22027950642164301 0 0.22588226492657101 -0.2285374907687433 0 0.21774122139128499 -0.21453037521863039 0 0.2337705524768075 -0.26147784629144322 0 0.21910734778474311 -0.23976413566742549 0 0.2222999292097457 -0.24783714094851481 0 0.24526921964682971 -0.24063744974456469 0 0.21910734778474311 -0.23976413566742549 0 0.2337705524768075 -0.26147784629144322 0 0.24526921964682971 -0.24063744974456469 0 0.21910734778474311 -0.23976413566742549 0 0.24526921964682971 -0.24063744974456469 0 0.22588226492657101 -0.2285374907687433 0 0.21910734778474311 -0.23976413566742549 0 0.21398924841464809 -0.25374277788059629 0 0.20981593429294509 -0.23945397734841789 0 0.1967669940375367 -0.23901838836316389 0 0.21398924841464809 -0.25374277788059629 0 0.1967669940375367 -0.23901838836316389 0 0.2222999292097457 -0.24783714094851481 0 0.20981593429294509 -0.23945397734841789 0 0.21910734778474311 -0.23976413566742549 0 0.2222999292097457 -0.24783714094851481 0 0.20981593429294509 -0.23945397734841789 0 0.21398924841464809 -0.25374277788059629 0 0.2222999292097457 -0.24783714094851481 0 0.20981593429294509 -0.23945397734841789 0 0.21910734778474311 -0.23976413566742549 0 0.20981593429294509 -0.23945397734841789 0 0.21910734778474311 -0.23976413566742549 0 0.20981593429294509 -0.23945397734841789 0 0.2108091971197176 -0.227475986791454 0 0.20981593429294509 -0.23945397734841789 0 0.1967669940375367 -0.23901838836316389 0 0.20981593429294509 -0.23945397734841789 0 0.2108091971197176 -0.227475986791454 0 0.20198944195381499 -0.22352314808157339 0 0.22588226492657101 -0.2285374907687433 0 0.21910734778474311 -0.23976413566742549 0 0.2108091971197176 -0.227475986791454 0 0.21910734778474311 -0.23976413566742549 0 0.2108091971197176 -0.227475986791454 0 0.2108091971197176 -0.227475986791454 0 0.20806465131629681 -0.21925332180141571 0 0.21774122139128499 -0.21453037521863039 0 0.22588226492657101 -0.2285374907687433 0 0.2108091971197176 -0.227475986791454 0 0.21774122139128499 -0.21453037521863039 0 0.2108091971197176 -0.227475986791454 0 0.20806465131629681 -0.21925332180141571 0 0.20198944195381499 -0.22352314808157339 0 0.1967669940375367 -0.23901838836316389 0 0.18071942310669131 -0.2252983096777359 0 0.20981593429294509 -0.23945397734841789 0 0.1877930103158075 -0.22466529985509159 0 0.1877930103158075 -0.22466529985509159 0 0.1967669940375367 -0.23901838836316389 0 0.18071942310669131 -0.2252983096777359 0 0.20981593429294509 -0.23945397734841789 0 0.20198944195381499 -0.22352314808157339 0 0.1877930103158075 -0.22466529985509159 0 0.20981593429294509 -0.23945397734841789 0 0.1877930103158075 -0.22466529985509159 0 0.1967669940375367 -0.23901838836316389 0 0.20198944195381499 -0.22352314808157339 0 0.1877930103158075 -0.22466529985509159 0 0.19441467230155521 -0.218230576656949 0 0.21398924841464809 -0.25374277788059629 0 0.18977212596430351 -0.25276072220782819 0 0.1967669940375367 -0.23901838836316389 0 0.1967669940375367 -0.23901838836316389 0 0.18336413834891321 -0.2385709852641659 0 0.18977212596430351 -0.25276072220782819 0 0.1967669940375367 -0.23901838836316389 0 0.18336413834891321 -0.2385709852641659 0 0.21160674623780421 -0.1843191738711614 0 0.22912800756380461 -0.18237432140067089 0 0.21464139139362229 -0.20017652996791049 0 0.21160674623780421 -0.1843191738711614 0 0.21464139139362229 -0.20017652996791049 0 0.19958778264282909 -0.1971230115196658 0 0.21464139139362229 -0.20017652996791049 0 0.2028606977033173 -0.21205010142878239 0 0.19958778264282909 -0.1971230115196658 0 0.21464139139362229 -0.20017652996791049 0 0.21774122139128499 -0.21453037521863039 0 0.2028606977033173 -0.21205010142878239 0 0.20806465131629681 -0.21925332180141571 0 0.20198944195381499 -0.22352314808157339 0 0.2028606977033173 -0.21205010142878239 0 0.20806465131629681 -0.21925332180141571 0 0.21774122139128499 -0.21453037521863039 0 0.2028606977033173 -0.21205010142878239 0 0.2028606977033173 -0.21205010142878239 0 0.18926945576092619 -0.21128762041473961 0 0.19958778264282909 -0.1971230115196658 0 0.2028606977033173 -0.21205010142878239 0 0.18926945576092619 -0.21128762041473961 0 0.19441467230155521 -0.218230576656949 0 0.20198944195381499 -0.22352314808157339 0 0.2028606977033173 -0.21205010142878239 0 0.19441467230155521 -0.218230576656949 0 0.1877930103158075 -0.22466529985509159 0 0.18926945576092619 -0.21128762041473961 0 0.19441467230155521 -0.218230576656949 0 0.18926945576092619 -0.21128762041473961 0 0.19958778264282909 -0.1971230115196658 0 0.18335188765929369 -0.1997284211738905 0 0.19568935043845909 -0.17631896694128321 0 0.19958778264282909 -0.1971230115196658 0 0.18335188765929369 -0.1997284211738905 0 0.18335188765929369 -0.1997284211738905 0 0.16875422241022189 -0.1832647784913132 0 0.18335188765929369 -0.1997284211738905 0 0.170808049100698 -0.1986448148135265 0 0.16875422241022189 -0.1832647784913132 0 0.18335188765929369 -0.1997284211738905 0 0.17869606585490749 -0.2085271653302527 0 0.170808049100698 -0.1986448148135265 0 0.1877930103158075 -0.22466529985509159 0 0.17559279080156279 -0.2122321033600125 0 0.16577008633866919 -0.20987662236176621 0 0.1877930103158075 -0.22466529985509159 0 0.17559279080156279 -0.2122321033600125 0 0.17869606585490749 -0.2085271653302527 0 0.1877930103158075 -0.22466529985509159 0 0.16577008633866919 -0.20987662236176621 0 0.1646718521758456 -0.21157823099230849 0 0.18071942310669131 -0.2252983096777359 0 0.18926945576092619 -0.21128762041473961 0 0.18335188765929369 -0.1997284211738905 0 0.17869606585490749 -0.2085271653302527 0 0.1877930103158075 -0.22466529985509159 0 0.18926945576092619 -0.21128762041473961 0 0.17869606585490749 -0.2085271653302527 0 0.17559279080156279 -0.2122321033600125 0 0.17869606585490749 -0.2085271653302527 0 0.17011200069686711 -0.20585932589293951 0 0.17869606585490749 -0.2085271653302527 0 0.17011200069686711 -0.20585932589293951 0 0.170808049100698 -0.1986448148135265 0 0.17559279080156279 -0.2122321033600125 0 0.16577008633866919 -0.20987662236176621 0 0.17011200069686711 -0.20585932589293951 0 0.16577008633866919 -0.20987662236176621 0 0.1646718521758456 -0.21157823099230849 0 0.18071942310669131 -0.2252983096777359 0 0.16577008633866919 -0.20987662236176621 0 0.17011200069686711 -0.20585932589293951 0 0.1622113981379277 -0.20049681669791919 0 0.1646718521758456 -0.21157823099230849 0 0.17188350320777229 -0.2232268833727534 0 0.1663536465455604 -0.21925509769767959 0 0.1646718521758456 -0.21157823099230849 0 0.16283743395065581 -0.21602335280451229 0 0.1663536465455604 -0.21925509769767959 0 0.16283743395065581 -0.21602335280451229 0 0.15692121004643539 -0.2122711615735354 0 0.16056782596292771 -0.22048587205501369 0 0.16577008633866919 -0.20987662236176621 0 0.1646718521758456 -0.21157823099230849 0 0.15692121004643539 -0.2122711615735354 0 0.16283743395065581 -0.21602335280451229 0 0.1663536465455604 -0.21925509769767959 0 0.16056782596292771 -0.22048587205501369 0 0.1646718521758456 -0.21157823099230849 0 0.16283743395065581 -0.21602335280451229 0 0.15692121004643539 -0.2122711615735354 0 0.16577008633866919 -0.20987662236176621 0 0.15692121004643539 -0.2122711615735354 0 0.15142195832539379 -0.20771277669604291 0 0.16577008633866919 -0.20987662236176621 0 0.1622113981379277 -0.20049681669791919 0 0.14374716236153109 -0.19508794486844089 0 0.16061969219187289 -0.19301537555292289 0 0.170808049100698 -0.1986448148135265 0 0.16875422241022189 -0.1832647784913132 0 0.1622113981379277 -0.20049681669791919 0 0.16061969219187289 -0.19301537555292289 0 0.170808049100698 -0.1986448148135265 0 0.17011200069686711 -0.20585932589293951 0 0.1622113981379277 -0.20049681669791919 0 0.170808049100698 -0.1986448148135265 0 0.18977212596430351 -0.25276072220782819 0 0.17418733597878611 -0.24446685408066859 0 0.18336413834891321 -0.2385709852641659 0 0.17418733597878611 -0.24446685408066859 0 0.18336413834891321 -0.2385709852641659 0 0.17343595183058791 -0.23294442980351171 0 0.1877930103158075 -0.22466529985509159 0 0.16577008633866919 -0.20987662236176621 0 0.18071942310669131 -0.2252983096777359 0 0.1646718521758456 -0.21157823099230849 0 0.18071942310669131 -0.2252983096777359 0 0.17188350320777229 -0.2232268833727534 0 0.1967669940375367 -0.23901838836316389 0 0.18336413834891321 -0.2385709852641659 0 0.18071942310669131 -0.2252983096777359 0 0.18336413834891321 -0.2385709852641659 0 0.17343595183058791 -0.23294442980351171 0 0.18071942310669131 -0.2252983096777359 0 0.17343595183058791 -0.23294442980351171 0 0.18071942310669131 -0.2252983096777359 0 0.17188350320777229 -0.2232268833727534 0 0.17188350320777229 -0.2232268833727534 0 0.16698611181325579 -0.2260857723594098 0 0.1663536465455604 -0.21925509769767959 0 0.16698611181325579 -0.2260857723594098 0 0.1663536465455604 -0.21925509769767959 0 0.16056782596292771 -0.22048587205501369 0 0.16056782596292771 -0.22048587205501369 0 0.1599104980459343 -0.2355475605295379 0 0.15088983089542071 -0.22081601002624321 0 0.16698611181325579 -0.2260857723594098 0 0.16056782596292771 -0.22048587205501369 0 0.1599104980459343 -0.2355475605295379 0 0.17343595183058791 -0.23294442980351171 0 0.17188350320777229 -0.2232268833727534 0 0.16698611181325579 -0.2260857723594098 0 0.17343595183058791 -0.23294442980351171 0 0.16698611181325579 -0.2260857723594098 0 0.1599104980459343 -0.2355475605295379 0 0.16759502608367921 -0.2565130419660393 0 0.17418733597878611 -0.24446685408066859 0 0.1599104980459343 -0.2355475605295379 0 0.14385042888010149 -0.25110660899300591 0 0.16759502608367921 -0.2565130419660393 0 0.1599104980459343 -0.2355475605295379 0 0.17418733597878611 -0.24446685408066859 0 0.17343595183058791 -0.23294442980351171 0 0.1599104980459343 -0.2355475605295379 0 0.14385042888010149 -0.25110660899300591 0 0.1599104980459343 -0.2355475605295379 0 0.14330809252756321 -0.23344496992729311 0 0.14330809252756321 -0.23344496992729311 0 0.15088983089542071 -0.22081601002624321 0 0.1352122890592968 -0.21828087165203969 0 0.1599104980459343 -0.2355475605295379 0 0.14330809252756321 -0.23344496992729311 0 0.15088983089542071 -0.22081601002624321 0 0.14330809252756321 -0.23344496992729311 0 0.12667741575706271 -0.2414737984356386 0 0.1352122890592968 -0.21828087165203969 0 0.12667741575706271 -0.2414737984356386 0 0.1352122890592968 -0.21828087165203969 0 0.1175708266106259 -0.22449432508942729 0 0.12667741575706271 -0.2414737984356386 0 0.1352122890592968 -0.21828087165203969 0 0.14385042888010149 -0.25110660899300591 0 0.14330809252756321 -0.23344496992729311 0 0.12667741575706271 -0.2414737984356386 0 0.16577008633866919 -0.20987662236176621 0 0.14374716236153109 -0.19508794486844089 0 0.16061969219187289 -0.19301537555292289 0 0.14374716236153109 -0.19508794486844089 0 0.15636592886849729 -0.18540230767715821 0 0.1622113981379277 -0.20049681669791919 0 0.16061969219187289 -0.19301537555292289 0 0.14374716236153109 -0.19508794486844089 0 0.16577008633866919 -0.20987662236176621 0 0.14374716236153109 -0.19508794486844089 0 0.15142195832539379 -0.20771277669604291 0 0.14374716236153109 -0.19508794486844089 0 0.15142195832539379 -0.20771277669604291 0 0.1352122890592968 -0.21828087165203969 0 0.15088983089542071 -0.22081601002624321 0 0.15142195832539379 -0.20771277669604291 0 0.1352122890592968 -0.21828087165203969 0 0.15692121004643539 -0.2122711615735354 0 0.16056782596292771 -0.22048587205501369 0 0.15088983089542071 -0.22081601002624321 0 0.15692121004643539 -0.2122711615735354 0 0.15088983089542071 -0.22081601002624321 0 0.15142195832539379 -0.20771277669604291 0 0.14374716236153109 -0.19508794486844089 0 0.1352122890592968 -0.21828087165203969 0 0.13061884817719299 -0.20025999803693481 0 0.1170580782270865 -0.2060148146536252 0 0.1352122890592968 -0.21828087165203969 0 0.13061884817719299 -0.20025999803693481 0 0.14374716236153109 -0.19508794486844089 0 0.1352122890592968 -0.21828087165203969 0 0.14374716236153109 -0.19508794486844089 0 0.1333039902599881 -0.18807522011048711 0 0.14277645465785321 -0.18525128211498071 0 0.14374716236153109 -0.19508794486844089 0 0.13061884817719299 -0.20025999803693481 0 0.1333039902599881 -0.18807522011048711 0 0.14374716236153109 -0.19508794486844089 0 0.1333039902599881 -0.18807522011048711 0 0.1222182451498562 -0.19330575787805229 0 0.13061884817719299 -0.20025999803693481 0 0.1333039902599881 -0.18807522011048711 0 0.1222182451498562 -0.19330575787805229 0 0.12065875384489649 -0.18321088020553991 0 0.1333039902599881 -0.18807522011048711 0 0.12065875384489649 -0.18321088020553991 0 0.1333039902599881 -0.18807522011048711 0 0.13047619484393319 -0.1738274831090994 0 0.13047619484393319 -0.1738274831090994 0 0.140706498370188 -0.1766794164499606 0 0.14886684560877761 -0.1709594841258017 0 0.13047619484393319 -0.1738274831090994 0 0.14277645465785321 -0.18525128211498071 0 0.140706498370188 -0.1766794164499606 0 0.1333039902599881 -0.18807522011048711 0 0.13047619484393319 -0.1738274831090994 0 0.14277645465785321 -0.18525128211498071 0 0.14277645465785321 -0.18525128211498071 0 0.14886684560877761 -0.1709594841258017 0 0.1541565571611492 -0.16680113580873651 0 0.14374716236153109 -0.19508794486844089 0 0.14277645465785321 -0.18525128211498071 0 0.1541565571611492 -0.16680113580873651 0 0.14374716236153109 -0.19508794486844089 0 0.1541565571611492 -0.16680113580873651 0 0.15636592886849729 -0.18540230767715821 0 0.14374716236153109 -0.19508794486844089 0 0.1541565571611492 -0.16680113580873651 0 0.14277645465785321 -0.18525128211498071 0 0.140706498370188 -0.1766794164499606 0 0.14886684560877761 -0.1709594841258017 0 0.1541565571611492 -0.16680113580873651 0 0.1359458799852418 -0.16149259370191191 0 0.1347057150977084 -0.1448639487213616 0 0.13047619484393319 -0.1738274831090994 0 0.14886684560877761 -0.1709594841258017 0 0.1541565571611492 -0.16680113580873651 0 0.13047619484393319 -0.1738274831090994 0 0.1541565571611492 -0.16680113580873651 0 0.1550927012904415 -0.1642572290065176 0 0.1541565571611492 -0.16680113580873651 0 0.14927253721312589 -0.15129144126779279 0 0.1550927012904415 -0.1642572290065176 0 0.14927253721312589 -0.15129144126779279 0 0.16097954514732041 -0.15449923045886449 0 0.1550927012904415 -0.1642572290065176 0 0.1541565571611492 -0.16680113580873651 0 0.13047619484393319 -0.1738274831090994 0 0.1541565571611492 -0.16680113580873651 0 0.1359458799852418 -0.16149259370191191 0 0.12390896705349359 -0.1583903110764619 0 0.13047619484393319 -0.1738274831090994 0 0.1359458799852418 -0.16149259370191191 0 0.12390896705349359 -0.1583903110764619 0 0.1359458799852418 -0.16149259370191191 0 0.1347057150977084 -0.1448639487213616 0 0.1157828793289597 -0.12352226144999449 0 0.1347057150977084 -0.1448639487213616 0 0.1157828793289597 -0.12352226144999449 0 0.12834220282660791 -0.1217576464980696 0 0.1347057150977084 -0.1448639487213616 0 0.12834220282660791 -0.1217576464980696 0 0.1437960177424894 -0.1248392895565119 0 0.1347057150977084 -0.1448639487213616 0 0.1437960177424894 -0.1248392895565119 0 0.1347057150977084 -0.1448639487213616 0 0.1500232736024758 -0.13782462848625601 0 0.1437960177424894 -0.1248392895565119 0 0.15991447535410391 -0.1241506182142616 0 0.1500232736024758 -0.13782462848625601 0 0.1541565571611492 -0.16680113580873651 0 0.1347057150977084 -0.1448639487213616 0 0.1541565571611492 -0.16680113580873651 0 0.1347057150977084 -0.1448639487213616 0 0.14927253721312589 -0.15129144126779279 0 0.1347057150977084 -0.1448639487213616 0 0.1500232736024758 -0.13782462848625601 0 0.14927253721312589 -0.15129144126779279 0 0.1500232736024758 -0.13782462848625601 0 0.14927253721312589 -0.15129144126779279 0 0.1624276226049515 -0.14397784467135191 0 0.14927253721312589 -0.15129144126779279 0 0.16097954514732041 -0.15449923045886449 0 0.1624276226049515 -0.14397784467135191 0 0.16097954514732041 -0.15449923045886449 0 0.1624276226049515 -0.14397784467135191 0 0.17712531948076271 -0.1584704068897958 0 0.15991447535410391 -0.1241506182142616 0 0.1500232736024758 -0.13782462848625601 0 0.1624276226049515 -0.14397784467135191 0 0.15991447535410391 -0.1241506182142616 0 0.1624276226049515 -0.14397784467135191 0 0.18242421602901329 -0.13509997998797191 0 0.1997719509247522 -0.15101504630364559 0 0.18242421602901329 -0.13509997998797191 0 0.17712531948076271 -0.1584704068897958 0 0.1624276226049515 -0.14397784467135191 0 0.18242421602901329 -0.13509997998797191 0 0.17712531948076271 -0.1584704068897958 0 0.17712531948076271 -0.1584704068897958 0 0.1804595230973533 -0.1761674781826062 0 0.16713897604975611 -0.17002775823429719 0 0.19568935043845909 -0.17631896694128321 0 0.17712531948076271 -0.1584704068897958 0 0.1804595230973533 -0.1761674781826062 0 0.18335188765929369 -0.1997284211738905 0 0.1804595230973533 -0.1761674781826062 0 0.16875422241022189 -0.1832647784913132 0 0.19568935043845909 -0.17631896694128321 0 0.18335188765929369 -0.1997284211738905 0 0.1804595230973533 -0.1761674781826062 0 0.1804595230973533 -0.1761674781826062 0 0.16875422241022189 -0.1832647784913132 0 0.16713897604975611 -0.17002775823429719 0 0.1541565571611492 -0.16680113580873651 0 0.16875422241022189 -0.1832647784913132 0 0.1541565571611492 -0.16680113580873651 0 0.16875422241022189 -0.1832647784913132 0 0.16713897604975611 -0.17002775823429719 0 0.1541565571611492 -0.16680113580873651 0 0.16875422241022189 -0.1832647784913132 0 0.15636592886849729 -0.18540230767715821 0 0.16061969219187289 -0.19301537555292289 0 0.16875422241022189 -0.1832647784913132 0 0.15636592886849729 -0.18540230767715821 0 0.1550927012904415 -0.1642572290065176 0 0.16097954514732041 -0.15449923045886449 0 0.17712531948076271 -0.1584704068897958 0 0.1541565571611492 -0.16680113580873651 0 0.17712531948076271 -0.1584704068897958 0 0.1541565571611492 -0.16680113580873651 0 0.17712531948076271 -0.1584704068897958 0 0.16713897604975611 -0.17002775823429719 0 0.1550927012904415 -0.1642572290065176 0 0.1541565571611492 -0.16680113580873651 0 0.17712531948076271 -0.1584704068897958 0 
</DataArray>
</Points>
<Cells>
<DataArray type="UInt32" Name="connectivity" format="ascii">
0 1 2 3 4 5 6 7 8 9 10 11 12 13 14 15 16 17 18 19 20 21 22 23 24 25 26 27 28 29 30 31 32 33 34 35 36 37 38 39 40 41 42 43 44 45 46 47 48 49 50 51 52 53 54 55 56 57 58 59 60 61 62 63 64 65 66 67 68 69 70 71 72 73 74 75 76 77 78 79 80 81 82 83 84 85 86 87 88 89 90 91 92 93 94 95 96 97 98 99 100 101 102 103 104 105 106 107 108 109 110 111 112 113 114 115 116 117 118 119 120 121 122 123 124 125 126 127 128 129 130 131 132 133 134 135 136 137 138 139 140 141 142 143 144 145 146 147 148 149 150 151 152 153 154 155 156 157 158 159 160 161 162 163 164 165 166 167 168 169 170 171 172 173 174 175 176 177 178 179 180 181 182 183 184 185 186 187 188 189 190 191 192 193 194 195 196 197 198 199 200 201 202 203 204 205 206 207 208 209 210 211 212 213 214 215 216 217 218 219 220 221 222 223 224 225 226 227 228 229 230 231 232 233 234 235 236 237 238 239 240 241 242 243 244 245 246 247 248 249 250 251 252 253 254 255 256 257 258 259 260 261 262 263 264 265 266 267 268 269 270 271 272 273 274 275 276 277 278 279 280 281 282 283 284 285 286 287 288 289 290 291 292 293 294 295 296 297 298 299 300 301 302 303 304 305 306 307 308 309 310 311 312 313 314 315 316 317 318 319 320 321 322 323 324 325 326 327 328 329 330 331 332 333 334 335 336 337 338 339 340 341 342 343 344 345 346 347 348 349 350 351 352 353 354 355 356 357 358 359 360 361 362 363 364 365 366 367 368 369 370 371 372 373 374 375 376 377 378 379 380 381 382 383 384 385 386 387 388 389 390 391 392 393 394 395 396 397 398 399 400 401 402 403 404 405 406 407 408 409 410 411 412 413 414 415 416 417 418 419 420 421 422 423 424 425 426 427 428 429 430 431 432 433 434 435 436 437 438 439 440 441 442 443 444 445 446 447 448 449 450 451 452 453 454 455 456 457 458 459 460 461 462 463 464 465 466 467 468 469 470 471 472 473 474 475 476 477 478 479 480 481 482 483 484 485 486 487 488 489 490 491 492 493 494 495 496 497 498 499 500 501 502 503 504 505 506 507 508 509 510 511 512 513 514 515 516 517 518 519 520 521 522 523 524 525 526 527 528 529 530 531 532 533 534 535 536 537 538 539 540 541 542 543 544 545 546 547 548 549 550 551 552 553 554 555 556 557 558 559 560 561 562 563 564 565 566 567 568 569 570 571 572 573 574 575 576 577 578 579 580 581 582 583 584 585 586 587 588 589 590 591 592 593 594 595 596 597 598 599 600 601 602 603 604 605 606 607 608 609 610 611 612 613 614 615 616 617 618 619 620 621 622 623 624 625 626 627 628 629 630 631 632 633 634 635 636 637 638 639 640 641 642 643 644 645 646 647 648 649 650 651 652 653 654 655 656 657 658 659 660 661 662 663 664 665 666 667 668 669 670 671 672 673 674 675 676 677 678 679 680 681 682 683 684 685 686 687 688 689 690 691 692 693 694 695 696 697 698 699 700 701 702 703 704 705 706 707 708 709 710 711 712 713 714 715 716 717 718 719 720 721 722 723 724 725 726 727 728 729 730 731 732 733 734 735 736 737 738 739 740 741 742 743 744 745 746 747 748 749 750 751 752 753 754 755 756 757 758 759 760 761 762 763 764 765 766 767 768 769 770 771 772 773 774 775 776 777 778 779 780 781 782 783 784 785 786 787 788 789 790 791 792 793 794 795 796 797 798 799 800 801 802 803 804 805 806 807 808 809 810 811 812 813 814 815 816 817 818 819 820 821 822 823 824 825 826 827 828 829 830 831 832 833 834 835 836 837 838 839 840 841 842 843 844 845 846 847 848 849 850 851 852 853 854 855 856 857 858 859 860 861 862 863 864 865 866 867 868 869 870 871 872 873 874 875 876 877 878 879 880 881 882 883 884 885 886 887 888 889 890 891 892 893 894 895 896 897 898 899 900 901 902 903 904 905 906 907 908 909 910 911 912 913 914 915 916 917 918 919 920 921 922 923 924 925 926 927 928 929 930 931 932 933 934 935 936 937 938 939 940 941 942 943 944 945 946 947 948 949 950 951 952 953 954 955 956 957 958 959 960 961 962 963 964 965 966 967 968 969 970 971 972 973 974 975 976 977 978 979 980 981 982 983 984 985 986 987 988 989 990 991 992 993 994 995 996 997 998 999 1000 1001 1002 1003 1004 1005 1006 1007 1008 1009 1010 1011 1012 1013 1014 1015 1016 1017 1018 1019 1020 1021 1022 1023 1024 1025 1026 1027 1028 1029 1030 1031 1032 1033 1034 1035 1036 1037 1038 1039 1040 1041 1042 1043 1044 1045 1046 1047 1048 1049 1050 1051 1052 1053 1054 1055 1056 1057 1058 1059 1060 1061 1062 1063 1064 1065 1066 1067 1068 1069 1070 1071 1072 1073 1074 1075 1076 1077 1078 1079 1080 1081 1082 1083 1084 1085 1086 1087 1088 1089 1090 1091 1092 1093 1094 1095 1096 1097 1098 1099 1100 1101 1102 1103 1104 1105 1106 1107 1108 1109 1110 1111 1112 1113 1114 1115 1116 1117 1118 1119 1120 1121 1122 1123 1124 1125 1126 1127 1128 1129 1130 1131 1132 1133 1134 1135 1136 1137 1138 1139 1140 1141 1142 1143 1144 1145 1146 1147 1148 1149 1150 1151 1152 1153 1154 1155 1156 1157 1158 1159 1160 1161 1162 1163 1164 1165 1166 1167 1168 1169 1170 1171 1172 1173 1174 1175 1176 1177 1178 1179 1180 1181 1182 1183 1184 1185 1186 1187 1188 1189 1190 1191 1192 1193 1194 1195 1196 1197 1198 1199 1200 1201 1202 1203 1204 1205 1206 1207 1208 1209 1210 1211 1212 1213 1214 1215 1216 1217 1218 1219 1220 1221 1222 1223 1224 1225 1226 1227 1228 1229 1230 1231 1232 1233 1234 1235 1236 1237 1238 1239 1240 1241 1242 1243 1244 1245 1246 1247 1248 1249 1250 1251 1252 1253 1254 1255 1256 1257 1258 1259 1260 1261 1262 1263 1264 1265 1266 1267 1268 1269 1270 1271 1272 1273 1274 1275 1276 1277 1278 1279 1280 1281 1282 1283 1284 1285 1286 1287 1288 1289 1290 1291 1292 1293 1294 1295 1296 1297 1298 1299 1300 1301 1302 1303 1304 1305 1306 1307 1308 1309 1310 1311 1312 1313 1314 1315 1316 1317 1318 1319 1320 1321 1322 1323 1324 1325 1326 1327 1328 1329 1330 1331 1332 1333 1334 1335 1336 1337 1338 1339 1340 1341 1342 1343 1344 1345 1346 1347 1348 1349 1350 1351 1352 1353 1354 1355 1356 1357 1358 1359 1360 1361 1362 1363 1364 1365 1366 1367 1368 1369 1370 1371 1372 1373 1374 1375 1376 1377 1378 1379 1380 1381 1382 1383 1384 1385 1386 1387 1388 1389 1390 1391 1392 1393 1394 1395 1396 1397 1398 1399 1400 1401 1402 1403 1404 1405 1406 1407 1408 1409 1410 1411 1412 1413 1414 1415 1416 1417 1418 1419 1420 1421 1422 1423 1424 1425 1426 1427 1428 1429 1430 1431 1432 1433 1434 1435 1436 1437 1438 1439 1440 1441 1442 1443 1444 1445 1446 1447 1448 1449 1450 1451 1452 1453 1454 1455 1456 1457 1458 1459 1460 1461 1462 1463 1464 1465 1466 1467 1468 1469 1470 1471 1472 1473 1474 1475 1476 1477 1478 1479 1480 1481 1482 1483 1484 1485 1486 1487 1488 1489 1490 1491 1492 1493 1494 1495 1496 1497 1498 1499 1500 1501 1502 1503 1504 1505 1506 1507 1508 1509 1510 1511 1512 1513 1514 1515 1516 1517 1518 1519 1520 1521 1522 1523 1524 1525 1526 1527 1528 1529 1530 1531 1532 1533 1534 1535 1536 1537 1538 1539 1540 1541 1542 1543 1544 1545 1546 1547 1548 1549 1550 1551 1552 1553 1554 1555 1556 1557 1558 1559 1560 1561 1562 1563 1564 1565 1566 1567 1568 1569 1570 1571 1572 1573 1574 1575 1576 1577 1578 1579 1580 1581 1582 1583 1584 1585 1586 1587 1588 1589 1590 1591 1592 1593 1594 1595 1596 1597 1598 1599 1600 1601 1602 1603 1604 1605 1606 1607 1608 1609 1610 1611 1612 1613 1614 1615 1616 1617 1618 1619 1620 1621 1622 1623 1624 1625 1626 1627 1628 1629 1630 1631 1632 1633 1634 1635 1636 1637 1638 1639 1640 1641 1642 1643 1644 1645 1646 1647 1648 1649 1650 1651 1652 1653 1654 1655 1656 1657 1658 1659 1660 1661 1662 1663 1664 1665 1666 1667 1668 1669 1670 1671 1672 1673 1674 1675 1676 1677 1678 1679 1680 1681 1682 1683 1684 1685 1686 1687 1688 1689 1690 1691 1692 1693 1694 1695 1696 1697 1698 1699 1700 1701 1702 1703 1704 1705 1706 1707 1708 1709 1710 1711 1712 1713 1714 1715 1716 1717 1718 1719 1720 1721 1722 1723 1724 1725 1726 1727 1728 1729 1730 1731 1732 1733 1734 1735 1736 1737 1738 1739 1740 1741 1742 1743 1744 1745 1746 1747 1748 1749 1750 1751 1752 1753 1754 1755 1756 1757 1758 1759 1760 1761 1762 1763 1764 1765 1766 1767 1768 1769 1770 1771 1772 1773 1774 1775 1776 1777 1778 1779 1780 1781 1782 1783 1784 1785 1786 1787 1788 1789 1790 1791 1792 1793 1794 1795 1796 1797 1798 1799 1800 1801 1802 1803 1804 1805 1806 1807 1808 1809 1810 1811 1812 1813 1814 1815 1816 1817 1818 1819 1820 1821 1822 1823 1824 1825 1826 1827 1828 1829 1830 1831 1832 1833 1834 1835 1836 1837 1838 1839 1840 1841 1842 1843 1844 1845 1846 1847 1848 1849 1850 1851 1852 1853 1854 1855 1856 1857 1858 1859 1860 1861 1862 1863 1864 1865 1866 1867 1868 1869 1870 1871 1872 1873 1874 1875 1876 1877 1878 1879 1880 1881 1882 1883 1884 1885 1886 1887 1888 1889 1890 1891 1892 1893 1894 1895 1896 1897 1898 1899 1900 1901 1902 1903 1904 1905 1906 1907 1908 1909 1910 1911 1912 1913 1914 1915 1916 1917 1918 1919 1920 1921 1922 1923 1924 1925 1926 1927 1928 1929 1930 1931 1932 1933 1934 1935 1936 1937 1938 1939 1940 1941 1942 1943 1944 1945 1946 1947 1948 1949 1950 1951 1952 1953 1954 1955 1956 1957 1958 1959 1960 1961 1962 1963 1964 1965 1966 1967 1968 1969 1970 1971 1972 1973 1974 1975 1976 1977 1978 1979 1980 1981 1982 1983 1984 1985 1986 1987 1988 1989 1990 1991 1992 1993 1994 1995 1996 1997 1998 1999 2000 2001 2002 2003 2004 2005 2006 2007 2008 2009 2010 2011 2012 2013 2014 2015 2016 2017 2018 2019 2020 2021 2022 2023 2024 2025 2026 2027 2028 2029 2030 2031 2032 2033 2034 2035 2036 2037 2038 2039 2040 2041 2042 2043 2044 2045 2046 2047 2048 2049 2050 2051 2052 2053 2054 2055 2056 2057 2058 2059 2060 2061 2062 2063 2064 2065 2066 2067 2068 2069 2070 2071 2072 2073 2074 2075 2076 2077 2078 2079 2080 2081 2082 2083 2084 2085 2086 2087 2088 2089 2090 2091 2092 2093 2094 2095 2096 2097 2098 2099 2100 2101 2102 2103 2104 2105 2106 2107 2108 2109 2110 2111 2112 2113 2114 2115 2116 2117 2118 2119 2120 2121 2122 2123 2124 2125 2126 2127 2128 2129 2130 2131 2132 2133 2134 2135 2136 2137 2138 2139 2140 2141 2142 2143 2144 2145 2146 2147 2148 2149 2150 2151 2152 2153 2154 2155 2156 2157 2158 2159 2160 2161 2162 2163 2164 2165 2166 2167 2168 2169 2170 2171 2172 2173 2174 2175 2176 2177 2178 2179 2180 2181 2182 2183 2184 2185 2186 2187 2188 2189 2190 2191 2192 2193 2194 2195 2196 2197 2198 2199 2200 2201 2202 2203 2204 2205 2206 2207 2208 2209 2210 2211 2212 2213 2214 2215 2216 2217 2218 2219 2220 2221 2222 2223 2224 2225 2226 2227 2228 2229 2230 2231 2232 2233 2234 2235 2236 2237 2238 2239 2240 2241 2242 2243 2244 2245 2246 2247 2248 2249 2250 2251 2252 2253 2254 2255 2256 2257 2258 2259 2260 2261 2262 2263 2264 2265 2266 2267 2268 2269 2270 2271 2272 2273 2274 2275 2276 2277 2278 2279 2280 2281 2282 2283 2284 2285 2286 2287 2288 2289 2290 2291 2292 2293 2294 2295 2296 2297 2298 2299 2300 2301 2302 2303 2304 2305 2306 2307 2308 2309 2310 2311 2312 2313 2314 2315 2316 2317 2318 2319 2320 2321 2322 2323 2324 2325 2326 2327 2328 2329 2330 2331 2332 2333 2334 2335 2336 2337 2338 2339 2340 2341 2342 2343 2344 2345 2346 2347 2348 2349 2350 2351 2352 2353 2354 2355 2356 2357 2358 2359 2360 2361 2362 2363 2364 2365 2366 2367 2368 2369 2370 2371 2372 2373 2374 2375 2376 2377 2378 2379 2380 2381 2382 2383 2384 2385 2386 2387 2388 2389 2390 2391 2392 2393 2394 2395 2396 2397 2398 2399 2400 2401 2402 2403 2404 2405 2406 2407 2408 2409 2410 2411 2412 2413 2414 2415 2416 2417 2418 2419 2420 2421 2422 2423 2424 2425 2426 2427 2428 2429 2430 2431 2432 2433 2434 2435 2436 2437 2438 2439 2440 2441 2442 2443 2444 2445 2446 2447 2448 2449 2450 2451 2452 2453 2454 2455 2456 2457 2458 2459 2460 2461 2462 2463 2464 2465 2466 2467 2468 2469 2470 2471 2472 2473 2474 2475 2476 2477 2478 2479 2480 2481 2482 2483 2484 2485 2486 2487 2488 2489 2490 2491 2492 2493 2494 2495 2496 2497 2498 2499 2500 2501 2502 2503 2504 2505 2506 2507 2508 2509 2510 2511 2512 2513 2514 2515 2516 2517 2518 2519 2520 2521 2522 2523 2524 2525 2526 2527 2528 2529 2530 2531 2532 2533 2534 2535 2536 2537 2538 2539 2540 2541 2542 2543 2544 2545 2546 2547 2548 2549 2550 2551 2552 2553 2554 2555 2556 2557 2558 2559 2560 2561 2562 2563 2564 2565 2566 2567 2568 2569 2570 2571 2572 2573 2574 2575 2576 2577 2578 2579 2580 2581 2582 2583 2584 2585 2586 2587 2588 2589 2590 2591 2592 2593 2594 2595 2596 2597 2598 2599 2600 2601 2602 2603 2604 2605 2606 2607 2608 2609 2610 2611 2612 2613 2614 2615 2616 2617 2618 2619 2620 2621 2622 2623 2624 2625 2626 2627 2628 2629 2630 2631 2632 2633 2634 2635 2636 2637 2638 2639 2640 2641 2642 2643 2644 2645 2646 2647 2648 2649 2650 2651 2652 2653 2654 2655 2656 2657 2658 2659 2660 2661 2662 2663 2664 2665 2666 2667 2668 2669 2670 2671 2672 2673 2674 2675 2676 2677 2678 2679 2680 2681 2682 2683 2684 2685 2686 2687 2688 2689 2690 2691 2692 2693 2694 2695 2696 2697 2698 2699 2700 2701 2702 2703 2704 2705 2706 2707 2708 2709 2710 2711 2712 2713 2714 2715 2716 2717 2718 2719 2720 2721 2722 2723 2724 2725 2726 2727 2728 2729 2730 2731 2732 2733 2734 2735 2736 2737 2738 2739 2740 2741 2742 2743 2744 2745 2746 2747 2748 2749 2750 2751 2752 2753 2754 2755 2756 2757 2758 2759 2760 2761 2762 2763 2764 2765 2766 2767 2768 2769 2770 2771 2772 2773 2774 2775 2776 2777 2778 2779 2780 2781 2782 2783 2784 2785 2786 2787 2788 2789 2790 2791 2792 2793 2794 2795 2796 2797 2798 2799 2800 2801 2802 2803 2804 2805 2806 2807 2808 2809 2810 2811 2812 2813 2814 2815 2816 2817 2818 2819 2820 2821 2822 2823 2824 2825 2826 2827 2828 2829 2830 2831 2832 2833 2834 2835 2836 2837 2838 2839 2840 2841 2842 2843 2844 2845 2846 2847 2848 2849 2850 2851 2852 2853 2854 2855 2856 2857 2858 2859 2860 2861 2862 2863 2864 2865 2866 2867 2868 2869 2870 2871 2872 2873 2874 2875 2876 2877 2878 2879 2880 2881 2882 2883 2884 2885 2886 2887 2888 2889 2890 2891 2892 2893 2894 2895 2896 2897 2898 2899 2900 2901 2902 2903 2904 2905 2906 2907 2908 2909 2910 2911 2912 2913 2914 2915 2916 2917 2918 2919 2920 2921 2922 2923 2924 2925 2926 2927 2928 2929 2930 2931 2932 2933 2934 2935 2936 2937 2938 2939 2940 2941 2942 2943 2944 2945 2946 2947 2948 2949 2950 2951 2952 2953 2954 2955 2956 2957 2958 2959 2960 2961 2962 2963 2964 2965 2966 2967 2968 2969 2970 2971 2972 2973 2974 2975 2976 2977 2978 2979 2980 2981 2982 2983 2984 2985 2986 2987 2988 2989 2990 2991 2992 2993 2994 2995 2996 2997 2998 2999 3000 3001 3002 3003 3004 3005 3006 3007 3008 3009 3010 3011 3012 3013 3014 3015 3016 3017 3018 3019 3020 3021 3022 3023 3024 3025 3026 3027 3028 3029 3030 3031 3032 3033 3034 3035 3036 3037 3038 3039 3040 3041 3042 3043 3044 3045 3046 3047 3048 3049 3050 3051 3052 3053 3054 3055 3056 3057 3058 3059 3060 3061 3062 3063 3064 3065 3066 3067 3068 3069 3070 3071 3072 3073 3074 3075 3076 3077 3078 3079 3080 3081 3082 3083 3084 3085 3086 3087 3088 3089 3090 3091 3092 3093 3094 3095 3096 3097 3098 3099 3100 3101 3102 3103 3104 3105 3106 3107 3108 3109 3110 3111 3112 3113 3114 3115 3116 3117 3118 3119 3120 3121 3122 3123 3124 3125 3126 3127 3128 3129 3130 3131 3132 3133 3134 3135 3136 3137 3138 3139 3140 3141 3142 3143 3144 3145 3146 3147 3148 3149 3150 3151 3152 3153 3154 3155 3156 3157 3158 3159 3160 3161 3162 3163 3164 3165 3166 3167 3168 3169 3170 3171 3172 3173 3174 3175 3176 3177 3178 3179 3180 3181 3182 3183 3184 3185 3186 3187 3188 3189 3190 3191 3192 3193 3194 3195 3196 3197 3198 3199 3200 3201 3202 3203 3204 3205 3206 3207 3208 3209 3210 3211 3212 3213 3214 3215 3216 3217 3218 3219 3220 3221 3222 3223 3224 3225 3226 3227 3228 3229 3230 3231 3232 3233 3234 3235 3236 3237 3238 3239 3240 3241 3242 3243 3244 3245 3246 3247 3248 3249 3250 3251 3252 3253 3254 3255 3256 3257 3258 3259 3260 3261 3262 3263 3264 3265 3266 3267 3268 3269 3270 3271 3272 3273 3274 3275 3276 3277 3278 3279 3280 3281 3282 3283 3284 3285 3286 3287 3288 3289 3290 3291 3292 3293 3294 3295 3296 3297 3298 3299 3300 3301 3302 3303 3304 3305 3306 3307 3308 3309 3310 3311 3312 3313 3314 3315 3316 3317 3318 3319 3320 3321 3322 3323 3324 3325 3326 3327 3328 3329 3330 3331 3332 3333 3334 3335 3336 3337 3338 3339 3340 3341 3342 3343 3344 3345 3346 3347 3348 3349 3350 3351 3352 3353 3354 3355 3356 3357 3358 3359 3360 3361 3362 3363 3364 3365 3366 3367 3368 3369 3370 3371 3372 3373 3374 3375 3376 3377 3378 3379 3380 3381 3382 3383 3384 3385 3386 3387 3388 3389 3390 3391 3392 3393 3394 3395 3396 3397 3398 3399 3400 3401 3402 3403 3404 3405 3406 3407 3408 3409 3410 3411 3412 3413 3414 3415 3416 3417 3418 3419 3420 3421 3422 3423 3424 3425 3426 3427 3428 3429 3430 3431 3432 3433 3434 3435 3436 3437 3438 3439 3440 3441 3442 3443 3444 3445 3446 3447 3448 3449 3450 3451 3452 3453 3454 3455 3456 3457 3458 3459 3460 3461 3462 3463 3464 3465 3466 3467 3468 3469 3470 3471 3472 3473 3474 3475 3476 3477 3478 3479 3480 3481 3482 3483 3484 3485 3486 3487 3488 3489 3490 3491 3492 3493 3494 3495 3496 3497 3498 3499 3500 3501 3502 3503 3504 3505 3506 3507 3508 3509 3510 3511 3512 3513 3514 3515 3516 3517 3518 3519 3520 3521 3522 3523 3524 3525 3526 3527 3528 3529 3530 3531 3532 3533 3534 3535 3536 3537 3538 3539 3540 3541 3542 3543 3544 3545 3546 3547 3548 3549 3550 3551 3552 3553 3554 3555 3556 3557 3558 3559 3560 3561 3562 3563 3564 3565 3566 3567 3568 3569 3570 3571 3572 3573 3574 3575 3576 3577 3578 3579 3580 3581 3582 3583 3584 3585 3586 3587 3588 3589 3590 3591 3592 3593 3594 3595 3596 3597 3598 3599 3600 3601 3602 3603 3604 3605 3606 3607 3608 3609 3610 3611 3612 3613 3614 3615 3616 3617 3618 3619 3620 3621 3622 3623 3624 3625 3626 3627 3628 3629 3630 3631 3632 3633 3634 3635 3636 3637 3638 3639 3640 3641 3642 3643 3644 3645 3646 3647 3648 3649 3650 3651 3652 3653 3654 3655 3656 3657 3658 3659 3660 3661 3662 3663 3664 3665 3666 3667 3668 3669 3670 3671 3672 3673 3674 3675 3676 3677 3678 3679 3680 3681 3682 3683 3684 3685 3686 3687 3688 3689 3690 3691 3692 3693 3694 3695 3696 3697 3698 3699 3700 3701 3702 3703 3704 3705 3706 3707 3708 3709 3710 3711 3712 3713 3714 3715 3716 3717 3718 3719 3720 3721 3722 3723 3724 3725 3726 3727 3728 3729 3730 3731 3732 3733 3734 3735 3736 3737 3738 3739 3740 3741 3742 3743 3744 3745 3746 3747 3748 3749 3750 3751 3752 3753 3754 3755 3756 3757 3758 3759 3760 3761 3762 3763 3764 3765 3766 3767 3768 3769 3770 3771 3772 3773 3774 3775 3776 3777 3778 3779 3780 3781 3782 3783 3784 3785 3786 3787 3788 3789 3790 3791 3792 3793 3794 3795 3796 3797 3798 3799 3800 3801 3802 3803 3804 3805 3806 3807 3808 3809 3810 3811 3812 3813 3814 3815 3816 3817 3818 3819 3820 3821 3822 3823 3824 3825 3826 3827 3828 3829 3830 3831 3832 3833 3834 3835 3836 3837 3838 3839 3840 3841 3842 3843 3844 3845 3846 3847 3848 3849 3850 3851 3852 3853 3854 3855 3856 3857 3858 3859 3860 3861 3862 3863 3864 3865 3866 3867 3868 3869 3870 3871 3872 3873 3874 3875 3876 3877 3878 3879 3880 3881 3882 3883 3884 3885 3886 3887 3888 3889 3890 3891 3892 3893 3894 3895 3896 3897 3898 3899 3900 3901 3902 3903 3904 3905 3906 3907 3908 3909 3910 3911 3912 3913 3914 3915 3916 3917 3918 3919 3920 3921 3922 3923 3924 3925 3926 3927 3928 3929 3930 3931 3932 3933 3934 3935 3936 3937 3938 3939 3940 3941 3942 3943 3944 3945 3946 3947 3948 3949 3950 3951 3952 3953 3954 3955 3956 3957 3958 3959 3960 3961 3962 3963 3964 3965 3966 3967 3968 3969 3970 3971 3972 3973 3974 3975 3976 3977 3978 3979 3980 3981 3982 3983 3984 3985 3986 3987 3988 3989 3990 3991 3992 3993 3994 3995 3996 3997 3998 3999 4000 4001 4002 4003 4004 4005 4006 4007 4008 4009 4010 4011 4012 4013 4014 4015 4016 4017 4018 4019 4020 4021 4022 4023 4024 4025 4026 4027 4028 4029 4030 4031 4032 4033 4034 4035 4036 4037 4038 4039 4040 4041 4042 4043 4044 4045 4046 4047 4048 4049 4050 4051 4052 4053 4054 4055 4056 4057 4058 4059 4060 4061 4062 4063 4064 4065 4066 4067 4068 4069 4070 4071 4072 4073 4074 4075 4076 4077 4078 4079 4080 4081 4082 4083 4084 4085 4086 4087 4088 4089 4090 4091 4092 4093 4094 4095 4096 4097 4098 4099 4100 4101 4102 4103 4104 4105 4106 4107 4108 4109 4110 4111 4112 4113 4114 4115 4116 4117 4118 4119 4120 4121 4122 4123 4124 4125 4126 4127 4128 4129 4130 4131 4132 4133 4134 4135 4136 4137 4138 4139 4140 4141 4142 4143 4144 4145 4146 4147 4148 4149 4150 4151 4152 4153 4154 4155 4156 4157 4158 4159 4160 4161 4162 4163 4164 4165 4166 4167 4168 4169 4170 4171 4172 4173 4174 4175 4176 4177 4178 4179 4180 4181 4182 4183 4184 4185 4186 4187 4188 4189 4190 4191 4192 4193 4194 4195 4196 4197 4198 4199 4200 4201 4202 4203 4204 4205 4206 4207 4208 4209 4210 4211 4212 4213 4214 4215 4216 4217 4218 4219 4220 4221 4222 4223 4224 4225 4226 4227 4228 4229 4230 4231 4232 4233 4234 4235 4236 4237 4238 4239 4240 4241 4242 4243 4244 4245 4246 4247 4248 4249 4250 4251 4252 4253 4254 4255 4256 4257 4258 4259 4260 4261 4262 4263 4264 4265 4266 4267 4268 4269 4270 4271 4272 4273 4274 4275 4276 4277 4278 4279 4280 4281 4282 4283 4284 4285 4286 4287 4288 4289 4290 4291 4292 4293 4294 4295 4296 4297 4298 4299 4300 4301 4302 4303 4304 4305 4306 4307 4308 4309 4310 4311 4312 4313 4314 4315 4316 4317 4318 4319 4320 4321 4322 4323 4324 4325 4326 4327 4328 4329 4330 4331 4332 4333 4334 4335 4336 4337 4338 4339 4340 4341 4342 4343 4344 4345 4346 4347 4348 4349 4350 4351 4352 4353 4354 4355 4356 4357 4358 4359 4360 4361 4362 4363 4364 4365 4366 4367 4368 4369 4370 4371 4372 4373 4374 4375 4376 4377 4378 4379 4380 4381 4382 4383 4384 4385 4386 4387 4388 4389 4390 4391 4392 4393 4394 4395 4396 4397 4398 4399 4400 4401 4402 4403 4404 4405 4406 4407 4408 4409 4410 4411 4412 4413 4414 4415 4416 4417 4418 4419 4420 4421 4422 4423 4424 4425 4426 4427 4428 4429 4430 4431 4432 4433 4434 4435 4436 4437 4438 4439 4440 4441 4442 4443 4444 4445 4446 4447 4448 4449 4450 4451 4452 4453 4454 4455 4456 4457 4458 4459 4460 4461 4462 4463 4464 4465 4466 4467 4468 4469 4470 4471 4472 4473 4474 4475 4476 4477 4478 4479 4480 4481 4482 4483 4484 4485 4486 4487 4488 4489 4490 4491 4492 4493 4494 4495 4496 4497 4498 4499 4500 4501 4502 4503 4504 4505 4506 4507 4508 4509 4510 4511 4512 4513 4514 4515 4516 4517 4518 4519 4520 4521 4522 4523 4524 4525 4526 4527 4528 4529 4530 4531 4532 4533 4534 4535 4536 4537 4538 4539 4540 4541 4542 4543 4544 4545 4546 4547 4548 4549 4550 4551 4552 4553 4554 4555 4556 4557 4558 4559 4560 4561 4562 4563 4564 4565 4566 4567 4568 4569 4570 4571 4572 4573 4574 4575 4576 4577 4578 4579 4580 4581 4582 4583 4584 4585 4586 4587 4588 4589 4590 4591 4592 4593 4594 4595 4596 4597 4598 4599 4600 4601 4602 4603 4604 4605 4606 4607 4608 4609 4610 4611 4612 4613 4614 4615 4616 4617 4618 4619 4620 4621 4622 4623 4624 4625 4626 4627 4628 4629 4630 4631 4632 4633 4634 4635 4636 4637 4638 4639 4640 4641 4642 4643 4644 4645 4646 4647 4648 4649 4650 4651 4652 4653 4654 4655 4656 4657 4658 4659 4660 4661 4662 4663 4664 4665 4666 4667 4668 4669 4670 4671 4672 4673 4674 4675 4676 4677 4678 4679 4680 4681 4682 4683 4684 4685 4686 4687 4688 4689 4690 4691 4692 4693 4694 4695 4696 4697 4698 4699 4700 4701 4702 4703 4704 4705 4706 4707 4708 4709 4710 4711 4712 4713 4714 4715 4716 4717 4718 4719 4720 4721 4722 4723 4724 4725 4726 4727 4728 4729 4730 4731 4732 4733 4734 4735 4736 4737 4738 4739 4740 4741 4742 4743 4744 4745 4746 4747 4748 4749 4750 4751 4752 4753 4754 4755 4756 4757 4758 4759 4760 4761 4762 4763 4764 4765 4766 4767 4768 4769 4770 4771 4772 4773 4774 4775 4776 4777 4778 4779 4780 4781 4782 4783 4784 4785 4786 4787 4788 4789 4790 4791 4792 4793 4794 4795 4796 4797 4798 4799 4800 4801 4802 4803 4804 4805 4806 4807 4808 4809 4810 4811 4812 4813 4814 4815 4816 4817 4818 4819 4820 4821 4822 4823 4824 4825 4826 4827 4828 4829 4830 4831 4832 4833 4834 4835 4836 4837 4838 4839 4840 4841 4842 4843 4844 4845 4846 4847 4848 4849 4850 4851 4852 4853 4854 4855 4856 4857 4858 4859 4860 4861 4862 4863 4864 4865 4866 4867 4868 4869 4870 4871 4872 4873 4874 4875 4876 4877 4878 4879 4880 4881 4882 4883 4884 4885 4886 4887 4888 4889 4890 4891 4892 4893 4894 4895 4896 4897 4898 4899 4900 4901 4902 4903 4904 4905 4906 4907 4908 4909 4910 4911 4912 4913 4914 4915 4916 4917 4918 4919 4920 4921 4922 4923 4924 4925 4926 4927 4928 4929 4930 4931 4932 4933 4934 4935 4936 4937 4938 4939 4940 4941 4942 4943 4944 4945 4946 4947 4948 4949 4950 4951 4952 4953 4954 4955 4956 4957 4958 4959 4960 4961 4962 4963 4964 4965 4966 4967 4968 4969 4970 4971 4972 4973 4974 4975 4976 4977 4978 4979 4980 4981 4982 4983 4984 4985 4986 4987 4988 4989 4990 4991 4992 4993 4994 4995 4996 4997 4998 4999 5000 5001 5002 5003 5004 5005 5006 5007 5008 5009 5010 5011 5012 5013 5014 5015 5016 5017 5018 5019 5020 5021 5022 5023 5024 5025 5026 5027 5028 5029 5030 5031 5032 5033 5034 5035 5036 5037 5038 5039 5040 5041 5042 5043 5044 5045 5046 5047 5048 5049 5050 5051 5052 5053 5054 5055 5056 5057 5058 5059 5060 5061 5062 5063 5064 5065 5066 5067 5068 5069 5070 5071 5072 5073 5074 5075 5076 5077 5078 5079 5080 5081 5082 5083 5084 5085 5086 5087 5088 5089 5090 5091 5092 5093 5094 5095 5096 5097 5098 5099 5100 5101 5102 5103 5104 5105 5106 5107 5108 5109 5110 5111 5112 5113 5114 5115 5116 5117 5118 5119 5120 5121 5122 5123 5124 5125 5126 5127 5128 5129 5130 5131 5132 5133 5134 5135 5136 5137 5138 5139 5140 5141 5142 5143 5144 5145 5146 5147 5148 5149 5150 5151 5152 5153 5154 5155 5156 5157 5158 5159 5160 5161 5162 5163 5164 5165 5166 5167 5168 5169 5170 5171 5172 5173 5174 5175 5176 5177 5178 5179 5180 5181 5182 5183 5184 5185 5186 5187 5188 5189 5190 5191 5192 5193 5194 5195 5196 5197 5198 5199 5200 5201 5202 5203 5204 5205 5206 5207 5208 5209 5210 5211 5212 5213 5214 5215 5216 5217 5218 5219 5220 5221 5222 5223 5224 5225 5226 5227 5228 5229 5230 5231 5232 5233 5234 5235 5236 5237 5238 5239 5240 5241 5242 5243 5244 5245 5246 5247 5248 5249 5250 5251 5252 5253 5254 5255 5256 5257 5258 5259 5260 5261 5262 5263 5264 5265 5266 5267 5268 5269 5270 5271 5272 5273 5274 5275 5276 5277 5278 5279 5280 5281 5282 5283 5284 5285 5286 5287 5288 5289 5290 5291 5292 5293 5294 5295 5296 5297 5298 5299 5300 5301 5302 5303 5304 5305 5306 5307 5308 5309 5310 5311 5312 5313 5314 5315 5316 5317 5318 5319 5320 5321 5322 5323 5324 5325 5326 5327 5328 5329 5330 5331 5332 5333 5334 5335 5336 5337 5338 5339 5340 5341 5342 5343 5344 5345 5346 5347 5348 5349 5350 5351 5352 5353 5354 5355 5356 5357 5358 5359 5360 5361 5362 5363 5364 5365 5366 5367 5368 5369 5370 5371 5372 5373 5374 5375 5376 5377 5378 5379 5380 5381 5382 5383 5384 5385 5386 5387 5388 5389 5390 5391 5392 5393 5394 5395 5396 5397 5398 5399 5400 5401 5402 5403 5404 5405 5406 5407 5408 5409 5410 5411 5412 5413 5414 5415 5416 5417 5418 5419 5420 5421 5422 5423 5424 5425 5426 5427 5428 5429 5430 5431 5432 5433 5434 5435 5436 5437 5438 5439 5440 5441 5442 5443 5444 5445 5446 5447 5448 5449 5450 5451 5452 5453 5454 5455 5456 5457 5458 5459 5460 5461 5462 5463 5464 5465 5466 5467 5468 5469 5470 5471 5472 5473 5474 5475 5476 5477 5478 5479 5480 5481 5482 5483 5484 5485 5486 5487 5488 5489 5490 5491 5492 5493 5494 5495 5496 5497 5498 5499 5500 5501 5502 5503 5504 5505 5506 5507 5508 5509 5510 5511 5512 5513 5514 5515 5516 5517 5518 5519 5520 5521 5522 5523 5524 5525 5526 5527 5528 5529 5530 5531 5532 5533 5534 5535 5536 5537 5538 5539 5540 5541 5542 5543 5544 5545 5546 5547 5548 5549 5550 5551 5552 5553 5554 5555 5556 5557 5558 5559 5560 5561 5562 5563 5564 5565 5566 5567 5568 5569 5570 5571 5572 5573 5574 5575 5576 5577 5578 5579 5580 5581 5582 5583 5584 5585 5586 5587 5588 5589 5590 5591 5592 5593 5594 5595 5596 5597 5598 5599 5600 5601 5602 5603 5604 5605 5606 5607 5608 5609 5610 5611 5612 5613 5614 5615 5616 5617 5618 5619 5620 5621 5622 5623 5624 5625 5626 5627 5628 5629 5630 5631 5632 5633 5634 5635 5636 5637 5638 5639 5640 5641 5642 5643 5644 5645 5646 5647 5648 5649 5650 5651 5652 5653 5654 5655 5656 5657 5658 5659 5660 5661 5662 5663 5664 5665 5666 5667 5668 5669 5670 5671 5672 5673 5674 5675 5676 5677 5678 5679 5680 5681 5682 5683 5684 5685 5686 5687 5688 5689 5690 5691 5692 5693 5694 5695 5696 5697 5698 5699 5700 5701 5702 5703 5704 5705 5706 5707 5708 5709 5710 5711 5712 5713 5714 5715 5716 5717 5718 5719 5720 5721 5722 5723 5724 5725 5726 5727 5728 5729 5730 5731 5732 5733 5734 5735 5736 5737 5738 5739 5740 5741 5742 5743 5744 5745 5746 5747 5748 5749 5750 5751 5752 5753 5754 5755 5756 5757 5758 5759 5760 5761 5762 5763 5764 5765 5766 5767 5768 5769 5770 5771 5772 5773 5774 5775 5776 5777 5778 5779 5780 5781 5782 5783 5784 5785 5786 5787 5788 5789 5790 5791 5792 5793 5794 5795 5796 5797 5798 5799 5800 5801 5802 5803 5804 5805 5806 5807 5808 5809 5810 5811 5812 5813 5814 5815 5816 5817 5818 5819 5820 5821 5822 5823 5824 5825 5826 5827 5828 5829 5830 5831 5832 5833 5834 5835 5836 5837 5838 5839 5840 5841 5842 5843 5844 5845 5846 5847 5848 5849 5850 5851 5852 5853 5854 5855 5856 5857 5858 5859 5860 5861 5862 5863 5864 5865 5866 5867 5868 5869 5870 5871 5872 5873 5874 5875 5876 5877 5878 5879 5880 5881 5882 5883 5884 5885 5886 5887 5888 5889 5890 5891 5892 5893 5894 5895 5896 5897 5898 5899 5900 5901 5902 5903 5904 5905 5906 5907 5908 5909 5910 5911 5912 5913 5914 5915 5916 5917 5918 5919 5920 5921 5922 5923 5924 5925 5926 5927 5928 5929 5930 5931 5932 5933 5934 5935 5936 5937 5938 5939 5940 5941 5942 5943 5944 5945 5946 5947 5948 5949 5950 5951 5952 5953 5954 5955 5956 5957 5958 5959 5960 5961 5962 5963 5964 5965 5966 5967 5968 5969 5970 5971 5972 5973 5974 5975 5976 5977 5978 5979 5980 5981 5982 5983 5984 5985 5986 5987 5988 5989 5990 5991 5992 5993 5994 5995 5996 5997 5998 5999 6000 6001 6002 6003 6004 6005 6006 6007 6008 6009 6010 6011 6012 6013 6014 6015 6016 6017 6018 6019 6020 6021 6022 6023 6024 6025 6026 6027 6028 6029 6030 6031 6032 6033 6034 6035 6036 6037 6038 6039 6040 6041 6042 6043 6044 6045 6046 6047 6048 6049 6050 6051 6052 6053 6054 6055 6056 6057 6058 6059 6060 6061 6062 6063 6064 6065 6066 6067 6068 6069 6070 6071 6072 6073 6074 6075 6076 6077 6078 6079 6080 6081 6082 6083 6084 6085 6086 6087 6088 6089 6090 6091 6092 6093 6094 6095 6096 6097 6098 6099 6100 6101 6102 6103 6104 6105 6106 6107 6108 6109 6110 6111 6112 6113 6114 6115 6116 6117 6118 6119 6120 6121 6122 6123 6124 6125 6126 6127 6128 6129 6130 6131 6132 6133 6134 6135 6136 6137 6138 6139 6140 6141 6142 6143 6144 6145 6146 6147 6148 6149 6150 6151 6152 6153 6154 6155 6156 6157 6158 6159 6160 6161 6162 6163 6164 6165 6166 6167 6168 6169 6170 6171 6172 6173 6174 6175 6176 6177 6178 6179 6180 6181 6182 6183 6184 6185 6186 6187 6188 6189 6190 6191 6192 6193 6194 6195 6196 6197 6198 6199 6200 6201 6202 6203 6204 6205 6206 6207 6208 6209 6210 6211 6212 6213 6214 6215 6216 6217 6218 6219 6220 6221 6222 6223 6224 6225 6226 6227 6228 6229 6230 6231 6232 6233 6234 6235 6236 6237 6238 6239 6240 6241 6242 6243 6244 6245 6246 6247 6248 6249 6250 6251 6252 6253 6254 6255 6256 6257 6258 6259 6260 6261 6262 6263 6264 6265 6266 6267 6268 6269 6270 6271 6272 6273 6274 6275 6276 6277 6278 6279 6280 6281 6282 6283 6284 6285 6286 6287 6288 6289 6290 6291 6292 6293 6294 6295 6296 6297 6298 6299 6300 6301 6302 6303 6304 6305 6306 6307 6308 6309 6310 6311 6312 6313 6314 6315 6316 6317 6318 6319 6320 6321 6322 6323 6324 6325 6326 6327 6328 6329 6330 6331 6332 6333 6334 6335 6336 6337 6338 6339 6340 6341 6342 6343 6344 6345 6346 6347 6348 6349 6350 6351 6352 6353 6354 6355 6356 6357 6358 6359 6360 6361 6362 6363 6364 6365 6366 6367 6368 6369 6370 6371 6372 6373 6374 6375 6376 6377 6378 6379 6380 6381 6382 6383 6384 6385 6386 6387 6388 6389 6390 6391 6392 6393 6394 6395 6396 6397 6398 6399 6400 6401 6402 6403 6404 6405 6406 6407 6408 6409 6410 6411 6412 6413 6414 6415 6416 6417 6418 6419 6420 6421 6422 6423 6424 6425 6426 6427 6428 6429 6430 6431 6432 6433 6434 6435 6436 6437 6438 6439 6440 6441 6442 6443 6444 6445 6446 6447 6448 6449 6450 6451 6452 6453 6454 6455 6456 6457 6458 6459 6460 6461 6462 6463 6464 6465 6466 6467 6468 6469 6470 6471 6472 6473 6474 6475 6476 6477 6478 6479 6480 6481 6482 6483 6484 6485 6486 6487 6488 6489 6490 6491 6492 6493 6494 6495 6496 6497 6498 6499 6500 6501 6502 6503 6504 6505 6506 6507 6508 6509 6510 6511 6512 6513 6514 6515 6516 6517 6518 6519 6520 6521 6522 6523 6524 6525 6526 6527 6528 6529 6530 6531 6532 6533 6534 6535 6536 6537 6538 6539 6540 6541 6542 6543 6544 6545 6546 6547 6548 6549 6550 6551 6552 6553 6554 6555 6556 6557 6558 6559 6560 6561 6562 6563 6564 6565 6566 6567 6568 6569 6570 6571 6572 6573 6574 6575 6576 6577 6578 6579 6580 6581 6582 6583 6584 6585 6586 6587 6588 6589 6590 6591 6592 6593 6594 6595 6596 6597 6598 6599 6600 6601 6602 6603 6604 6605 6606 6607 6608 6609 6610 6611 6612 6613 6614 6615 6616 6617 6618 6619 6620 6621 6622 6623 6624 6625 6626 6627 6628 6629 6630 6631 6632 6633 6634 6635 6636 6637 6638 6639 6640 6641 6642 6643 6644 6645 6646 6647 6648 6649 6650 6651 6652 6653 6654 6655 6656 6657 6658 6659 6660 6661 6662 6663 6664 6665 6666 6667 6668 6669 6670 6671 6672 6673 6674 6675 6676 6677 6678 6679 6680 6681 6682 6683 6684 6685 6686 6687 6688 6689 6690 6691 6692 6693 6694 6695 6696 6697 6698 6699 6700 6701 6702 6703 6704 6705 6706 6707 6708 6709 6710 6711 6712 6713 6714 6715 6716 6717 6718 6719 6720 6721 6722 6723 6724 6725 6726 6727 6728 6729 6730 6731 6732 6733 6734 6735 6736 6737 6738 6739 6740 6741 6742 6743 6744 6745 6746 6747 6748 6749 6750 6751 6752 6753 6754 6755 6756 6757 6758 6759 6760 6761 6762 6763 6764 6765 6766 6767 6768 6769 6770 6771 6772 6773 6774 6775 6776 6777 6778 6779 6780 6781 6782 6783 6784 6785 6786 6787 6788 6789 6790 6791 6792 6793 6794 6795 6796 6797 6798 6799 6800 6801 6802 6803 6804 6805 6806 6807 6808 6809 6810 6811 6812 6813 6814 6815 6816 6817 6818 6819 6820 6821 6822 6823 6824 6825 6826 6827 6828 6829 6830 6831 6832 6833 6834 6835 6836 6837 6838 6839 6840 6841 6842 6843 6844 6845 6846 6847 6848 6849 6850 6851 6852 6853 6854 6855 6856 6857 6858 6859 6860 6861 6862 6863 6864 6865 6866 6867 6868 6869 6870 6871 6872 6873 6874 6875 6876 6877 6878 6879 6880 6881 6882 6883 6884 6885 6886 6887 6888 6889 6890 6891 6892 6893 6894 6895 6896 6897 6898 6899 6900 6901 6902 6903 6904 6905 6906 6907 6908 6909 6910 6911 6912 6913 6914 6915 6916 6917 6918 6919 6920 6921 6922 6923 6924 6925 6926 6927 6928 6929 6930 6931 6932 6933 6934 6935 6936 6937 6938 6939 6940 6941 6942 6943 6944 6945 6946 6947 6948 6949 6950 6951 6952 6953 6954 6955 6956 6957 6958 6959 6960 6961 6962 6963 6964 6965 6966 6967 6968 6969 6970 6971 6972 6973 6974 6975 6976 6977 6978 6979 6980 6981 6982 6983 6984 6985 6986 6987 6988 6989 6990 6991 6992 6993 6994 6995 6996 6997 6998 6999 7000 7001 7002 7003 7004 7005 7006 7007 7008 7009 7010 7011 7012 7013 7014 7015 7016 7017 7018 7019 7020 7021 7022 7023 7024 7025 7026 7027 7028 7029 7030 7031 7032 7033 7034 7035 7036 7037 7038 7039 7040 7041 7042 7043 7044 7045 7046 7047 7048 7049 7050 7051 7052 7053 7054 7055 7056 7057 7058 7059 7060 7061 7062 7063 7064 7065 7066 7067 7068 7069 7070 7071 7072 7073 7074 7075 7076 7077 7078 7079 7080 7081 7082 7083 7084 7085 7086 7087 7088 7089 7090 7091 7092 7093 7094 7095 7096 7097 7098 7099 7100 7101 7102 7103 7104 7105 7106 7107 7108 7109 7110 7111 7112 7113 7114 7115 7116 7117 7118 7119 7120 7121 7122 7123 7124 7125 7126 7127 7128 7129 7130 7131 7132 7133 7134 7135 7136 7137 7138 7139 7140 7141 7142 7143 7144 7145 7146 7147 7148 7149 7150 7151 7152 7153 7154 7155 7156 7157 7158 7159 7160 7161 7162 7163 7164 7165 7166 7167 7168 7169 7170 7171 7172 7173 7174 7175 7176 7177 7178 7179 7180 7181 7182 7183 7184 7185 7186 7187 7188 7189 7190 7191 7192 7193 7194 7195 7196 7197 7198 7199 7200 7201 7202 7203 7204 7205 7206 7207 7208 7209 7210 7211 7212 7213 7214 7215 7216 7217 7218 7219 7220 7221 7222 7223 7224 7225 7226 7227 7228 7229 7230 7231 7232 7233 7234 7235 7236 7237 7238 7239 7240 7241 7242 7243 7244 7245 7246 7247 7248 7249 7250 7251 7252 7253 7254 7255 7256 7257 7258 7259 7260 7261 7262 7263 7264 7265 7266 7267 7268 7269 7270 7271 7272 7273 7274 7275 7276 7277 7278 7279 7280 7281 7282 7283 7284 7285 7286 7287 7288 7289 7290 7291 7292 7293 7294 7295 7296 7297 7298 7299 7300 7301 7302 7303 7304 7305 7306 7307 7308 7309 7310 7311 7312 7313 7314 7315 7316 7317 7318 7319 7320 7321 7322 7323 7324 7325 7326 7327 7328 7329 7330 7331 7332 7333 7334 7335 7336 7337 7338 7339 7340 7341 7342 7343 7344 7345 7346 7347 7348 7349 7350 7351 7352 7353 7354 7355 7356 7357 7358 7359 7360 7361 7362 7363 7364 7365 7366 7367 7368 7369 7370 7371 7372 7373 7374 7375 7376 7377 7378 7379 7380 7381 7382 7383 7384 7385 7386 7387 7388 7389 7390 7391 7392 7393 7394 7395 7396 7397 7398 7399 7400 7401 7402 7403 7404 7405 7406 7407 7408 7409 7410 7411 7412 7413 7414 7415 7416 7417 7418 7419 7420 7421 7422 7423 7424 7425 7426 7427 7428 7429 7430 7431 7432 7433 7434 7435 7436 7437 7438 7439 7440 7441 7442 7443 7444 7445 7446 7447 7448 7449 7450 7451 7452 7453 7454 7455 7456 7457 7458 7459 7460 7461 7462 7463 7464 7465 7466 7467 7468 7469 7470 7471 7472 7473 7474 7475 7476 7477 7478 7479 7480 7481 7482 7483 7484 7485 7486 7487 7488 7489 7490 7491 7492 7493 7494 7495 7496 7497 7498 7499 7500 7501 7502 7503 7504 7505 7506 7507 7508 7509 7510 7511 7512 7513 7514 7515 7516 7517 7518 7519 7520 7521 7522 7523 7524 7525 7526 7527 7528 7529 7530 7531 7532 7533 7534 7535 7536 7537 7538 7539 7540 7541 7542 7543 7544 7545 7546 7547 7548 7549 7550 7551 7552 7553 7554 7555 7556 7557 7558 7559 7560 7561 7562 7563 7564 7565 7566 7567 7568 7569 7570 7571 7572 7573 7574 7575 7576 7577 7578 7579 7580 7581 7582 7583 7584 7585 7586 7587 7588 7589 7590 7591 7592 7593 7594 7595 7596 7597 7598 7599 7600 7601 7602 7603 7604 7605 7606 7607 7608 7609 7610 7611 7612 7613 7614 7615 7616 7617 7618 7619 7620 7621 7622 7623 7624 7625 7626 7627 7628 7629 7630 7631 7632 7633 7634 7635 7636 7637 7638 7639 7640 7641 7642 7643 7644 7645 7646 7647 7648 7649 7650 7651 7652 7653 7654 7655 7656 7657 7658 7659 7660 7661 7662 7663 7664 7665 7666 7667 7668 7669 7670 7671 7672 7673 7674 7675 7676 7677 7678 7679 7680 7681 7682 7683 7684 7685 7686 7687 7688 7689 7690 7691 7692 7693 7694 7695 7696 7697 7698 7699 7700 7701 7702 7703 7704 7705 7706 7707 7708 7709 7710 7711 7712 7713 7714 7715 7716 7717 7718 7719 7720 7721 7722 7723 7724 7725 7726 7727 7728 7729 7730 7731 7732 7733 7734 7735 7736 7737 7738 7739 7740 7741 7742 7743 7744 7745 7746 7747 7748 7749 7750 7751 7752 7753 7754 7755 7756 7757 7758 7759 7760 7761 7762 7763 7764 7765 7766 7767 7768 7769 7770 7771 7772 7773 7774 7775 7776 7777 7778 7779 7780 7781 7782 7783 7784 7785 7786 7787 7788 7789 7790 7791 7792 7793 7794 7795 7796 7797 7798 7799 7800 7801 7802 7803 7804 7805 7806 7807 7808 7809 7810 7811 7812 7813 7814 7815 7816 7817 7818 7819 7820 7821 7822 7823 7824 7825 7826 7827 7828 7829 7830 7831 7832 7833 7834 7835 7836 7837 7838 7839 7840 7841 7842 7843 7844 7845 7846 7847 7848 7849 7850 7851 7852 7853 7854 7855 7856 7857 7858 7859 7860 7861 7862 7863 7864 7865 7866 7867 7868 7869 7870 7871 7872 7873 7874 7875 7876 7877 7878 7879 7880 7881 7882 7883 7884 7885 7886 7887 7888 7889 7890 7891 7892 7893 7894 7895 7896 7897 7898 7899 7900 7901 7902 7903 7904 7905 7906 7907 7908 7909 7910 7911 7912 7913 7914 7915 7916 7917 7918 7919 7920 7921 7922 7923 7924 7925 7926 7927 7928 7929 7930 7931 7932 7933 7934 7935 7936 7937 7938 7939 7940 7941 7942 7943 7944 7945 7946 7947 7948 7949 7950 7951 7952 7953 7954 7955 7956 7957 7958 7959 7960 7961 7962 7963 7964 7965 7966 7967 7968 7969 7970 7971 7972 7973 7974 7975 7976 7977 7978 7979 7980 7981 7982 7983 7984 7985 7986 7987 7988 7989 7990 7991 7992 7993 7994 7995 7996 7997 7998 7999 8000 8001 8002 8003 8004 8005 8006 8007 8008 8009 8010 8011 8012 8013 8014 8015 8016 8017 8018 8019 8020 8021 8022 8023 8024 8025 8026 8027 8028 8029 8030 8031 8032 8033 8034 8035 8036 8037 8038 8039 8040 8041 8042 8043 8044 8045 8046 8047 8048 8049 8050 8051 8052 8053 8054 8055 8056 8057 8058 8059 8060 8061 8062 8063 8064 8065 8066 8067 8068 8069 8070 8071 8072 8073 8074 8075 8076 8077 8078 8079 8080 8081 8082 8083 8084 8085 8086 8087 8088 8089 8090 8091 8092 8093 8094 8095 8096 8097 8098 8099 8100 8101 8102 8103 8104 8105 8106 8107 8108 8109 8110 8111 8112 8113 8114 8115 8116 8117 8118 8119 8120 8121 8122 8123 8124 8125 8126 8127 8128 8129 8130 8131 8132 8133 8134 8135 8136 8137 8138 8139 8140 8141 8142 8143 8144 8145 8146 8147 8148 8149 8150 8151 8152 8153 8154 8155 8156 8157 8158 8159 8160 8161 8162 8163 8164 8165 8166 8167 8168 8169 8170 8171 8172 8173 8174 8175 8176 8177 8178 8179 8180 8181 8182 8183 8184 8185 8186 8187 8188 8189 8190 8191 8192 8193 8194 8195 8196 8197 8198 8199 8200 8201 8202 8203 8204 8205 8206 8207 8208 8209 8210 8211 8212 8213 8214 8215 8216 8217 8218 8219 8220 8221 8222 8223 8224 8225 8226 8227 8228 8229 8230 8231 8232 8233 8234 8235 8236 8237 8238 8239 8240 8241 8242 8243 8244 8245 8246 8247 8248 8249 8250 8251 8252 8253 8254 8255 8256 8257 8258 8259 8260 8261 8262 8263 8264 8265 8266 8267 8268 8269 8270 8271 8272 8273 8274 8275 8276 8277 8278 8279 8280 8281 8282 8283 8284 8285 8286 8287 8288 8289 8290 8291 8292 8293 8294 8295 8296 8297 8298 8299 8300 8301 8302 8303 8304 8305 8306 8307 8308 8309 8310 8311 8312 8313 8314 8315 8316 8317 8318 8319 8320 8321 8322 8323 8324 8325 8326 8327 8328 8329 8330 8331 8332 8333 8334 8335 8336 8337 8338 8339 8340 8341 8342 8343 8344 8345 8346 8347 8348 8349 8350 8351 8352 8353 8354 8355 8356 8357 8358 8359 8360 8361 8362 8363 8364 8365 8366 8367 8368 8369 8370 8371 8372 8373 8374 8375 8376 8377 8378 8379 8380 8381 8382 8383 8384 8385 8386 8387 8388 8389 8390 8391 8392 8393 8394 8395 8396 8397 8398 8399 8400 8401 8402 8403 8404 8405 8406 8407 8408 8409 8410 8411 8412 8413 8414 8415 8416 8417 8418 8419 8420 8421 8422 8423 8424 8425 8426 8427 8428 8429 8430 8431 8432 8433 8434 8435 8436 8437 8438 8439 8440 8441 8442 8443 8444 8445 8446 8447 8448 8449 8450 8451 8452 8453 8454 8455 8456 8457 8458 8459 8460 8461 8462 8463 8464 8465 8466 8467 8468 8469 8470 8471 8472 8473 8474 8475 8476 8477 8478 8479 8480 8481 8482 8483 8484 8485 8486 8487 8488 8489 8490 8491 8492 8493 8494 8495 8496 8497 8498 8499 8500 8501 8502 8503 8504 8505 8506 8507 8508 8509 8510 8511 8512 8513 8514 8515 8516 8517 8518 8519 8520 8521 8522 8523 8524 8525 8526 8527 8528 8529 8530 8531 8532 8533 8534 8535 8536 8537 8538 8539 8540 8541 8542 8543 8544 8545 8546 8547 8548 8549 8550 8551 8552 8553 8554 8555 8556 8557 8558 8559 8560 8561 8562 8563 8564 8565 8566 8567 8568 8569 8570 8571 8572 8573 8574 8575 8576 8577 8578 8579 8580 8581 8582 8583 8584 8585 8586 8587 8588 8589 8590 8591 8592 8593 8594 8595 8596 8597 8598 8599 8600 8601 8602 8603 8604 8605 8606 8607 8608 8609 8610 8611 8612 8613 8614 8615 8616 8617 8618 8619 8620 8621 8622 8623 8624 8625 8626 8627 8628 8629 8630 8631 8632 8633 8634 8635 8636 8637 8638 8639 8640 8641 8642 8643 8644 8645 8646 8647 8648 8649 8650 8651 8652 8653 8654 8655 8656 8657 8658 8659 8660 8661 8662 8663 8664 8665 8666 8667 8668 8669 8670 8671 8672 8673 8674 8675 8676 8677 8678 8679 8680 8681 8682 8683 8684 8685 8686 8687 8688 8689 8690 8691 8692 8693 8694 8695 8696 8697 8698 8699 8700 8701 8702 8703 8704 8705 8706 8707 8708 8709 8710 8711 8712 8713 8714 8715 8716 8717 8718 8719 8720 8721 8722 8723 8724 8725 8726 8727 8728 8729 8730 8731 8732 8733 8734 8735 8736 8737 8738 8739 8740 8741 8742 8743 8744 8745 8746 8747 8748 8749 8750 8751 8752 8753 8754 8755 8756 8757 8758 8759 8760 8761 8762 8763 8764 8765 8766 8767 8768 8769 8770 8771 8772 8773 8774 8775 8776 8777 8778 8779 8780 8781 8782 8783 8784 8785 8786 8787 8788 8789 8790 8791 8792 8793 8794 8795 8796 8797 8798 8799 8800 8801 8802 8803 8804 8805 8806 8807 8808 8809 8810 8811 8812 8813 8814 8815 8816 8817 8818 8819 8820 8821 8822 8823 8824 8825 8826 8827 8828 8829 8830 8831 8832 8833 8834 8835 8836 8837 8838 8839 8840 8841 8842 8843 8844 8845 8846 8847 8848 8849 8850 8851 8852 8853 8854 8855 8856 8857 8858 8859 8860 8861 8862 8863 8864 8865 8866 8867 8868 8869 8870 8871 8872 8873 8874 8875 8876 8877 8878 8879 8880 8881 8882 8883 8884 8885 8886 8887 8888 8889 8890 8891 8892 8893 8894 8895 8896 8897 8898 8899 8900 8901 8902 8903 8904 8905 8906 8907 8908 8909 8910 8911 8912 8913 8914 8915 8916 8917 8918 8919 8920 8921 8922 8923 8924 8925 8926 8927 8928 8929 8930 8931 8932 8933 8934 8935 8936 8937 8938 8939 8940 8941 8942 8943 8944 8945 8946 8947 8948 8949 8950 8951 8952 8953 8954 8955 8956 8957 8958 8959 8960 8961 8962 8963 8964 8965 8966 8967 8968 8969 8970 8971 8972 8973 8974 8975 8976 8977 8978 8979 8980 8981 8982 8983 8984 8985 8986 8987 8988 8989 8990 8991 8992 8993 8994 8995 8996 8997 8998 8999 9000 9001 9002 9003 9004 9005 9006 9007 9008 9009 9010 9011 9012 9013 9014 9015 9016 9017 9018 9019 9020 9021 9022 9023 9024 9025 9026 9027 9028 9029 9030 9031 9032 9033 9034 9035 9036 9037 9038 9039 9040 9041 9042 9043 9044 9045 9046 9047 9048 9049 9050 9051 9052 9053 9054 9055 9056 9057 9058 9059 9060 9061 9062 9063 9064 9065 9066 9067 9068 9069 9070 9071 9072 9073 9074 9075 9076 9077 9078 9079 9080 9081 9082 9083 9084 9085 9086 9087 9088 9089 9090 9091 9092 9093 9094 9095 9096 9097 9098 9099 9100 9101 9102 9103 9104 9105 9106 9107 9108 9109 9110 9111 9112 9113 9114 9115 9116 9117 9118 9119 9120 9121 9122 9123 9124 9125 9126 9127 9128 9129 9130 9131 9132 9133 9134 9135 9136 9137 9138 9139 9140 9141 9142 9143 9144 9145 9146 9147 9148 9149 9150 9151 9152 9153 9154 9155 9156 9157 9158 9159 9160 9161 9162 9163 9164 9165 9166 9167 9168 9169 9170 9171 9172 9173 9174 9175 9176 9177 9178 9179 9180 9181 9182 9183 9184 9185 9186 9187 9188 9189 9190 9191 9192 9193 9194 9195 9196 9197 9198 9199 9200 9201 9202 9203 9204 9205 9206 9207 9208 9209 9210 9211 9212 9213 9214 9215 9216 9217 9218 9219 9220 9221 9222 9223 9224 9225 9226 9227 9228 9229 9230 9231 9232 9233 9234 9235 9236 9237 9238 9239 9240 9241 9242 9243 9244 9245 9246 9247 9248 9249 9250 9251 9252 9253 9254 9255 9256 9257 9258 9259 9260 9261 9262 9263 9264 9265 9266 9267 9268 9269 9270 9271 9272 9273 9274 9275 9276 9277 9278 9279 9280 9281 9282 9283 9284 9285 9286 9287 9288 9289 9290 9291 9292 9293 9294 9295 9296 9297 9298 9299 9300 9301 9302 9303 9304 9305 9306 9307 9308 9309 9310 9311 9312 9313 9314 9315 9316 9317 9318 9319 9320 9321 9322 9323 9324 9325 9326 9327 9328 9329 9330 9331 9332 9333 9334 9335 9336 9337 9338 9339 9340 9341 9342 9343 9344 9345 9346 9347 9348 9349 9350 9351 9352 9353 9354 9355 9356 9357 9358 9359 9360 9361 9362 9363 9364 9365 9366 9367 9368 9369 9370 9371 9372 9373 9374 9375 9376 9377 9378 9379 9380 9381 9382 9383 9384 9385 9386 9387 9388 9389 9390 9391 9392 9393 9394 9395 9396 9397 9398 9399 9400 9401 9402 9403 9404 9405 9406 9407 9408 9409 9410 9411 9412 9413 9414 9415 9416 9417 9418 9419 9420 9421 9422 9423 9424 9425 9426 9427 9428 9429 9430 9431 9432 9433 9434 9435 9436 9437 9438 9439 9440 9441 9442 9443 9444 9445 9446 9447 9448 9449 9450 9451 9452 9453 9454 9455 9456 9457 9458 9459 9460 9461 9462 9463 9464 9465 9466 9467 9468 9469 9470 9471 9472 9473 9474 9475 9476 9477 9478 9479 9480 9481 9482 9483 9484 9485 9486 9487 9488 9489 9490 9491 9492 9493 9494 9495 9496 9497 9498 9499 9500 9501 9502 9503 9504 9505 9506 9507 9508 9509 9510 9511 9512 9513 9514 9515 9516 9517 9518 9519 9520 9521 9522 9523 9524 9525 9526 9527 9528 9529 9530 9531 9532 9533 9534 9535 9536 9537 9538 9539 9540 9541 9542 9543 9544 9545 9546 9547 9548 9549 9550 9551 9552 9553 9554 9555 9556 9557 9558 9559 9560 9561 9562 9563 9564 9565 9566 9567 9568 9569 9570 9571 9572 9573 9574 9575 9576 9577 9578 9579 9580 9581 9582 9583 9584 9585 9586 9587 9588 9589 9590 9591 9592 9593 9594 9595 9596 9597 9598 9599 9600 9601 9602 9603 9604 9605 9606 9607 9608 9609 9610 9611 9612 9613 9614 9615 9616 9617 9618 9619 9620 9621 9622 9623 9624 9625 9626 9627 9628 9629 9630 9631 9632 9633 9634 9635 9636 9637 9638 9639 9640 9641 9642 9643 9644 9645 9646 9647 9648 9649 9650 9651 9652 9653 9654 9655 9656 9657 9658 9659 9660 9661 9662 9663 9664 9665 9666 9667 9668 9669 9670 9671 9672 9673 9674 9675 9676 9677 9678 9679 9680 9681 9682 9683 9684 9685 9686 9687 9688 9689 9690 9691 9692 9693 9694 9695 9696 9697 9698 9699 9700 9701 9702 9703 9704 9705 9706 9707 9708 9709 9710 9711 9712 9713 9714 9715 9716 9717 9718 9719 9720 9721 9722 9723 9724 9725 9726 9727 9728 9729 9730 9731 9732 9733 9734 9735 9736 9737 9738 9739 9740 9741 9742 9743 9744 9745 9746 9747 9748 9749 9750 9751 9752 9753 9754 9755 9756 9757 9758 9759 9760 9761 9762 9763 9764 9765 9766 9767 9768 9769 9770 9771 9772 9773 9774 9775 9776 9777 9778 9779 9780 9781 9782 9783 9784 9785 9786 9787 9788 9789 9790 9791 9792 9793 9794 9795 9796 9797 9798 9799 9800 9801 9802 9803 9804 9805 9806 9807 9808 9809 9810 9811 9812 9813 9814 9815 9816 9817 9818 9819 9820 9821 9822 9823 9824 9825 9826 9827 9828 9829 9830 9831 9832 9833 9834 9835 9836 9837 9838 9839 9840 9841 9842 9843 9844 9845 9846 9847 9848 9849 9850 9851 9852 9853 9854 9855 9856 9857 9858 9859 9860 9861 9862 9863 9864 9865 9866 9867 9868 9869 9870 9871 9872 9873 9874 9875 9876 9877 9878 9879 9880 9881 9882 9883 9884 9885 9886 9887 9888 9889 9890 9891 9892 9893 9894 9895 9896 9897 9898 9899 9900 9901 9902 9903 9904 9905 9906 9907 9908 9909 9910 9911 9912 9913 9914 9915 9916 9917 9918 9919 9920 9921 9922 9923 9924 9925 9926 9927 9928 9929 9930 9931 9932 9933 9934 9935 9936 9937 9938 9939 9940 9941 9942 9943 9944 9945 9946 9947 9948 9949 9950 9951 9952 9953 9954 9955 9956 9957 9958 9959 9960 9961 9962 9963 9964 9965 9966 9967 9968 9969 9970 9971 9972 9973 9974 9975 9976 9977 9978 9979 9980 9981 9982 9983 9984 9985 9986 9987 9988 9989 9990 9991 9992 9993 9994 9995 9996 9997 9998 9999 10000 10001 10002 10003 10004 10005 10006 10007 10008 10009 10010 10011 10012 10013 10014 10015 10016 10017 10018 10019 10020 10021 10022 10023 10024 10025 10026 10027 10028 10029 10030 10031 10032 10033 10034 10035 10036 10037 10038 10039 10040 10041 10042 10043 10044 10045 10046 10047 10048 10049 10050 10051 10052 10053 10054 10055 10056 10057 10058 10059 10060 10061 10062 10063 10064 10065 10066 10067 10068 10069 10070 10071 10072 10073 10074 10075 10076 10077 10078 10079 10080 10081 10082 10083 10084 10085 10086 10087 10088 10089 10090 10091 10092 10093 10094 10095 10096 10097 10098 10099 10100 10101 10102 10103 10104 10105 10106 10107 10108 10109 10110 10111 10112 10113 10114 10115 10116 10117 10118 10119 10120 10121 10122 10123 10124 10125 10126 10127 10128 10129 10130 10131 10132 10133 10134 10135 10136 10137 10138 10139 10140 10141 10142 10143 10144 10145 10146 10147 10148 10149 10150 10151 10152 10153 10154 10155 10156 10157 10158 10159 10160 10161 10162 10163 10164 10165 10166 10167 10168 10169 10170 10171 10172 10173 10174 10175 10176 10177 10178 10179 10180 10181 10182 10183 10184 10185 10186 10187 10188 10189 10190 10191 10192 10193 10194 10195 10196 10197 10198 10199 10200 10201 10202 10203 10204 10205 10206 10207 10208 10209 10210 10211 10212 10213 10214 10215 10216 10217 10218 10219 10220 10221 10222 10223 10224 10225 10226 10227 10228 10229 10230 10231 10232 10233 10234 10235 10236 10237 10238 10239 10240 10241 10242 10243 10244 10245 10246 10247 10248 10249 10250 10251 10252 10253 10254 10255 10256 10257 10258 10259 10260 10261 10262 10263 10264 10265 10266 10267 10268 10269 10270 10271 10272 10273 10274 10275 10276 10277 10278 10279 10280 10281 10282 10283 10284 10285 10286 10287 10288 10289 10290 10291 10292 10293 10294 10295 10296 10297 10298 10299 10300 10301 10302 10303 10304 10305 10306 10307 10308 10309 10310 10311 10312 10313 10314 10315 10316 10317 10318 10319 10320 10321 10322 10323 10324 10325 10326 10327 10328 10329 10330 10331 10332 10333 10334 10335 10336 10337 10338 10339 10340 10341 10342 10343 10344 10345 10346 10347 10348 10349 10350 10351 10352 10353 10354 10355 10356 10357 10358 10359 10360 10361 10362 10363 10364 10365 10366 10367 10368 10369 10370 10371 10372 10373 10374 10375 10376 10377 10378 10379 10380 10381 10382 10383 10384 10385 10386 10387 10388 10389 10390 10391 10392 10393 10394 10395 10396 10397 10398 10399 10400 10401 10402 10403 10404 10405 10406 10407 10408 10409 10410 10411 10412 10413 10414 10415 10416 10417 10418 10419 10420 10421 10422 10423 10424 10425 10426 10427 10428 10429 10430 10431 10432 10433 10434 10435 10436 10437 10438 10439 10440 10441 10442 10443 10444 10445 10446 10447 10448 10449 10450 10451 10452 10453 10454 10455 10456 10457 10458 10459 10460 10461 10462 10463 10464 10465 10466 10467 10468 10469 10470 10471 10472 10473 10474 10475 10476 10477 10478 10479 10480 10481 10482 10483 10484 10485 10486 10487 10488 10489 10490 10491 10492 10493 10494 10495 10496 10497 10498 10499 10500 10501 10502 10503 10504 10505 10506 10507 10508 10509 10510 10511 10512 10513 10514 10515 10516 10517 10518 10519 10520 10521 10522 10523 10524 10525 10526 10527 10528 10529 10530 10531 10532 10533 10534 10535 10536 10537 10538 10539 10540 10541 10542 10543 10544 10545 10546 10547 10548 10549 10550 10551 10552 10553 10554 10555 10556 10557 10558 10559 10560 10561 10562 10563 10564 10565 10566 10567 10568 10569 10570 10571 10572 10573 10574 10575 10576 10577 10578 10579 10580 10581 10582 10583 10584 10585 10586 10587 10588 10589 10590 10591 10592 10593 10594 10595 10596 10597 10598 10599 10600 10601 10602 10603 10604 10605 10606 10607 10608 10609 10610 10611 10612 10613 10614 10615 10616 10617 10618 10619 10620 10621 10622 10623 10624 10625 10626 10627 10628 10629 10630 10631 10632 10633 10634 10635 10636 10637 10638 10639 10640 10641 10642 10643 10644 10645 10646 10647 10648 10649 10650 10651 10652 10653 10654 10655 10656 10657 10658 10659 10660 10661 10662 10663 10664 10665 10666 10667 10668 10669 10670 10671 10672 10673 10674 10675 10676 10677 10678 10679 10680 10681 10682 10683 10684 10685 10686 10687 10688 10689 10690 10691 10692 10693 10694 10695 10696 10697 10698 10699 10700 10701 10702 10703 10704 10705 10706 10707 10708 10709 10710 10711 10712 10713 10714 10715 10716 10717 10718 10719 10720 10721 10722 10723 10724 10725 10726 10727 10728 10729 10730 10731 10732 10733 10734 10735 10736 10737 10738 10739 10740 10741 10742 10743 10744 10745 10746 10747 10748 10749 10750 10751 10752 10753 10754 10755 10756 10757 10758 10759 10760 10761 10762 10763 10764 10765 10766 10767 10768 10769 10770 10771 10772 10773 10774 10775 10776 10777 10778 10779 10780 10781 10782 10783 10784 10785 10786 10787 10788 10789 10790 10791 10792 10793 10794 10795 10796 10797 10798 10799 10800 10801 10802 10803 10804 10805 10806 10807 10808 10809 10810 10811 10812 10813 10814 10815 10816 10817 10818 10819 10820 10821 10822 10823 10824 10825 10826 10827 10828 10829 10830 10831 10832 10833 10834 10835 10836 10837 10838 10839 10840 10841 10842 10843 10844 10845 10846 10847 10848 10849 10850 10851 10852 10853 10854 10855 10856 10857 10858 10859 10860 10861 10862 10863 10864 10865 10866 10867 10868 10869 10870 10871 10872 10873 10874 10875 10876 10877 10878 10879 10880 10881 10882 10883 10884 10885 10886 10887 10888 10889 10890 10891 10892 10893 10894 10895 10896 10897 10898 10899 10900 10901 10902 10903 10904 10905 10906 10907 10908 10909 10910 10911 10912 10913 10914 10915 10916 10917 10918 10919 10920 10921 10922 10923 10924 10925 10926 10927 10928 10929 10930 10931 10932 10933 10934 10935 10936 10937 10938 10939 10940 10941 10942 10943 10944 10945 10946 10947 10948 10949 10950 10951 10952 10953 10954 10955 10956 10957 10958 10959 10960 10961 10962 10963 10964 10965 10966 10967 10968 10969 10970 10971 10972 10973 10974 10975 10976 10977 10978 10979 10980 10981 10982 10983 10984 10985 10986 10987 10988 10989 10990 10991 10992 10993 10994 10995 10996 10997 10998 10999 11000 11001 11002 11003 11004 11005 11006 11007 11008 11009 11010 11011 11012 11013 11014 11015 11016 11017 11018 11019 11020 11021 11022 11023 11024 11025 11026 11027 11028 11029 11030 11031 11032 11033 11034 11035 11036 11037 11038 11039 11040 11041 11042 11043 11044 11045 11046 11047 11048 11049 11050 11051 11052 11053 11054 11055 11056 11057 11058 11059 11060 11061 11062 11063 11064 11065 11066 11067 11068 11069 11070 11071 11072 11073 11074 11075 11076 11077 11078 11079 11080 11081 11082 11083 11084 11085 11086 11087 11088 11089 11090 11091 11092 11093 11094 11095 11096 11097 11098 11099 11100 11101 11102 11103 11104 11105 11106 11107 11108 11109 11110 11111 11112 11113 11114 11115 11116 11117 11118 11119 11120 11121 11122 11123 11124 11125 11126 11127 11128 11129 11130 11131 11132 11133 11134 11135 11136 11137 11138 11139 11140 11141 11142 11143 11144 11145 11146 11147 11148 11149 11150 11151 11152 11153 11154 11155 11156 11157 11158 11159 11160 11161 11162 11163 11164 11165 11166 11167 11168 11169 11170 11171 11172 11173 11174 11175 11176 11177 11178 11179 11180 11181 11182 11183 11184 11185 11186 11187 11188 11189 11190 11191 11192 11193 11194 11195 11196 11197 11198 11199 11200 11201 11202 11203 11204 11205 11206 11207 11208 11209 11210 11211 11212 11213 11214 11215 11216 11217 11218 11219 11220 11221 11222 11223 11224 11225 11226 11227 11228 11229 11230 11231 11232 11233 11234 11235 11236 11237 11238 11239 11240 11241 11242 11243 11244 11245 11246 11247 11248 11249 11250 11251 11252 11253 11254 11255 11256 11257 11258 11259 11260 11261 11262 11263 11264 11265 11266 11267 11268 11269 11270 11271 11272 11273 11274 11275 11276 11277 11278 11279 11280 11281 11282 11283 11284 11285 11286 11287 11288 11289 11290 11291 11292 11293 11294 11295 11296 11297 11298 11299 11300 11301 11302 11303 11304 11305 11306 11307 11308 11309 11310 11311 11312 11313 11314 11315 11316 11317 11318 11319 11320 11321 11322 11323 11324 11325 11326 11327 11328 11329 11330 11331 11332 11333 11334 11335 11336 11337 11338 11339 11340 11341 11342 11343 11344 11345 11346 11347 11348 11349 11350 11351 11352 11353 11354 11355 11356 11357 11358 11359 11360 11361 11362 11363 11364 11365 11366 11367 11368 11369 11370 11371 11372 11373 11374 11375 11376 11377 11378 11379 11380 11381 11382 11383 11384 11385 11386 11387 11388 11389 11390 11391 11392 11393 11394 11395 11396 11397 11398 11399 11400 11401 11402 11403 11404 11405 11406 11407 11408 11409 11410 11411 11412 11413 11414 11415 11416 11417 11418 11419 11420 11421 11422 11423 11424 11425 11426 11427 11428 11429 11430 11431 11432 11433 11434 11435 11436 11437 11438 11439 11440 11441 11442 11443 11444 11445 11446 11447 11448 11449 11450 11451 11452 11453 11454 11455 11456 11457 11458 11459 11460 11461 11462 11463 11464 11465 11466 11467 11468 11469 11470 11471 11472 11473 11474 11475 11476 11477 11478 11479 11480 11481 11482 11483 11484 11485 11486 11487 11488 11489 11490 11491 11492 11493 11494 11495 11496 11497 11498 11499 11500 11501 11502 11503 11504 11505 11506 11507 11508 11509 11510 11511 11512 11513 11514 11515 11516 11517 11518 11519 11520 11521 11522 11523 11524 11525 11526 11527 11528 11529 11530 11531 11532 11533 11534 11535 11536 11537 11538 11539 11540 11541 11542 11543 11544 11545 11546 11547 11548 11549 11550 11551 11552 11553 11554 11555 11556 11557 11558 11559 11560 11561 11562 11563 11564 11565 11566 11567 11568 11569 11570 11571 11572 11573 11574 11575 11576 11577 11578 11579 11580 11581 11582 11583 11584 11585 11586 11587 11588 11589 11590 11591 11592 11593 11594 11595 11596 11597 11598 11599 11600 11601 11602 11603 11604 11605 11606 11607 11608 11609 11610 11611 11612 11613 11614 11615 11616 11617 11618 11619 11620 11621 11622 11623 11624 11625 11626 11627 11628 11629 11630 11631 11632 11633 11634 11635 11636 11637 11638 11639 11640 11641 11642 11643 11644 11645 11646 11647 11648 11649 11650 11651 11652 11653 11654 11655 11656 11657 11658 11659 11660 11661 11662 11663 11664 11665 11666 11667 11668 11669 11670 11671 11672 11673 11674 11675 11676 11677 11678 11679 11680 11681 11682 11683 11684 11685 11686 11687 11688 11689 11690 11691 11692 11693 11694 11695 11696 11697 11698 11699 11700 11701 11702 11703 11704 11705 11706 11707 11708 11709 11710 11711 11712 11713 11714 11715 11716 11717 11718 11719 11720 11721 11722 11723 11724 11725 11726 11727 11728 11729 11730 11731 11732 11733 11734 11735 11736 11737 11738 11739 11740 11741 11742 11743 11744 11745 11746 11747 11748 11749 11750 11751 11752 11753 11754 11755 11756 11757 11758 11759 11760 11761 11762 11763 11764 11765 11766 11767 11768 11769 11770 11771 11772 11773 11774 11775 11776 11777 11778 11779 11780 11781 11782 11783 11784 11785 11786 11787 11788 11789 11790 11791 11792 11793 11794 11795 11796 11797 11798 11799 11800 11801 11802 11803 11804 11805 11806 11807 11808 11809 11810 11811 11812 11813 11814 11815 11816 11817 11818 11819 11820 11821 11822 11823 11824 11825 11826 11827 11828 11829 11830 11831 11832 11833 11834 11835 11836 11837 11838 11839 11840 11841 11842 11843 11844 11845 11846 11847 11848 11849 11850 11851 11852 11853 11854 11855 11856 11857 11858 11859 11860 11861 11862 11863 11864 11865 11866 11867 11868 11869 11870 11871 11872 11873 11874 11875 11876 11877 11878 11879 11880 11881 11882 11883 11884 11885 11886 11887 11888 11889 11890 11891 11892 11893 11894 11895 11896 11897 11898 11899 11900 11901 11902 11903 11904 11905 11906 11907 11908 11909 11910 11911 11912 11913 11914 11915 11916 11917 11918 11919 11920 11921 11922 11923 11924 11925 11926 11927 11928 11929 11930 11931 11932 11933 11934 11935 11936 11937 11938 11939 11940 11941 11942 11943 11944 11945 11946 11947 11948 11949 11950 11951 11952 11953 11954 11955 11956 11957 11958 11959 11960 11961 11962 11963 11964 11965 11966 11967 11968 11969 11970 11971 11972 11973 11974 11975 11976 11977 11978 11979 11980 11981 11982 11983 11984 11985 11986 11987 11988 11989 11990 11991 11992 11993 11994 11995 11996 11997 11998 11999 12000 12001 12002 12003 12004 12005 12006 12007 12008 12009 12010 12011 12012 12013 12014 12015 12016 12017 12018 12019 12020 12021 12022 12023 12024 12025 12026 12027 12028 12029 12030 12031 12032 12033 12034 12035 12036 12037 12038 12039 12040 12041 12042 12043 12044 12045 12046 12047 12048 12049 12050 12051 12052 12053 12054 12055 12056 12057 12058 12059 12060 12061 12062 12063 12064 12065 12066 12067 12068 12069 12070 12071 12072 12073 12074 12075 12076 12077 12078 12079 12080 12081 12082 12083 12084 12085 12086 12087 12088 12089 12090 12091 12092 12093 12094 12095 12096 12097 12098 12099 12100 12101 12102 12103 12104 12105 12106 12107 12108 12109 12110 12111 12112 12113 12114 12115 12116 12117 12118 12119 12120 12121 12122 12123 12124 12125 12126 12127 12128 12129 12130 12131 12132 12133 12134 12135 12136 12137 12138 12139 12140 12141 12142 12143 12144 12145 12146 12147 12148 12149 12150 12151 12152 12153 12154 12155 12156 12157 12158 12159 12160 12161 12162 12163 12164 12165 12166 12167 12168 12169 12170 12171 12172 12173 12174 12175 12176 12177 12178 12179 12180 12181 12182 12183 12184 12185 12186 12187 12188 12189 12190 12191 12192 12193 12194 12195 12196 12197 12198 12199 12200 12201 12202 12203 12204 12205 12206 12207 12208 12209 12210 12211 12212 12213 12214 12215 12216 12217 12218 12219 12220 12221 12222 12223 12224 12225 12226 12227 12228 12229 12230 12231 12232 12233 12234 12235 12236 12237 12238 12239 12240 12241 12242 12243 12244 12245 12246 12247 12248 12249 12250 12251 12252 12253 12254 12255 12256 12257 12258 12259 12260 12261 12262 12263 12264 12265 12266 12267 12268 12269 12270 12271 12272 12273 12274 12275 12276 12277 12278 12279 12280 12281 12282 12283 12284 12285 12286 12287 12288 12289 12290 12291 12292 12293 12294 12295 12296 12297 12298 12299 12300 12301 12302 12303 12304 12305 12306 12307 12308 12309 12310 12311 12312 12313 12314 12315 12316 12317 12318 12319 12320 12321 12322 12323 12324 12325 12326 12327 12328 12329 12330 12331 12332 12333 12334 12335 12336 12337 12338 12339 12340 12341 12342 12343 12344 12345 12346 12347 12348 12349 12350 12351 12352 12353 12354 12355 12356 12357 12358 12359 12360 12361 12362 12363 12364 12365 12366 12367 12368 12369 12370 12371 12372 12373 12374 12375 12376 12377 12378 12379 12380 12381 12382 12383 12384 12385 12386 12387 12388 12389 12390 12391 12392 12393 12394 12395 12396 12397 12398 12399 12400 12401 12402 12403 12404 12405 12406 12407 12408 12409 12410 12411 12412 12413 12414 12415 12416 12417 12418 12419 12420 12421 12422 12423 12424 12425 12426 12427 12428 12429 12430 12431 12432 12433 12434 12435 12436 12437 12438 12439 12440 12441 12442 12443 12444 12445 12446 12447 12448 12449 12450 12451 12452 12453 12454 12455 12456 12457 12458 12459 12460 12461 12462 12463 12464 12465 12466 12467 12468 12469 12470 12471 12472 12473 12474 12475 12476 12477 12478 12479 12480 12481 12482 12483 12484 12485 12486 12487 12488 12489 12490 12491 12492 12493 12494 12495 12496 12497 12498 12499 12500 12501 12502 12503 12504 12505 12506 12507 12508 12509 12510 12511 12512 12513 12514 12515 12516 12517 12518 12519 12520 12521 12522 12523 12524 12525 12526 12527 12528 12529 12530 12531 12532 12533 12534 12535 12536 12537 12538 12539 12540 12541 12542 12543 12544 12545 12546 12547 12548 12549 12550 12551 12552 12553 12554 12555 12556 12557 12558 12559 12560 12561 12562 12563 12564 12565 12566 12567 12568 12569 12570 12571 12572 12573 12574 12575 12576 12577 12578 12579 12580 12581 12582 12583 12584 12585 12586 12587 12588 12589 12590 12591 12592 12593 12594 12595 12596 12597 12598 12599 12600 12601 12602 12603 12604 12605 12606 12607 12608 12609 12610 12611 12612 12613 12614 12615 12616 12617 12618 12619 12620 12621 12622 12623 12624 12625 12626 12627 12628 12629 12630 12631 12632 12633 12634 12635 12636 12637 12638 12639 12640 12641 12642 12643 12644 12645 12646 12647 12648 12649 12650 12651 12652 12653 12654 12655 12656 12657 12658 12659 12660 12661 12662 12663 12664 12665 12666 12667 12668 12669 12670 12671 12672 12673 12674 12675 12676 12677 12678 12679 12680 12681 12682 12683 12684 12685 12686 12687 12688 12689 12690 12691 12692 12693 12694 12695 12696 12697 12698 12699 12700 12701 12702 12703 12704 12705 12706 12707 12708 12709 12710 12711 12712 12713 12714 12715 12716 12717 12718 12719 12720 12721 12722 12723 12724 12725 12726 12727 12728 12729 12730 12731 12732 12733 12734 12735 12736 12737 12738 12739 12740 12741 12742 12743 12744 12745 12746 12747 12748 12749 12750 12751 12752 12753 12754 12755 12756 12757 12758 12759 12760 12761 12762 12763 12764 12765 12766 12767 12768 12769 12770 12771 12772 12773 12774 12775 12776 12777 12778 12779 12780 12781 12782 12783 12784 12785 12786 12787 12788 12789 12790 12791 12792 12793 12794 12795 12796 12797 12798 12799 12800 12801 12802 12803 12804 12805 12806 12807 12808 12809 12810 12811 12812 12813 12814 12815 12816 12817 12818 12819 12820 12821 12822 12823 12824 12825 12826 12827 12828 12829 12830 12831 12832 12833 12834 12835 12836 12837 12838 12839 12840 12841 12842 12843 12844 12845 12846 12847 12848 12849 12850 12851 12852 12853 12854 12855 12856 12857 12858 12859 12860 12861 12862 12863 12864 12865 12866 12867 12868 12869 12870 12871 12872 12873 12874 12875 12876 12877 12878 12879 12880 12881 12882 12883 12884 12885 12886 12887 12888 12889 12890 12891 12892 12893 12894 12895 12896 12897 12898 12899 12900 12901 12902 12903 12904 12905 12906 12907 12908 12909 12910 12911 12912 12913 12914 12915 12916 12917 12918 12919 12920 12921 12922 12923 12924 12925 12926 12927 12928 12929 12930 12931 12932 12933 12934 12935 12936 12937 12938 12939 12940 12941 12942 12943 12944 12945 12946 12947 12948 12949 12950 12951 12952 12953 12954 12955 12956 12957 12958 12959 12960 12961 12962 12963 12964 12965 12966 12967 12968 12969 12970 12971 12972 12973 12974 12975 12976 12977 12978 12979 12980 12981 12982 12983 12984 12985 12986 12987 12988 12989 12990 12991 12992 12993 12994 12995 12996 12997 12998 12999 13000 13001 13002 13003 13004 13005 13006 13007 13008 13009 13010 13011 13012 13013 13014 13015 13016 13017 13018 13019 13020 13021 13022 13023 13024 13025 13026 13027 13028 13029 13030 13031 13032 13033 13034 13035 13036 13037 13038 13039 13040 13041 13042 13043 13044 13045 13046 13047 13048 13049 13050 13051 13052 13053 13054 13055 13056 13057 13058 13059 13060 13061 13062 13063 13064 13065 13066 13067 13068 13069 13070 13071 13072 13073 13074 13075 13076 13077 13078 13079 13080 13081 13082 13083 13084 13085 13086 13087 13088 13089 13090 13091 13092 13093 13094 13095 13096 13097 13098 13099 13100 13101 13102 13103 13104 13105 13106 13107 13108 13109 13110 13111 13112 13113 13114 13115 13116 13117 13118 13119 13120 13121 13122 13123 13124 13125 13126 13127 13128 13129 13130 13131 13132 13133 13134 13135 13136 13137 13138 13139 13140 13141 13142 13143 13144 13145 13146 13147 13148 13149 13150 13151 13152 13153 13154 13155 13156 13157 13158 13159 13160 13161 13162 13163 13164 13165 13166 13167 13168 13169 13170 13171 13172 13173 13174 13175 13176 13177 13178 13179 13180 13181 13182 13183 13184 13185 13186 13187 13188 13189 13190 13191 13192 13193 13194 13195 13196 13197 13198 13199 13200 13201 13202 13203 13204 13205 13206 13207 13208 13209 13210 13211 13212 13213 13214 13215 13216 13217 13218 13219 13220 13221 13222 13223 13224 13225 13226 13227 13228 13229 13230 13231 13232 13233 13234 13235 13236 13237 13238 13239 13240 13241 13242 13243 13244 13245 13246 13247 13248 13249 13250 13251 13252 13253 13254 13255 13256 13257 13258 13259 13260 13261 13262 13263 13264 13265 13266 13267 13268 13269 13270 13271 13272 13273 13274 13275 13276 13277 13278 13279 13280 13281 13282 13283 13284 13285 13286 13287 13288 13289 13290 13291 13292 13293 13294 13295 13296 13297 13298 13299 13300 13301 13302 13303 13304 13305 13306 13307 13308 13309 13310 13311 13312 13313 13314 13315 13316 13317 13318 13319 13320 13321 13322 13323 13324 13325 13326 13327 13328 13329 13330 13331 13332 13333 13334 13335 13336 13337 13338 13339 13340 13341 13342 13343 13344 13345 13346 13347 13348 13349 13350 13351 13352 13353 13354 13355 13356 13357 13358 13359 13360 13361 13362 13363 13364 13365 13366 13367 13368 13369 13370 13371 13372 13373 13374 13375 13376 13377 13378 13379 13380 13381 13382 13383 13384 13385 13386 13387 13388 13389 13390 13391 13392 13393 13394 13395 13396 13397 13398 13399 13400 13401 13402 13403 13404 13405 13406 13407 13408 13409 13410 13411 13412 13413 13414 13415 13416 13417 13418 13419 13420 13421 13422 13423 13424 13425 13426 13427 13428 13429 13430 13431 13432 13433 13434 13435 13436 13437 13438 13439 13440 13441 13442 13443 13444 13445 13446 13447 13448 13449 13450 13451 13452 13453 13454 13455 13456 13457 13458 13459 13460 13461 13462 13463 13464 13465 13466 13467 13468 13469 13470 13471 13472 13473 13474 13475 13476 13477 13478 13479 13480 13481 13482 13483 13484 13485 13486 13487 13488 13489 13490 13491 13492 13493 13494 13495 13496 13497 13498 13499 13500 13501 13502 13503 13504 13505 13506 13507 13508 13509 13510 13511 13512 13513 13514 13515 13516 13517 13518 13519 13520 13521 13522 13523 13524 13525 13526 13527 13528 13529 13530 13531 13532 13533 13534 13535 13536 13537 13538 13539 13540 13541 13542 13543 13544 13545 13546 13547 13548 13549 13550 13551 13552 13553 13554 13555 13556 13557 13558 13559 13560 13561 13562 13563 13564 13565 13566 13567 13568 13569 13570 13571 13572 13573 13574 13575 13576 13577 13578 13579 13580 13581 13582 13583 13584 13585 13586 13587 13588 13589 13590 13591 13592 13593 13594 13595 13596 13597 13598 13599 13600 13601 13602 13603 13604 13605 13606 13607 13608 13609 13610 13611 13612 13613 13614 13615 13616 13617 13618 13619 13620 13621 13622 13623 13624 13625 13626 13627 13628 13629 13630 13631 13632 13633 13634 13635 13636 13637 13638 13639 13640 13641 13642 13643 13644 13645 13646 13647 13648 13649 13650 13651 13652 13653 13654 13655 13656 13657 13658 13659 13660 13661 13662 13663 13664 13665 13666 13667 13668 13669 13670 13671 13672 13673 13674 13675 13676 13677 13678 13679 13680 13681 13682 13683 13684 13685 13686 13687 13688 13689 13690 13691 13692 13693 13694 13695 13696 13697 13698 13699 13700 13701 13702 13703 13704 13705 13706 13707 13708 13709 13710 13711 13712 13713 13714 13715 13716 13717 13718 13719 13720 13721 13722 13723 13724 13725 13726 13727 13728 13729 13730 13731 13732 13733 13734 13735 13736 13737 13738 13739 13740 13741 13742 13743 13744 13745 13746 13747 13748 13749 13750 13751 13752 13753 13754 13755 13756 13757 13758 13759 13760 13761 13762 13763 13764 13765 13766 13767 13768 13769 13770 13771 13772 13773 13774 13775 13776 13777 13778 13779 13780 13781 13782 13783 13784 13785 13786 13787 13788 13789 13790 13791 13792 13793 13794 13795 13796 13797 13798 13799 13800 13801 13802 13803 13804 13805 13806 13807 13808 13809 13810 13811 13812 13813 13814 13815 13816 13817 13818 13819 13820 13821 13822 13823 13824 13825 13826 13827 13828 13829 13830 13831 13832 13833 13834 13835 13836 13837 13838 13839 13840 13841 13842 13843 13844 13845 13846 13847 13848 13849 13850 13851 13852 13853 13854 13855 13856 13857 13858 13859 13860 13861 13862 13863 13864 13865 13866 13867 13868 13869 13870 13871 13872 13873 13874 13875 13876 13877 13878 13879 13880 13881 13882 13883 13884 13885 13886 13887 13888 13889 13890 13891 13892 13893 13894 13895 13896 13897 13898 13899 13900 13901 13902 13903 13904 13905 13906 13907 13908 13909 13910 13911 13912 13913 13914 13915 13916 13917 13918 13919 13920 13921 13922 13923 13924 13925 13926 13927 13928 13929 13930 13931 13932 13933 13934 13935 13936 13937 13938 13939 13940 13941 13942 13943 13944 13945 13946 13947 13948 13949 13950 13951 13952 13953 13954 13955 13956 13957 13958 13959 13960 13961 13962 13963 13964 13965 13966 13967 13968 13969 13970 13971 13972 13973 13974 13975 13976 13977 13978 13979 13980 13981 13982 13983 13984 13985 13986 13987 13988 13989 13990 13991 13992 13993 13994 13995 13996 13997 13998 13999 14000 14001 14002 14003 14004 14005 14006 14007 14008 14009 14010 14011 14012 14013 14014 14015 14016 14017 14018 14019 14020 14021 14022 14023 14024 14025 14026 14027 14028 14029 14030 14031 14032 14033 14034 14035 14036 14037 14038 14039 14040 14041 14042 14043 14044 14045 14046 14047 14048 14049 14050 14051 14052 14053 14054 14055 14056 14057 14058 14059 14060 14061 14062 14063 14064 14065 14066 14067 14068 14069 14070 14071 14072 14073 14074 14075 14076 14077 14078 14079 14080 14081 14082 14083 14084 14085 14086 14087 14088 14089 14090 14091 14092 14093 14094 14095 14096 14097 14098 14099 14100 14101 14102 14103 14104 14105 14106 14107 14108 14109 14110 14111 14112 14113 14114 14115 14116 14117 14118 14119 14120 14121 14122 14123 14124 14125 14126 14127 14128 14129 14130 14131 14132 14133 14134 14135 14136 14137 14138 14139 14140 14141 14142 14143 14144 14145 14146 14147 14148 14149 14150 14151 14152 14153 14154 14155 14156 14157 14158 14159 14160 14161 14162 14163 14164 14165 14166 14167 14168 14169 14170 14171 14172 14173 14174 14175 14176 14177 14178 14179 14180 14181 14182 14183 14184 14185 14186 14187 14188 14189 14190 14191 14192 14193 14194 14195 14196 14197 14198 14199 14200 14201 14202 14203 14204 14205 14206 14207 14208 14209 14210 14211 14212 14213 14214 14215 14216 14217 14218 14219 14220 14221 14222 14223 14224 14225 14226 14227 14228 14229 14230 14231 14232 14233 14234 14235 14236 14237 14238 14239 14240 14241 14242 14243 14244 14245 14246 14247 14248 14249 14250 14251 14252 14253 14254 14255 14256 14257 14258 14259 14260 14261 14262 14263 14264 14265 14266 14267 14268 14269 14270 14271 14272 14273 14274 14275 14276 14277 14278 14279 14280 14281 14282 14283 14284 14285 14286 14287 14288 14289 14290 14291 14292 14293 14294 14295 14296 14297 14298 14299 14300 14301 14302 14303 14304 14305 14306 14307 14308 14309 14310 14311 14312 14313 14314 14315 14316 14317 14318 14319 14320 14321 14322 14323 14324 14325 14326 14327 14328 14329 14330 14331 14332 14333 14334 14335 14336 14337 14338 14339 14340 14341 14342 14343 14344 14345 14346 14347 14348 14349 14350 14351 14352 14353 14354 14355 14356 14357 14358 14359 14360 14361 14362 14363 14364 14365 14366 14367 14368 14369 14370 14371 14372 14373 14374 14375 14376 14377 14378 14379 14380 14381 14382 14383 14384 14385 14386 14387 14388 14389 14390 14391 14392 14393 14394 14395 14396 14397 14398 14399 14400 14401 14402 14403 14404 14405 14406 14407 14408 14409 14410 14411 14412 14413 14414 14415 14416 14417 14418 14419 14420 14421 14422 14423 14424 14425 14426 14427 14428 14429 14430 14431 14432 14433 14434 14435 14436 14437 14438 14439 14440 14441 14442 14443 14444 14445 14446 14447 14448 14449 14450 14451 14452 14453 14454 14455 14456 14457 14458 14459 14460 14461 14462 14463 14464 14465 14466 14467 14468 14469 14470 14471 14472 14473 14474 14475 14476 14477 14478 14479 14480 14481 14482 14483 14484 14485 14486 14487 14488 14489 14490 14491 14492 14493 14494 14495 14496 14497 14498 14499 14500 14501 14502 14503 14504 14505 14506 14507 14508 14509 14510 14511 14512 14513 14514 14515 14516 14517 14518 14519 14520 14521 14522 14523 14524 14525 14526 14527 14528 14529 14530 14531 14532 14533 14534 14535 14536 14537 14538 14539 14540 14541 14542 14543 14544 14545 14546 14547 14548 14549 14550 14551 14552 14553 14554 14555 14556 14557 14558 14559 14560 14561 14562 14563 14564 14565 14566 14567 14568 14569 14570 14571 14572 14573 14574 14575 14576 14577 14578 14579 14580 14581 14582 14583 14584 14585 14586 14587 14588 14589 14590 14591 14592 14593 14594 14595 14596 14597 14598 14599 14600 14601 14602 14603 14604 14605 14606 14607 14608 14609 14610 14611 14612 14613 14614 14615 14616 14617 14618 14619 14620 14621 14622 14623 14624 14625 14626 14627 14628 14629 14630 14631 14632 14633 14634 14635 14636 14637 14638 14639 14640 14641 14642 14643 14644 14645 14646 14647 14648 14649 14650 14651 14652 14653 14654 14655 14656 14657 14658 14659 14660 14661 14662 14663 14664 14665 14666 14667 14668 14669 14670 14671 14672 14673 14674 14675 14676 14677 14678 14679 14680 14681 14682 14683 14684 14685 14686 14687 14688 14689 14690 14691 14692 14693 14694 14695 14696 14697 14698 14699 14700 14701 14702 14703 14704 14705 14706 14707 14708 14709 14710 14711 14712 14713 14714 14715 14716 14717 14718 14719 14720 14721 14722 14723 14724 14725 14726 14727 14728 14729 14730 14731 14732 14733 14734 14735 14736 14737 14738 14739 14740 14741 14742 14743 14744 14745 14746 14747 14748 14749 14750 14751 14752 14753 14754 14755 14756 14757 14758 14759 14760 14761 14762 14763 14764 14765 14766 14767 14768 14769 14770 14771 14772 14773 14774 14775 14776 14777 14778 14779 14780 14781 14782 14783 14784 14785 14786 14787 14788 14789 14790 14791 14792 14793 14794 14795 14796 14797 14798 14799 14800 14801 14802 14803 14804 14805 14806 14807 14808 14809 14810 14811 14812 14813 14814 14815 14816 14817 14818 14819 14820 14821 14822 14823 14824 14825 14826 14827 14828 14829 14830 14831 14832 14833 14834 14835 14836 14837 14838 14839 14840 14841 14842 14843 14844 14845 14846 14847 14848 14849 14850 14851 14852 14853 14854 14855 14856 14857 14858 14859 14860 14861 14862 14863 14864 14865 14866 14867 14868 14869 14870 14871 14872 14873 14874 14875 14876 14877 14878 14879 14880 14881 14882 14883 14884 14885 14886 14887 14888 14889 14890 14891 14892 14893 14894 14895 14896 14897 14898 14899 14900 14901 14902 14903 14904 14905 14906 14907 14908 14909 14910 14911 14912 14913 14914 14915 14916 14917 14918 14919 14920 14921 14922 14923 14924 14925 14926 14927 14928 14929 14930 14931 14932 14933 14934 14935 14936 14937 14938 14939 14940 14941 14942 14943 14944 14945 14946 14947 14948 14949 14950 14951 14952 14953 14954 14955 14956 14957 14958 14959 14960 14961 14962 14963 14964 14965 14966 14967 14968 14969 14970 14971 14972 14973 14974 14975 14976 14977 14978 14979 14980 14981 14982 14983 14984 14985 14986 14987 14988 14989 14990 14991 14992 14993 14994 14995 14996 14997 14998 14999 15000 15001 15002 15003 15004 15005 15006 15007 15008 15009 15010 15011 15012 15013 15014 15015 15016 15017 15018 15019 15020 15021 15022 15023 15024 15025 15026 15027 15028 15029 15030 15031 15032 15033 15034 15035 15036 15037 15038 15039 15040 15041 15042 15043 15044 15045 15046 15047 15048 15049 15050 15051 15052 15053 15054 15055 15056 15057 15058 15059 15060 15061 15062 15063 15064 15065 15066 15067 15068 15069 15070 15071 15072 15073 15074 15075 15076 15077 15078 15079 15080 15081 15082 15083 15084 15085 15086 15087 15088 15089 15090 15091 15092 15093 15094 15095 15096 15097 15098 15099 15100 15101 15102 15103 15104 15105 15106 15107 15108 15109 15110 15111 15112 15113 15114 15115 15116 15117 15118 15119 15120 15121 15122 15123 15124 15125 15126 15127 15128 15129 15130 15131 15132 15133 15134 15135 15136 15137 15138 15139 15140 15141 15142 15143 15144 15145 15146 15147 15148 15149 15150 15151 15152 15153 15154 15155 15156 15157 15158 15159 15160 15161 15162 15163 15164 15165 15166 15167 15168 15169 15170 15171 15172 15173 15174 15175 15176 15177 15178 15179 15180 15181 15182 15183 15184 15185 15186 15187 15188 15189 15190 15191 15192 15193 15194 15195 15196 15197 15198 15199 15200 15201 15202 15203 15204 15205 15206 15207 15208 15209 15210 15211 15212 15213 15214 15215 15216 15217 15218 15219 15220 15221 15222 15223 15224 15225 15226 15227 15228 15229 15230 15231 15232 15233 15234 15235 15236 15237 15238 15239 15240 15241 15242 15243 15244 15245 15246 15247 15248 15249 15250 15251 15252 15253 15254 15255 15256 15257 15258 15259 15260 15261 15262 15263 15264 15265 15266 15267 15268 15269 15270 15271 15272 15273 15274 15275 15276 15277 15278 15279 15280 15281 15282 15283 15284 15285 15286 15287 15288 15289 15290 15291 15292 15293 15294 15295 15296 15297 15298 15299 15300 15301 15302 15303 15304 15305 15306 15307 15308 15309 15310 15311 15312 15313 15314 15315 15316 15317 15318 15319 15320 15321 15322 15323 15324 15325 15326 15327 15328 15329 15330 15331 15332 15333 15334 15335 15336 15337 15338 15339 15340 15341 15342 15343 15344 15345 15346 15347 15348 15349 15350 15351 15352 15353 15354 15355 15356 15357 15358 15359 15360 15361 15362 15363 15364 15365 15366 15367 15368 15369 15370 15371 15372 15373 15374 15375 15376 15377 15378 15379 15380 15381 15382 15383 15384 15385 15386 15387 15388 15389 15390 15391 15392 15393 15394 15395 15396 15397 15398 15399 15400 15401 15402 15403 15404 15405 15406 15407 15408 15409 15410 15411 15412 15413 15414 15415 15416 15417 15418 15419 15420 15421 15422 15423 15424 15425 15426 15427 15428 15429 15430 15431 15432 15433 15434 15435 15436 15437 15438 15439 15440 15441 15442 15443 15444 15445 15446 15447 15448 15449 15450 15451 15452 15453 15454 15455 15456 15457 15458 15459 15460 15461 15462 15463 15464 15465 15466 15467 15468 15469 15470 15471 15472 15473 15474 15475 15476 15477 15478 15479 15480 15481 15482 15483 15484 15485 15486 15487 15488 15489 15490 15491 15492 15493 15494 15495 15496 15497 15498 15499 15500 15501 15502 15503 15504 15505 15506 15507 15508 15509 15510 15511 15512 15513 15514 15515 15516 15517 15518 15519 15520 15521 15522 15523 15524 15525 15526 15527 15528 15529 15530 15531 15532 15533 15534 15535 15536 15537 15538 15539 15540 15541 15542 15543 15544 15545 15546 15547 15548 15549 15550 15551 15552 15553 15554 15555 15556 15557 15558 15559 15560 15561 15562 15563 15564 15565 15566 15567 15568 15569 15570 15571 15572 15573 15574 15575 15576 15577 15578 15579 15580 15581 15582 15583 15584 15585 15586 15587 15588 15589 15590 15591 15592 15593 15594 15595 15596 15597 15598 15599 15600 15601 15602 15603 15604 15605 15606 15607 15608 15609 15610 15611 15612 15613 15614 15615 15616 15617 15618 15619 15620 15621 15622 15623 15624 15625 15626 15627 15628 15629 15630 15631 15632 15633 15634 15635 15636 15637 15638 15639 15640 15641 15642 15643 15644 15645 15646 15647 15648 15649 15650 15651 15652 15653 15654 15655 15656 15657 15658 15659 15660 15661 15662 15663 15664 15665 15666 15667 15668 15669 15670 15671 15672 15673 15674 15675 15676 15677 15678 15679 15680 15681 15682 15683 15684 15685 15686 15687 15688 15689 15690 15691 15692 15693 15694 15695 15696 15697 15698 15699 15700 15701 15702 15703 15704 15705 15706 15707 15708 15709 15710 15711 15712 15713 15714 15715 15716 15717 15718 15719 15720 15721 15722 15723 15724 15725 15726 15727 15728 15729 15730 15731 15732 15733 15734 15735 15736 15737 15738 15739 15740 15741 15742 15743 15744 15745 15746 15747 15748 15749 15750 15751 15752 15753 15754 15755 15756 15757 15758 15759 15760 15761 15762 15763 15764 15765 15766 15767 15768 15769 15770 15771 15772 15773 15774 15775 15776 15777 15778 15779 15780 15781 15782 15783 15784 15785 15786 15787 15788 15789 15790 15791 15792 15793 15794 15795 15796 15797 15798 15799 15800 15801 15802 15803 15804 15805 15806 15807 15808 15809 15810 15811 15812 15813 15814 15815 15816 15817 15818 15819 15820 15821 15822 15823 15824 15825 15826 15827 15828 15829 15830 15831 15832 15833 15834 15835 15836 15837 15838 15839 15840 15841 15842 15843 15844 15845 15846 15847 15848 15849 15850 15851 15852 15853 15854 15855 15856 15857 15858 15859 15860 15861 15862 15863 15864 15865 15866 15867 15868 15869 15870 15871 15872 15873 15874 15875 15876 15877 15878 15879 15880 15881 15882 15883 15884 15885 15886 15887 15888 15889 15890 15891 15892 15893 15894 15895 15896 15897 15898 15899 15900 15901 15902 15903 15904 15905 15906 15907 15908 15909 15910 15911 15912 15913 15914 15915 15916 15917 15918 15919 15920 15921 15922 15923 15924 15925 15926 15927 15928 15929 15930 15931 15932 15933 15934 15935 15936 15937 15938 15939 15940 15941 15942 15943 15944 15945 15946 15947 15948 15949 15950 15951 15952 15953 15954 15955 15956 15957 15958 15959 15960 15961 15962 15963 15964 15965 15966 15967 15968 15969 15970 15971 15972 15973 15974 15975 15976 15977 15978 15979 15980 15981 15982 15983 15984 15985 15986 15987 15988 15989 15990 15991 15992 15993 15994 15995 15996 15997 15998 15999 16000 16001 16002 16003 16004 16005 16006 16007 16008 16009 16010 16011 16012 16013 16014 16015 16016 16017 16018 16019 16020 16021 16022 16023 16024 16025 16026 16027 16028 16029 16030 16031 16032 16033 16034 16035 16036 16037 16038 16039 16040 16041 16042 16043 16044 16045 16046 16047 16048 16049 16050 16051 16052 16053 16054 16055 16056 16057 16058 16059 16060 16061 16062 16063 16064 16065 16066 16067 16068 16069 16070 16071 16072 16073 16074 16075 16076 16077 16078 16079 16080 16081 16082 16083 16084 16085 16086 16087 16088 16089 16090 16091 16092 16093 16094 16095 16096 16097 16098 16099 16100 16101 16102 16103 16104 16105 16106 16107 16108 16109 16110 16111 16112 16113 16114 16115 16116 16117 16118 16119 16120 16121 16122 16123 16124 16125 16126 16127 16128 16129 16130 16131 16132 16133 16134 16135 16136 16137 16138 16139 16140 16141 16142 16143 16144 16145 16146 16147 16148 16149 16150 16151 16152 16153 16154 16155 16156 16157 16158 16159 16160 16161 16162 16163 16164 16165 16166 16167 16168 16169 16170 16171 16172 16173 16174 16175 16176 16177 16178 16179 16180 16181 16182 16183 16184 16185 16186 16187 16188 16189 16190 16191 16192 16193 16194 16195 16196 16197 16198 16199 16200 16201 16202 16203 16204 16205 16206 16207 16208 16209 16210 16211 16212 16213 16214 16215 16216 16217 16218 16219 16220 16221 16222 16223 16224 16225 16226 16227 16228 16229 16230 16231 16232 16233 16234 16235 16236 16237 16238 16239 16240 16241 16242 16243 16244 16245 16246 16247 16248 16249 16250 16251 16252 16253 16254 16255 16256 16257 16258 16259 16260 16261 16262 16263 16264 16265 16266 16267 16268 16269 16270 16271 16272 16273 16274 16275 16276 16277 16278 16279 16280 16281 16282 16283 16284 16285 16286 16287 16288 16289 16290 16291 16292 16293 16294 16295 16296 16297 16298 16299 16300 16301 16302 16303 16304 16305 16306 16307 16308 16309 16310 16311 16312 16313 16314 16315 16316 16317 16318 16319 16320 16321 16322 16323 16324 16325 16326 16327 16328 16329 16330 16331 16332 16333 16334 16335 16336 16337 16338 16339 16340 16341 16342 16343 16344 16345 16346 16347 16348 16349 16350 16351 16352 16353 16354 16355 16356 16357 16358 16359 16360 16361 16362 16363 16364 16365 16366 16367 16368 16369 16370 16371 16372 16373 16374 16375 16376 16377 16378 16379 16380 16381 16382 16383 16384 16385 16386 16387 16388 16389 16390 16391 16392 16393 16394 16395 16396 16397 16398 16399 16400 16401 16402 16403 16404 16405 16406 16407 16408 16409 16410 16411 16412 16413 16414 16415 16416 16417 16418 16419 16420 16421 16422 16423 16424 16425 16426 16427 16428 16429 16430 16431 16432 16433 16434 16435 16436 16437 16438 16439 16440 16441 16442 16443 16444 16445 16446 16447 16448 16449 16450 16451 16452 16453 16454 16455 16456 16457 16458 16459 16460 16461 16462 16463 16464 16465 16466 16467 16468 16469 16470 16471 16472 16473 16474 16475 16476 16477 16478 16479 16480 16481 16482 16483 16484 16485 16486 16487 16488 16489 16490 16491 16492 16493 16494 16495 16496 16497 16498 16499 16500 16501 16502 16503 16504 16505 16506 16507 16508 16509 16510 16511 16512 16513 16514 16515 16516 16517 16518 16519 16520 16521 16522 16523 16524 16525 16526 16527 16528 16529 16530 16531 16532 16533 16534 16535 16536 16537 16538 16539 16540 16541 16542 16543 16544 16545 16546 16547 16548 16549 16550 16551 16552 16553 16554 16555 16556 16557 16558 16559 16560 16561 16562 16563 16564 16565 16566 16567 16568 16569 16570 16571 16572 16573 16574 16575 16576 16577 16578 16579 16580 16581 16582 16583 16584 16585 16586 16587 16588 16589 16590 16591 16592 16593 16594 16595 16596 16597 16598 16599 16600 16601 16602 16603 16604 16605 16606 16607 16608 16609 16610 16611 16612 16613 16614 16615 16616 16617 16618 16619 16620 16621 16622 16623 16624 16625 16626 16627 16628 16629 16630 16631 16632 16633 16634 16635 16636 16637 16638 16639 16640 16641 16642 16643 16644 16645 16646 16647 16648 16649 16650 16651 16652 16653 16654 16655 16656 16657 16658 16659 16660 16661 16662 16663 16664 16665 16666 16667 16668 16669 16670 16671 16672 16673 16674 16675 16676 16677 16678 16679 16680 16681 16682 16683 16684 16685 16686 16687 16688 16689 16690 16691 16692 16693 16694 16695 16696 16697 16698 16699 16700 16701 16702 16703 16704 16705 16706 16707 16708 16709 16710 16711 16712 16713 16714 16715 16716 16717 16718 16719 16720 16721 16722 16723 16724 16725 16726 16727 16728 16729 16730 16731 16732 16733 16734 16735 16736 16737 16738 16739 16740 16741 16742 16743 16744 16745 16746 16747 16748 16749 16750 16751 16752 16753 16754 16755 16756 16757 16758 16759 16760 16761 16762 16763 16764 16765 16766 16767 16768 16769 16770 16771 16772 16773 16774 16775 16776 16777 16778 16779 16780 16781 16782 16783 16784 16785 16786 16787 16788 16789 16790 16791 16792 16793 16794 16795 16796 16797 16798 16799 16800 16801 16802 16803 16804 16805 16806 16807 16808 16809 16810 16811 16812 16813 16814 16815 16816 16817 16818 16819 16820 16821 16822 16823 16824 16825 16826 16827 16828 16829 16830 16831 16832 16833 16834 16835 16836 16837 16838 16839 16840 16841 16842 16843 16844 16845 16846 16847 16848 16849 16850 16851 16852 16853 16854 16855 16856 16857 16858 16859 16860 16861 16862 16863 16864 16865 16866 16867 16868 16869 16870 16871 16872 16873 16874 16875 16876 16877 16878 16879 16880 16881 16882 16883 16884 16885 16886 16887 16888 16889 16890 16891 16892 16893 16894 16895 16896 16897 16898 16899 16900 16901 16902 16903 16904 16905 16906 16907 16908 16909 16910 16911 16912 16913 16914 16915 16916 16917 16918 16919 16920 16921 16922 16923 16924 16925 16926 16927 16928 16929 16930 16931 16932 16933 16934 16935 16936 16937 16938 16939 16940 16941 16942 16943 16944 16945 16946 16947 16948 16949 16950 16951 16952 16953 16954 16955 16956 16957 16958 16959 16960 16961 16962 16963 16964 16965 16966 16967 16968 16969 16970 16971 16972 16973 16974 16975 16976 16977 16978 16979 16980 16981 16982 16983 16984 16985 16986 16987 16988 16989 16990 16991 16992 16993 16994 16995 16996 16997 16998 16999 17000 17001 17002 17003 17004 17005 17006 17007 17008 17009 17010 17011 17012 17013 17014 17015 17016 17017 17018 17019 17020 17021 17022 17023 17024 17025 17026 17027 17028 17029 17030 17031 17032 17033 17034 17035 17036 17037 17038 17039 17040 17041 17042 17043 17044 17045 17046 17047 17048 17049 17050 17051 17052 17053 17054 17055 17056 17057 17058 17059 17060 17061 17062 17063 17064 17065 17066 17067 17068 17069 17070 17071 17072 17073 17074 17075 17076 17077 17078 17079 17080 17081 17082 17083 17084 17085 17086 17087 17088 17089 17090 17091 17092 17093 17094 17095 17096 17097 17098 17099 17100 17101 17102 17103 17104 17105 17106 17107 17108 17109 17110 17111 17112 17113 17114 17115 17116 17117 17118 17119 17120 17121 17122 17123 17124 17125 17126 17127 17128 17129 17130 17131 17132 17133 17134 17135 17136 17137 17138 17139 17140 17141 17142 17143 17144 17145 17146 17147 17148 17149 17150 17151 17152 17153 17154 17155 17156 17157 17158 17159 17160 17161 17162 17163 17164 17165 17166 17167 17168 17169 17170 17171 17172 17173 17174 17175 17176 17177 17178 17179 17180 17181 17182 17183 17184 17185 17186 17187 17188 17189 17190 17191 17192 17193 17194 17195 17196 17197 17198 17199 17200 17201 17202 17203 17204 17205 17206 17207 17208 17209 17210 17211 17212 17213 17214 17215 17216 17217 17218 17219 17220 17221 17222 17223 17224 17225 17226 17227 17228 17229 17230 17231 17232 17233 17234 17235 17236 17237 17238 17239 17240 17241 17242 17243 17244 17245 17246 17247 17248 17249 17250 17251 17252 17253 17254 17255 17256 17257 17258 17259 17260 17261 17262 17263 17264 17265 17266 17267 17268 17269 17270 17271 17272 17273 17274 17275 17276 17277 17278 17279 17280 17281 17282 17283 17284 17285 17286 17287 17288 17289 17290 17291 17292 17293 17294 17295 17296 17297 17298 17299 17300 17301 17302 17303 17304 17305 17306 17307 17308 17309 17310 17311 17312 17313 17314 17315 17316 17317 17318 17319 17320 17321 17322 17323 17324 17325 17326 17327 17328 17329 17330 17331 17332 17333 17334 17335 17336 17337 17338 17339 17340 17341 17342 17343 17344 17345 17346 17347 17348 17349 17350 17351 17352 17353 17354 17355 17356 17357 17358 17359 17360 17361 17362 17363 17364 17365 17366 17367 17368 17369 17370 17371 17372 17373 17374 17375 17376 17377 17378 17379 17380 17381 17382 17383 17384 17385 17386 17387 17388 17389 17390 17391 17392 17393 17394 17395 17396 17397 17398 17399 17400 17401 17402 17403 17404 17405 17406 17407 17408 17409 17410 17411 17412 17413 17414 17415 17416 17417 17418 17419 17420 17421 17422 17423 17424 17425 17426 17427 17428 17429 17430 17431 17432 17433 17434 17435 17436 17437 17438 17439 17440 17441 17442 17443 17444 17445 17446 17447 17448 17449 17450 17451 17452 17453 17454 17455 17456 17457 17458 17459 17460 17461 17462 17463 17464 17465 17466 17467 17468 17469 17470 17471 17472 17473 17474 17475 17476 17477 17478 17479 17480 17481 17482 17483 17484 17485 17486 17487 17488 17489 17490 17491 17492 17493 17494 17495 17496 17497 17498 17499 17500 17501 17502 17503 17504 17505 17506 17507 17508 17509 17510 17511 17512 17513 17514 17515 17516 17517 17518 17519 17520 17521 17522 17523 17524 17525 17526 17527 17528 17529 17530 17531 17532 17533 17534 17535 17536 17537 17538 17539 17540 17541 17542 17543 17544 17545 17546 17547 17548 17549 17550 17551 17552 17553 17554 17555 17556 17557 17558 17559 17560 17561 17562 17563 17564 17565 17566 17567 17568 17569 17570 17571 17572 17573 17574 17575 17576 17577 17578 17579 17580 17581 17582 17583 17584 17585 17586 17587 17588 17589 17590 17591 17592 17593 17594 17595 17596 17597 17598 17599 17600 17601 17602 17603 17604 17605 17606 17607 17608 17609 17610 17611 17612 17613 17614 17615 17616 17617 17618 17619 17620 17621 17622 17623 17624 17625 17626 17627 17628 17629 17630 17631 17632 17633 17634 17635 17636 17637 17638 17639 17640 17641 17642 17643 17644 17645 17646 17647 17648 17649 17650 17651 17652 17653 17654 17655 17656 17657 17658 17659 17660 17661 17662 17663 17664 17665 17666 17667 17668 17669 17670 17671 17672 17673 17674 17675 17676 17677 17678 17679 17680 17681 17682 17683 17684 17685 17686 17687 17688 17689 17690 17691 17692 17693 17694 17695 17696 17697 17698 17699 17700 17701 17702 17703 17704 17705 17706 17707 17708 17709 17710 17711 17712 17713 17714 17715 17716 17717 17718 17719 17720 17721 17722 17723 17724 17725 17726 17727 17728 17729 17730 17731 17732 17733 17734 17735 17736 17737 17738 17739 17740 17741 17742 17743 17744 17745 17746 17747 17748 17749 17750 17751 17752 17753 17754 17755 17756 17757 17758 17759 17760 17761 17762 17763 17764 17765 17766 17767 17768 17769 17770 17771 17772 17773 17774 17775 17776 17777 17778 17779 17780 17781 17782 17783 17784 17785 17786 17787 17788 17789 17790 17791 17792 17793 17794 17795 17796 17797 17798 17799 17800 17801 17802 17803 17804 17805 17806 17807 17808 17809 17810 17811 17812 17813 17814 17815 17816 17817 17818 17819 17820 17821 17822 17823 17824 17825 17826 17827 17828 17829 17830 17831 17832 17833 17834 17835 17836 17837 17838 17839 17840 17841 17842 17843 17844 17845 17846 17847 17848 17849 17850 17851 17852 17853 17854 17855 17856 17857 17858 17859 17860 17861 17862 17863 17864 17865 17866 17867 17868 17869 17870 17871 17872 17873 17874 17875 17876 17877 17878 17879 17880 17881 17882 17883 17884 17885 17886 17887 17888 17889 17890 17891 17892 17893 17894 17895 17896 17897 17898 17899 17900 17901 17902 17903 17904 17905 17906 17907 17908 17909 17910 17911 17912 17913 17914 17915 17916 17917 17918 17919 17920 17921 17922 17923 17924 17925 17926 17927 17928 17929 17930 17931 17932 17933 17934 17935 17936 17937 17938 17939 17940 17941 17942 17943 17944 17945 17946 17947 17948 17949 17950 17951 17952 17953 17954 17955 17956 17957 17958 17959 17960 17961 17962 17963 17964 17965 17966 17967 17968 17969 17970 17971 17972 17973 17974 17975 17976 17977 17978 17979 17980 17981 17982 17983 17984 17985 17986 17987 17988 17989 17990 17991 17992 17993 17994 17995 17996 17997 17998 17999 18000 18001 18002 18003 18004 18005 18006 18007 18008 18009 18010 18011 18012 18013 18014 18015 18016 18017 18018 18019 18020 18021 18022 18023 18024 18025 18026 18027 18028 18029 18030 18031 18032 18033 18034 18035 18036 18037 18038 18039 18040 18041 18042 18043 18044 18045 18046 18047 18048 18049 18050 18051 18052 18053 18054 18055 18056 18057 18058 18059 18060 18061 18062 18063 18064 18065 18066 18067 18068 18069 18070 18071 18072 18073 18074 18075 18076 18077 18078 18079 18080 18081 18082 18083 18084 18085 18086 18087 18088 18089 18090 18091 18092 18093 18094 18095 18096 18097 18098 18099 18100 18101 18102 18103 18104 18105 18106 18107 18108 18109 18110 18111 18112 18113 18114 18115 18116 18117 18118 18119 18120 18121 18122 18123 18124 18125 18126 18127 18128 18129 18130 18131 18132 18133 18134 18135 18136 18137 18138 18139 18140 18141 18142 18143 18144 18145 18146 18147 18148 18149 18150 18151 18152 18153 18154 18155 18156 18157 18158 18159 18160 18161 18162 18163 18164 18165 18166 18167 18168 18169 18170 18171 18172 18173 18174 18175 18176 18177 18178 18179 18180 18181 18182 18183 18184 18185 18186 18187 18188 18189 18190 18191 18192 18193 18194 18195 18196 18197 18198 18199 18200 18201 18202 18203 18204 18205 18206 18207 18208 18209 18210 18211 18212 18213 18214 18215 18216 18217 18218 18219 18220 18221 18222 18223 18224 18225 18226 18227 18228 18229 18230 18231 18232 18233 18234 18235 18236 18237 18238 18239 18240 18241 18242 18243 18244 18245 18246 18247 18248 18249 18250 18251 18252 18253 18254 18255 18256 18257 18258 18259 18260 18261 18262 18263 18264 18265 18266 18267 18268 18269 18270 18271 18272 18273 18274 18275 18276 18277 18278 18279 18280 18281 18282 18283 18284 18285 18286 18287 18288 18289 18290 18291 18292 18293 18294 18295 18296 18297 18298 18299 18300 18301 18302 18303 18304 18305 18306 18307 18308 18309 18310 18311 18312 18313 18314 18315 18316 18317 18318 18319 18320 18321 18322 18323 18324 18325 18326 18327 18328 18329 18330 18331 18332 18333 18334 18335 18336 18337 18338 18339 18340 18341 18342 18343 18344 18345 18346 18347 18348 18349 18350 18351 18352 18353 18354 18355 18356 18357 18358 18359 18360 18361 18362 18363 18364 18365 18366 18367 18368 18369 18370 18371 18372 18373 18374 18375 18376 18377 18378 18379 18380 18381 18382 18383 18384 18385 18386 18387 18388 18389 18390 18391 18392 18393 18394 18395 18396 18397 18398 18399 18400 18401 18402 18403 18404 18405 18406 18407 18408 18409 18410 18411 18412 18413 18414 18415 18416 18417 18418 18419 18420 18421 18422 18423 18424 18425 18426 18427 18428 18429 18430 18431 18432 18433 18434 18435 18436 18437 18438 18439 18440 18441 18442 18443 18444 18445 18446 18447 18448 18449 18450 18451 18452 18453 18454 18455 18456 18457 18458 18459 18460 18461 18462 18463 18464 18465 18466 18467 18468 18469 18470 18471 18472 18473 18474 18475 18476 18477 18478 18479 18480 18481 18482 18483 18484 18485 18486 18487 18488 18489 18490 18491 18492 18493 18494 18495 18496 18497 18498 18499 18500 18501 18502 18503 18504 18505 18506 18507 18508 18509 18510 18511 18512 18513 18514 18515 18516 18517 18518 18519 18520 18521 18522 18523 18524 18525 18526 18527 18528 18529 18530 18531 18532 18533 18534 18535 18536 18537 18538 18539 18540 18541 18542 18543 18544 18545 18546 18547 18548 18549 18550 18551 18552 18553 18554 18555 18556 18557 18558 18559 18560 18561 18562 18563 18564 18565 18566 18567 18568 18569 18570 18571 18572 18573 18574 18575 18576 18577 18578 18579 18580 18581 18582 18583 18584 18585 18586 18587 18588 18589 18590 18591 18592 18593 18594 18595 18596 18597 18598 18599 18600 18601 18602 18603 18604 18605 18606 18607 18608 18609 18610 18611 18612 18613 18614 18615 18616 18617 18618 18619 18620 18621 18622 18623 18624 18625 18626 18627 18628 18629 18630 18631 18632 18633 18634 18635 18636 18637 18638 18639 18640 18641 18642 18643 18644 18645 18646 18647 18648 18649 18650 18651 18652 18653 18654 18655 18656 18657 18658 18659 18660 18661 18662 18663 18664 18665 18666 18667 18668 18669 18670 18671 18672 18673 18674 18675 18676 18677 18678 18679 18680 18681 18682 18683 18684 18685 18686 18687 18688 18689 18690 18691 18692 18693 18694 18695 18696 18697 18698 18699 18700 18701 18702 18703 18704 18705 18706 18707 18708 18709 18710 18711 18712 18713 18714 18715 18716 18717 18718 18719 18720 18721 18722 18723 18724 18725 18726 18727 18728 18729 18730 18731 18732 18733 18734 18735 18736 18737 18738 18739 18740 18741 18742 18743 18744 18745 18746 18747 18748 18749 18750 18751 18752 18753 18754 18755 18756 18757 18758 18759 18760 18761 18762 18763 18764 18765 18766 18767 18768 18769 18770 18771 18772 18773 18774 18775 18776 18777 18778 18779 18780 18781 18782 18783 18784 18785 18786 18787 18788 18789 18790 18791 18792 18793 18794 18795 18796 18797 18798 18799 18800 18801 18802 18803 18804 18805 18806 18807 18808 18809 18810 18811 18812 18813 18814 18815 18816 18817 18818 18819 18820 18821 18822 18823 18824 18825 18826 18827 18828 18829 18830 18831 18832 18833 18834 18835 18836 18837 18838 18839 18840 18841 18842 18843 18844 18845 18846 18847 18848 18849 18850 18851 18852 18853 18854 18855 18856 18857 18858 18859 18860 18861 18862 18863 18864 18865 18866 18867 18868 18869 18870 18871 18872 18873 18874 18875 18876 18877 18878 18879 18880 18881 18882 18883 18884 18885 18886 18887 18888 18889 18890 18891 18892 18893 18894 18895 18896 18897 18898 18899 18900 18901 18902 18903 18904 18905 18906 18907 18908 18909 18910 18911 18912 18913 18914 18915 18916 18917 18918 18919 18920 18921 18922 18923 18924 18925 18926 18927 18928 18929 18930 18931 18932 18933 18934 18935 18936 18937 18938 18939 18940 18941 18942 18943 18944 18945 18946 18947 18948 18949 18950 18951 18952 18953 18954 18955 18956 18957 18958 18959 18960 18961 18962 18963 18964 18965 18966 18967 18968 18969 18970 18971 18972 18973 18974 18975 18976 18977 18978 18979 18980 18981 18982 18983 18984 18985 18986 18987 18988 18989 18990 18991 18992 18993 18994 18995 18996 18997 18998 18999 19000 19001 19002 19003 19004 19005 19006 19007 19008 19009 19010 19011 19012 19013 19014 19015 19016 19017 19018 19019 19020 19021 19022 19023 19024 19025 19026 19027 19028 19029 19030 19031 19032 19033 19034 19035 19036 19037 19038 19039 19040 19041 19042 19043 19044 19045 19046 19047 19048 19049 19050 19051 19052 19053 19054 19055 19056 19057 19058 19059 19060 19061 19062 19063 19064 19065 19066 19067 19068 19069 19070 19071 19072 19073 19074 19075 19076 19077 19078 19079 19080 19081 19082 19083 19084 19085 19086 19087 19088 19089 19090 19091 19092 19093 19094 19095 19096 19097 19098 19099 19100 19101 19102 19103 19104 19105 19106 19107 19108 19109 19110 19111 19112 19113 19114 19115 19116 19117 19118 19119 19120 19121 19122 19123 19124 19125 19126 19127 19128 19129 19130 19131 19132 19133 19134 19135 19136 19137 19138 19139 19140 19141 19142 19143 19144 19145 19146 19147 19148 19149 19150 19151 19152 19153 19154 19155 19156 19157 19158 19159 19160 19161 19162 19163 19164 19165 19166 19167 19168 19169 19170 19171 19172 19173 19174 19175 19176 19177 19178 19179 19180 19181 19182 19183 19184 19185 19186 19187 19188 19189 19190 19191 19192 19193 19194 19195 19196 19197 19198 19199 19200 19201 19202 19203 19204 19205 19206 19207 19208 19209 19210 19211 19212 19213 19214 19215 19216 19217 19218 19219 19220 19221 19222 19223 19224 19225 19226 19227 19228 19229 19230 19231 19232 19233 19234 19235 19236 19237 19238 19239 19240 19241 19242 19243 19244 19245 19246 19247 19248 19249 19250 19251 19252 19253 19254 19255 19256 19257 19258 19259 19260 19261 19262 19263 19264 19265 19266 19267 19268 19269 19270 19271 19272 19273 19274 19275 19276 19277 19278 19279 19280 19281 19282 19283 19284 19285 19286 19287 19288 19289 19290 19291 19292 19293 19294 19295 19296 19297 19298 19299 19300 19301 19302 19303 19304 19305 19306 19307 19308 19309 19310 19311 19312 19313 19314 19315 19316 19317 19318 19319 19320 19321 19322 19323 19324 19325 19326 19327 19328 19329 19330 19331 19332 19333 19334 19335 19336 19337 19338 19339 19340 19341 19342 19343 19344 19345 19346 19347 19348 19349 19350 19351 19352 19353 19354 19355 19356 19357 19358 19359 19360 19361 19362 19363 19364 19365 19366 19367 19368 19369 19370 19371 19372 19373 19374 19375 19376 19377 19378 19379 19380 19381 19382 19383 19384 19385 19386 19387 19388 19389 19390 19391 19392 19393 19394 19395 19396 19397 19398 19399 19400 19401 19402 19403 19404 19405 19406 19407 19408 19409 19410 19411 19412 19413 19414 19415 19416 19417 19418 19419 19420 19421 19422 19423 19424 19425 19426 19427 19428 19429 19430 19431 19432 19433 19434 19435 19436 19437 19438 19439 19440 19441 19442 19443 19444 19445 19446 19447 19448 19449 19450 19451 19452 19453 19454 19455 19456 19457 19458 19459 19460 19461 19462 19463 19464 19465 19466 19467 19468 19469 19470 19471 19472 19473 19474 19475 19476 19477 19478 19479 19480 19481 19482 19483 19484 19485 19486 19487 19488 19489 19490 19491 19492 19493 19494 19495 19496 19497 19498 19499 19500 19501 19502 19503 19504 19505 19506 19507 19508 19509 19510 19511 19512 19513 19514 19515 19516 19517 19518 19519 19520 19521 19522 19523 19524 19525 19526 19527 19528 19529 19530 19531 19532 19533 19534 19535 19536 19537 19538 19539 19540 19541 19542 19543 19544 19545 19546 19547 19548 19549 19550 19551 19552 19553 19554 19555 19556 19557 19558 19559 19560 19561 19562 19563 19564 19565 19566 19567 19568 19569 19570 19571 19572 19573 19574 19575 19576 19577 19578 19579 19580 19581 19582 19583 19584 19585 19586 19587 19588 19589 19590 19591 19592 19593 19594 19595 19596 19597 19598 19599 19600 19601 19602 19603 19604 19605 19606 19607 19608 19609 19610 19611 19612 19613 19614 19615 19616 19617 19618 19619 19620 19621 19622 19623 19624 19625 19626 19627 19628 19629 19630 19631 19632 19633 19634 19635 19636 19637 19638 19639 19640 19641 19642 19643 19644 19645 19646 19647 19648 19649 19650 19651 19652 19653 19654 19655 19656 19657 19658 19659 19660 19661 19662 19663 19664 19665 19666 19667 19668 19669 19670 19671 19672 19673 19674 19675 19676 19677 19678 19679 19680 19681 19682 19683 19684 19685 19686 19687 19688 19689 19690 19691 19692 19693 19694 19695 19696 19697 19698 19699 19700 19701 19702 19703 19704 19705 19706 19707 19708 19709 19710 19711 19712 19713 19714 19715 19716 19717 19718 19719 19720 19721 19722 19723 19724 19725 19726 19727 19728 19729 19730 19731 19732 19733 19734 19735 19736 19737 19738 19739 19740 19741 19742 19743 19744 19745 19746 19747 19748 19749 19750 19751 19752 19753 19754 19755 19756 19757 19758 19759 19760 19761 19762 19763 19764 19765 19766 19767 19768 19769 19770 19771 19772 19773 19774 19775 19776 19777 19778 19779 19780 19781 19782 19783 19784 19785 19786 19787 19788 19789 19790 19791 19792 19793 19794 19795 19796 19797 19798 19799 19800 19801 19802 19803 19804 19805 19806 19807 19808 19809 19810 19811 19812 19813 19814 19815 19816 19817 19818 19819 19820 19821 19822 19823 19824 19825 19826 19827 19828 19829 19830 19831 19832 19833 19834 19835 19836 19837 19838 19839 19840 19841 19842 19843 19844 19845 19846 19847 19848 19849 19850 19851 19852 19853 19854 19855 19856 19857 19858 19859 19860 19861 19862 19863 19864 19865 19866 19867 19868 19869 19870 19871 19872 19873 19874 19875 19876 19877 19878 19879 19880 19881 19882 19883 19884 19885 19886 19887 19888 19889 19890 19891 19892 19893 19894 19895 19896 19897 19898 19899 19900 19901 19902 19903 19904 19905 19906 19907 19908 19909 19910 19911 19912 19913 19914 19915 19916 19917 19918 19919 19920 19921 19922 19923 19924 19925 19926 19927 19928 19929 19930 19931 19932 19933 19934 19935 19936 19937 19938 19939 19940 19941 19942 19943 19944 19945 19946 19947 19948 19949 19950 19951 19952 19953 19954 19955 19956 19957 19958 19959 19960 19961 19962 19963 19964 19965 19966 19967 19968 19969 19970 19971 19972 19973 19974 19975 19976 19977 19978 19979 19980 19981 19982 19983 19984 19985 19986 19987 19988 19989 19990 19991 19992 19993 19994 19995 19996 19997 19998 19999 20000 20001 20002 20003 20004 20005 20006 20007 20008 20009 20010 20011 20012 20013 20014 20015 20016 20017 20018 20019 20020 20021 20022 20023 20024 20025 20026 20027 20028 20029 20030 20031 20032 20033 20034 20035 20036 20037 20038 20039 20040 20041 20042 20043 20044 20045 20046 20047 20048 20049 20050 20051 20052 20053 20054 20055 20056 20057 20058 20059 20060 20061 20062 20063 20064 20065 20066 20067 20068 20069 20070 20071 20072 20073 20074 20075 20076 20077 20078 20079 20080 20081 20082 20083 20084 20085 20086 20087 20088 20089 20090 20091 20092 20093 20094 20095 20096 20097 20098 20099 20100 20101 20102 20103 20104 20105 20106 20107 20108 20109 20110 20111 20112 20113 20114 20115 20116 20117 20118 20119 20120 20121 20122 20123 20124 20125 20126 20127 20128 20129 20130 20131 20132 20133 20134 20135 20136 20137 20138 20139 20140 20141 20142 20143 20144 20145 20146 20147 20148 20149 20150 20151 20152 20153 20154 20155 20156 20157 20158 20159 20160 20161 20162 20163 20164 20165 20166 20167 20168 20169 20170 20171 20172 20173 20174 20175 20176 20177 20178 20179 20180 20181 20182 20183 20184 20185 20186 20187 20188 20189 20190 20191 20192 20193 20194 20195 20196 20197 20198 20199 20200 20201 20202 20203 20204 20205 20206 20207 20208 20209 20210 20211 20212 20213 20214 20215 20216 20217 20218 20219 20220 20221 20222 20223 20224 20225 20226 20227 20228 20229 20230 20231 20232 20233 20234 20235 20236 20237 20238 20239 20240 20241 20242 20243 20244 20245 20246 20247 20248 20249 20250 20251 20252 20253 20254 20255 20256 20257 20258 20259 20260 20261 20262 20263 20264 20265 20266 20267 20268 20269 20270 20271 20272 20273 20274 20275 20276 20277 20278 20279 20280 20281 20282 20283 20284 20285 20286 20287 20288 20289 20290 20291 20292 20293 20294 20295 20296 20297 20298 20299 20300 20301 20302 20303 20304 20305 20306 20307 20308 20309 20310 20311 20312 20313 20314 20315 20316 20317 20318 20319 20320 20321 20322 20323 20324 20325 20326 20327 20328 20329 20330 20331 20332 20333 20334 20335 20336 20337 20338 20339 20340 20341 20342 20343 20344 20345 20346 20347 20348 20349 20350 20351 20352 20353 20354 20355 20356 20357 20358 20359 20360 20361 20362 20363 20364 20365 20366 20367 20368 20369 20370 20371 20372 20373 20374 20375 20376 20377 20378 20379 20380 20381 20382 20383 20384 20385 20386 20387 20388 20389 20390 20391 20392 20393 20394 20395 20396 20397 20398 20399 20400 20401 20402 20403 20404 20405 20406 20407 20408 20409 20410 20411 20412 20413 20414 20415 20416 20417 20418 20419 20420 20421 20422 20423 20424 20425 20426 20427 20428 20429 20430 20431 20432 20433 20434 20435 20436 20437 20438 20439 20440 20441 20442 20443 20444 20445 20446 20447 20448 20449 20450 20451 20452 20453 20454 20455 20456 20457 20458 20459 20460 20461 20462 20463 20464 20465 20466 20467 20468 20469 20470 20471 20472 20473 20474 20475 20476 20477 20478 20479 20480 20481 20482 20483 20484 20485 20486 20487 20488 20489 20490 20491 20492 20493 20494 20495 20496 20497 20498 20499 20500 20501 20502 20503 20504 20505 20506 20507 20508 20509 20510 20511 20512 20513 20514 20515 20516 20517 20518 20519 20520 20521 20522 20523 20524 20525 20526 20527 20528 20529 20530 20531 20532 20533 20534 20535 20536 20537 20538 20539 20540 20541 20542 20543 20544 20545 20546 20547 20548 20549 20550 20551 20552 20553 20554 20555 20556 20557 20558 20559 20560 20561 20562 20563 20564 20565 20566 20567 20568 20569 20570 20571 20572 20573 20574 20575 20576 20577 20578 20579 20580 20581 20582 20583 20584 20585 20586 20587 20588 20589 20590 20591 20592 20593 20594 20595 20596 20597 20598 20599 20600 20601 20602 20603 20604 20605 20606 20607 20608 20609 20610 20611 20612 20613 20614 20615 20616 20617 20618 20619 20620 20621 20622 20623 20624 20625 20626 20627 20628 20629 20630 20631 20632 20633 20634 20635 20636 20637 20638 20639 20640 20641 20642 20643 20644 20645 20646 20647 20648 20649 20650 20651 20652 20653 20654 20655 20656 20657 20658 20659 20660 20661 20662 20663 20664 20665 20666 20667 20668 20669 20670 20671 20672 20673 20674 20675 20676 20677 20678 20679 20680 20681 20682 20683 20684 20685 20686 20687 20688 20689 20690 20691 20692 20693 20694 20695 20696 20697 20698 20699 20700 20701 20702 20703 20704 20705 20706 20707 20708 20709 20710 20711 20712 20713 20714 20715 20716 20717 20718 20719 20720 20721 20722 20723 20724 20725 20726 20727 20728 20729 20730 20731 20732 20733 20734 20735 20736 20737 20738 20739 20740 20741 20742 20743 20744 20745 20746 20747 20748 20749 20750 20751 20752 20753 20754 20755 20756 20757 20758 20759 20760 20761 20762 20763 20764 20765 20766 20767 20768 20769 20770 20771 20772 20773 20774 20775 20776 20777 20778 20779 20780 20781 20782 20783 20784 20785 20786 20787 20788 20789 20790 20791 20792 20793 20794 20795 20796 20797 20798 20799 20800 20801 20802 20803 20804 20805 20806 20807 20808 20809 20810 20811 20812 20813 20814 20815 20816 20817 20818 20819 20820 20821 20822 20823 20824 20825 20826 20827 20828 20829 20830 20831 20832 20833 20834 20835 20836 20837 20838 20839 20840 20841 20842 20843 20844 20845 20846 20847 20848 20849 20850 20851 20852 20853 20854 20855 20856 20857 20858 20859 20860 20861 20862 20863 20864 20865 20866 20867 20868 20869 20870 20871 20872 20873 20874 20875 20876 20877 20878 20879 20880 20881 20882 20883 20884 20885 20886 20887 20888 20889 20890 20891 20892 20893 20894 20895 20896 20897 20898 20899 20900 20901 20902 20903 20904 20905 20906 20907 20908 20909 20910 20911 20912 20913 20914 20915 20916 20917 20918 20919 20920 20921 20922 20923 20924 20925 20926 20927 20928 20929 20930 20931 20932 20933 20934 20935 20936 20937 20938 20939 20940 20941 20942 20943 20944 20945 20946 20947 20948 20949 20950 20951 20952 20953 20954 20955 20956 20957 20958 20959 20960 20961 20962 20963 20964 20965 20966 20967 20968 20969 20970 20971 20972 20973 20974 20975 20976 20977 20978 20979 20980 20981 20982 20983 20984 20985 20986 20987 20988 20989 20990 20991 20992 20993 20994 20995 20996 20997 20998 20999 21000 21001 21002 21003 21004 21005 21006 21007 21008 21009 21010 21011 21012 21013 21014 21015 21016 21017 21018 21019 21020 21021 21022 21023 21024 21025 21026 21027 21028 21029 21030 21031 21032 21033 21034 21035 21036 21037 21038 21039 21040 21041 21042 21043 21044 21045 21046 21047 21048 21049 21050 21051 21052 21053 21054 21055 21056 21057 21058 21059 21060 21061 21062 21063 21064 21065 21066 21067 21068 21069 21070 21071 21072 21073 21074 21075 21076 21077 21078 21079 21080 21081 21082 21083 21084 21085 21086 21087 21088 21089 21090 21091 21092 21093 21094 21095 21096 21097 21098 21099 21100 21101 21102 21103 21104 21105 21106 21107 21108 21109 21110 21111 21112 21113 21114 21115 21116 21117 21118 21119 21120 21121 21122 21123 21124 21125 21126 21127 21128 21129 21130 21131 21132 21133 21134 21135 21136 21137 21138 21139 21140 21141 21142 21143 21144 21145 21146 21147 21148 21149 21150 21151 21152 21153 21154 21155 21156 21157 21158 21159 21160 21161 21162 21163 21164 21165 21166 21167 21168 21169 21170 21171 21172 21173 21174 21175 21176 21177 21178 21179 21180 21181 21182 21183 21184 21185 21186 21187 21188 21189 21190 21191 21192 21193 21194 21195 21196 21197 21198 21199 21200 21201 21202 21203 21204 21205 21206 21207 21208 21209 21210 21211 21212 21213 21214 21215 21216 21217 21218 21219 21220 21221 21222 21223 21224 21225 21226 21227 21228 21229 21230 21231 21232 21233 21234 21235 21236 21237 21238 21239 21240 21241 21242 21243 21244 21245 21246 21247 21248 21249 21250 21251 21252 21253 21254 21255 21256 21257 21258 21259 21260 21261 21262 21263 21264 21265 21266 21267 21268 21269 21270 21271 21272 21273 21274 21275 21276 21277 21278 21279 21280 21281 21282 21283 21284 21285 21286 21287 21288 21289 21290 21291 21292 21293 21294 21295 21296 21297 21298 21299 21300 21301 21302 21303 21304 21305 21306 21307 21308 21309 21310 21311 21312 21313 21314 21315 21316 21317 21318 21319 21320 21321 21322 21323 21324 21325 21326 21327 21328 21329 21330 21331 21332 21333 21334 21335 21336 21337 21338 21339 21340 21341 21342 21343 21344 21345 21346 21347 21348 21349 21350 21351 21352 21353 21354 21355 21356 21357 21358 21359 21360 21361 21362 21363 21364 21365 21366 21367 21368 21369 21370 21371 21372 21373 21374 21375 21376 21377 21378 21379 21380 21381 21382 21383 21384 21385 21386 21387 21388 21389 21390 21391 21392 21393 21394 21395 21396 21397 21398 21399 21400 21401 21402 21403 21404 21405 21406 21407 21408 21409 21410 21411 21412 21413 21414 21415 21416 21417 21418 21419 21420 21421 21422 21423 21424 21425 21426 21427 21428 21429 21430 21431 21432 21433 21434 21435 21436 21437 21438 21439 21440 21441 21442 21443 21444 21445 21446 21447 21448 21449 21450 21451 21452 21453 21454 21455 21456 21457 21458 21459 21460 21461 21462 21463 21464 21465 21466 21467 21468 21469 21470 21471 21472 21473 21474 21475 21476 21477 21478 21479 21480 21481 21482 21483 21484 21485 21486 21487 21488 21489 21490 21491 21492 21493 21494 21495 21496 21497 21498 21499 21500 21501 21502 21503 21504 21505 21506 21507 21508 21509 21510 21511 21512 21513 21514 21515 21516 21517 21518 21519 21520 21521 21522 21523 21524 21525 21526 21527 21528 21529 21530 21531 21532 21533 21534 21535 21536 21537 21538 21539 21540 21541 21542 21543 21544 21545 21546 21547 21548 21549 21550 21551 21552 21553 21554 21555 21556 21557 21558 21559 21560 21561 21562 21563 21564 21565 21566 21567 21568 21569 21570 21571 21572 21573 21574 21575 21576 21577 21578 21579 21580 21581 21582 21583 21584 21585 21586 21587 21588 21589 21590 21591 21592 21593 21594 21595 21596 21597 21598 21599 21600 21601 21602 21603 21604 21605 21606 21607 21608 21609 21610 21611 21612 21613 21614 21615 21616 21617 21618 21619 21620 21621 21622 21623 21624 21625 21626 21627 21628 21629 21630 21631 21632 21633 21634 21635 21636 21637 21638 21639 21640 21641 21642 21643 21644 21645 21646 21647 21648 21649 21650 21651 21652 21653 21654 21655 21656 21657 21658 21659 21660 21661 21662 21663 21664 21665 21666 21667 21668 21669 21670 21671 21672 21673 21674 21675 21676 21677 21678 21679 21680 21681 21682 21683 21684 21685 21686 21687 21688 21689 21690 21691 21692 21693 21694 21695 21696 21697 21698 21699 21700 21701 21702 21703 21704 21705 21706 21707 21708 21709 21710 21711 21712 21713 21714 21715 21716 21717 21718 21719 21720 21721 21722 21723 21724 21725 21726 21727 21728 21729 21730 21731 21732 21733 21734 21735 21736 21737 21738 21739 21740 21741 21742 21743 21744 21745 21746 21747 21748 21749 21750 21751 21752 21753 21754 21755 21756 21757 21758 21759 21760 21761 21762 21763 21764 21765 21766 21767 21768 21769 21770 21771 21772 21773 21774 21775 21776 21777 21778 21779 21780 21781 21782 21783 21784 21785 21786 21787 21788 21789 21790 21791 21792 21793 21794 21795 21796 21797 21798 21799 21800 21801 21802 21803 21804 21805 21806 21807 21808 21809 21810 21811 21812 21813 21814 21815 21816 21817 21818 21819 21820 21821 21822 21823 21824 21825 21826 21827 21828 21829 21830 21831 21832 21833 21834 21835 21836 21837 21838 21839 21840 21841 21842 21843 21844 21845 21846 21847 21848 21849 21850 21851 21852 21853 21854 21855 21856 21857 21858 21859 21860 21861 21862 21863 21864 21865 21866 21867 21868 21869 21870 21871 21872 21873 21874 21875 21876 21877 21878 21879 21880 21881 21882 21883 21884 21885 21886 21887 21888 21889 21890 21891 21892 21893 21894 21895 21896 21897 21898 21899 21900 21901 21902 21903 21904 21905 21906 21907 21908 21909 21910 21911 21912 21913 21914 21915 21916 21917 21918 21919 21920 21921 21922 21923 21924 21925 21926 21927 21928 21929 21930 21931 21932 21933 21934 21935 21936 21937 21938 21939 21940 21941 21942 21943 21944 21945 21946 21947 21948 21949 21950 21951 21952 21953 21954 21955 21956 21957 21958 21959 21960 21961 21962 21963 21964 21965 21966 21967 21968 21969 21970 21971 21972 21973 21974 21975 21976 21977 21978 21979 21980 21981 21982 21983 21984 21985 21986 21987 21988 21989 21990 21991 21992 21993 21994 21995 21996 21997 21998 21999 22000 22001 22002 22003 22004 22005 22006 22007 22008 22009 22010 22011 22012 22013 22014 22015 22016 22017 22018 22019 22020 22021 22022 22023 22024 22025 22026 22027 22028 22029 22030 22031 22032 22033 22034 22035 22036 22037 22038 22039 22040 22041 22042 22043 22044 22045 22046 22047 22048 22049 22050 22051 22052 22053 22054 22055 22056 22057 22058 22059 22060 22061 22062 22063 22064 22065 22066 22067 22068 22069 22070 22071 22072 22073 22074 22075 22076 22077 22078 22079 22080 22081 22082 22083 22084 22085 22086 22087 22088 22089 22090 22091 22092 22093 22094 22095 22096 22097 22098 22099 22100 22101 22102 22103 22104 22105 22106 22107 22108 22109 22110 22111 22112 22113 22114 22115 22116 22117 22118 22119 22120 22121 22122 22123 22124 22125 22126 22127 22128 22129 22130 22131 22132 22133 22134 22135 22136 22137 22138 22139 22140 22141 22142 22143 22144 22145 22146 22147 22148 22149 22150 22151 22152 22153 22154 22155 22156 22157 22158 22159 22160 22161 22162 22163 22164 22165 22166 22167 22168 22169 22170 22171 22172 22173 22174 22175 22176 22177 22178 22179 22180 22181 22182 22183 22184 22185 22186 22187 22188 22189 22190 22191 22192 22193 22194 22195 22196 22197 22198 22199 22200 22201 22202 22203 22204 22205 22206 22207 22208 22209 22210 22211 22212 22213 22214 22215 22216 22217 22218 22219 22220 22221 22222 22223 22224 22225 22226 22227 22228 22229 22230 22231 22232 22233 22234 22235 22236 22237 22238 22239 22240 22241 22242 22243 22244 22245 22246 22247 22248 22249 22250 22251 22252 22253 22254 22255 22256 22257 22258 22259 22260 22261 22262 22263 22264 22265 22266 22267 22268 22269 22270 22271 22272 22273 22274 22275 22276 22277 22278 22279 22280 22281 22282 22283 22284 22285 22286 22287 22288 22289 22290 22291 22292 22293 22294 22295 22296 22297 22298 22299 22300 22301 22302 22303 22304 22305 22306 22307 22308 22309 22310 22311 22312 22313 22314 22315 22316 22317 22318 22319 22320 22321 22322 22323 22324 22325 22326 22327 22328 22329 22330 22331 22332 22333 22334 22335 22336 22337 22338 22339 22340 22341 22342 22343 22344 22345 22346 22347 22348 22349 22350 22351 22352 22353 22354 22355 22356 22357 22358 22359 22360 22361 22362 22363 22364 22365 22366 22367 22368 22369 22370 22371 22372 22373 22374 22375 22376 22377 22378 22379 22380 22381 22382 22383 22384 22385 22386 22387 22388 22389 22390 22391 22392 22393 22394 22395 22396 22397 22398 22399 22400 22401 22402 22403 22404 22405 22406 22407 22408 22409 22410 22411 22412 22413 22414 22415 22416 22417 22418 22419 22420 22421 22422 22423 22424 22425 22426 22427 22428 22429 22430 22431 22432 22433 22434 22435 22436 22437 22438 22439 22440 22441 22442 22443 22444 22445 22446 22447 22448 22449 22450 22451 22452 22453 22454 22455 22456 22457 22458 22459 22460 22461 22462 22463 22464 22465 22466 22467 22468 22469 22470 22471 22472 22473 22474 22475 22476 22477 22478 22479 22480 22481 22482 22483 22484 22485 22486 22487 22488 22489 22490 22491 22492 22493 22494 22495 22496 22497 22498 22499 22500 22501 22502 22503 22504 22505 22506 22507 22508 22509 22510 22511 22512 22513 22514 22515 22516 22517 22518 22519 22520 22521 22522 22523 22524 22525 22526 22527 22528 22529 22530 22531 22532 22533 22534 22535 22536 22537 22538 22539 22540 22541 22542 22543 22544 22545 22546 22547 22548 22549 22550 22551 22552 22553 22554 22555 22556 22557 22558 22559 22560 22561 22562 22563 22564 22565 22566 22567 22568 22569 22570 22571 22572 22573 22574 22575 22576 22577 22578 22579 22580 22581 22582 22583 22584 22585 22586 22587 22588 22589 22590 22591 22592 22593 22594 22595 22596 22597 22598 22599 22600 22601 22602 22603 22604 22605 22606 22607 22608 22609 22610 22611 22612 22613 22614 22615 22616 22617 22618 22619 22620 22621 22622 22623 22624 22625 22626 22627 22628 22629 22630 22631 22632 22633 22634 22635 22636 22637 22638 22639 22640 22641 22642 22643 22644 22645 22646 22647 22648 22649 22650 22651 22652 22653 22654 22655 22656 22657 22658 22659 22660 22661 22662 22663 22664 22665 22666 22667 22668 22669 22670 22671 22672 22673 22674 22675 22676 22677 22678 22679 22680 22681 22682 22683 22684 22685 22686 22687 22688 22689 22690 22691 22692 22693 22694 22695 22696 22697 22698 22699 22700 22701 22702 22703 22704 22705 22706 22707 22708 22709 22710 22711 22712 22713 22714 22715 22716 22717 22718 22719 22720 22721 22722 22723 22724 22725 22726 22727 22728 22729 22730 22731 22732 22733 22734 22735 22736 22737 22738 22739 22740 22741 22742 22743 22744 22745 22746 22747 22748 22749 22750 22751 22752 22753 22754 22755 22756 22757 22758 22759 22760 22761 22762 22763 22764 22765 22766 22767 22768 22769 22770 22771 22772 22773 22774 22775 22776 22777 22778 22779 22780 22781 22782 22783 22784 22785 22786 22787 22788 22789 22790 22791 22792 22793 22794 22795 22796 22797 22798 22799 22800 22801 22802 22803 22804 22805 22806 22807 22808 22809 22810 22811 22812 22813 22814 22815 22816 22817 22818 22819 22820 22821 22822 22823 22824 22825 22826 22827 22828 22829 22830 22831 22832 22833 22834 22835 22836 22837 22838 22839 22840 22841 22842 22843 22844 22845 22846 22847 22848 22849 22850 22851 22852 22853 22854 22855 22856 22857 22858 22859 22860 22861 22862 22863 22864 22865 22866 22867 22868 22869 22870 22871 22872 22873 22874 22875 22876 22877 22878 22879 22880 22881 22882 22883 22884 22885 22886 22887 22888 22889 22890 22891 22892 22893 22894 22895 22896 22897 22898 22899 22900 22901 22902 22903 22904 22905 22906 22907 22908 22909 22910 22911 22912 22913 22914 22915 22916 22917 22918 22919 22920 22921 22922 22923 22924 22925 22926 22927 22928 22929 22930 22931 22932 22933 22934 22935 22936 22937 22938 22939 22940 22941 22942 22943 22944 22945 22946 22947 22948 22949 22950 22951 22952 22953 22954 22955 22956 22957 22958 22959 22960 22961 22962 22963 22964 22965 22966 22967 22968 22969 22970 22971 22972 22973 22974 22975 22976 22977 22978 22979 22980 22981 22982 22983 22984 22985 22986 22987 22988 22989 22990 22991 22992 22993 22994 22995 22996 22997 22998 22999 23000 23001 23002 23003 23004 23005 23006 23007 23008 23009 23010 23011 23012 23013 23014 23015 23016 23017 23018 23019 23020 23021 23022 23023 23024 23025 23026 23027 23028 23029 23030 23031 23032 23033 23034 23035 23036 23037 23038 23039 23040 23041 23042 23043 23044 23045 23046 23047 23048 23049 23050 23051 23052 23053 23054 23055 23056 23057 23058 23059 23060 23061 23062 23063 23064 23065 23066 23067 23068 23069 23070 23071 23072 23073 23074 23075 23076 23077 23078 23079 23080 23081 23082 23083 23084 23085 23086 23087 23088 23089 23090 23091 23092 23093 23094 23095 23096 23097 23098 23099 23100 23101 23102 23103 23104 23105 23106 23107 23108 23109 23110 23111 23112 23113 23114 23115 23116 23117 23118 23119 23120 23121 23122 23123 23124 23125 23126 23127 23128 23129 23130 23131 23132 23133 23134 23135 23136 23137 23138 23139 23140 23141 23142 23143 23144 23145 23146 23147 23148 23149 23150 23151 23152 23153 23154 23155 23156 23157 23158 23159 23160 23161 23162 23163 23164 23165 23166 23167 23168 23169 23170 23171 23172 23173 23174 23175 23176 23177 23178 23179 23180 23181 23182 23183 23184 23185 23186 23187 23188 23189 23190 23191 23192 23193 23194 23195 23196 23197 23198 23199 23200 23201 23202 23203 23204 23205 23206 23207 23208 23209 23210 23211 23212 23213 23214 23215 23216 23217 23218 23219 23220 23221 23222 23223 23224 23225 23226 23227 23228 23229 23230 23231 23232 23233 23234 23235 23236 23237 23238 23239 23240 23241 23242 23243 23244 23245 23246 23247 23248 23249 23250 23251 23252 23253 23254 23255 23256 23257 23258 23259 23260 23261 23262 23263 23264 23265 23266 23267 23268 23269 23270 23271 23272 23273 23274 23275 23276 23277 23278 23279 23280 23281 23282 23283 23284 23285 23286 23287 23288 23289 23290 23291 23292 23293 23294 23295 23296 23297 23298 23299 23300 23301 23302 23303 23304 23305 23306 23307 23308 23309 23310 23311 23312 23313 23314 23315 23316 23317 23318 23319 23320 23321 23322 23323 23324 23325 23326 23327 23328 23329 23330 23331 23332 23333 23334 23335 23336 23337 23338 23339 23340 23341 23342 23343 23344 23345 23346 23347 23348 23349 23350 23351 23352 23353 23354 23355 23356 23357 23358 23359 23360 23361 23362 23363 23364 23365 23366 23367 23368 23369 23370 23371 23372 23373 23374 23375 23376 23377 23378 23379 23380 23381 23382 23383 23384 23385 23386 23387 23388 23389 23390 23391 23392 23393 23394 23395 23396 23397 23398 23399 23400 23401 23402 23403 23404 23405 23406 23407 23408 23409 23410 23411 23412 23413 23414 23415 23416 23417 23418 23419 23420 23421 23422 23423 23424 23425 23426 23427 23428 23429 23430 23431 23432 23433 23434 23435 23436 23437 23438 23439 23440 23441 23442 23443 23444 23445 23446 23447 23448 23449 23450 23451 23452 23453 23454 23455 23456 23457 23458 23459 23460 23461 23462 23463 23464 23465 23466 23467 23468 23469 23470 23471 23472 23473 23474 23475 23476 23477 23478 23479 23480 23481 23482 23483 23484 23485 23486 23487 23488 23489 23490 23491 23492 23493 23494 23495 23496 23497 23498 23499 23500 23501 23502 23503 23504 23505 23506 23507 23508 23509 23510 23511 23512 23513 23514 23515 23516 23517 23518 23519 23520 23521 23522 23523 23524 23525 23526 23527 23528 23529 23530 23531 23532 23533 23534 23535 23536 23537 23538 23539 23540 23541 23542 23543 23544 23545 23546 23547 23548 23549 23550 23551 23552 23553 23554 23555 23556 23557 23558 23559 23560 23561 23562 23563 23564 23565 23566 23567 23568 23569 23570 23571 23572 23573 23574 23575 23576 23577 23578 23579 23580 23581 23582 23583 23584 23585 23586 23587 23588 23589 23590 23591 23592 23593 23594 23595 23596 23597 23598 23599 23600 23601 23602 23603 23604 23605 23606 23607 23608 23609 23610 23611 23612 23613 23614 23615 23616 23617 23618 23619 23620 23621 23622 23623 23624 23625 23626 23627 23628 23629 23630 23631 23632 23633 23634 23635 23636 23637 23638 23639 23640 23641 23642 23643 23644 23645 23646 23647 23648 23649 23650 23651 23652 23653 23654 23655 23656 23657 23658 23659 23660 23661 23662 23663 23664 23665 23666 23667 23668 23669 23670 23671 23672 23673 23674 23675 23676 23677 23678 23679 23680 23681 23682 23683 23684 23685 23686 23687 23688 23689 23690 23691 23692 23693 23694 23695 23696 23697 23698 23699 23700 23701 23702 23703 23704 23705 23706 23707 23708 23709 23710 23711 23712 23713 23714 23715 23716 23717 23718 23719 23720 23721 23722 23723 23724 23725 23726 23727 23728 23729 23730 23731 23732 23733 23734 23735 23736 23737 23738 23739 23740 23741 23742 23743 23744 23745 23746 23747 23748 23749 23750 23751 23752 23753 23754 23755 23756 23757 23758 23759 23760 23761 23762 23763 23764 23765 23766 23767 23768 23769 23770 23771 23772 23773 23774 23775 23776 23777 23778 23779 23780 23781 23782 23783 23784 23785 23786 23787 23788 23789 23790 23791 23792 23793 23794 23795 23796 23797 23798 23799 23800 23801 23802 23803 23804 23805 23806 23807 23808 23809 23810 23811 23812 23813 23814 23815 23816 23817 23818 23819 23820 23821 23822 23823 23824 23825 23826 23827 23828 23829 23830 23831 23832 23833 23834 23835 23836 23837 23838 23839 23840 23841 23842 23843 23844 23845 23846 23847 23848 23849 23850 23851 23852 23853 23854 23855 23856 23857 23858 23859 23860 23861 23862 23863 23864 23865 23866 23867 23868 23869 23870 23871 23872 23873 23874 23875 23876 23877 23878 23879 23880 23881 23882 23883 23884 23885 23886 23887 23888 23889 23890 23891 23892 23893 23894 23895 23896 23897 23898 23899 23900 23901 23902 23903 23904 23905 23906 23907 23908 23909 23910 23911 23912 23913 23914 23915 23916 23917 23918 23919 23920 23921 23922 23923 23924 23925 23926 23927 23928 23929 23930 23931 23932 23933 23934 23935 23936 23937 23938 23939 23940 23941 23942 23943 23944 23945 23946 23947 23948 23949 23950 23951 23952 23953 23954 23955 23956 23957 23958 23959 23960 23961 23962 23963 23964 23965 23966 23967 23968 23969 23970 23971 23972 23973 23974 23975 23976 23977 23978 23979 23980 23981 23982 23983 23984 23985 23986 23987 23988 23989 23990 23991 23992 23993 23994 23995 23996 23997 23998 23999 24000 24001 24002 24003 24004 24005 24006 24007 24008 24009 24010 24011 24012 24013 24014 24015 24016 24017 24018 24019 24020 24021 24022 24023 24024 24025 24026 24027 24028 24029 24030 24031 24032 24033 24034 24035 24036 24037 24038 24039 24040 24041 24042 24043 24044 24045 24046 24047 24048 24049 24050 24051 24052 24053 24054 24055 24056 24057 24058 24059 24060 24061 24062 24063 24064 24065 24066 24067 24068 24069 24070 24071 24072 24073 24074 24075 24076 24077 24078 24079 24080 24081 24082 24083 24084 24085 24086 24087 24088 24089 24090 24091 24092 24093 24094 24095 24096 24097 24098 24099 24100 24101 24102 24103 24104 24105 24106 24107 24108 24109 24110 24111 24112 24113 24114 24115 24116 24117 24118 24119 24120 24121 24122 24123 24124 24125 24126 24127 24128 24129 24130 24131 24132 24133 24134 24135 24136 24137 24138 24139 24140 24141 24142 24143 24144 24145 24146 24147 24148 24149 24150 24151 24152 24153 24154 24155 24156 24157 24158 24159 24160 24161 24162 24163 24164 24165 24166 24167 24168 24169 24170 24171 24172 24173 24174 24175 24176 24177 24178 24179 24180 24181 24182 24183 24184 24185 24186 24187 24188 24189 24190 24191 24192 24193 24194 24195 24196 24197 24198 24199 24200 24201 24202 24203 24204 24205 24206 24207 24208 24209 24210 24211 24212 24213 24214 24215 24216 24217 24218 24219 24220 24221 24222 24223 24224 24225 24226 24227 24228 24229 24230 24231 24232 24233 24234 24235 24236 24237 24238 24239 24240 24241 24242 24243 24244 24245 24246 24247 24248 24249 24250 24251 24252 24253 24254 24255 24256 24257 24258 24259 24260 24261 24262 24263 24264 24265 24266 24267 24268 24269 24270 24271 24272 24273 24274 24275 24276 24277 24278 24279 24280 24281 24282 24283 24284 24285 24286 24287 24288 24289 24290 24291 24292 24293 24294 24295 24296 24297 24298 24299 24300 24301 24302 24303 24304 24305 24306 24307 24308 24309 24310 24311 24312 24313 24314 24315 24316 24317 24318 24319 24320 24321 24322 24323 24324 24325 24326 24327 24328 24329 24330 24331 24332 24333 24334 24335 24336 24337 24338 24339 24340 24341 24342 24343 24344 24345 24346 24347 24348 24349 24350 24351 24352 24353 24354 24355 24356 24357 24358 24359 24360 24361 24362 24363 24364 24365 24366 24367 24368 24369 24370 24371 24372 24373 24374 24375 24376 24377 24378 24379 24380 24381 24382 24383 24384 24385 24386 24387 24388 24389 24390 24391 24392 24393 24394 24395 24396 24397 24398 24399 24400 24401 24402 24403 24404 24405 24406 24407 24408 24409 24410 24411 24412 24413 24414 24415 24416 24417 24418 24419 24420 24421 24422 24423 24424 24425 24426 24427 24428 24429 24430 24431 24432 24433 24434 24435 24436 24437 24438 24439 24440 24441 24442 24443 24444 24445 24446 24447 24448 24449 24450 24451 24452 24453 24454 24455 24456 24457 24458 24459 24460 24461 24462 24463 24464 24465 24466 24467 24468 24469 24470 24471 24472 24473 24474 24475 24476 24477 24478 24479 24480 24481 24482 24483 24484 24485 24486 24487 24488 24489 24490 24491 24492 24493 24494 24495 24496 24497 24498 24499 24500 24501 24502 24503 24504 24505 24506 24507 24508 24509 24510 24511 24512 24513 24514 24515 24516 24517 24518 24519 24520 24521 24522 24523 24524 24525 24526 24527 24528 24529 24530 24531 24532 24533 24534 24535 24536 24537 24538 24539 24540 24541 24542 24543 24544 24545 24546 24547 24548 24549 24550 24551 24552 24553 24554 24555 24556 24557 24558 24559 24560 24561 24562 24563 24564 24565 24566 24567 24568 24569 24570 24571 24572 24573 24574 24575 24576 24577 24578 24579 24580 24581 24582 24583 24584 24585 24586 24587 24588 24589 24590 24591 24592 24593 24594 24595 24596 24597 24598 24599 24600 24601 24602 24603 24604 24605 24606 24607 24608 24609 24610 24611 24612 24613 24614 24615 24616 24617 24618 24619 24620 24621 24622 24623 24624 24625 24626 24627 24628 24629 24630 24631 24632 24633 24634 24635 24636 24637 24638 24639 24640 24641 24642 24643 24644 24645 24646 24647 24648 24649 24650 24651 24652 24653 24654 24655 24656 24657 24658 24659 24660 24661 24662 24663 24664 24665 24666 24667 24668 24669 24670 24671 24672 24673 24674 24675 24676 24677 24678 24679 24680 24681 24682 24683 24684 24685 24686 24687 24688 24689 24690 24691 24692 24693 24694 24695 24696 24697 24698 24699 24700 24701 24702 24703 24704 24705 24706 24707 24708 24709 24710 24711 24712 24713 24714 24715 24716 24717 24718 24719 24720 24721 24722 24723 24724 24725 24726 24727 24728 24729 24730 24731 24732 24733 24734 24735 24736 24737 24738 24739 24740 24741 24742 24743 24744 24745 24746 24747 24748 24749 24750 24751 24752 24753 24754 24755 24756 24757 24758 24759 24760 24761 24762 24763 24764 24765 24766 24767 24768 24769 24770 24771 24772 24773 24774 24775 24776 24777 24778 24779 24780 24781 24782 24783 24784 24785 24786 24787 24788 24789 24790 24791 24792 24793 24794 24795 24796 24797 24798 24799 24800 24801 24802 24803 24804 24805 24806 24807 24808 24809 24810 24811 24812 24813 24814 24815 24816 24817 24818 24819 24820 24821 24822 24823 24824 24825 24826 24827 24828 24829 24830 24831 24832 24833 24834 24835 24836 24837 24838 24839 24840 24841 24842 24843 24844 24845 24846 24847 24848 24849 24850 24851 24852 24853 24854 24855 24856 24857 24858 24859 24860 24861 24862 24863 24864 24865 24866 24867 24868 24869 24870 24871 24872 24873 24874 24875 24876 24877 24878 24879 24880 24881 24882 24883 24884 24885 24886 24887 24888 24889 24890 24891 24892 24893 24894 24895 24896 24897 24898 24899 24900 24901 24902 24903 24904 24905 24906 24907 24908 24909 24910 24911 24912 24913 24914 24915 24916 24917 24918 24919 24920 24921 24922 24923 24924 24925 24926 24927 24928 24929 24930 24931 24932 24933 24934 24935 24936 24937 24938 24939 24940 24941 24942 24943 24944 24945 24946 24947 24948 24949 24950 24951 24952 24953 24954 24955 24956 24957 24958 24959 24960 24961 24962 24963 24964 24965 24966 24967 24968 24969 24970 24971 24972 24973 24974 24975 24976 24977 24978 24979 24980 24981 24982 24983 24984 24985 24986 24987 24988 24989 24990 24991 24992 24993 24994 24995 24996 24997 24998 24999 25000 25001 25002 25003 25004 25005 25006 25007 25008 25009 25010 25011 25012 25013 25014 25015 25016 25017 25018 25019 25020 25021 25022 25023 25024 25025 25026 25027 25028 25029 25030 25031 25032 25033 25034 25035 25036 25037 25038 25039 25040 25041 25042 25043 25044 25045 25046 25047 25048 25049 25050 25051 25052 25053 25054 25055 25056 25057 25058 25059 25060 25061 25062 25063 25064 25065 25066 25067 25068 25069 25070 25071 25072 25073 25074 25075 25076 25077 25078 25079 25080 25081 25082 25083 25084 25085 25086 25087 25088 25089 25090 25091 25092 25093 25094 25095 25096 25097 25098 25099 25100 25101 25102 25103 25104 25105 25106 25107 25108 25109 25110 25111 25112 25113 25114 25115 25116 25117 25118 25119 25120 25121 25122 25123 25124 25125 25126 25127 25128 25129 25130 25131 25132 25133 25134 25135 25136 25137 25138 25139 25140 25141 25142 25143 25144 25145 25146 25147 25148 25149 25150 25151 25152 25153 25154 25155 25156 25157 25158 25159 25160 25161 25162 25163 25164 25165 25166 25167 25168 25169 25170 25171 25172 25173 25174 25175 25176 25177 25178 25179 25180 25181 25182 25183 25184 25185 25186 25187 25188 25189 25190 25191 25192 25193 25194 25195 25196 25197 25198 25199 25200 25201 25202 25203 25204 25205 25206 25207 25208 25209 25210 25211 25212 25213 25214 25215 25216 25217 25218 25219 25220 25221 25222 25223 25224 25225 25226 25227 25228 25229 25230 25231 25232 25233 25234 25235 25236 25237 25238 25239 25240 25241 25242 25243 25244 25245 25246 25247 25248 25249 25250 25251 25252 25253 25254 25255 25256 25257 25258 25259 25260 25261 25262 25263 25264 25265 25266 25267 25268 25269 25270 25271 25272 25273 25274 25275 25276 25277 25278 25279 25280 25281 25282 25283 25284 25285 25286 25287 25288 25289 25290 25291 25292 25293 25294 25295 25296 25297 25298 25299 25300 25301 25302 25303 25304 25305 25306 25307 25308 25309 25310 25311 25312 25313 25314 25315 25316 25317 25318 25319 25320 25321 25322 25323 25324 25325 25326 25327 25328 25329 25330 25331 25332 25333 25334 25335 25336 25337 25338 25339 25340 25341 25342 25343 25344 25345 25346 25347 25348 25349 25350 25351 25352 25353 25354 25355 25356 25357 25358 25359 25360 25361 25362 25363 25364 25365 25366 25367 25368 25369 25370 25371 25372 25373 25374 25375 25376 25377 25378 25379 25380 25381 25382 25383 25384 25385 25386 25387 25388 25389 25390 25391 25392 25393 25394 25395 25396 25397 25398 25399 25400 25401 25402 25403 25404 25405 25406 25407 25408 25409 25410 25411 25412 25413 25414 25415 25416 25417 25418 25419 25420 25421 25422 25423 25424 25425 25426 25427 25428 25429 25430 25431 25432 25433 25434 25435 25436 25437 25438 25439 25440 25441 25442 25443 25444 25445 25446 25447 25448 25449 25450 25451 25452 25453 25454 25455 25456 25457 25458 25459 25460 25461 25462 25463 25464 25465 25466 25467 25468 25469 25470 25471 25472 25473 25474 25475 25476 25477 25478 25479 25480 25481 25482 25483 25484 25485 25486 25487 25488 25489 25490 25491 25492 25493 25494 25495 25496 25497 25498 25499 25500 25501 25502 25503 25504 25505 25506 25507 25508 25509 25510 25511 25512 25513 25514 25515 25516 25517 25518 25519 25520 25521 25522 25523 25524 25525 25526 25527 25528 25529 25530 25531 25532 25533 25534 25535 25536 25537 25538 25539 25540 25541 25542 25543 25544 25545 25546 25547 25548 25549 25550 25551 25552 25553 25554 25555 25556 25557 25558 25559 25560 25561 25562 25563 25564 25565 25566 25567 25568 25569 25570 25571 25572 25573 25574 25575 25576 25577 25578 25579 25580 25581 25582 25583 25584 25585 25586 25587 25588 25589 25590 25591 25592 25593 25594 25595 25596 25597 25598 25599 25600 25601 25602 25603 25604 25605 25606 25607 25608 25609 25610 25611 25612 25613 25614 25615 25616 25617 25618 25619 25620 25621 25622 25623 25624 25625 25626 25627 25628 25629 25630 25631 25632 25633 25634 25635 25636 25637 25638 25639 25640 25641 25642 25643 25644 25645 25646 25647 25648 25649 25650 25651 25652 25653 25654 25655 25656 25657 25658 25659 25660 25661 25662 25663 25664 25665 25666 25667 25668 25669 25670 25671 25672 25673 25674 25675 25676 25677 25678 25679 25680 25681 25682 25683 25684 25685 25686 25687 25688 25689 25690 25691 25692 25693 25694 25695 25696 25697 25698 25699 25700 25701 25702 25703 25704 25705 25706 25707 25708 25709 25710 25711 25712 25713 25714 25715 25716 25717 25718 25719 25720 25721 25722 25723 25724 25725 25726 25727 25728 25729 25730 25731 25732 25733 25734 25735 25736 25737 25738 25739 25740 25741 25742 25743 25744 25745 25746 25747 25748 25749 25750 25751 25752 25753 25754 25755 25756 25757 25758 25759 25760 25761 25762 25763 25764 25765 25766 25767 25768 25769 25770 25771 25772 25773 25774 25775 25776 25777 25778 25779 25780 25781 25782 25783 25784 25785 25786 25787 25788 25789 25790 25791 25792 25793 25794 25795 25796 25797 25798 25799 25800 25801 25802 25803 25804 25805 25806 25807 25808 25809 25810 25811 25812 25813 25814 25815 25816 25817 25818 25819 25820 25821 25822 25823 25824 25825 25826 25827 25828 25829 25830 25831 25832 25833 25834 25835 25836 25837 25838 25839 25840 25841 25842 25843 25844 25845 25846 25847 25848 25849 25850 25851 25852 25853 25854 25855 25856 25857 25858 25859 25860 25861 25862 25863 25864 25865 25866 25867 25868 25869 25870 25871 25872 25873 25874 25875 25876 25877 25878 25879 25880 25881 25882 25883 25884 25885 25886 25887 25888 25889 25890 25891 25892 25893 25894 25895 25896 25897 25898 25899 25900 25901 25902 25903 25904 25905 25906 25907 25908 25909 25910 25911 25912 25913 25914 25915 25916 25917 25918 25919 25920 25921 25922 25923 25924 25925 25926 25927 25928 25929 25930 25931 25932 25933 25934 25935 25936 25937 25938 25939 25940 25941 25942 25943 25944 25945 25946 25947 25948 25949 25950 25951 25952 25953 25954 25955 25956 25957 25958 25959 25960 25961 25962 25963 25964 25965 25966 25967 25968 25969 25970 25971 25972 25973 25974 25975 25976 25977 25978 25979 25980 25981 25982 25983 25984 25985 25986 25987 25988 25989 25990 25991 25992 25993 25994 25995 25996 25997 25998 25999 26000 26001 26002 26003 26004 26005 26006 26007 26008 26009 26010 26011 26012 26013 26014 26015 26016 26017 26018 26019 26020 26021 26022 26023 26024 26025 26026 26027 26028 26029 26030 26031 26032 26033 26034 26035 26036 26037 26038 26039 26040 26041 26042 26043 26044 26045 26046 26047 26048 26049 26050 26051 26052 26053 26054 26055 26056 26057 26058 26059 26060 26061 26062 26063 26064 26065 26066 26067 26068 26069 26070 26071 26072 26073 26074 26075 26076 26077 26078 26079 26080 26081 26082 26083 26084 26085 26086 26087 26088 26089 26090 26091 26092 26093 26094 26095 26096 26097 26098 26099 26100 26101 26102 26103 26104 26105 26106 26107 26108 26109 26110 26111 26112 26113 26114 26115 26116 26117 26118 26119 26120 26121 26122 26123 26124 26125 26126 26127 26128 26129 26130 26131 26132 26133 26134 26135 26136 26137 26138 26139 26140 26141 26142 26143 26144 26145 26146 26147 26148 26149 26150 26151 26152 26153 26154 26155 26156 26157 26158 26159 26160 26161 26162 26163 26164 26165 26166 26167 26168 26169 26170 26171 26172 26173 26174 26175 26176 26177 26178 26179 26180 26181 26182 26183 26184 26185 26186 26187 26188 26189 26190 26191 26192 26193 26194 26195 26196 26197 26198 26199 26200 26201 26202 26203 26204 26205 26206 26207 26208 26209 26210 26211 26212 26213 26214 26215 26216 26217 26218 26219 26220 26221 26222 26223 26224 26225 26226 26227 26228 26229 26230 26231 26232 26233 26234 26235 26236 26237 26238 26239 26240 26241 26242 26243 26244 26245 26246 26247 26248 26249 26250 26251 26252 26253 26254 26255 26256 26257 26258 26259 26260 26261 26262 26263 26264 26265 26266 26267 26268 26269 26270 26271 26272 26273 26274 26275 26276 26277 26278 26279 26280 26281 26282 26283 26284 26285 26286 26287 26288 26289 26290 26291 26292 26293 26294 26295 26296 26297 26298 26299 26300 26301 26302 26303 26304 26305 26306 26307 26308 26309 26310 26311 26312 26313 26314 26315 26316 26317 26318 26319 26320 26321 26322 26323 26324 26325 26326 26327 26328 26329 26330 26331 26332 26333 26334 26335 26336 26337 26338 26339 26340 26341 26342 26343 26344 26345 26346 26347 26348 26349 26350 26351 26352 26353 26354 26355 26356 26357 26358 26359 26360 26361 26362 26363 26364 26365 26366 26367 26368 26369 26370 26371 26372 26373 26374 26375 26376 26377 26378 26379 26380 26381 26382 26383 26384 26385 26386 26387 26388 26389 26390 26391 26392 26393 26394 26395 26396 26397 26398 26399 26400 26401 26402 26403 26404 26405 26406 26407 26408 26409 26410 26411 26412 26413 26414 26415 26416 26417 26418 26419 26420 26421 26422 26423 26424 26425 26426 26427 26428 26429 26430 26431 26432 26433 26434 26435 26436 26437 26438 26439 26440 26441 26442 26443 26444 26445 26446 26447 26448 26449 26450 26451 26452 26453 26454 26455 26456 26457 26458 26459 26460 26461 26462 26463 26464 26465 26466 26467 26468 26469 26470 26471 26472 26473 26474 26475 26476 26477 26478 26479 26480 26481 26482 26483 26484 26485 26486 26487 26488 26489 26490 26491 26492 26493 26494 26495 26496 26497 26498 26499 26500 26501 26502 26503 26504 26505 26506 26507 26508 26509 26510 26511 26512 26513 26514 26515 26516 26517 26518 26519 26520 26521 26522 26523 26524 26525 26526 26527 26528 26529 26530 26531 26532 26533 26534 26535 26536 26537 26538 26539 26540 26541 26542 26543 26544 26545 26546 26547 26548 26549 26550 26551 26552 26553 26554 26555 26556 26557 26558 26559 26560 26561 26562 26563 26564 26565 26566 26567 26568 26569 26570 26571 26572 26573 26574 26575 26576 26577 26578 26579 26580 26581 26582 26583 26584 26585 26586 26587 26588 26589 26590 26591 26592 26593 26594 26595 26596 26597 26598 26599 26600 26601 26602 26603 26604 26605 26606 26607 26608 26609 26610 26611 26612 26613 26614 26615 26616 26617 26618 26619 26620 26621 26622 26623 26624 26625 26626 26627 26628 26629 26630 26631 26632 26633 26634 26635 26636 26637 26638 26639 26640 26641 26642 26643 26644 26645 26646 26647 26648 26649 26650 26651 26652 26653 26654 26655 26656 26657 26658 26659 26660 26661 26662 26663 26664 26665 26666 26667 26668 26669 26670 26671 26672 26673 26674 26675 26676 26677 26678 26679 26680 26681 26682 26683 26684 26685 26686 26687 26688 26689 26690 26691 26692 26693 26694 26695 26696 26697 26698 26699 26700 26701 26702 26703 26704 26705 26706 26707 26708 26709 26710 26711 26712 26713 26714 26715 26716 26717 26718 26719 26720 26721 26722 26723 26724 26725 26726 26727 26728 26729 26730 26731 26732 26733 26734 26735 26736 26737 26738 26739 26740 26741 26742 26743 26744 26745 26746 26747 26748 26749 26750 26751 26752 26753 26754 26755 26756 26757 26758 26759 26760 26761 26762 26763 26764 26765 26766 26767 26768 26769 26770 26771 26772 26773 26774 26775 26776 26777 26778 26779 26780 26781 26782 26783 26784 26785 26786 26787 26788 26789 26790 26791 26792 26793 26794 26795 26796 26797 26798 26799 26800 26801 26802 26803 26804 26805 26806 26807 26808 26809 26810 26811 26812 26813 26814 26815 26816 26817 26818 26819 26820 26821 26822 26823 26824 26825 26826 26827 26828 26829 26830 26831 26832 26833 26834 26835 26836 26837 26838 26839 26840 26841 26842 26843 26844 26845 26846 26847 26848 26849 26850 26851 26852 26853 26854 26855 26856 26857 26858 26859 26860 26861 26862 26863 26864 26865 26866 26867 26868 26869 26870 26871 26872 26873 26874 26875 26876 26877 26878 26879 26880 26881 26882 26883 26884 26885 26886 26887 26888 26889 26890 26891 26892 26893 26894 26895 26896 26897 26898 26899 26900 26901 26902 26903 26904 26905 26906 26907 26908 26909 26910 26911 26912 26913 26914 26915 26916 26917 26918 26919 26920 26921 26922 26923 26924 26925 26926 26927 26928 26929 26930 26931 26932 26933 26934 26935 26936 26937 26938 26939 26940 26941 26942 26943 26944 26945 26946 26947 26948 26949 26950 26951 26952 26953 26954 26955 26956 26957 26958 26959 26960 26961 26962 26963 26964 26965 26966 26967 26968 26969 26970 26971 26972 26973 26974 26975 26976 26977 26978 26979 26980 26981 26982 26983 26984 26985 26986 26987 26988 26989 26990 26991 26992 26993 26994 26995 26996 26997 26998 26999 27000 27001 27002 27003 27004 27005 27006 27007 27008 27009 27010 27011 27012 27013 27014 27015 27016 27017 27018 27019 27020 27021 27022 27023 27024 27025 27026 27027 27028 27029 27030 27031 27032 27033 27034 27035 27036 27037 27038 27039 27040 27041 27042 27043 27044 27045 27046 27047 27048 27049 27050 27051 27052 27053 27054 27055 27056 27057 27058 27059 27060 27061 27062 27063 27064 27065 27066 27067 27068 27069 27070 27071 27072 27073 27074 27075 27076 27077 27078 27079 27080 27081 27082 27083 27084 27085 27086 27087 27088 27089 27090 27091 27092 27093 27094 27095 27096 27097 27098 27099 27100 27101 27102 27103 27104 27105 27106 27107 27108 27109 27110 27111 27112 27113 27114 27115 27116 27117 27118 27119 27120 27121 27122 27123 27124 27125 27126 27127 27128 27129 27130 27131 27132 27133 27134 27135 27136 27137 27138 27139 27140 27141 27142 27143 27144 27145 27146 27147 27148 27149 27150 27151 27152 27153 27154 27155 27156 27157 27158 27159 27160 27161 27162 27163 27164 27165 27166 27167 27168 27169 27170 27171 27172 27173 27174 27175 27176 27177 27178 27179 27180 27181 27182 27183 27184 27185 27186 27187 27188 27189 27190 27191 27192 27193 27194 27195 27196 27197 27198 27199 27200 27201 27202 27203 27204 27205 27206 27207 27208 27209 27210 27211 27212 27213 27214 27215 27216 27217 27218 27219 27220 27221 27222 27223 27224 27225 27226 27227 27228 27229 27230 27231 27232 27233 27234 27235 27236 27237 27238 27239 27240 27241 27242 27243 27244 27245 27246 27247 27248 27249 27250 27251 27252 27253 27254 27255 27256 27257 27258 27259 27260 27261 27262 27263 27264 27265 27266 27267 27268 27269 27270 27271 27272 27273 27274 27275 27276 27277 27278 27279 27280 27281 27282 27283 27284 27285 27286 27287 27288 27289 27290 27291 27292 27293 27294 27295 27296 27297 27298 27299 27300 27301 27302 27303 27304 27305 27306 27307 27308 27309 27310 27311 27312 27313 27314 27315 27316 27317 27318 27319 27320 27321 27322 27323 27324 27325 27326 27327 27328 27329 27330 27331 27332 27333 27334 27335 27336 27337 27338 27339 27340 27341 27342 27343 27344 27345 27346 27347 27348 27349 27350 27351 27352 27353 27354 27355 27356 27357 27358 27359 27360 27361 27362 27363 27364 27365 27366 27367 27368 27369 27370 27371 27372 27373 27374 27375 27376 27377 27378 27379 27380 27381 27382 27383 27384 27385 27386 27387 27388 27389 27390 27391 27392 27393 27394 27395 27396 27397 27398 27399 27400 27401 27402 27403 27404 27405 27406 27407 27408 27409 27410 27411 27412 27413 27414 27415 27416 27417 27418 27419 27420 27421 27422 27423 27424 27425 27426 27427 27428 27429 27430 27431 27432 27433 27434 27435 27436 27437 27438 27439 27440 27441 27442 27443 27444 27445 27446 27447 27448 27449 27450 27451 27452 27453 27454 27455 27456 27457 27458 27459 27460 27461 27462 27463 27464 27465 27466 27467 27468 27469 27470 27471 27472 27473 27474 27475 27476 27477 27478 27479 27480 27481 27482 27483 27484 27485 27486 27487 27488 27489 27490 27491 27492 27493 27494 27495 27496 27497 27498 27499 27500 27501 27502 27503 27504 27505 27506 27507 27508 27509 27510 27511 27512 27513 27514 27515 27516 27517 27518 27519 27520 27521 27522 27523 27524 27525 27526 27527 27528 27529 27530 27531 27532 27533 27534 27535 27536 27537 27538 27539 27540 27541 27542 27543 27544 27545 27546 27547 27548 27549 27550 27551 27552 27553 27554 27555 27556 27557 27558 27559 27560 27561 27562 27563 27564 27565 27566 27567 27568 27569 27570 27571 27572 27573 27574 27575 27576 27577 27578 27579 27580 27581 27582 27583 27584 27585 27586 27587 27588 27589 27590 27591 27592 27593 27594 27595 27596 27597 27598 27599 27600 27601 27602 27603 27604 27605 27606 27607 27608 27609 27610 27611 27612 27613 27614 27615 27616 27617 27618 27619 27620 27621 27622 27623 27624 27625 27626 27627 27628 27629 27630 27631 27632 27633 27634 27635 27636 27637 27638 27639 27640 27641 27642 27643 27644 27645 27646 27647 27648 27649 27650 27651 27652 27653 27654 27655 27656 27657 27658 27659 27660 27661 27662 27663 27664 27665 27666 27667 27668 27669 27670 27671 27672 27673 27674 27675 27676 27677 27678 27679 27680 27681 27682 27683 27684 27685 27686 27687 27688 27689 27690 27691 27692 27693 27694 27695 27696 27697 27698 27699 27700 27701 27702 27703 27704 27705 27706 27707 27708 27709 27710 27711 27712 27713 27714 27715 27716 27717 27718 27719 27720 27721 27722 27723 27724 27725 27726 27727 27728 27729 27730 27731 27732 27733 27734 27735 27736 27737 27738 27739 27740 27741 27742 27743 27744 27745 27746 27747 27748 27749 27750 27751 27752 27753 27754 27755 27756 27757 27758 27759 27760 27761 27762 27763 27764 27765 27766 27767 27768 27769 27770 27771 27772 27773 27774 27775 27776 27777 27778 27779 27780 27781 27782 27783 27784 27785 27786 27787 27788 27789 27790 27791 27792 27793 27794 27795 27796 27797 27798 27799 27800 27801 27802 27803 27804 27805 27806 27807 27808 27809 27810 27811 27812 27813 27814 27815 27816 27817 27818 27819 27820 27821 27822 27823 27824 27825 27826 27827 27828 27829 27830 27831 27832 27833 27834 27835 27836 27837 27838 27839 27840 27841 27842 27843 27844 27845 27846 27847 27848 27849 27850 27851 27852 27853 27854 27855 27856 27857 27858 27859 27860 27861 27862 27863 27864 27865 27866 27867 27868 27869 27870 27871 27872 27873 27874 27875 27876 27877 27878 27879 27880 27881 27882 27883 27884 27885 27886 27887 27888 27889 27890 27891 27892 27893 27894 27895 27896 27897 27898 27899 27900 27901 27902 27903 27904 27905 27906 27907 27908 27909 27910 27911 27912 27913 27914 27915 27916 27917 27918 27919 27920 27921 27922 27923 27924 27925 27926 27927 27928 27929 27930 27931 27932 27933 27934 27935 27936 27937 27938 27939 27940 27941 27942 27943 27944 27945 27946 27947 27948 27949 27950 27951 27952 27953 27954 27955 27956 27957 27958 27959 27960 27961 27962 27963 27964 27965 27966 27967 27968 27969 27970 27971 27972 27973 27974 27975 27976 27977 27978 27979 27980 27981 27982 27983 27984 27985 27986 27987 27988 27989 27990 27991 27992 27993 27994 27995 27996 27997 27998 27999 28000 28001 28002 28003 28004 28005 28006 28007 28008 28009 28010 28011 28012 28013 28014 28015 28016 28017 28018 28019 28020 28021 28022 28023 28024 28025 28026 28027 28028 28029 28030 28031 28032 28033 28034 28035 28036 28037 28038 28039 28040 28041 28042 28043 28044 28045 28046 28047 28048 28049 28050 28051 28052 28053 28054 28055 28056 28057 28058 28059 28060 28061 28062 28063 28064 28065 28066 28067 28068 28069 28070 28071 28072 28073 28074 28075 28076 28077 28078 28079 28080 28081 28082 28083 28084 28085 28086 28087 28088 28089 28090 28091 28092 28093 28094 28095 28096 28097 28098 28099 28100 28101 28102 28103 28104 28105 28106 28107 28108 28109 28110 28111 28112 28113 28114 28115 28116 28117 28118 28119 28120 28121 28122 28123 28124 28125 28126 28127 28128 28129 28130 28131 28132 28133 28134 28135 28136 28137 28138 28139 28140 28141 28142 28143 28144 28145 28146 28147 28148 28149 28150 28151 28152 28153 28154 28155 28156 28157 28158 28159 28160 28161 28162 28163 28164 28165 28166 28167 28168 28169 28170 28171 28172 28173 28174 28175 28176 28177 28178 28179 28180 28181 28182 28183 28184 28185 28186 28187 28188 28189 28190 28191 28192 28193 28194 28195 28196 28197 28198 28199 28200 28201 28202 28203 28204 28205 28206 28207 28208 28209 28210 28211 28212 28213 28214 28215 28216 28217 28218 28219 28220 28221 28222 28223 28224 28225 28226 28227 28228 28229 28230 28231 28232 28233 28234 28235 28236 28237 28238 28239 28240 28241 28242 28243 28244 28245 28246 28247 28248 28249 28250 28251 28252 28253 28254 28255 28256 28257 28258 28259 28260 28261 28262 28263 28264 28265 28266 28267 28268 28269 28270 28271 28272 28273 28274 28275 28276 28277 28278 28279 28280 28281 28282 28283 28284 28285 28286 28287 28288 28289 28290 28291 28292 28293 28294 28295 28296 28297 28298 28299 28300 28301 28302 28303 28304 28305 28306 28307 28308 28309 28310 28311 28312 28313 28314 28315 28316 28317 28318 28319 28320 28321 28322 28323 28324 28325 28326 28327 28328 28329 28330 28331 28332 28333 28334 28335 28336 28337 28338 28339 28340 28341 28342 28343 28344 28345 28346 28347 28348 28349 28350 28351 28352 28353 28354 28355 28356 28357 28358 28359 28360 28361 28362 28363 28364 28365 28366 28367 28368 28369 28370 28371 28372 28373 28374 28375 28376 28377 28378 28379 28380 28381 28382 28383 28384 28385 28386 28387 28388 28389 28390 28391 28392 28393 28394 28395 28396 28397 28398 28399 28400 28401 28402 28403 28404 28405 28406 28407 28408 28409 28410 28411 28412 28413 28414 28415 28416 28417 28418 28419 28420 28421 28422 28423 28424 28425 28426 28427 28428 28429 28430 28431 28432 28433 28434 28435 28436 28437 28438 28439 28440 28441 28442 28443 28444 28445 28446 28447 28448 28449 28450 28451 28452 28453 28454 28455 28456 28457 28458 28459 28460 28461 28462 28463 28464 28465 28466 28467 28468 28469 28470 28471 28472 28473 28474 28475 28476 28477 28478 28479 28480 28481 28482 28483 28484 28485 28486 28487 28488 28489 28490 28491 28492 28493 28494 28495 28496 28497 28498 28499 28500 28501 28502 28503 28504 28505 28506 28507 28508 28509 28510 28511 28512 28513 28514 28515 28516 28517 28518 28519 28520 28521 28522 28523 28524 28525 28526 28527 28528 28529 28530 28531 28532 28533 28534 28535 28536 28537 28538 28539 28540 28541 28542 28543 28544 28545 28546 28547 28548 28549 28550 28551 28552 28553 28554 28555 28556 28557 28558 28559 28560 28561 28562 28563 28564 28565 28566 28567 28568 28569 28570 28571 28572 28573 28574 28575 28576 28577 28578 28579 28580 28581 28582 28583 28584 28585 28586 28587 28588 28589 28590 28591 28592 28593 28594 28595 28596 28597 28598 28599 28600 28601 28602 28603 28604 28605 28606 28607 28608 28609 28610 28611 28612 28613 28614 28615 28616 28617 28618 28619 28620 28621 28622 28623 28624 28625 28626 28627 28628 28629 28630 28631 28632 28633 28634 28635 28636 28637 28638 28639 28640 28641 28642 28643 28644 28645 28646 28647 28648 28649 28650 28651 28652 28653 28654 28655 28656 28657 28658 28659 28660 28661 28662 28663 28664 28665 28666 28667 28668 28669 28670 28671 28672 28673 28674 28675 28676 28677 28678 28679 28680 28681 28682 28683 28684 28685 28686 28687 28688 28689 28690 28691 28692 28693 28694 28695 28696 28697 28698 28699 28700 28701 28702 28703 28704 28705 28706 28707 28708 28709 28710 28711 28712 28713 28714 28715 28716 28717 28718 28719 28720 28721 28722 28723 28724 28725 28726 28727 28728 28729 28730 28731 28732 28733 28734 28735 28736 28737 28738 28739 28740 28741 28742 28743 28744 28745 28746 28747 28748 28749 28750 28751 28752 28753 28754 28755 28756 28757 28758 28759 28760 28761 28762 28763 28764 28765 28766 28767 28768 28769 28770 28771 28772 28773 28774 28775 28776 28777 28778 28779 28780 28781 28782 28783 28784 28785 28786 28787 28788 28789 28790 28791 28792 28793 28794 28795 28796 28797 28798 28799 28800 28801 28802 28803 28804 28805 28806 28807 28808 28809 28810 28811 28812 28813 28814 28815 28816 28817 28818 28819 28820 28821 28822 28823 28824 28825 28826 28827 28828 28829 28830 28831 28832 28833 28834 28835 28836 28837 28838 28839 28840 28841 28842 28843 28844 28845 28846 28847 28848 28849 28850 28851 28852 28853 28854 28855 28856 28857 28858 28859 28860 28861 28862 28863 28864 28865 28866 28867 28868 28869 28870 28871 28872 28873 28874 28875 28876 28877 28878 28879 28880 28881 28882 28883 28884 28885 28886 28887 28888 28889 28890 28891 28892 28893 28894 28895 28896 28897 28898 28899 28900 28901 28902 28903 28904 28905 28906 28907 28908 28909 28910 28911 28912 28913 28914 28915 28916 28917 28918 28919 28920 28921 28922 28923 28924 28925 28926 28927 28928 28929 28930 28931 28932 28933 28934 28935 28936 28937 28938 28939 28940 28941 28942 28943 28944 28945 28946 28947 28948 28949 28950 28951 28952 28953 28954 28955 28956 28957 28958 28959 28960 28961 28962 28963 28964 28965 28966 28967 28968 28969 28970 28971 28972 28973 28974 28975 28976 28977 28978 28979 28980 28981 28982 28983 28984 28985 28986 28987 28988 28989 28990 28991 28992 28993 28994 28995 28996 28997 28998 28999 29000 29001 29002 29003 29004 29005 29006 29007 29008 29009 29010 29011 29012 29013 29014 29015 29016 29017 29018 29019 29020 29021 29022 29023 29024 29025 29026 29027 29028 29029 29030 29031 29032 29033 29034 29035 29036 29037 29038 29039 29040 29041 29042 29043 29044 29045 29046 29047 29048 29049 29050 29051 29052 29053 29054 29055 29056 29057 29058 29059 29060 29061 29062 29063 29064 29065 29066 29067 29068 29069 29070 29071 29072 29073 29074 29075 29076 29077 29078 29079 29080 29081 29082 29083 29084 29085 29086 29087 29088 29089 29090 29091 29092 29093 29094 29095 29096 29097 29098 29099 29100 29101 29102 29103 29104 29105 29106 29107 29108 29109 29110 29111 29112 29113 29114 29115 29116 29117 29118 29119 29120 29121 29122 29123 29124 29125 29126 29127 29128 29129 29130 29131 29132 29133 29134 29135 29136 29137 29138 29139 29140 29141 29142 29143 29144 29145 29146 29147 29148 29149 29150 29151 29152 29153 29154 29155 29156 29157 29158 29159 29160 29161 29162 29163 29164 29165 29166 29167 29168 29169 29170 29171 29172 29173 29174 29175 29176 29177 29178 29179 29180 29181 29182 29183 29184 29185 29186 29187 29188 29189 29190 29191 29192 29193 29194 29195 29196 29197 29198 29199 29200 29201 29202 29203 29204 29205 29206 29207 29208 29209 29210 29211 29212 29213 29214 29215 29216 29217 29218 29219 29220 29221 29222 29223 29224 29225 29226 29227 29228 29229 29230 29231 29232 29233 29234 29235 29236 29237 29238 29239 29240 29241 29242 29243 29244 29245 29246 29247 29248 29249 29250 29251 29252 29253 29254 29255 29256 29257 29258 29259 29260 29261 29262 29263 29264 29265 29266 29267 29268 29269 29270 29271 29272 29273 29274 29275 29276 29277 29278 29279 29280 29281 29282 29283 29284 29285 29286 29287 29288 29289 29290 29291 29292 29293 29294 29295 29296 29297 29298 29299 29300 29301 29302 29303 29304 29305 29306 29307 29308 29309 29310 29311 29312 29313 29314 29315 29316 29317 29318 29319 29320 29321 29322 29323 29324 29325 29326 29327 29328 29329 29330 29331 29332 29333 29334 29335 29336 29337 29338 29339 29340 29341 29342 29343 29344 29345 29346 29347 29348 29349 29350 29351 29352 29353 29354 29355 29356 29357 29358 29359 29360 29361 29362 29363 29364 29365 29366 29367 29368 29369 29370 29371 29372 29373 29374 29375 29376 29377 29378 29379 29380 29381 29382 29383 29384 29385 29386 29387 29388 29389 29390 29391 29392 29393 29394 29395 29396 29397 29398 29399 29400 29401 29402 29403 29404 29405 29406 29407 29408 29409 29410 29411 29412 29413 29414 29415 29416 29417 29418 29419 29420 29421 29422 29423 29424 29425 29426 29427 29428 29429 29430 29431 29432 29433 29434 29435 29436 29437 29438 29439 29440 29441 29442 29443 29444 29445 29446 29447 29448 29449 29450 29451 29452 29453 29454 29455 29456 29457 29458 29459 29460 29461 29462 29463 29464 29465 29466 29467 29468 29469 29470 29471 29472 29473 29474 29475 29476 29477 29478 29479 29480 29481 29482 29483 29484 29485 29486 29487 29488 29489 29490 29491 29492 29493 29494 29495 29496 29497 29498 29499 29500 29501 29502 29503 29504 29505 
</DataArray>
<DataArray type="UInt32" Name="offsets" format="ascii">
3 6 9 12 14 17 20 23 26 29 32 35 38 40 43 46 48 51 54 57 60 63 65 68 71 74 76 78 81 84 87 90 93 96 99 102 105 108 111 114 117 120 123 126 129 132 134 137 140 143 146 149 152 155 158 160 163 166 169 172 175 178 180 183 186 188 191 194 197 200 202 205 208 211 214 217 220 223 226 229 232 235 238 241 244 247 250 253 256 259 262 265 267 270 273 276 279 282 285 287 290 293 296 299 302 305 308 311 314 317 320 323 326 328 331 333 336 339 342 345 347 350 353 356 359 362 365 368 371 374 377 380 382 385 388 391 394 396 399 402 405 408 411 414 417 420 423 426 428 431 434 437 440 443 446 449 452 455 458 461 464 467 470 472 475 478 481 484 486 489 492 495 498 501 504 507 510 513 516 519 522 525 528 531 534 537 540 543 546 549 552 555 558 561 564 567 570 573 576 579 582 585 588 591 594 597 600 603 606 609 612 615 617 620 623 625 628 631 634 637 640 643 646 649 652 655 657 659 662 665 668 671 674 677 680 683 686 689 692 695 698 700 703 706 709 712 715 717 720 723 726 729 732 734 737 740 743 746 749 752 754 757 760 762 765 768 771 773 776 779 782 785 787 790 793 796 798 800 803 805 808 811 814 817 820 823 826 829 831 834 837 840 843 846 849 852 855 858 861 864 866 869 872 875 878 881 884 887 890 893 896 899 902 905 908 911 914 917 919 922 925 928 931 934 937 940 943 946 949 952 955 958 961 964 967 970 973 975 978 981 984 986 988 991 994 997 999 1002 1005 1007 1010 1013 1016 1019 1022 1025 1028 1031 1034 1037 1040 1043 1046 1048 1051 1054 1057 1060 1063 1066 1069 1072 1075 1078 1081 1084 1087 1090 1093 1096 1099 1101 1104 1107 1110 1112 1115 1118 1121 1124 1126 1129 1132 1135 1138 1141 1144 1147 1149 1152 1155 1157 1160 1163 1166 1169 1172 1175 1178 1181 1184 1186 1188 1191 1194 1196 1199 1202 1205 1207 1210 1212 1215 1218 1221 1224 1226 1229 1232 1234 1237 1240 1243 1246 1249 1252 1254 1257 1260 1263 1266 1268 1271 1273 1276 1278 1281 1283 1286 1289 1292 1294 1297 1300 1303 1305 1308 1311 1314 1316 1319 1321 1324 1327 1330 1332 1335 1338 1341 1344 1347 1350 1353 1356 1359 1362 1365 1367 1370 1373 1376 1379 1382 1385 1388 1391 1394 1397 1400 1403 1406 1409 1411 1413 1416 1419 1422 1425 1427 1430 1433 1436 1439 1442 1445 1447 1450 1453 1455 1458 1461 1464 1467 1470 1473 1476 1479 1482 1485 1488 1491 1494 1497 1500 1503 1506 1509 1512 1515 1518 1521 1524 1527 1529 1532 1535 1538 1540 1543 1546 1548 1551 1553 1556 1559 1561 1564 1567 1570 1573 1576 1579 1582 1585 1588 1590 1593 1596 1598 1601 1604 1607 1610 1613 1616 1619 1622 1625 1628 1631 1634 1637 1640 1643 1646 1649 1652 1655 1658 1661 1664 1667 1670 1673 1676 1679 1682 1685 1687 1690 1693 1696 1699 1702 1705 1707 1710 1713 1716 1719 1722 1725 1728 1730 1733 1736 1739 1741 1743 1746 1749 1751 1754 1757 1759 1762 1765 1768 1771 1774 1777 1780 1783 1786 1789 1792 1795 1797 1800 1803 1806 1809 1812 1814 1817 1820 1823 1826 1829 1832 1834 1836 1839 1841 1844 1847 1850 1852 1855 1857 1860 1862 1865 1868 1871 1874 1877 1879 1881 1884 1887 1890 1892 1895 1897 1899 1902 1905 1908 1911 1914 1917 1920 1923 1926 1928 1931 1934 1937 1940 1942 1945 1948 1951 1954 1957 1960 1962 1965 1968 1971 1973 1976 1979 1982 1985 1988 1991 1994 1997 1999 2002 2005 2008 2011 2014 2016 2019 2022 2025 2028 2031 2034 2037 2040 2043 2045 2048 2051 2054 2057 2060 2063 2066 2069 2072 2075 2078 2081 2084 2087 2090 2093 2096 2099 2102 2105 2108 2111 2114 2117 2120 2123 2126 2129 2132 2135 2138 2141 2144 2147 2150 2153 2156 2158 2161 2163 2166 2169 2171 2174 2177 2180 2182 2185 2188 2191 2194 2197 2200 2203 2206 2209 2212 2215 2218 2220 2223 2226 2228 2231 2234 2237 2240 2243 2245 2247 2249 2252 2254 2257 2260 2263 2266 2269 2272 2275 2277 2280 2282 2285 2287 2290 2293 2295 2298 2301 2303 2306 2309 2312 2315 2318 2320 2323 2326 2329 2332 2335 2337 2340 2343 2346 2348 2351 2354 2356 2359 2362 2365 2368 2371 2374 2377 2380 2383 2386 2389 2392 2394 2397 2399 2402 2405 2408 2411 2414 2417 2420 2423 2426 2429 2432 2435 2438 2440 2443 2446 2448 2451 2454 2457 2459 2461 2464 2467 2470 2473 2476 2478 2481 2484 2486 2489 2491 2494 2497 2500 2503 2506 2508 2511 2514 2517 2520 2523 2526 2529 2532 2535 2538 2541 2544 2547 2550 2552 2555 2557 2560 2563 2566 2569 2572 2574 2577 2580 2583 2586 2589 2591 2593 2596 2599 2601 2604 2606 2609 2612 2614 2617 2619 2622 2624 2626 2628 2631 2634 2636 2639 2642 2645 2648 2651 2654 2657 2660 2663 2666 2669 2671 2674 2677 2679 2682 2685 2688 2691 2694 2697 2700 2703 2706 2708 2711 2713 2716 2718 2721 2724 2726 2729 2731 2734 2737 2740 2742 2745 2747 2749 2752 2755 2757 2759 2762 2765 2768 2771 2774 2776 2779 2782 2785 2788 2791 2794 2797 2800 2803 2806 2809 2812 2815 2818 2821 2824 2827 2830 2833 2836 2839 2842 2845 2848 2851 2854 2857 2860 2863 2866 2869 2872 2875 2877 2880 2883 2886 2889 2892 2895 2897 2900 2903 2905 2908 2911 2914 2917 2920 2923 2926 2929 2932 2935 2938 2941 2944 2946 2949 2951 2954 2957 2959 2962 2965 2968 2971 2974 2977 2980 2983 2986 2989 2992 2995 2997 3000 3003 3005 3008 3011 3014 3017 3020 3023 3026 3029 3032 3035 3038 3041 3044 3046 3048 3051 3054 3057 3060 3063 3065 3068 3070 3072 3075 3078 3081 3084 3087 3090 3093 3096 3098 3101 3104 3107 3109 3112 3115 3118 3121 3124 3127 3130 3133 3136 3138 3141 3143 3146 3149 3152 3155 3158 3161 3164 3167 3169 3172 3175 3178 3180 3183 3186 3189 3191 3194 3197 3199 3202 3205 3208 3211 3213 3216 3219 3222 3225 3228 3230 3233 3236 3239 3241 3244 3247 3250 3253 3256 3259 3262 3265 3268 3271 3274 3277 3279 3282 3285 3288 3291 3294 3297 3300 3303 3306 3308 3311 3314 3317 3320 3322 3325 3328 3331 3334 3337 3340 3342 3345 3348 3351 3354 3357 3360 3363 3366 3369 3372 3375 3377 3380 3383 3385 3388 3391 3393 3396 3398 3400 3403 3406 3409 3412 3415 3417 3420 3423 3426 3429 3432 3435 3438 3440 3443 3446 3449 3452 3455 3458 3461 3464 3467 3470 3473 3476 3479 3482 3485 3488 3490 3493 3496 3498 3501 3504 3507 3510 3513 3516 3519 3522 3525 3527 3530 3533 3536 3539 3542 3545 3548 3551 3554 3557 3560 3563 3566 3569 3572 3575 3578 3581 3584 3587 3590 3593 3596 3599 3601 3604 3607 3610 3613 3616 3619 3622 3625 3628 3631 3634 3637 3640 3642 3645 3648 3651 3654 3657 3660 3663 3666 3669 3672 3674 3677 3680 3683 3686 3688 3691 3693 3696 3699 3702 3705 3708 3711 3714 3717 3719 3722 3725 3728 3731 3734 3736 3739 3742 3745 3748 3751 3753 3756 3758 3761 3764 3767 3770 3773 3776 3779 3782 3785 3788 3791 3793 3796 3799 3802 3805 3808 3811 3814 3817 3820 3823 3826 3829 3832 3835 3838 3841 3844 3847 3850 3853 3856 3859 3862 3865 3868 3871 3874 3876 3879 3882 3885 3888 3891 3894 3897 3900 3902 3905 3907 3910 3913 3916 3919 3922 3925 3928 3931 3934 3937 3940 3943 3946 3949 3952 3955 3958 3960 3963 3966 3969 3972 3975 3978 3981 3983 3986 3989 3992 3995 3998 4000 4003 4006 4009 4012 4015 4018 4021 4024 4027 4030 4032 4035 4038 4041 4044 4047 4050 4053 4056 4059 4062 4065 4068 4071 4074 4077 4080 4083 4086 4089 4092 4095 4098 4101 4104 4106 4109 4112 4114 4117 4120 4123 4126 4129 4131 4134 4137 4140 4143 4145 4148 4151 4154 4157 4160 4163 4166 4169 4172 4175 4178 4181 4184 4186 4188 4191 4194 4197 4200 4202 4205 4208 4211 4214 4217 4220 4223 4225 4228 4231 4234 4236 4239 4242 4245 4248 4251 4253 4256 4258 4261 4263 4266 4269 4272 4275 4278 4281 4284 4287 4290 4293 4296 4298 4301 4304 4307 4309 4312 4315 4318 4321 4324 4327 4330 4333 4336 4339 4342 4344 4346 4349 4352 4354 4357 4360 4362 4365 4368 4371 4374 4377 4380 4383 4386 4389 4392 4395 4398 4401 4404 4407 4410 4413 4416 4419 4422 4425 4428 4431 4433 4436 4439 4442 4445 4448 4450 4453 4456 4459 4462 4464 4467 4470 4473 4476 4479 4482 4484 4487 4490 4493 4496 4499 4502 4504 4507 4510 4512 4515 4517 4520 4522 4525 4528 4531 4534 4537 4540 4543 4546 4549 4552 4555 4558 4561 4564 4567 4570 4572 4574 4577 4580 4583 4585 4588 4591 4594 4596 4599 4601 4604 4607 4609 4611 4614 4617 4620 4623 4626 4629 4632 4635 4637 4640 4643 4646 4648 4651 4654 4656 4659 4661 4664 4666 4669 4672 4675 4678 4681 4684 4687 4690 4693 4696 4699 4702 4705 4708 4711 4714 4717 4720 4723 4726 4729 4732 4734 4737 4740 4743 4745 4747 4750 4753 4756 4759 4762 4765 4767 4769 4772 4775 4777 4780 4783 4786 4789 4791 4794 4797 4800 4803 4806 4809 4812 4815 4818 4821 4824 4827 4830 4833 4836 4838 4841 4844 4847 4849 4852 4855 4858 4861 4864 4867 4870 4873 4876 4879 4881 4884 4887 4890 4893 4895 4898 4901 4904 4907 4909 4912 4915 4918 4921 4924 4927 4930 4933 4936 4939 4941 4944 4946 4948 4951 4954 4957 4960 4963 4966 4969 4972 4975 4978 4981 4984 4987 4990 4993 4996 4999 5002 5005 5008 5011 5013 5016 5019 5022 5025 5028 5031 5034 5037 5040 5042 5045 5048 5051 5053 5056 5059 5062 5065 5068 5071 5074 5076 5078 5081 5084 5086 5088 5091 5093 5096 5099 5102 5104 5107 5110 5112 5114 5117 5120 5123 5126 5129 5132 5135 5138 5141 5143 5146 5149 5152 5154 5156 5159 5162 5165 5168 5171 5174 5177 5180 5182 5185 5188 5191 5194 5197 5200 5203 5206 5208 5211 5214 5217 5220 5223 5226 5229 5232 5234 5237 5240 5242 5245 5248 5251 5253 5255 5258 5261 5264 5267 5270 5273 5276 5279 5282 5285 5288 5291 5293 5296 5299 5302 5304 5307 5309 5312 5315 5318 5321 5324 5327 5330 5332 5335 5337 5340 5343 5346 5349 5352 5355 5358 5361 5364 5367 5370 5373 5375 5378 5381 5384 5387 5389 5392 5395 5398 5400 5403 5406 5409 5412 5415 5418 5421 5423 5426 5429 5432 5434 5437 5440 5443 5446 5449 5452 5455 5458 5460 5463 5466 5469 5472 5475 5478 5481 5484 5487 5490 5493 5496 5499 5502 5505 5508 5511 5514 5516 5518 5521 5524 5527 5530 5532 5535 5537 5540 5543 5546 5549 5552 5555 5558 5560 5563 5566 5568 5570 5573 5575 5577 5580 5582 5585 5587 5590 5593 5596 5598 5601 5604 5607 5610 5613 5616 5619 5622 5625 5628 5631 5634 5636 5639 5642 5644 5647 5650 5653 5656 5659 5662 5665 5667 5670 5672 5675 5677 5680 5683 5685 5688 5691 5693 5696 5699 5701 5704 5707 5710 5713 5716 5719 5722 5725 5728 5731 5734 5736 5739 5742 5745 5748 5751 5754 5757 5760 5763 5766 5769 5772 5775 5778 5781 5784 5787 5790 5793 5796 5799 5802 5805 5808 5810 5813 5816 5819 5822 5824 5827 5830 5833 5836 5839 5842 5844 5847 5850 5852 5855 5858 5861 5864 5867 5870 5873 5876 5879 5882 5884 5887 5890 5893 5896 5899 5902 5904 5907 5910 5913 5916 5919 5922 5925 5928 5931 5934 5937 5940 5942 5945 5948 5951 5954 5957 5960 5963 5966 5969 5972 5975 5977 5980 5983 5986 5988 5990 5993 5996 5999 6002 6005 6007 6010 6013 6016 6019 6022 6025 6028 6031 6034 6036 6039 6042 6044 6047 6050 6053 6055 6058 6061 6064 6067 6070 6073 6076 6078 6081 6084 6087 6090 6093 6096 6099 6102 6105 6108 6111 6114 6117 6120 6123 6126 6129 6132 6135 6138 6141 6144 6146 6149 6152 6155 6157 6160 6163 6166 6168 6170 6173 6176 6179 6182 6185 6188 6191 6193 6196 6199 6202 6205 6207 6210 6213 6215 6218 6221 6224 6227 6230 6232 6235 6238 6240 6243 6246 6249 6252 6254 6257 6260 6263 6266 6269 6272 6275 6278 6281 6283 6286 6289 6291 6293 6296 6298 6301 6304 6307 6309 6311 6313 6316 6319 6321 6324 6327 6329 6332 6335 6338 6341 6343 6346 6349 6351 6354 6357 6360 6362 6365 6368 6371 6374 6376 6379 6382 6385 6387 6390 6393 6396 6398 6401 6404 6407 6410 6412 6414 6417 6420 6423 6425 6428 6430 6433 6436 6439 6442 6445 6448 6451 6454 6456 6459 6462 6465 6468 6471 6474 6476 6479 6482 6485 6488 6490 6493 6496 6499 6501 6504 6507 6510 6513 6516 6519 6521 6523 6525 6528 6530 6533 6536 6539 6542 6545 6548 6551 6554 6557 6560 6563 6566 6569 6572 6575 6578 6581 6584 6587 6590 6593 6596 6599 6602 6604 6607 6610 6613 6615 6618 6621 6624 6626 6629 6632 6635 6637 6640 6643 6646 6648 6651 6654 6657 6660 6663 6666 6669 6672 6675 6677 6680 6683 6686 6689 6692 6695 6698 6701 6704 6707 6710 6713 6716 6719 6722 6725 6728 6731 6734 6737 6740 6743 6746 6749 6752 6755 6758 6760 6763 6766 6769 6771 6774 6777 6780 6783 6785 6788 6791 6794 6797 6800 6803 6805 6808 6811 6814 6816 6819 6822 6825 6828 6831 6834 6837 6840 6843 6846 6849 6852 6855 6858 6861 6864 6867 6870 6873 6875 6878 6881 6884 6887 6890 6893 6896 6899 6902 6905 6908 6911 6914 6917 6920 6923 6926 6929 6932 6935 6938 6941 6944 6947 6950 6953 6956 6959 6962 6965 6968 6971 6974 6977 6980 6983 6986 6989 6992 6995 6998 7001 7004 7007 7010 7013 7016 7019 7021 7024 7027 7030 7033 7036 7038 7041 7044 7047 7050 7053 7056 7059 7062 7065 7068 7070 7073 7076 7078 7081 7083 7086 7089 7091 7094 7097 7100 7103 7106 7109 7112 7115 7118 7121 7124 7127 7130 7133 7136 7139 7141 7144 7147 7150 7153 7156 7158 7161 7164 7167 7170 7173 7175 7178 7181 7184 7187 7190 7193 7196 7199 7202 7204 7206 7209 7212 7215 7217 7220 7223 7226 7229 7232 7235 7237 7239 7242 7245 7248 7251 7254 7257 7259 7262 7265 7267 7270 7273 7276 7279 7282 7285 7288 7291 7293 7296 7299 7301 7304 7307 7310 7312 7315 7318 7321 7324 7327 7330 7332 7335 7338 7341 7344 7347 7350 7353 7356 7359 7362 7365 7368 7370 7373 7376 7379 7381 7383 7386 7389 7391 7394 7397 7400 7402 7405 7408 7411 7414 7417 7420 7423 7426 7429 7432 7434 7437 7440 7443 7446 7448 7450 7453 7456 7459 7462 7464 7467 7470 7473 7475 7478 7481 7484 7487 7489 7492 7495 7497 7500 7503 7506 7509 7512 7514 7517 7519 7521 7524 7527 7529 7532 7535 7538 7541 7543 7546 7549 7552 7555 7558 7560 7562 7565 7568 7570 7573 7575 7577 7580 7583 7586 7589 7592 7595 7598 7600 7603 7606 7609 7612 7614 7617 7620 7623 7626 7629 7632 7635 7638 7641 7644 7647 7650 7653 7656 7659 7662 7664 7667 7670 7673 7676 7679 7682 7684 7687 7690 7693 7695 7697 7700 7703 7705 7708 7710 7713 7716 7718 7721 7724 7727 7730 7733 7736 7739 7741 7744 7747 7750 7753 7756 7758 7761 7763 7766 7769 7772 7774 7776 7779 7782 7785 7787 7790 7793 7796 7798 7801 7804 7807 7809 7812 7815 7818 7821 7824 7827 7829 7831 7833 7836 7839 7842 7845 7848 7850 7852 7855 7858 7861 7864 7867 7870 7872 7875 7877 7880 7883 7886 7889 7892 7894 7897 7900 7903 7905 7908 7910 7913 7916 7919 7922 7925 7928 7931 7934 7937 7940 7943 7945 7948 7951 7954 7957 7960 7962 7965 7968 7971 7974 7977 7980 7982 7985 7988 7991 7993 7996 7998 8001 8003 8006 8008 8011 8014 8017 8019 8021 8024 8027 8030 8033 8036 8039 8042 8045 8048 8051 8054 8057 8060 8062 8065 8068 8071 8074 8077 8080 8083 8086 8088 8091 8094 8097 8100 8103 8105 8108 8111 8113 8116 8118 8120 8123 8126 8129 8132 8135 8137 8140 8143 8146 8149 8152 8155 8158 8161 8164 8167 8170 8173 8176 8179 8182 8185 8188 8191 8194 8197 8200 8203 8206 8209 8212 8215 8218 8221 8224 8227 8230 8233 8236 8239 8242 8245 8248 8251 8254 8257 8260 8262 8265 8268 8271 8274 8277 8280 8283 8286 8289 8292 8295 8297 8300 8303 8306 8309 8311 8314 8316 8319 8322 8324 8327 8330 8333 8336 8339 8342 8345 8348 8351 8354 8357 8360 8363 8366 8369 8372 8375 8378 8381 8384 8387 8390 8393 8396 8399 8402 8405 8408 8411 8414 8417 8420 8423 8426 8429 8431 8434 8437 8440 8443 8446 8449 8452 8455 8458 8461 8464 8467 8470 8472 8475 8477 8480 8483 8486 8489 8492 8495 8497 8500 8503 8505 8508 8511 8513 8516 8518 8521 8524 8527 8530 8533 8536 8539 8541 8544 8546 8549 8552 8555 8557 8560 8563 8565 8568 8571 8573 8575 8578 8580 8583 8585 8588 8591 8594 8597 8599 8602 8605 8608 8610 8612 8615 8618 8621 8623 8626 8629 8632 8635 8638 8640 8643 8646 8649 8652 8655 8657 8660 8663 8666 8669 8672 8675 8678 8681 8684 8687 8689 8692 8695 8697 8699 8702 8705 8707 8709 8712 8714 8717 8720 8723 8725 8728 8731 8734 8737 8739 8742 8744 8747 8750 8752 8754 8756 8759 8761 8764 8767 8769 8772 8774 8777 8780 8782 8785 8788 8790 8793 8795 8798 8801 8803 8806 8808 8811 8814 8817 8820 8823 8825 8827 8829 8832 8835 8838 8840 8843 8845 8847 8850 8853 8855 8858 8861 8864 8866 8869 8872 8874 8876 8879 8881 8884 8886 8889 8892 8895 8897 8900 8903 8906 8909 8912 8915 8918 8920 8923 8926 8929 8932 8934 8937 8940 8943 8945 8948 8951 8954 8957 8960 8962 8964 8967 8970 8973 8976 8978 8980 8983 8986 8989 8992 8995 8998 9001 9003 9006 9008 9011 9014 9017 9020 9022 9025 9027 9029 9032 9035 9038 9041 9044 9047 9049 9052 9054 9057 9060 9063 9066 9068 9071 9073 9075 9078 9081 9083 9086 9089 9092 9095 9098 9101 9104 9107 9110 9113 9115 9118 9121 9123 9126 9129 9132 9135 9137 9140 9143 9146 9149 9152 9154 9156 9159 9162 9164 9167 9170 9173 9176 9179 9182 9185 9188 9191 9194 9196 9199 9202 9205 9208 9211 9214 9217 9220 9223 9226 9229 9232 9235 9238 9241 9244 9247 9250 9252 9255 9258 9260 9263 9266 9269 9272 9275 9278 9280 9282 9285 9288 9291 9293 9295 9298 9301 9304 9306 9309 9312 9315 9317 9320 9322 9325 9328 9331 9334 9336 9338 9341 9344 9347 9350 9352 9355 9357 9360 9362 9364 9367 9370 9372 9374 9377 9380 9383 9386 9389 9392 9395 9398 9401 9404 9407 9410 9412 9415 9418 9420 9423 9426 9429 9432 9435 9438 9441 9443 9446 9449 9452 9455 9457 9460 9463 9466 9469 9472 9475 9478 9481 9483 9486 9489 9491 9493 9496 9499 9502 9505 9507 9510 9512 9515 9518 9521 9524 9527 9530 9533 9536 9539 9541 9544 9547 9549 9551 9554 9557 9560 9562 9565 9568 9570 9573 9576 9579 9581 9584 9587 9590 9593 9595 9597 9600 9603 9606 9609 9611 9614 9617 9620 9623 9626 9629 9632 9635 9638 9641 9644 9646 9649 9652 9655 9657 9660 9662 9665 9668 9671 9673 9676 9679 9681 9683 9686 9689 9691 9693 9695 9698 9700 9703 9706 9708 9711 9713 9716 9718 9720 9723 9726 9729 9731 9734 9736 9739 9741 9744 9747 9750 9753 9756 9758 9761 9764 9767 9770 9773 9775 9777 9780 9783 9786 9789 9792 9794 9797 9800 9803 9806 9809 9811 9814 9817 9820 9823 9826 9829 9832 9835 9838 9840 9843 9846 9849 9851 9853 9855 9858 9861 9864 9866 9869 9871 9874 9877 9880 9883 9885 9888 9891 9894 9897 9900 9903 9906 9909 9912 9915 9918 9921 9924 9927 9930 9933 9935 9938 9941 9944 9947 9950 9953 9956 9959 9962 9965 9968 9970 9972 9975 9978 9980 9983 9986 9989 9991 9994 9997 10000 10003 10006 10009 10012 10015 10018 10021 10024 10027 10030 10033 10035 10037 10040 10043 10046 10049 10052 10054 10057 10060 10063 10066 10069 10072 10075 10078 10081 10083 10086 10089 10092 10094 10097 10100 10103 10106 10109 10112 10115 10117 10119 10122 10125 10128 10131 10134 10137 10140 10143 10146 10149 10152 10155 10158 10161 10164 10167 10170 10173 10176 10179 10182 10185 10188 10191 10194 10197 10200 10203 10206 10209 10212 10215 10217 10220 10223 10226 10229 10232 10235 10238 10241 10243 10246 10248 10251 10253 10256 10259 10261 10264 10267 10269 10272 10274 10276 10279 10282 10285 10287 10289 10292 10295 10298 10301 10304 10307 10310 10313 10316 10319 10322 10325 10328 10331 10334 10337 10340 10343 10346 10348 10351 10354 10357 10360 10363 10366 10369 10371 10374 10377 10380 10383 10386 10389 10392 10395 10397 10400 10403 10406 10408 10410 10413 10415 10418 10421 10424 10427 10430 10433 10436 10439 10442 10445 10448 10450 10453 10456 10459 10462 10465 10468 10471 10474 10477 10480 10483 10486 10489 10492 10494 10497 10500 10503 10506 10509 10512 10514 10517 10520 10523 10526 10529 10532 10535 10538 10541 10544 10546 10549 10552 10555 10558 10561 10564 10567 10570 10573 10576 10578 10581 10583 10586 10589 10592 10595 10598 10601 10604 10607 10610 10613 10616 10619 10622 10625 10627 10630 10633 10636 10639 10642 10645 10648 10651 10654 10657 10660 10663 10666 10669 10672 10674 10677 10680 10683 10685 10688 10691 10694 10697 10700 10703 10706 10709 10712 10714 10717 10720 10722 10725 10727 10730 10733 10736 10738 10741 10744 10747 10750 10753 10755 10758 10761 10764 10767 10770 10773 10776 10778 10781 10784 10786 10789 10792 10795 10798 10801 10804 10806 10809 10812 10814 10817 10820 10823 10825 10828 10831 10834 10837 10840 10843 10845 10848 10851 10854 10857 10860 10863 10866 10869 10872 10875 10878 10881 10884 10887 10890 10893 10896 10899 10901 10904 10906 10909 10912 10914 10917 10920 10923 10926 10929 10932 10935 10938 10941 10944 10947 10950 10953 10956 10958 10961 10964 10966 10969 10972 10975 10978 10980 10983 10986 10989 10992 10995 10998 11000 11003 11006 11009 11011 11014 11017 11019 11022 11025 11028 11030 11033 11035 11037 11040 11043 11046 11048 11051 11054 11057 11059 11061 11064 11067 11069 11071 11074 11077 11080 11083 11085 11087 11090 11093 11096 11099 11102 11104 11106 11109 11111 11114 11117 11119 11122 11125 11128 11131 11134 11137 11140 11142 11144 11147 11150 11153 11156 11159 11162 11165 11168 11171 11174 11177 11180 11183 11186 11189 11192 11195 11198 11201 11203 11206 11209 11212 11215 11218 11220 11223 11226 11229 11232 11234 11237 11240 11243 11246 11249 11252 11254 11257 11260 11263 11266 11269 11272 11275 11277 11280 11283 11286 11289 11292 11294 11297 11299 11301 11304 11307 11309 11312 11314 11317 11319 11322 11324 11327 11330 11333 11336 11339 11342 11345 11348 11350 11353 11356 11359 11361 11364 11367 11370 11373 11376 11379 11382 11385 11388 11391 11394 11397 11400 11403 11406 11409 11412 11415 11418 11421 11424 11427 11430 11433 11436 11438 11441 11444 11447 11450 11453 11456 11459 11462 11465 11467 11470 11472 11475 11478 11481 11484 11487 11490 11493 11496 11499 11502 11505 11508 11510 11513 11516 11518 11521 11524 11527 11529 11532 11535 11538 11540 11543 11546 11549 11552 11554 11557 11560 11562 11565 11568 11571 11574 11577 11580 11583 11586 11589 11592 11595 11598 11601 11604 11607 11610 11612 11615 11618 11621 11624 11627 11630 11633 11636 11638 11641 11644 11647 11649 11652 11655 11658 11661 11664 11667 11670 11673 11676 11679 11682 11685 11688 11691 11694 11697 11700 11703 11706 11709 11712 11715 11718 11721 11724 11726 11729 11731 11734 11737 11740 11743 11745 11748 11751 11753 11756 11759 11762 11765 11768 11771 11774 11777 11780 11783 11786 11789 11791 11794 11797 11800 11802 11805 11807 11810 11813 11816 11819 11822 11825 11828 11830 11833 11835 11838 11841 11843 11846 11849 11852 11855 11858 11861 11864 11867 11870 11873 11876 11878 11881 11884 11887 11890 11892 11895 11898 11901 11904 11907 11910 11913 11916 11919 11922 11925 11928 11931 11934 11936 11939 11942 11945 11948 11951 11954 11957 11960 11963 11966 11969 11972 11975 11978 11981 11984 11987 11990 11993 11996 11999 12002 12005 12008 12011 12014 12017 12020 12022 12025 12028 12030 12032 12035 12038 12041 12044 12047 12050 12052 12055 12058 12061 12064 12067 12070 12073 12076 12079 12082 12085 12088 12091 12094 12097 12100 12103 12106 12109 12112 12115 12118 12121 12124 12127 12130 12133 12136 12139 12142 12145 12148 12151 12154 12157 12160 12163 12166 12169 12172 12175 12178 12181 12184 12187 12190 12193 12196 12199 12202 12205 12208 12211 12214 12217 12220 12223 12226 12229 12232 12235 12238 12241 12244 12247 12249 12252 12255 12258 12261 12264 12267 12270 12273 12276 12279 12282 12285 12288 12291 12294 12297 12300 12302 12305 12308 12311 12314 12316 12319 12322 12325 12328 12331 12333 12336 12339 12341 12344 12346 12348 12351 12353 12355 12358 12360 12363 12366 12369 12372 12375 12377 12380 12382 12385 12388 12391 12394 12397 12400 12403 12405 12407 12410 12412 12415 12418 12421 12424 12427 12430 12433 12436 12439 12442 12445 12448 12451 12454 12457 12460 12463 12466 12469 12472 12475 12478 12481 12484 12487 12489 12492 12495 12498 12500 12503 12506 12509 12512 12515 12518 12521 12524 12527 12530 12532 12535 12538 12541 12543 12546 12549 12551 12554 12557 12560 12563 12566 12569 12572 12574 12577 12580 12583 12586 12588 12591 12594 12596 12599 12602 12605 12608 12611 12614 12617 12620 12623 12626 12629 12631 12634 12637 12640 12643 12646 12649 12652 12655 12658 12661 12664 12667 12669 12672 12675 12678 12681 12684 12687 12690 12693 12696 12699 12702 12705 12708 12711 12714 12717 12719 12722 12725 12728 12730 12733 12736 12739 12742 12745 12748 12751 12754 12757 12760 12763 12766 12769 12772 12775 12777 12779 12782 12785 12788 12791 12794 12797 12800 12803 12806 12808 12811 12813 12816 12819 12822 12825 12828 12831 12833 12836 12839 12842 12845 12848 12851 12854 12857 12859 12861 12864 12867 12870 12873 12876 12879 12882 12885 12888 12891 12894 12897 12900 12902 12905 12908 12911 12914 12917 12920 12922 12925 12928 12931 12934 12936 12939 12942 12945 12948 12951 12954 12957 12960 12963 12966 12969 12972 12975 12978 12981 12984 12987 12990 12993 12995 12998 13001 13003 13006 13009 13011 13014 13017 13020 13023 13025 13028 13031 13034 13037 13040 13043 13046 13049 13051 13054 13057 13059 13062 13065 13068 13071 13074 13077 13080 13082 13085 13088 13091 13094 13096 13099 13102 13104 13107 13110 13113 13115 13118 13121 13124 13127 13129 13132 13135 13138 13141 13144 13147 13149 13152 13154 13157 13160 13163 13166 13169 13171 13173 13176 13179 13182 13185 13187 13190 13193 13195 13198 13201 13204 13207 13210 13213 13216 13219 13222 13225 13228 13230 13233 13236 13239 13242 13245 13248 13251 13254 13257 13260 13262 13265 13268 13271 13274 13277 13280 13283 13286 13289 13292 13295 13298 13301 13304 13307 13310 13313 13316 13319 13322 13325 13328 13331 13334 13337 13340 13343 13346 13349 13352 13354 13357 13359 13361 13364 13366 13369 13372 13375 13378 13381 13383 13386 13389 13392 13394 13397 13400 13403 13406 13409 13411 13414 13417 13420 13423 13425 13428 13430 13433 13435 13438 13441 13444 13447 13450 13453 13456 13459 13462 13465 13467 13470 13472 13475 13478 13481 13483 13486 13488 13491 13494 13497 13500 13502 13504 13506 13509 13512 13515 13518 13521 13524 13527 13530 13533 13536 13539 13541 13544 13547 13549 13551 13554 13557 13560 13563 13565 13568 13571 13574 13577 13580 13583 13586 13589 13592 13595 13598 13601 13604 13607 13609 13612 13615 13618 13621 13624 13627 13630 13633 13636 13639 13642 13645 13648 13651 13653 13656 13659 13662 13665 13668 13671 13673 13676 13679 13682 13684 13686 13689 13691 13694 13697 13699 13702 13705 13707 13709 13712 13715 13718 13720 13723 13726 13728 13731 13734 13737 13740 13743 13746 13749 13752 13754 13757 13759 13762 13765 13768 13770 13773 13775 13777 13780 13783 13785 13788 13791 13794 13797 13800 13803 13806 13809 13812 13815 13818 13820 13823 13826 13829 13832 13835 13838 13841 13844 13847 13850 13853 13856 13858 13861 13863 13866 13868 13871 13874 13877 13880 13883 13886 13889 13892 13895 13898 13901 13904 13907 13910 13913 13916 13919 13921 13924 13927 13930 13933 13936 13939 13942 13945 13947 13950 13953 13956 13959 13962 13965 13968 13971 13974 13977 13980 13983 13986 13989 13992 13995 13997 14000 14003 14006 14009 14011 14014 14017 14020 14023 14026 14029 14032 14035 14038 14041 14043 14046 14049 14052 14055 14058 14061 14063 14066 14069 14072 14075 14078 14081 14084 14087 14090 14093 14096 14099 14102 14105 14108 14110 14113 14116 14119 14122 14125 14128 14131 14134 14136 14139 14142 14144 14147 14150 14152 14155 14157 14159 14162 14164 14166 14169 14172 14174 14177 14180 14183 14186 14189 14192 14195 14198 14201 14204 14207 14209 14212 14215 14217 14220 14223 14226 14229 14232 14235 14238 14241 14244 14247 14250 14253 14256 14259 14261 14264 14267 14270 14273 14276 14279 14282 14285 14288 14290 14293 14296 14299 14302 14304 14307 14310 14313 14316 14319 14321 14324 14327 14330 14332 14335 14337 14340 14342 14345 14347 14350 14353 14356 14358 14361 14364 14367 14370 14372 14375 14377 14380 14382 14385 14387 14390 14392 14395 14398 14401 14403 14405 14408 14411 14413 14415 14418 14421 14424 14427 14430 14432 14435 14438 14441 14443 14446 14449 14451 14454 14457 14460 14462 14465 14468 14471 14474 14476 14478 14481 14484 14486 14489 14492 14495 14497 14500 14503 14506 14509 14512 14515 14517 14520 14523 14525 14528 14530 14533 14535 14538 14541 14544 14547 14550 14553 14556 14559 14562 14565 14568 14570 14573 14576 14579 14581 14584 14587 14590 14592 14595 14598 14601 14604 14607 14610 14613 14616 14619 14622 14625 14628 14631 14634 14637 14640 14643 14646 14648 14651 14653 14656 14658 14661 14663 14666 14669 14672 14675 14678 14680 14683 14686 14689 14692 14695 14698 14700 14703 14705 14708 14711 14713 14716 14719 14722 14724 14727 14730 14733 14736 14739 14742 14745 14748 14751 14754 14757 14760 14763 14766 14769 14772 14775 14778 14781 14783 14786 14788 14791 14794 14797 14800 14802 14805 14808 14811 14813 14816 14819 14822 14825 14828 14831 14834 14837 14840 14842 14845 14847 14850 14853 14855 14858 14861 14864 14867 14870 14872 14875 14877 14879 14882 14885 14888 14890 14892 14895 14897 14900 14903 14905 14908 14911 14914 14917 14919 14922 14925 14928 14931 14934 14937 14940 14943 14946 14949 14951 14954 14957 14960 14963 14966 14969 14972 14975 14978 14981 14984 14987 14989 14992 14995 14998 15001 15004 15006 15009 15012 15015 15018 15020 15023 15025 15028 15031 15033 15036 15039 15042 15045 15047 15050 15053 15056 15059 15062 15065 15068 15071 15074 15077 15080 15083 15085 15088 15090 15093 15096 15099 15102 15104 15107 15110 15113 15115 15118 15120 15123 15125 15128 15131 15134 15137 15140 15142 15145 15148 15151 15154 15157 15160 15163 15165 15168 15171 15174 15176 15179 15182 15185 15188 15190 15193 15196 15199 15201 15204 15207 15210 15213 15216 15219 15222 15224 15227 15229 15232 15235 15238 15241 15244 15247 15250 15253 15256 15259 15262 15264 15267 15269 15272 15275 15277 15280 15283 15286 15288 15291 15294 15297 15300 15303 15306 15309 15312 15315 15318 15321 15324 15327 15330 15333 15336 15339 15342 15345 15348 15351 15354 15357 15360 15363 15366 15369 15372 15375 15378 15381 15384 15387 15390 15393 15396 15399 15402 15405 15408 15411 15414 15417 15420 15423 15426 15429 15431 15434 15437 15440 15443 15446 15449 15452 15455 15458 15461 15464 15467 15470 15473 15475 15478 15481 15484 15487 15490 15493 15496 15499 15502 15505 15508 15511 15514 15517 15520 15523 15526 15529 15532 15535 15538 15541 15544 15547 15550 15553 15556 15559 15561 15564 15567 15569 15572 15575 15578 15581 15584 15587 15590 15593 15596 15599 15601 15603 15606 15608 15611 15614 15617 15620 15622 15624 15627 15629 15632 15635 15638 15640 15643 15646 15648 15651 15654 15657 15660 15663 15666 15669 15672 15675 15678 15680 15683 15686 15689 15692 15695 15697 15700 15702 15705 15708 15711 15713 15716 15718 15721 15724 15727 15730 15733 15736 15738 15741 15743 15746 15749 15752 15755 15758 15761 15764 15767 15770 15772 15775 15778 15781 15784 15787 15790 15793 15796 15799 15802 15805 15808 15811 15814 15816 15819 15822 15825 15827 15830 15833 15836 15839 15842 15844 15847 15850 15853 15856 15859 15862 15865 15868 15871 15873 15876 15879 15882 15885 15887 15890 15893 15896 15899 15902 15905 15908 15911 15914 15917 15920 15923 15926 15929 15932 15935 15938 15941 15944 15947 15950 15953 15956 15959 15962 15965 15968 15970 15973 15976 15979 15982 15985 15988 15991 15994 15997 16000 16003 16006 16009 16012 16015 16018 16021 16024 16027 16030 16033 16036 16039 16042 16045 16048 16051 16054 16057 16060 16063 16066 16069 16072 16075 16078 16081 16084 16087 16090 16093 16096 16099 16101 16104 16107 16110 16113 16116 16119 16122 16125 16128 16131 16134 16137 16140 16143 16146 16149 16152 16155 16158 16161 16164 16167 16170 16173 16176 16179 16182 16185 16188 16191 16194 16197 16200 16203 16206 16209 16212 16215 16218 16221 16224 16226 16229 16232 16235 16238 16241 16244 16247 16250 16253 16256 16259 16262 16265 16268 16270 16273 16276 16279 16282 16284 16287 16290 16293 16296 16299 16301 16304 16307 16310 16313 16316 16319 16322 16324 16327 16330 16333 16336 16339 16342 16344 16347 16350 16353 16356 16359 16362 16365 16368 16371 16374 16377 16380 16383 16386 16389 16391 16394 16397 16400 16403 16405 16408 16411 16414 16417 16420 16423 16426 16429 16432 16435 16438 16441 16444 16447 16449 16452 16454 16457 16460 16463 16465 16467 16470 16473 16476 16479 16482 16485 16487 16490 16492 16495 16498 16501 16504 16507 16510 16513 16516 16519 16522 16525 16528 16531 16534 16537 16540 16542 16545 16548 16551 16554 16557 16559 16562 16565 16567 16570 16573 16576 16579 16582 16584 16587 16590 16592 16594 16597 16600 16603 16606 16609 16612 16615 16618 16620 16623 16626 16629 16631 16633 16635 16638 16640 16643 16646 16649 16652 16655 16658 16660 16663 16665 16668 16671 16673 16676 16679 16682 16685 16688 16691 16694 16697 16699 16702 16704 16707 16710 16713 16715 16718 16721 16724 16726 16729 16732 16735 16738 16740 16743 16746 16749 16751 16754 16757 16760 16763 16766 16769 16772 16775 16778 16781 16784 16787 16790 16793 16795 16798 16800 16803 16806 16809 16812 16815 16818 16820 16823 16825 16828 16830 16833 16836 16839 16842 16845 16848 16851 16854 16857 16860 16863 16866 16869 16872 16875 16878 16881 16884 16887 16890 16893 16896 16899 16902 16905 16907 16910 16913 16916 16919 16922 16924 16927 16930 16933 16936 16938 16941 16944 16946 16949 16952 16955 16958 16960 16963 16966 16968 16971 16973 16976 16979 16982 16985 16987 16990 16992 16995 16998 17001 17004 17007 17010 17013 17015 17018 17020 17023 17026 17028 17030 17033 17036 17038 17040 17043 17046 17049 17051 17054 17057 17059 17062 17064 17067 17070 17073 17076 17079 17082 17085 17088 17091 17094 17097 17100 17103 17105 17107 17110 17113 17116 17119 17122 17125 17128 17131 17134 17137 17140 17143 17146 17149 17152 17155 17158 17161 17164 17167 17170 17173 17176 17179 17182 17185 17188 17191 17194 17197 17200 17203 17205 17208 17211 17214 17216 17219 17222 17224 17227 17229 17231 17234 17237 17239 17241 17244 17247 17250 17253 17256 17259 17261 17263 17266 17268 17271 17274 17277 17279 17282 17285 17287 17290 17293 17296 17299 17302 17305 17308 17311 17314 17317 17320 17323 17326 17329 17332 17335 17338 17341 17344 17347 17350 17353 17356 17359 17362 17365 17368 17371 17374 17377 17380 17383 17386 17389 17392 17394 17397 17399 17402 17404 17407 17410 17412 17415 17418 17421 17424 17427 17430 17433 17436 17439 17442 17445 17448 17451 17454 17457 17460 17463 17465 17468 17471 17474 17477 17480 17483 17486 17489 17492 17494 17497 17500 17503 17506 17509 17512 17515 17517 17520 17523 17525 17528 17531 17534 17537 17540 17543 17546 17549 17552 17555 17557 17560 17563 17566 17569 17572 17575 17578 17581 17584 17587 17590 17593 17596 17598 17601 17604 17606 17609 17612 17615 17618 17621 17624 17627 17630 17633 17636 17638 17641 17644 17647 17650 17653 17656 17659 17662 17665 17668 17671 17674 17677 17680 17683 17686 17689 17691 17694 17697 17700 17703 17706 17709 17712 17715 17718 17721 17724 17727 17729 17732 17735 17738 17741 17744 17747 17750 17752 17755 17757 17760 17763 17766 17769 17772 17775 17778 17780 17783 17786 17788 17791 17794 17797 17800 17803 17805 17808 17811 17814 17817 17820 17822 17825 17828 17831 17834 17837 17840 17843 17846 17849 17852 17855 17858 17861 17864 17867 17870 17873 17876 17879 17882 17885 17888 17891 17894 17897 17900 17903 17906 17909 17912 17914 17916 17919 17922 17925 17928 17931 17934 17937 17939 17942 17945 17948 17951 17954 17957 17960 17963 17966 17968 17971 17974 17976 17979 17982 17985 17988 17991 17994 17996 17999 18001 18004 18007 18010 18013 18016 18019 18022 18025 18027 18030 18032 18035 18038 18041 18044 18047 18050 18052 18055 18058 18061 18064 18067 18070 18073 18075 18078 18081 18084 18087 18090 18093 18096 18099 18101 18104 18107 18110 18113 18116 18119 18122 18125 18127 18130 18133 18136 18138 18141 18144 18147 18150 18152 18155 18158 18161 18163 18165 18168 18171 18174 18177 18180 18182 18184 18187 18190 18193 18195 18197 18200 18203 18206 18209 18211 18214 18216 18219 18221 18224 18227 18230 18233 18236 18239 18242 18245 18248 18251 18254 18257 18260 18263 18265 18268 18271 18274 18277 18280 18283 18286 18289 18292 18295 18297 18300 18303 18305 18307 18309 18312 18315 18318 18321 18323 18326 18329 18332 18335 18338 18340 18343 18346 18349 18352 18355 18358 18361 18364 18367 18370 18373 18375 18378 18381 18384 18386 18388 18391 18394 18397 18400 18403 18406 18409 18411 18414 18417 18419 18422 18424 18427 18430 18433 18436 18438 18441 18444 18447 18449 18452 18455 18457 18460 18462 18465 18468 18471 18474 18477 18480 18483 18486 18489 18492 18495 18498 18501 18504 18507 18510 18512 18515 18518 18521 18524 18527 18530 18533 18536 18539 18542 18545 18548 18550 18553 18555 18558 18561 18564 18567 18570 18572 18575 18578 18581 18584 18587 18590 18593 18596 18599 18602 18605 18607 18610 18612 18615 18618 18620 18623 18626 18629 18632 18635 18637 18640 18643 18646 18649 18652 18655 18658 18661 18664 18667 18669 18672 18675 18678 18681 18684 18687 18690 18693 18696 18699 18702 18705 18708 18710 18713 18716 18719 18721 18724 18727 18730 18733 18736 18738 18741 18744 18747 18750 18753 18756 18758 18761 18763 18765 18767 18770 18773 18776 18779 18782 18784 18787 18790 18793 18796 18799 18802 18804 18807 18809 18811 18814 18817 18819 18821 18824 18826 18829 18832 18834 18837 18840 18843 18846 18849 18852 18855 18858 18861 18864 18867 18870 18873 18876 18879 18882 18885 18888 18891 18894 18896 18899 18902 18905 18908 18911 18914 18917 18920 18923 18926 18929 18932 18935 18938 18941 18944 18947 18950 18953 18956 18958 18961 18964 18967 18970 18973 18975 18978 18981 18984 18987 18990 18993 18996 18998 19001 19004 19006 19009 19012 19015 19018 19021 19024 19027 19030 19033 19036 19039 19042 19045 19048 19051 19054 19057 19059 19062 19065 19068 19071 19073 19076 19079 19081 19084 19086 19089 19092 19095 19098 19101 19104 19107 19110 19113 19116 19119 19122 19125 19127 19130 19133 19136 19139 19142 19145 19148 19151 19153 19156 19159 19162 19165 19167 19170 19173 19176 19179 19182 19185 19188 19190 19193 19196 19199 19202 19205 19208 19211 19214 19217 19220 19223 19226 19229 19232 19235 19238 19241 19243 19246 19249 19252 19255 19258 19260 19263 19266 19269 19272 19275 19278 19280 19283 19286 19289 19291 19294 19297 19300 19303 19306 19308 19310 19313 19316 19319 19322 19324 19327 19329 19332 19334 19337 19340 19343 19346 19349 19352 19355 19358 19361 19364 19367 19370 19372 19374 19377 19379 19382 19385 19388 19391 19394 19397 19400 19403 19406 19409 19412 19415 19418 19421 19424 19427 19430 19433 19436 19439 19442 19445 19447 19450 19453 19456 19459 19462 19465 19468 19470 19473 19475 19478 19481 19483 19485 19488 19491 19494 19497 19499 19502 19505 19508 19511 19514 19517 19519 19522 19525 19528 19531 19534 19537 19539 19542 19545 19548 19551 19554 19556 19559 19562 19565 19568 19571 19574 19577 19579 19581 19584 19587 19590 19593 19596 19599 19602 19605 19607 19610 19612 19615 19618 19620 19622 19624 19627 19630 19633 19636 19639 19642 19645 19647 19650 19652 19655 19657 19659 19662 19664 19666 19669 19672 19675 19677 19679 19682 19685 19688 19691 19694 19696 19699 19701 19703 19705 19708 19711 19714 19717 19719 19722 19724 19727 19730 19733 19736 19739 19741 19743 19746 19749 19752 19755 19758 19760 19763 19766 19769 19772 19775 19777 19780 19783 19786 19789 19792 19795 19798 19801 19803 19805 19808 19810 19813 19816 19818 19821 19824 19827 19829 19831 19833 19836 19838 19841 19843 19845 19848 19851 19853 19856 19859 19862 19865 19868 19871 19874 19877 19880 19883 19886 19889 19892 19894 19896 19899 19901 19904 19906 19909 19912 19915 19918 19920 19922 19925 19928 19931 19934 19936 19939 19942 19945 19948 19951 19954 19957 19960 19963 19966 19969 19972 19975 19977 19980 19983 19985 19988 19991 19994 19997 20000 20003 20006 20009 20012 20015 20018 20021 20024 20027 20030 20033 20036 20039 20042 20044 20047 20050 20053 20055 20058 20061 20064 20066 20069 20072 20074 20077 20079 20082 20084 20087 20090 20093 20096 20099 20102 20105 20108 20111 20114 20117 20119 20122 20125 20128 20131 20133 20136 20139 20141 20144 20147 20150 20153 20156 20159 20161 20164 20167 20169 20172 20175 20178 20181 20184 20187 20189 20192 20195 20197 20200 20203 20205 20208 20211 20213 20216 20219 20222 20225 20228 20231 20233 20236 20239 20242 20245 20247 20250 20253 20256 20258 20261 20264 20267 20270 20273 20276 20279 20282 20285 20288 20291 20294 20297 20299 20302 20305 20308 20310 20312 20315 20318 20320 20323 20326 20328 20330 20333 20336 20339 20342 20345 20348 20350 20353 20356 20358 20361 20364 20367 20370 20373 20376 20379 20382 20384 20387 20390 20392 20394 20397 20400 20403 20406 20408 20411 20414 20417 20420 20422 20425 20428 20431 20434 20437 20440 20443 20446 20449 20452 20455 20458 20461 20464 20467 20470 20473 20476 20479 20482 20485 20488 20491 20494 20497 20500 20503 20505 20508 20511 20514 20516 20519 20522 20525 20528 20531 20533 20536 20539 20542 20545 20548 20551 20554 20557 20560 20563 20566 20569 20572 20575 20578 20580 20582 20585 20588 20591 20594 20597 20600 20603 20606 20609 20612 20615 20618 20620 20622 20625 20628 20630 20633 20636 20639 20641 20644 20647 20650 20653 20656 20659 20662 20665 20668 20671 20674 20677 20680 20683 20686 20689 20692 20695 20698 20701 20704 20707 20710 20713 20716 20718 20721 20724 20727 20730 20733 20736 20739 20742 20745 20748 20751 20754 20757 20759 20762 20765 20768 20771 20774 20777 20780 20783 20786 20789 20792 20795 20798 20800 20803 20806 20809 20812 20815 20818 20821 20824 20827 20830 20833 20836 20839 20842 20845 20848 20851 20854 20857 20859 20862 20865 20868 20871 20874 20877 20880 20883 20885 20888 20891 20894 20896 20899 20902 20905 20908 20911 20914 20917 20920 20923 20926 20929 20932 20935 20938 20941 20944 20947 20950 20953 20956 20959 20962 20965 20968 20971 20973 20976 20979 20982 20984 20987 20990 20993 20996 20999 21002 21005 21008 21011 21014 21017 21020 21022 21025 21028 21031 21034 21037 21039 21042 21045 21047 21050 21053 21055 21058 21060 21063 21066 21069 21071 21074 21077 21080 21082 21085 21088 21091 21094 21096 21099 21102 21105 21108 21111 21114 21117 21119 21121 21124 21127 21130 21132 21135 21138 21141 21143 21146 21149 21152 21155 21158 21161 21164 21167 21170 21172 21175 21178 21181 21184 21187 21190 21193 21196 21198 21201 21204 21207 21210 21213 21216 21219 21222 21225 21228 21230 21233 21235 21238 21241 21244 21247 21250 21252 21254 21257 21260 21263 21266 21269 21272 21275 21277 21280 21283 21286 21289 21292 21295 21298 21301 21304 21306 21309 21312 21315 21318 21321 21324 21327 21330 21333 21335 21338 21341 21344 21346 21349 21352 21355 21357 21360 21362 21365 21368 21371 21374 21377 21380 21383 21386 21389 21392 21395 21398 21401 21404 21407 21410 21413 21416 21419 21422 21425 21428 21431 21434 21437 21440 21443 21446 21449 21452 21455 21458 21461 21464 21467 21470 21473 21476 21479 21482 21485 21488 21490 21493 21496 21499 21502 21505 21508 21511 21514 21517 21520 21523 21525 21528 21531 21534 21537 21540 21543 21546 21549 21552 21555 21558 21561 21564 21567 21570 21573 21576 21579 21582 21585 21588 21591 21594 21597 21600 21603 21606 21609 21612 21615 21618 21621 21624 21627 21630 21633 21636 21639 21642 21645 21648 21651 21654 21657 21660 21663 21666 21669 21672 21675 21678 21681 21684 21687 21690 21693 21696 21699 21702 21705 21708 21711 21714 21717 21720 21723 21725 21727 21730 21733 21736 21739 21742 21744 21747 21749 21752 21755 21757 21760 21763 21766 21769 21772 21775 21778 21781 21784 21787 21789 21792 21795 21798 21801 21804 21807 21810 21813 21816 21819 21822 21825 21828 21831 21834 21837 21840 21843 21846 21849 21852 21855 21858 21861 21864 21867 21870 21873 21876 21878 21881 21884 21886 21889 21892 21895 21898 21901 21904 21907 21910 21913 21916 21919 21922 21925 21927 21930 21933 21936 21939 21942 21944 21947 21950 21953 21956 21958 21961 21964 21967 21969 21972 21975 21978 21980 21983 21986 21989 21992 21995 21998 22001 22003 22006 22009 22011 22014 22017 22020 22023 22026 22029 22032 22035 22038 22041 22044 22046 22049 22052 22055 22058 22061 22064 22067 22069 22072 22075 22078 22081 22084 22087 22090 22093 22096 22099 22102 22105 22108 22111 22114 22117 22120 22123 22126 22129 22132 22135 22137 22140 22143 22146 22148 22151 22154 22157 22160 22162 22165 22168 22171 22174 22177 22180 22183 22186 22188 22190 22193 22196 22199 22202 22205 22208 22211 22214 22217 22220 22223 22226 22229 22232 22235 22238 22241 22244 22247 22250 22253 22256 22259 22262 22265 22268 22271 22274 22277 22280 22282 22284 22287 22290 22293 22296 22299 22302 22304 22306 22309 22312 22315 22318 22321 22324 22327 22330 22333 22336 22339 22342 22345 22348 22351 22354 22356 22359 22361 22364 22366 22369 22371 22373 22376 22379 22381 22384 22387 22390 22393 22396 22399 22402 22405 22408 22411 22414 22417 22420 22423 22426 22428 22430 22432 22435 22438 22441 22443 22446 22449 22452 22455 22458 22461 22464 22467 22469 22471 22474 22477 22480 22483 22486 22489 22492 22495 22498 22500 22503 22505 22507 22510 22513 22516 22519 22522 22524 22527 22530 22533 22536 22539 22542 22545 22548 22551 22554 22557 22559 22562 22565 22568 22571 22574 22577 22580 22583 22585 22588 22591 22594 22597 22600 22603 22606 22609 22612 22615 22618 22621 22624 22627 22630 22633 22636 22639 22641 22644 22647 22650 22653 22656 22659 22662 22665 22668 22671 22673 22676 22678 22681 22684 22687 22690 22693 22696 22699 22702 22705 22708 22711 22713 22716 22719 22721 22724 22727 22730 22733 22736 22739 22742 22744 22747 22750 22753 22755 22758 22761 22764 22767 22770 22773 22776 22779 22782 22784 22787 22790 22793 22796 22799 22801 22803 22806 22808 22810 22813 22816 22819 22822 22825 22828 22831 22834 22837 22839 22842 22845 22847 22850 22853 22856 22859 22862 22865 22868 22871 22874 22877 22880 22883 22886 22889 22892 22895 22898 22901 22904 22907 22909 22912 22915 22917 22920 22923 22926 22929 22932 22934 22937 22940 22943 22946 22949 22952 22955 22958 22961 22964 22967 22970 22973 22976 22979 22982 22984 22987 22990 22993 22996 22999 23002 23005 23008 23011 23014 23017 23020 23023 23026 23029 23031 23034 23037 23040 23043 23046 23049 23052 23055 23057 23060 23063 23066 23069 23071 23073 23076 23078 23081 23084 23087 23090 23093 23095 23098 23101 23104 23107 23110 23113 23116 23119 23122 23124 23127 23130 23133 23136 23139 23142 23145 23148 23151 23154 23157 23160 23163 23166 23169 23172 23175 23178 23181 23184 23187 23190 23193 23196 23199 23202 23205 23208 23211 23214 23217 23220 23223 23226 23229 23232 23235 23238 23241 23244 23247 23250 23253 23256 23259 23262 23265 23268 23271 23274 23277 23280 23283 23285 23288 23291 23294 23297 23300 23303 23306 23309 23312 23315 23318 23321 23324 23327 23330 23333 23336 23339 23342 23345 23348 23351 23354 23357 23360 23362 23364 23367 23370 23373 23376 23378 23381 23384 23387 23389 23392 23395 23398 23401 23403 23406 23409 23412 23415 23418 23421 23424 23427 23429 23432 23435 23438 23441 23444 23446 23449 23452 23455 23458 23461 23464 23467 23469 23472 23474 23477 23480 23482 23485 23488 23491 23494 23497 23500 23503 23506 23509 23511 23514 23517 23519 23522 23525 23527 23529 23532 23535 23538 23541 23544 23547 23550 23553 23556 23559 23562 23565 23568 23571 23574 23577 23580 23582 23585 23588 23591 23594 23597 23600 23603 23606 23609 23612 23614 23617 23620 23623 23626 23628 23631 23634 23637 23640 23643 23646 23649 23652 23654 23657 23660 23663 23666 23669 23671 23674 23677 23680 23683 23685 23688 23691 23694 23697 23700 23703 23705 23708 23711 23713 23716 23719 23722 23724 23727 23730 23733 23736 23739 23742 23745 23748 23751 23754 23756 23758 23761 23764 23767 23770 23773 23776 23779 23782 23785 23788 23791 23794 23797 23800 23803 23805 23808 23811 23813 23816 23819 23822 23825 23828 23831 23834 23836 23839 23842 23845 23848 23850 23853 23856 23859 23861 23864 23867 23870 23873 23876 23879 23882 23884 23887 23890 23893 23895 23898 23901 23903 23906 23909 23912 23915 23918 23920 23922 23925 23928 23931 23934 23937 23940 23942 23945 23948 23951 23954 23957 23960 23963 23965 23968 23971 23974 23977 23980 23982 23985 23988 23991 23994 23997 23999 24002 24005 24008 24010 24013 24016 24019 24022 24025 24028 24031 24034 24037 24040 24043 24046 24049 24052 24055 24058 24061 24063 24066 24069 24072 24075 24078 24081 24084 24087 24090 24093 24096 24099 24101 24104 24107 24110 24112 24115 24118 24121 24124 24127 24129 24132 24134 24137 24140 24143 24146 24149 24152 24155 24158 24161 24164 24167 24169 24172 24175 24178 24181 24184 24187 24189 24192 24195 24198 24201 24204 24207 24210 24213 24216 24219 24222 24224 24227 24230 24233 24236 24239 24242 24245 24248 24251 24253 24256 24259 24262 24264 24267 24270 24273 24276 24279 24281 24284 24287 24290 24293 24296 24299 24302 24305 24307 24309 24312 24315 24317 24320 24323 24326 24329 24332 24335 24338 24341 24343 24346 24348 24351 24354 24357 24360 24363 24366 24369 24372 24375 24378 24381 24384 24387 24390 24393 24396 24399 24402 24405 24408 24411 24414 24416 24419 24422 24425 24428 24431 24434 24437 24440 24443 24446 24449 24452 24455 24458 24461 24464 24467 24470 24473 24476 24479 24482 24485 24487 24490 24493 24496 24499 24501 24504 24507 24510 24513 24516 24519 24522 24525 24527 24530 24533 24536 24539 24542 24545 24548 24551 24553 24556 24559 24562 24565 24568 24571 24574 24577 24580 24583 24586 24589 24591 24594 24597 24600 24602 24605 24608 24611 24614 24617 24620 24622 24625 24628 24631 24634 24637 24640 24643 24646 24649 24651 24654 24657 24659 24662 24664 24667 24670 24672 24675 24678 24681 24683 24686 24689 24692 24695 24698 24700 24703 24705 24708 24710 24713 24716 24719 24722 24724 24726 24729 24732 24735 24738 24741 24744 24747 24750 24752 24755 24758 24761 24764 24767 24769 24772 24775 24778 24781 24784 24787 24790 24792 24795 24798 24801 24804 24807 24810 24813 24816 24819 24822 24825 24828 24831 24834 24837 24840 24843 24846 24849 24852 24855 24858 24861 24863 24866 24868 24871 24874 24877 24880 24883 24886 24889 24892 24895 24898 24901 24904 24907 24910 24913 24916 24919 24922 24925 24928 24931 24934 24937 24940 24943 24946 24949 24952 24955 24958 24961 24964 24967 24970 24973 24976 24978 24981 24984 24986 24989 24992 24995 24998 25001 25003 25006 25009 25011 25014 25016 25019 25022 25024 25027 25030 25033 25036 25039 25042 25045 25047 25050 25053 25056 25059 25061 25064 25067 25070 25073 25076 25079 25081 25084 25087 25090 25092 25095 25098 25101 25104 25107 25110 25113 25116 25119 25122 25124 25127 25130 25133 25136 25139 25141 25143 25146 25149 25152 25155 25158 25161 25163 25166 25168 25171 25174 25177 25180 25183 25186 25188 25191 25194 25197 25199 25202 25205 25208 25210 25213 25216 25219 25222 25225 25228 25230 25233 25236 25239 25241 25244 25247 25250 25253 25256 25259 25262 25264 25267 25270 25273 25276 25278 25281 25284 25287 25290 25293 25296 25298 25301 25304 25307 25310 25313 25316 25318 25321 25324 25327 25330 25333 25335 25338 25341 25344 25347 25350 25353 25356 25359 25362 25365 25368 25371 25374 25377 25380 25383 25386 25389 25392 25395 25398 25401 25404 25407 25410 25413 25416 25419 25422 25425 25428 25431 25434 25437 25440 25443 25446 25449 25452 25455 25458 25461 25464 25467 25470 25473 25476 25479 25482 25485 25488 25491 25494 25497 25500 25503 25506 25509 25512 25515 25518 25521 25523 25526 25529 25532 25535 25538 25541 25544 25546 25549 25551 25554 25557 25559 25562 25565 25568 25570 25573 25576 25579 25582 25585 25587 25590 25593 25595 25598 25600 25602 25605 25608 25611 25613 25616 25619 25622 25625 25628 25631 25634 25637 25640 25643 25646 25649 25652 25655 25658 25661 25663 25666 25669 25672 25675 25677 25680 25683 25686 25688 25691 25693 25696 25699 25702 25705 25707 25710 25713 25716 25719 25721 25724 25727 25730 25733 25736 25739 25742 25744 25747 25750 25753 25756 25759 25762 25765 25768 25771 25773 25776 25779 25782 25785 25788 25791 25794 25797 25800 25802 25805 25808 25810 25813 25816 25819 25822 25825 25828 25830 25833 25836 25839 25841 25844 25847 25850 25853 25855 25858 25861 25863 25866 25869 25871 25874 25877 25880 25883 25886 25888 25891 25894 25897 25900 25903 25906 25909 25912 25915 25918 25921 25924 25927 25930 25933 25936 25939 25942 25945 25948 25950 25953 25956 25959 25961 25964 25967 25970 25973 25976 25979 25982 25985 25988 25991 25994 25996 25998 26001 26004 26007 26009 26012 26014 26017 26020 26023 26026 26029 26032 26035 26038 26041 26044 26047 26050 26053 26056 26059 26062 26065 26068 26071 26074 26077 26080 26082 26085 26088 26091 26094 26097 26100 26102 26105 26108 26111 26114 26117 26120 26122 26125 26128 26131 26134 26137 26139 26142 26145 26148 26151 26154 26157 26160 26162 26165 26167 26170 26173 26176 26178 26181 26184 26187 26190 26193 26196 26199 26202 26205 26207 26209 26212 26215 26218 26221 26224 26227 26229 26232 26235 26238 26241 26243 26246 26249 26252 26255 26258 26261 26264 26266 26269 26272 26275 26278 26281 26284 26287 26290 26293 26296 26299 26302 26305 26308 26311 26314 26316 26319 26322 26325 26328 26331 26334 26337 26340 26343 26346 26349 26352 26355 26357 26360 26363 26366 26368 26370 26373 26376 26378 26381 26384 26387 26390 26392 26395 26398 26401 26403 26406 26409 26412 26415 26418 26420 26423 26426 26428 26431 26434 26437 26439 26441 26444 26447 26449 26452 26455 26458 26461 26464 26467 26470 26473 26475 26478 26481 26484 26487 26490 26493 26496 26499 26502 26505 26508 26511 26514 26517 26519 26522 26525 26528 26531 26534 26537 26539 26542 26545 26548 26550 26553 26556 26559 26562 26565 26568 26571 26574 26577 26580 26582 26585 26588 26591 26594 26597 26600 26603 26606 26609 26612 26614 26617 26620 26623 26626 26629 26632 26635 26638 26641 26644 26647 26650 26653 26656 26659 26662 26665 26668 26671 26674 26677 26680 26683 26686 26689 26692 26695 26698 26701 26704 26707 26710 26713 26716 26719 26722 26724 26727 26730 26733 26736 26739 26742 26745 26748 26751 26754 26757 26760 26763 26766 26769 26771 26774 26777 26780 26783 26786 26789 26792 26795 26797 26800 26803 26806 26809 26812 26815 26818 26821 26824 26827 26830 26833 26836 26839 26841 26843 26846 26849 26852 26855 26858 26861 26864 26867 26869 26872 26875 26878 26881 26884 26887 26890 26893 26896 26899 26902 26905 26908 26911 26914 26917 26920 26923 26926 26929 26932 26935 26937 26940 26943 26946 26949 26952 26955 26958 26961 26964 26967 26970 26973 26976 26979 26982 26985 26988 26991 26994 26997 27000 27003 27006 27009 27012 27015 27018 27021 27024 27027 27030 27033 27036 27039 27042 27045 27048 27051 27054 27057 27059 27062 27064 27067 27070 27073 27076 27079 27082 27085 27088 27091 27094 27096 27099 27102 27105 27108 27111 27114 27117 27120 27123 27126 27129 27132 27135 27138 27141 27144 27147 27150 27153 27156 27159 27162 27165 27168 27171 27174 27177 27180 27183 27186 27189 27192 27195 27198 27201 27204 27207 27210 27213 27216 27219 27222 27225 27228 27231 27234 27237 27240 27242 27245 27248 27250 27253 27256 27259 27262 27265 27267 27270 27273 27276 27279 27282 27285 27287 27290 27293 27296 27299 27302 27305 27307 27310 27313 27316 27319 27321 27324 27327 27329 27332 27335 27338 27341 27344 27347 27350 27353 27356 27359 27362 27365 27368 27371 27374 27376 27379 27382 27385 27388 27391 27394 27397 27399 27402 27405 27408 27410 27413 27416 27419 27422 27425 27428 27431 27434 27437 27440 27443 27446 27449 27452 27455 27458 27461 27464 27467 27470 27473 27476 27479 27482 27484 27487 27490 27493 27496 27499 27502 27505 27508 27510 27513 27516 27519 27521 27524 27527 27530 27533 27536 27539 27542 27545 27548 27551 27554 27557 27560 27563 27566 27569 27572 27575 27578 27581 27584 27587 27590 27593 27596 27599 27602 27605 27607 27610 27613 27616 27619 27622 27625 27628 27631 27634 27637 27640 27643 27646 27649 27652 27655 27658 27661 27664 27667 27669 27672 27675 27678 27681 27684 27687 27690 27692 27695 27698 27701 27704 27706 27709 27712 27715 27718 27721 27724 27727 27730 27733 27736 27739 27742 27745 27748 27751 27754 27757 27760 27763 27766 27769 27772 27775 27778 27781 27784 27787 27790 27793 27796 27799 27802 27805 27808 27811 27814 27817 27820 27823 27826 27829 27832 27835 27838 27841 27844 27847 27850 27853 27856 27859 27862 27865 27868 27871 27874 27877 27880 27883 27886 27889 27892 27894 27897 27900 27903 27906 27909 27912 27915 27918 27921 27924 27927 27930 27933 27936 27939 27942 27945 27948 27951 27954 27957 27960 27963 27966 27969 27972 27975 27977 27979 27982 27985 27987 27990 27992 27995 27998 28001 28004 28007 28010 28013 28015 28018 28021 28024 28026 28029 28032 28035 28038 28041 28044 28047 28050 28053 28056 28059 28062 28065 28068 28071 28074 28077 28080 28083 28085 28088 28091 28094 28097 28100 28103 28106 28109 28112 28115 28118 28121 28124 28127 28130 28133 28136 28139 28142 28145 28148 28151 28154 28157 28160 28163 28166 28168 28171 28174 28177 28180 28183 28186 28189 28192 28195 28198 28201 28204 28207 28210 28213 28216 28219 28222 28225 28228 28231 28234 28237 28240 28243 28246 28249 28252 28255 28258 28261 28264 28267 28270 28272 28275 28278 28281 28284 28287 28290 28293 28296 28299 28302 28305 28308 28311 28314 28317 28320 28323 28326 28329 28332 28335 28338 28341 28344 28347 28350 28353 28356 28359 28361 28364 28367 28370 28373 28376 28379 28381 28384 28387 28390 28393 28396 28399 28402 28405 28408 28411 28414 28417 28420 28423 28426 28429 28432 28435 28438 28441 28444 28447 28450 28453 28456 28459 28462 28465 28468 28471 28474 28477 28480 28483 28486 28489 28492 28495 28498 28501 28504 28507 28510 28513 28516 28519 28522 28525 28528 28531 28534 28537 28540 28543 28546 28549 28552 28555 28558 28561 28564 28567 28570 28573 28576 28579 28582 28585 28588 28591 28594 28597 28600 28603 28606 28609 28612 28615 28618 28621 28624 28626 28629 28632 28634 28637 28640 28643 28646 28649 28652 28655 28658 28661 28664 28667 28670 28673 28676 28679 28682 28685 28688 28691 28694 28697 28700 28703 28706 28709 28712 28715 28718 28721 28724 28727 28730 28733 28736 28739 28742 28745 28748 28751 28754 28757 28760 28763 28766 28769 28772 28775 28778 28781 28784 28787 28790 28793 28796 28799 28802 28805 28808 28811 28814 28817 28820 28823 28826 28829 28832 28835 28838 28841 28844 28847 28850 28853 28856 28859 28862 28865 28868 28871 28874 28877 28879 28882 28885 28888 28891 28894 28897 28899 28902 28905 28907 28910 28913 28916 28919 28922 28925 28928 28931 28934 28937 28940 28943 28946 28949 28952 28955 28958 28961 28964 28967 28970 28973 28976 28979 28982 28985 28988 28991 28994 28997 29000 29003 29005 29007 29010 29013 29015 29018 29021 29023 29026 29029 29032 29035 29038 29041 29044 29047 29050 29053 29056 29059 29062 29065 29068 29070 29073 29076 29079 29082 29085 29087 29090 29093 29096 29098 29100 29103 29106 29108 29111 29113 29116 29119 29121 29124 29127 29130 29132 29134 29137 29140 29143 29146 29149 29151 29154 29157 29160 29163 29166 29169 29172 29175 29178 29181 29184 29187 29190 29192 29195 29198 29201 29204 29206 29208 29211 29214 29217 29220 29223 29226 29229 29232 29235 29238 29241 29244 29247 29250 29253 29256 29259 29262 29265 29268 29271 29274 29277 29280 29283 29286 29289 29292 29295 29298 29301 29304 29307 29310 29313 29316 29319 29322 29324 29327 29330 29332 29335 29338 29341 29344 29347 29350 29353 29356 29359 29361 29364 29367 29369 29372 29375 29378 29381 29384 29387 29390 29393 29396 29398 29401 29404 29407 29409 29412 29415 29417 29420 29423 29426 29428 29431 29434 29437 29440 29442 29445 29448 29451 29454 29457 29460 29463 29466 29469 29472 29475 29478 29481 29484 29486 29489 29492 29495 29498 29500 29503 29506 
</DataArray>
<DataArray type="UInt32" Name="types" format="ascii">
5 5 5 5 3 5 5 5 5 5 5 5 5 3 5 5 3 5 5 5 5 5 3 5 5 5 3 3 5 5 5 5 5 5 5 5 5 5 5 5 5 5 5 5 5 5 3 5 5 5 5 5 5 5 5 3 5 5 5 5 5 5 3 5 5 3 5 5 5 5 3 5 5 5 5 5 5 5 5 5 5 5 5 5 5 5 5 5 5 5 5 5 3 5 5 5 5 5 5 3 5 5 5 5 5 5 5 5 5 5 5 5 5 3 5 3 5 5 5 5 3 5 5 5 5 5 5 5 5 5 5 5 3 5 5 5 5 3 5 5 5 5 5 5 5 5 5 5 3 5 5 5 5 5 5 5 5 5 5 5 5 5 5 3 5 5 5 5 3 5 5 5 5 5 5 5 5 5 5 5 5 5 5 5 5 5 5 5 5 5 5 5 5 5 5 5 5 5 5 5 5 5 5 5 5 5 5 5 5 5 5 5 3 5 5 3 5 5 5 5 5 5 5 5 5 5 3 3 5 5 5 5 5 5 5 5 5 5 5 5 5 3 5 5 5 5 5 3 5 5 5 5 5 3 5 5 5 5 5 5 3 5 5 3 5 5 5 3 5 5 5 5 3 5 5 5 3 3 5 3 5 5 5 5 5 5 5 5 3 5 5 5 5 5 5 5 5 5 5 5 3 5 5 5 5 5 5 5 5 5 5 5 5 5 5 5 5 5 3 5 5 5 5 5 5 5 5 5 5 5 5 5 5 5 5 5 5 3 5 5 5 3 3 5 5 5 3 5 5 3 5 5 5 5 5 5 5 5 5 5 5 5 5 3 5 5 5 5 5 5 5 5 5 5 5 5 5 5 5 5 5 3 5 5 5 3 5 5 5 5 3 5 5 5 5 5 5 5 3 5 5 3 5 5 5 5 5 5 5 5 5 3 3 5 5 3 5 5 5 3 5 3 5 5 5 5 3 5 5 3 5 5 5 5 5 5 3 5 5 5 5 3 5 3 5 3 5 3 5 5 5 3 5 5 5 3 5 5 5 3 5 3 5 5 5 3 5 5 5 5 5 5 5 5 5 5 5 3 5 5 5 5 5 5 5 5 5 5 5 5 5 5 3 3 5 5 5 5 3 5 5 5 5 5 5 3 5 5 3 5 5 5 5 5 5 5 5 5 5 5 5 5 5 5 5 5 5 5 5 5 5 5 5 3 5 5 5 3 5 5 3 5 3 5 5 3 5 5 5 5 5 5 5 5 5 3 5 5 3 5 5 5 5 5 5 5 5 5 5 5 5 5 5 5 5 5 5 5 5 5 5 5 5 5 5 5 5 5 3 5 5 5 5 5 5 3 5 5 5 5 5 5 5 3 5 5 5 3 3 5 5 3 5 5 3 5 5 5 5 5 5 5 5 5 5 5 5 3 5 5 5 5 5 3 5 5 5 5 5 5 3 3 5 3 5 5 5 3 5 3 5 3 5 5 5 5 5 3 3 5 5 5 3 5 3 3 5 5 5 5 5 5 5 5 5 3 5 5 5 5 3 5 5 5 5 5 5 3 5 5 5 3 5 5 5 5 5 5 5 5 3 5 5 5 5 5 3 5 5 5 5 5 5 5 5 5 3 5 5 5 5 5 5 5 5 5 5 5 5 5 5 5 5 5 5 5 5 5 5 5 5 5 5 5 5 5 5 5 5 5 5 5 5 5 3 5 3 5 5 3 5 5 5 3 5 5 5 5 5 5 5 5 5 5 5 5 3 5 5 3 5 5 5 5 5 3 3 3 5 3 5 5 5 5 5 5 5 3 5 3 5 3 5 5 3 5 5 3 5 5 5 5 5 3 5 5 5 5 5 3 5 5 5 3 5 5 3 5 5 5 5 5 5 5 5 5 5 5 5 3 5 3 5 5 5 5 5 5 5 5 5 5 5 5 5 3 5 5 3 5 5 5 3 3 5 5 5 5 5 3 5 5 3 5 3 5 5 5 5 5 3 5 5 5 5 5 5 5 5 5 5 5 5 5 5 3 5 3 5 5 5 5 5 3 5 5 5 5 5 3 3 5 5 3 5 3 5 5 3 5 3 5 3 3 3 5 5 3 5 5 5 5 5 5 5 5 5 5 5 3 5 5 3 5 5 5 5 5 5 5 5 5 3 5 3 5 3 5 5 3 5 3 5 5 5 3 5 3 3 5 5 3 3 5 5 5 5 5 3 5 5 5 5 5 5 5 5 5 5 5 5 5 5 5 5 5 5 5 5 5 5 5 5 5 5 5 5 5 5 5 5 5 3 5 5 5 5 5 5 3 5 5 3 5 5 5 5 5 5 5 5 5 5 5 5 5 3 5 3 5 5 3 5 5 5 5 5 5 5 5 5 5 5 5 3 5 5 3 5 5 5 5 5 5 5 5 5 5 5 5 5 3 3 5 5 5 5 5 3 5 3 3 5 5 5 5 5 5 5 5 3 5 5 5 3 5 5 5 5 5 5 5 5 5 3 5 3 5 5 5 5 5 5 5 5 3 5 5 5 3 5 5 5 3 5 5 3 5 5 5 5 3 5 5 5 5 5 3 5 5 5 3 5 5 5 5 5 5 5 5 5 5 5 5 3 5 5 5 5 5 5 5 5 5 3 5 5 5 5 3 5 5 5 5 5 5 3 5 5 5 5 5 5 5 5 5 5 5 3 5 5 3 5 5 3 5 3 3 5 5 5 5 5 3 5 5 5 5 5 5 5 3 5 5 5 5 5 5 5 5 5 5 5 5 5 5 5 5 3 5 5 3 5 5 5 5 5 5 5 5 5 3 5 5 5 5 5 5 5 5 5 5 5 5 5 5 5 5 5 5 5 5 5 5 5 5 3 5 5 5 5 5 5 5 5 5 5 5 5 5 3 5 5 5 5 5 5 5 5 5 5 3 5 5 5 5 3 5 3 5 5 5 5 5 5 5 5 3 5 5 5 5 5 3 5 5 5 5 5 3 5 3 5 5 5 5 5 5 5 5 5 5 5 3 5 5 5 5 5 5 5 5 5 5 5 5 5 5 5 5 5 5 5 5 5 5 5 5 5 5 5 3 5 5 5 5 5 5 5 5 3 5 3 5 5 5 5 5 5 5 5 5 5 5 5 5 5 5 5 5 3 5 5 5 5 5 5 5 3 5 5 5 5 5 3 5 5 5 5 5 5 5 5 5 5 3 5 5 5 5 5 5 5 5 5 5 5 5 5 5 5 5 5 5 5 5 5 5 5 5 3 5 5 3 5 5 5 5 5 3 5 5 5 5 3 5 5 5 5 5 5 5 5 5 5 5 5 5 3 3 5 5 5 5 3 5 5 5 5 5 5 5 3 5 5 5 3 5 5 5 5 5 3 5 3 5 3 5 5 5 5 5 5 5 5 5 5 5 3 5 5 5 3 5 5 5 5 5 5 5 5 5 5 5 3 3 5 5 3 5 5 3 5 5 5 5 5 5 5 5 5 5 5 5 5 5 5 5 5 5 5 5 5 5 5 3 5 5 5 5 5 3 5 5 5 5 3 5 5 5 5 5 5 3 5 5 5 5 5 5 3 5 5 3 5 3 5 3 5 5 5 5 5 5 5 5 5 5 5 5 5 5 5 5 3 3 5 5 5 3 5 5 5 3 5 3 5 5 3 3 5 5 5 5 5 5 5 5 3 5 5 5 3 5 5 3 5 3 5 3 5 5 5 5 5 5 5 5 5 5 5 5 5 5 5 5 5 5 5 5 5 5 3 5 5 5 3 3 5 5 5 5 5 5 3 3 5 5 3 5 5 5 5 3 5 5 5 5 5 5 5 5 5 5 5 5 5 5 5 3 5 5 5 3 5 5 5 5 5 5 5 5 5 5 3 5 5 5 5 3 5 5 5 5 3 5 5 5 5 5 5 5 5 5 5 3 5 3 3 5 5 5 5 5 5 5 5 5 5 5 5 5 5 5 5 5 5 5 5 5 3 5 5 5 5 5 5 5 5 5 3 5 5 5 3 5 5 5 5 5 5 5 3 3 5 5 3 3 5 3 5 5 5 3 5 5 3 3 5 5 5 5 5 5 5 5 5 3 5 5 5 3 3 5 5 5 5 5 5 5 5 3 5 5 5 5 5 5 5 5 3 5 5 5 5 5 5 5 5 3 5 5 3 5 5 5 3 3 5 5 5 5 5 5 5 5 5 5 5 5 3 5 5 5 3 5 3 5 5 5 5 5 5 5 3 5 3 5 5 5 5 5 5 5 5 5 5 5 5 3 5 5 5 5 3 5 5 5 3 5 5 5 5 5 5 5 3 5 5 5 3 5 5 5 5 5 5 5 5 3 5 5 5 5 5 5 5 5 5 5 5 5 5 5 5 5 5 5 3 3 5 5 5 5 3 5 3 5 5 5 5 5 5 5 3 5 5 3 3 5 3 3 5 3 5 3 5 5 5 3 5 5 5 5 5 5 5 5 5 5 5 5 3 5 5 3 5 5 5 5 5 5 5 3 5 3 5 3 5 5 3 5 5 3 5 5 3 5 5 5 5 5 5 5 5 5 5 5 3 5 5 5 5 5 5 5 5 5 5 5 5 5 5 5 5 5 5 5 5 5 5 5 5 3 5 5 5 5 3 5 5 5 5 5 5 3 5 5 3 5 5 5 5 5 5 5 5 5 5 3 5 5 5 5 5 5 3 5 5 5 5 5 5 5 5 5 5 5 5 3 5 5 5 5 5 5 5 5 5 5 5 3 5 5 5 3 3 5 5 5 5 5 3 5 5 5 5 5 5 5 5 5 3 5 5 3 5 5 5 3 5 5 5 5 5 5 5 3 5 5 5 5 5 5 5 5 5 5 5 5 5 5 5 5 5 5 5 5 5 5 3 5 5 5 3 5 5 5 3 3 5 5 5 5 5 5 5 3 5 5 5 5 3 5 5 3 5 5 5 5 5 3 5 5 3 5 5 5 5 3 5 5 5 5 5 5 5 5 5 3 5 5 3 3 5 3 5 5 5 3 3 3 5 5 3 5 5 3 5 5 5 5 3 5 5 3 5 5 5 3 5 5 5 5 3 5 5 5 3 5 5 5 3 5 5 5 5 3 3 5 5 5 3 5 3 5 5 5 5 5 5 5 5 3 5 5 5 5 5 5 3 5 5 5 5 3 5 5 5 3 5 5 5 5 5 5 3 3 3 5 3 5 5 5 5 5 5 5 5 5 5 5 5 5 5 5 5 5 5 5 5 5 5 5 5 3 5 5 5 3 5 5 5 3 5 5 5 3 5 5 5 3 5 5 5 5 5 5 5 5 5 3 5 5 5 5 5 5 5 5 5 5 5 5 5 5 5 5 5 5 5 5 5 5 5 5 5 5 5 3 5 5 5 3 5 5 5 5 3 5 5 5 5 5 5 3 5 5 5 3 5 5 5 5 5 5 5 5 5 5 5 5 5 5 5 5 5 5 5 3 5 5 5 5 5 5 5 5 5 5 5 5 5 5 5 5 5 5 5 5 5 5 5 5 5 5 5 5 5 5 5 5 5 5 5 5 5 5 5 5 5 5 5 5 5 5 5 5 3 5 5 5 5 5 3 5 5 5 5 5 5 5 5 5 5 3 5 5 3 5 3 5 5 3 5 5 5 5 5 5 5 5 5 5 5 5 5 5 5 5 3 5 5 5 5 5 3 5 5 5 5 5 3 5 5 5 5 5 5 5 5 5 3 3 5 5 5 3 5 5 5 5 5 5 3 3 5 5 5 5 5 5 3 5 5 3 5 5 5 5 5 5 5 5 3 5 5 3 5 5 5 3 5 5 5 5 5 5 3 5 5 5 5 5 5 5 5 5 5 5 5 3 5 5 5 3 3 5 5 3 5 5 5 3 5 5 5 5 5 5 5 5 5 5 3 5 5 5 5 3 3 5 5 5 5 3 5 5 5 3 5 5 5 5 3 5 5 3 5 5 5 5 5 3 5 3 3 5 5 3 5 5 5 5 3 5 5 5 5 5 3 3 5 5 3 5 3 3 5 5 5 5 5 5 5 3 5 5 5 5 3 5 5 5 5 5 5 5 5 5 5 5 5 5 5 5 5 3 5 5 5 5 5 5 3 5 5 5 3 3 5 5 3 5 3 5 5 3 5 5 5 5 5 5 5 3 5 5 5 5 5 3 5 3 5 5 5 3 3 5 5 5 3 5 5 5 3 5 5 5 3 5 5 5 5 5 5 3 3 3 5 5 5 5 5 3 3 5 5 5 5 5 5 3 5 3 5 5 5 5 5 3 5 5 5 3 5 3 5 5 5 5 5 5 5 5 5 5 5 3 5 5 5 5 5 3 5 5 5 5 5 5 3 5 5 5 3 5 3 5 3 5 3 5 5 5 3 3 5 5 5 5 5 5 5 5 5 5 5 5 5 3 5 5 5 5 5 5 5 5 3 5 5 5 5 5 3 5 5 3 5 3 3 5 5 5 5 5 3 5 5 5 5 5 5 5 5 5 5 5 5 5 5 5 5 5 5 5 5 5 5 5 5 5 5 5 5 5 5 5 5 5 5 5 5 5 5 5 5 5 3 5 5 5 5 5 5 5 5 5 5 5 3 5 5 5 5 3 5 3 5 5 3 5 5 5 5 5 5 5 5 5 5 5 5 5 5 5 5 5 5 5 5 5 5 5 5 5 5 5 5 5 5 5 5 5 5 5 3 5 5 5 5 5 5 5 5 5 5 5 5 5 3 5 3 5 5 5 5 5 5 3 5 5 3 5 5 3 5 3 5 5 5 5 5 5 5 3 5 3 5 5 5 3 5 5 3 5 5 3 3 5 3 5 3 5 5 5 5 3 5 5 5 3 3 5 5 5 3 5 5 5 5 5 3 5 5 5 5 5 3 5 5 5 5 5 5 5 5 5 5 3 5 5 3 3 5 5 3 3 5 3 5 5 5 3 5 5 5 5 3 5 3 5 5 3 3 3 5 3 5 5 3 5 3 5 5 3 5 5 3 5 3 5 5 3 5 3 5 5 5 5 5 3 3 3 5 5 5 3 5 3 3 5 5 3 5 5 5 3 5 5 3 3 5 3 5 3 5 5 5 3 5 5 5 5 5 5 5 3 5 5 5 5 3 5 5 5 3 5 5 5 5 5 3 3 5 5 5 5 3 3 5 5 5 5 5 5 5 3 5 3 5 5 5 5 3 5 3 3 5 5 5 5 5 5 3 5 3 5 5 5 5 3 5 3 3 5 5 3 5 5 5 5 5 5 5 5 5 5 3 5 5 3 5 5 5 5 3 5 5 5 5 5 3 3 5 5 3 5 5 5 5 5 5 5 5 5 5 3 5 5 5 5 5 5 5 5 5 5 5 5 5 5 5 5 5 5 3 5 5 3 5 5 5 5 5 5 3 3 5 5 5 3 3 5 5 5 3 5 5 5 3 5 3 5 5 5 5 3 3 5 5 5 5 3 5 3 5 3 3 5 5 3 3 5 5 5 5 5 5 5 5 5 5 5 5 3 5 5 3 5 5 5 5 5 5 5 3 5 5 5 5 3 5 5 5 5 5 5 5 5 3 5 5 3 3 5 5 5 5 3 5 3 5 5 5 5 5 5 5 5 5 3 5 5 3 3 5 5 5 3 5 5 3 5 5 5 3 5 5 5 5 3 3 5 5 5 5 3 5 5 5 5 5 5 5 5 5 5 5 3 5 5 5 3 5 3 5 5 5 3 5 5 3 3 5 5 3 3 3 5 3 5 5 3 5 3 5 3 3 5 5 5 3 5 3 5 3 5 5 5 5 5 3 5 5 5 5 5 3 3 5 5 5 5 5 3 5 5 5 5 5 3 5 5 5 5 5 5 5 5 5 3 5 5 5 3 3 3 5 5 5 3 5 3 5 5 5 5 3 5 5 5 5 5 5 5 5 5 5 5 5 5 5 5 5 3 5 5 5 5 5 5 5 5 5 5 5 3 3 5 5 3 5 5 5 3 5 5 5 5 5 5 5 5 5 5 5 5 5 5 3 3 5 5 5 5 5 3 5 5 5 5 5 5 5 5 5 3 5 5 5 3 5 5 5 5 5 5 5 3 3 5 5 5 5 5 5 5 5 5 5 5 5 5 5 5 5 5 5 5 5 5 5 5 5 5 5 5 5 5 5 5 5 3 5 5 5 5 5 5 5 5 3 5 3 5 3 5 5 3 5 5 3 5 3 3 5 5 5 3 3 5 5 5 5 5 5 5 5 5 5 5 5 5 5 5 5 5 5 5 3 5 5 5 5 5 5 5 3 5 5 5 5 5 5 5 5 3 5 5 5 3 3 5 3 5 5 5 5 5 5 5 5 5 5 5 3 5 5 5 5 5 5 5 5 5 5 5 5 5 5 3 5 5 5 5 5 5 3 5 5 5 5 5 5 5 5 5 5 3 5 5 5 5 5 5 5 5 5 5 3 5 3 5 5 5 5 5 5 5 5 5 5 5 5 5 5 3 5 5 5 5 5 5 5 5 5 5 5 5 5 5 5 3 5 5 5 3 5 5 5 5 5 5 5 5 5 3 5 5 3 5 3 5 5 5 3 5 5 5 5 5 3 5 5 5 5 5 5 5 3 5 5 3 5 5 5 5 5 5 3 5 5 3 5 5 5 3 5 5 5 5 5 5 3 5 5 5 5 5 5 5 5 5 5 5 5 5 5 5 5 5 5 3 5 3 5 5 3 5 5 5 5 5 5 5 5 5 5 5 5 5 5 3 5 5 3 5 5 5 5 3 5 5 5 5 5 5 3 5 5 5 3 5 5 3 5 5 5 3 5 3 3 5 5 5 3 5 5 5 3 3 5 5 3 3 5 5 5 5 3 3 5 5 5 5 5 3 3 5 3 5 5 3 5 5 5 5 5 5 5 3 3 5 5 5 5 5 5 5 5 5 5 5 5 5 5 5 5 5 5 5 3 5 5 5 5 5 3 5 5 5 5 3 5 5 5 5 5 5 3 5 5 5 5 5 5 5 3 5 5 5 5 5 3 5 3 3 5 5 3 5 3 5 3 5 3 5 5 5 5 5 5 5 5 3 5 5 5 3 5 5 5 5 5 5 5 5 5 5 5 5 5 5 5 5 5 5 5 5 5 5 5 5 5 3 5 5 5 5 5 5 5 5 5 3 5 3 5 5 5 5 5 5 5 5 5 5 5 5 3 5 5 3 5 5 5 3 5 5 5 3 5 5 5 5 3 5 5 3 5 5 5 5 5 5 5 5 5 5 5 5 5 5 5 5 3 5 5 5 5 5 5 5 5 3 5 5 5 3 5 5 5 5 5 5 5 5 5 5 5 5 5 5 5 5 5 5 5 5 5 5 5 5 5 3 5 3 5 5 5 5 3 5 5 3 5 5 5 5 5 5 5 5 5 5 5 5 3 5 5 5 3 5 3 5 5 5 5 5 5 5 3 5 3 5 5 3 5 5 5 5 5 5 5 5 5 5 5 3 5 5 5 5 3 5 5 5 5 5 5 5 5 5 5 5 5 5 5 3 5 5 5 5 5 5 5 5 5 5 5 5 5 5 5 5 5 5 5 5 5 5 5 5 5 5 5 5 3 5 5 3 3 5 5 5 5 5 5 3 5 5 5 5 5 5 5 5 5 5 5 5 5 5 5 5 5 5 5 5 5 5 5 5 5 5 5 5 5 5 5 5 5 5 5 5 5 5 5 5 5 5 5 5 5 5 5 5 5 5 5 5 5 5 5 5 5 5 5 5 5 5 5 5 5 3 5 5 5 5 5 5 5 5 5 5 5 5 5 5 5 5 5 3 5 5 5 5 3 5 5 5 5 5 3 5 5 3 5 3 3 5 3 3 5 3 5 5 5 5 5 3 5 3 5 5 5 5 5 5 5 3 3 5 3 5 5 5 5 5 5 5 5 5 5 5 5 5 5 5 5 5 5 5 5 5 5 5 5 5 3 5 5 5 3 5 5 5 5 5 5 5 5 5 5 3 5 5 5 3 5 5 3 5 5 5 5 5 5 5 3 5 5 5 5 3 5 5 3 5 5 5 5 5 5 5 5 5 5 5 3 5 5 5 5 5 5 5 5 5 5 5 5 3 5 5 5 5 5 5 5 5 5 5 5 5 5 5 5 5 3 5 5 5 3 5 5 5 5 5 5 5 5 5 5 5 5 5 5 5 3 3 5 5 5 5 5 5 5 5 5 3 5 3 5 5 5 5 5 5 3 5 5 5 5 5 5 5 5 3 3 5 5 5 5 5 5 5 5 5 5 5 5 5 3 5 5 5 5 5 5 3 5 5 5 5 3 5 5 5 5 5 5 5 5 5 5 5 5 5 5 5 5 5 5 5 3 5 5 3 5 5 3 5 5 5 5 3 5 5 5 5 5 5 5 5 3 5 5 3 5 5 5 5 5 5 5 3 5 5 5 5 3 5 5 3 5 5 5 3 5 5 5 5 3 5 5 5 5 5 5 3 5 3 5 5 5 5 5 3 3 5 5 5 5 3 5 5 3 5 5 5 5 5 5 5 5 5 5 5 3 5 5 5 5 5 5 5 5 5 5 3 5 5 5 5 5 5 5 5 5 5 5 5 5 5 5 5 5 5 5 5 5 5 5 5 5 5 5 5 5 5 3 5 3 3 5 3 5 5 5 5 5 3 5 5 5 3 5 5 5 5 5 3 5 5 5 5 3 5 3 5 3 5 5 5 5 5 5 5 5 5 5 3 5 3 5 5 5 3 5 3 5 5 5 5 3 3 3 5 5 5 5 5 5 5 5 5 5 5 3 5 5 3 3 5 5 5 5 3 5 5 5 5 5 5 5 5 5 5 5 5 5 5 3 5 5 5 5 5 5 5 5 5 5 5 5 5 5 3 5 5 5 5 5 5 3 5 5 5 3 3 5 3 5 5 3 5 5 3 3 5 5 5 3 5 5 3 5 5 5 5 5 5 5 5 3 5 3 5 5 5 3 5 3 3 5 5 3 5 5 5 5 5 5 5 5 5 5 5 3 5 5 5 5 5 5 5 5 5 5 5 5 3 5 3 5 3 5 5 5 5 5 5 5 5 5 5 5 5 5 5 5 5 5 3 5 5 5 5 5 5 5 5 3 5 5 5 5 5 5 5 5 5 5 5 5 5 5 5 5 3 5 5 5 5 3 5 5 5 5 5 5 5 5 5 5 3 5 5 5 5 5 5 3 5 5 5 5 5 5 5 5 5 5 5 5 5 5 5 3 5 5 5 5 5 5 5 5 3 5 5 3 5 5 3 5 3 3 5 3 3 5 5 3 5 5 5 5 5 5 5 5 5 5 5 3 5 5 3 5 5 5 5 5 5 5 5 5 5 5 5 5 5 3 5 5 5 5 5 5 5 5 5 3 5 5 5 5 3 5 5 5 5 5 3 5 5 5 3 5 3 5 3 5 3 5 5 5 3 5 5 5 5 3 5 3 5 3 5 3 5 3 5 5 5 3 3 5 5 3 3 5 5 5 5 5 3 5 5 5 3 5 5 3 5 5 5 3 5 5 5 5 3 3 5 5 3 5 5 5 3 5 5 5 5 5 5 3 5 5 3 5 3 5 3 5 5 5 5 5 5 5 5 5 5 5 3 5 5 5 3 5 5 5 3 5 5 5 5 5 5 5 5 5 5 5 5 5 5 5 5 5 5 3 5 3 5 3 5 3 5 5 5 5 5 3 5 5 5 5 5 5 3 5 3 5 5 3 5 5 5 3 5 5 5 5 5 5 5 5 5 5 5 5 5 5 5 5 5 5 5 3 5 3 5 5 5 5 3 5 5 5 3 5 5 5 5 5 5 5 5 5 3 5 3 5 5 3 5 5 5 5 5 3 5 3 3 5 5 5 3 3 5 3 5 5 3 5 5 5 5 3 5 5 5 5 5 5 5 5 5 5 3 5 5 5 5 5 5 5 5 5 5 5 5 3 5 5 5 5 5 3 5 5 5 5 3 5 3 5 5 3 5 5 5 5 3 5 5 5 5 5 5 5 5 5 5 5 5 3 5 3 5 5 5 5 3 5 5 5 3 5 3 5 3 5 5 5 5 5 3 5 5 5 5 5 5 5 3 5 5 5 3 5 5 5 5 3 5 5 5 3 5 5 5 5 5 5 5 3 5 3 5 5 5 5 5 5 5 5 5 5 5 3 5 3 5 5 3 5 5 5 3 5 5 5 5 5 5 5 5 5 5 5 5 5 5 5 5 5 5 5 5 5 5 5 5 5 5 5 5 5 5 5 5 5 5 5 5 5 5 5 5 5 5 5 5 5 5 5 3 5 5 5 5 5 5 5 5 5 5 5 5 5 5 3 5 5 5 5 5 5 5 5 5 5 5 5 5 5 5 5 5 5 5 5 5 5 5 5 5 5 5 5 3 5 5 3 5 5 5 5 5 5 5 5 5 5 3 3 5 3 5 5 5 5 3 3 5 3 5 5 5 3 5 5 3 5 5 5 5 5 5 5 5 5 5 3 5 5 5 5 5 3 5 3 5 5 5 3 5 3 5 5 5 5 5 5 3 5 3 5 5 5 5 5 5 5 5 5 3 5 5 5 5 5 5 5 5 5 5 5 5 5 5 3 5 5 5 3 5 5 5 5 5 3 5 5 5 5 5 5 5 5 5 3 5 5 5 5 3 5 5 5 5 5 5 5 5 5 5 5 5 5 5 5 5 5 5 5 5 5 5 5 5 5 5 5 3 5 5 5 5 5 5 5 5 5 5 5 5 5 5 5 5 5 5 5 5 5 5 5 5 5 5 5 5 5 5 5 5 5 5 5 5 5 5 5 5 5 5 5 3 5 5 5 5 5 5 5 5 5 5 5 5 5 5 5 5 5 5 5 5 5 5 5 5 5 5 5 5 5 5 5 5 5 5 5 5 5 5 5 5 5 3 5 5 5 5 5 5 5 5 5 5 5 5 5 5 3 5 5 5 5 3 5 5 5 5 5 3 5 5 5 5 5 5 5 3 5 5 5 5 5 5 3 5 5 5 5 5 5 5 5 5 5 5 5 5 5 5 3 5 5 5 5 3 5 5 5 5 5 5 5 5 5 5 5 5 5 5 3 5 3 5 5 5 3 3 5 5 5 5 5 5 3 5 3 5 5 5 5 5 5 5 5 5 5 5 5 5 5 5 5 3 5 5 5 5 5 3 5 5 3 5 5 5 5 5 3 5 5 3 3 5 5 5 5 5 5 5 5 3 5 5 5 3 3 3 5 3 5 5 5 5 5 5 3 5 3 5 5 3 5 5 5 5 5 5 5 5 3 5 3 5 5 5 3 5 5 5 3 5 5 5 5 3 5 5 5 3 5 5 5 5 5 5 5 5 5 5 5 5 5 5 3 5 3 5 5 5 5 5 5 3 5 3 5 3 5 5 5 5 5 5 5 5 5 5 5 5 5 5 5 5 5 5 5 5 5 5 5 5 5 3 5 5 5 5 5 3 5 5 5 5 3 5 5 3 5 5 5 5 3 5 5 3 5 3 5 5 5 5 3 5 3 5 5 5 5 5 5 5 3 5 3 5 5 3 3 5 5 3 3 5 5 5 3 5 5 3 5 3 5 5 5 5 5 5 5 5 5 5 5 5 5 3 3 5 5 5 5 5 5 5 5 5 5 5 5 5 5 5 5 5 5 5 5 5 5 5 5 5 5 5 5 5 5 5 5 3 5 5 5 3 5 5 3 5 3 3 5 5 3 3 5 5 5 5 5 5 3 3 5 3 5 5 5 3 5 5 3 5 5 5 5 5 5 5 5 5 5 5 5 5 5 5 5 5 5 5 5 5 5 5 5 5 5 5 5 5 5 5 5 5 5 5 3 5 3 5 3 5 5 3 5 5 5 5 5 5 5 5 5 5 5 5 5 5 5 5 5 3 5 5 5 5 5 5 5 5 5 3 5 5 5 5 5 5 5 3 5 5 3 5 5 5 5 5 5 5 5 5 5 3 5 5 5 5 5 5 5 5 5 5 5 5 5 3 5 5 3 5 5 5 5 5 5 5 5 5 5 3 5 5 5 5 5 5 5 5 5 5 5 5 5 5 5 5 5 3 5 5 5 5 5 5 5 5 5 5 5 5 3 5 5 5 5 5 5 5 3 5 3 5 5 5 5 5 5 5 3 5 5 3 5 5 5 5 5 3 5 5 5 5 5 3 5 5 5 5 5 5 5 5 5 5 5 5 5 5 5 5 5 5 5 5 5 5 5 5 5 5 5 5 5 5 3 3 5 5 5 5 5 5 5 3 5 5 5 5 5 5 5 5 5 3 5 5 3 5 5 5 5 5 5 3 5 3 5 5 5 5 5 5 5 5 3 5 3 5 5 5 5 5 5 3 5 5 5 5 5 5 5 3 5 5 5 5 5 5 5 5 3 5 5 5 5 5 5 5 5 3 5 5 5 3 5 5 5 5 3 5 5 5 3 3 5 5 5 5 5 3 3 5 5 5 3 3 5 5 5 5 3 5 3 5 3 5 5 5 5 5 5 5 5 5 5 5 5 5 5 3 5 5 5 5 5 5 5 5 5 5 3 5 5 3 3 3 5 5 5 5 3 5 5 5 5 5 3 5 5 5 5 5 5 5 5 5 5 5 3 5 5 5 3 3 5 5 5 5 5 5 5 3 5 5 3 5 3 5 5 5 5 3 5 5 5 3 5 5 3 5 3 5 5 5 5 5 5 5 5 5 5 5 5 5 5 5 5 3 5 5 5 5 5 5 5 5 5 5 5 5 3 5 3 5 5 5 5 5 3 5 5 5 5 5 5 5 5 5 5 5 3 5 3 5 5 3 5 5 5 5 5 3 5 5 5 5 5 5 5 5 5 5 3 5 5 5 5 5 5 5 5 5 5 5 5 5 3 5 5 5 3 5 5 5 5 5 3 5 5 5 5 5 5 3 5 3 3 3 5 5 5 5 5 3 5 5 5 5 5 5 3 5 3 3 5 5 3 3 5 3 5 5 3 5 5 5 5 5 5 5 5 5 5 5 5 5 5 5 5 5 5 5 5 3 5 5 5 5 5 5 5 5 5 5 5 5 5 5 5 5 5 5 5 5 3 5 5 5 5 5 3 5 5 5 5 5 5 5 3 5 5 3 5 5 5 5 5 5 5 5 5 5 5 5 5 5 5 5 5 3 5 5 5 5 3 5 5 3 5 3 5 5 5 5 5 5 5 5 5 5 5 5 5 3 5 5 5 5 5 5 5 5 3 5 5 5 5 3 5 5 5 5 5 5 5 3 5 5 5 5 5 5 5 5 5 5 5 5 5 5 5 5 5 3 5 5 5 5 5 3 5 5 5 5 5 5 3 5 5 5 3 5 5 5 5 5 3 3 5 5 5 5 3 5 3 5 3 5 5 5 5 5 5 5 5 5 5 5 5 3 3 5 3 5 5 5 5 5 5 5 5 5 5 5 5 5 5 5 5 5 5 5 5 5 5 3 5 5 5 5 5 5 5 3 5 3 5 5 3 3 5 5 5 5 3 5 5 5 5 5 5 3 5 5 5 5 5 5 3 5 5 5 5 5 3 5 5 5 5 5 5 5 3 3 5 5 5 5 5 5 5 5 3 5 3 5 5 3 3 3 5 5 5 5 5 5 5 3 5 3 5 3 3 5 3 3 5 5 5 3 3 5 5 5 5 5 3 5 3 3 3 5 5 5 5 3 5 3 5 5 5 5 5 3 3 5 5 5 5 5 3 5 5 5 5 5 3 5 5 5 5 5 5 5 5 3 3 5 3 5 5 3 5 5 5 3 3 3 5 3 5 3 3 5 5 3 5 5 5 5 5 5 5 5 5 5 5 5 5 3 3 5 3 5 3 5 5 5 5 3 3 5 5 5 5 3 5 5 5 5 5 5 5 5 5 5 5 5 5 3 5 5 3 5 5 5 5 5 5 5 5 5 5 5 5 5 5 5 5 5 5 5 3 5 5 5 3 5 5 5 3 5 5 3 5 3 5 3 5 5 5 5 5 5 5 5 5 5 5 3 5 5 5 5 3 5 5 3 5 5 5 5 5 5 3 5 5 3 5 5 5 5 5 5 3 5 5 3 5 5 3 5 5 3 5 5 5 5 5 5 3 5 5 5 5 3 5 5 5 3 5 5 5 5 5 5 5 5 5 5 5 5 5 3 5 5 5 3 3 5 5 3 5 5 3 3 5 5 5 5 5 5 3 5 5 3 5 5 5 5 5 5 5 5 3 5 5 3 3 5 5 5 5 3 5 5 5 5 3 5 5 5 5 5 5 5 5 5 5 5 5 5 5 5 5 5 5 5 5 5 5 5 5 5 5 5 3 5 5 5 3 5 5 5 5 5 3 5 5 5 5 5 5 5 5 5 5 5 5 5 5 5 3 3 5 5 5 5 5 5 5 5 5 5 5 5 3 3 5 5 3 5 5 5 3 5 5 5 5 5 5 5 5 5 5 5 5 5 5 5 5 5 5 5 5 5 5 5 5 5 3 5 5 5 5 5 5 5 5 5 5 5 5 5 3 5 5 5 5 5 5 5 5 5 5 5 5 5 3 5 5 5 5 5 5 5 5 5 5 5 5 5 5 5 5 5 5 5 3 5 5 5 5 5 5 5 5 3 5 5 5 3 5 5 5 5 5 5 5 5 5 5 5 5 5 5 5 5 5 5 5 5 5 5 5 5 5 3 5 5 5 3 5 5 5 5 5 5 5 5 5 5 5 5 3 5 5 5 5 5 3 5 5 3 5 5 3 5 3 5 5 5 3 5 5 5 3 5 5 5 5 3 5 5 5 5 5 5 5 3 3 5 5 5 3 5 5 5 3 5 5 5 5 5 5 5 5 5 3 5 5 5 5 5 5 5 5 3 5 5 5 5 5 5 5 5 5 5 3 5 3 5 5 5 5 5 3 3 5 5 5 5 5 5 5 3 5 5 5 5 5 5 5 5 5 3 5 5 5 5 5 5 5 5 5 3 5 5 5 3 5 5 5 3 5 3 5 5 5 5 5 5 5 5 5 5 5 5 5 5 5 5 5 5 5 5 5 5 5 5 5 5 5 5 5 5 5 5 5 5 5 5 5 5 5 5 5 5 3 5 5 5 5 5 5 5 5 5 5 5 3 5 5 5 5 5 5 5 5 5 5 5 5 5 5 5 5 5 5 5 5 5 5 5 5 5 5 5 5 5 5 5 5 5 5 5 5 5 5 5 5 5 5 5 5 5 5 5 5 5 5 5 5 5 5 5 5 5 5 5 5 5 5 5 5 5 5 3 3 5 5 5 5 5 3 5 3 5 5 3 5 5 5 5 5 5 5 5 5 5 3 5 5 5 5 5 5 5 5 5 5 5 5 5 5 5 5 5 5 5 5 5 5 5 5 5 5 5 5 5 3 5 5 3 5 5 5 5 5 5 5 5 5 5 5 5 5 3 5 5 5 5 5 3 5 5 5 5 3 5 5 5 3 5 5 5 3 5 5 5 5 5 5 5 3 5 5 3 5 5 5 5 5 5 5 5 5 5 5 3 5 5 5 5 5 5 5 3 5 5 5 5 5 5 5 5 5 5 5 5 5 5 5 5 5 5 5 5 5 5 3 5 5 5 3 5 5 5 5 3 5 5 5 5 5 5 5 5 3 3 5 5 5 5 5 5 5 5 5 5 5 5 5 5 5 5 5 5 5 5 5 5 5 5 5 5 5 5 5 5 3 3 5 5 5 5 5 5 3 3 5 5 5 5 5 5 5 5 5 5 5 5 5 5 5 5 3 5 3 5 3 5 3 3 5 5 3 5 5 5 5 5 5 5 5 5 5 5 5 5 5 5 3 3 3 5 5 5 3 5 5 5 5 5 5 5 5 3 3 5 5 5 5 5 5 5 5 5 3 5 3 3 5 5 5 5 5 3 5 5 5 5 5 5 5 5 5 5 5 3 5 5 5 5 5 5 5 5 3 5 5 5 5 5 5 5 5 5 5 5 5 5 5 5 5 5 5 3 5 5 5 5 5 5 5 5 5 5 3 5 3 5 5 5 5 5 5 5 5 5 5 5 3 5 5 3 5 5 5 5 5 5 5 3 5 5 5 3 5 5 5 5 5 5 5 5 5 3 5 5 5 5 5 3 3 5 3 3 5 5 5 5 5 5 5 5 5 3 5 5 3 5 5 5 5 5 5 5 5 5 5 5 5 5 5 5 5 5 5 5 5 3 5 5 3 5 5 5 5 5 3 5 5 5 5 5 5 5 5 5 5 5 5 5 5 5 5 3 5 5 5 5 5 5 5 5 5 5 5 5 5 5 5 3 5 5 5 5 5 5 5 5 3 5 5 5 5 3 3 5 3 5 5 5 5 5 3 5 5 5 5 5 5 5 5 5 3 5 5 5 5 5 5 5 5 5 5 5 5 5 5 5 5 5 5 5 5 5 5 5 5 5 5 5 5 5 5 5 5 5 5 5 5 5 5 5 5 5 5 5 5 5 5 5 5 5 5 5 5 5 3 5 5 5 5 5 5 5 5 5 5 5 5 5 5 5 5 5 5 5 5 5 5 5 5 5 3 3 5 5 5 5 3 5 5 5 3 5 5 5 5 3 5 5 5 5 5 5 5 5 3 5 5 5 5 5 3 5 5 5 5 5 5 5 3 5 3 5 5 3 5 5 5 5 5 5 5 5 5 3 5 5 3 5 5 3 3 5 5 5 5 5 5 5 5 5 5 5 5 5 5 5 5 5 3 5 5 5 5 5 5 5 5 5 5 3 5 5 5 5 3 5 5 5 5 5 5 5 5 3 5 5 5 5 5 3 5 5 5 5 3 5 5 5 5 5 5 3 5 5 3 5 5 5 3 5 5 5 5 5 5 5 5 5 5 3 3 5 5 5 5 5 5 5 5 5 5 5 5 5 5 5 3 5 5 3 5 5 5 5 5 5 5 3 5 5 5 5 3 5 5 5 3 5 5 5 5 5 5 5 3 5 5 5 3 5 5 3 5 5 5 5 5 3 3 5 5 5 5 5 5 3 5 5 5 5 5 5 5 3 5 5 5 5 5 3 5 5 5 5 5 3 5 5 5 3 5 5 5 5 5 5 5 5 5 5 5 5 5 5 5 5 5 3 5 5 5 5 5 5 5 5 5 5 5 5 3 5 5 5 3 5 5 5 5 5 3 5 3 5 5 5 5 5 5 5 5 5 5 5 3 5 5 5 5 5 5 3 5 5 5 5 5 5 5 5 5 5 5 3 5 5 5 5 5 5 5 5 5 3 5 5 5 3 5 5 5 5 5 3 5 5 5 5 5 5 5 5 3 3 5 5 3 5 5 5 5 5 5 5 5 3 5 3 5 5 5 5 5 5 5 5 5 5 5 5 5 5 5 5 5 5 5 5 5 5 3 5 5 5 5 5 5 5 5 5 5 5 5 5 5 5 5 5 5 5 5 5 5 5 3 5 5 5 5 3 5 5 5 5 5 5 5 5 3 5 5 5 5 5 5 5 5 3 5 5 5 5 5 5 5 5 5 5 5 5 3 5 5 5 3 5 5 5 5 5 5 3 5 5 5 5 5 5 5 5 5 3 5 5 3 5 3 5 5 3 5 5 5 3 5 5 5 5 5 3 5 3 5 3 5 5 5 5 3 3 5 5 5 5 5 5 5 5 3 5 5 5 5 5 3 5 5 5 5 5 5 5 3 5 5 5 5 5 5 5 5 5 5 5 5 5 5 5 5 5 5 5 5 5 5 5 3 5 3 5 5 5 5 5 5 5 5 5 5 5 5 5 5 5 5 5 5 5 5 5 5 5 5 5 5 5 5 5 5 5 5 5 5 5 5 3 5 5 3 5 5 5 5 5 3 5 5 3 5 3 5 5 3 5 5 5 5 5 5 5 3 5 5 5 5 3 5 5 5 5 5 5 3 5 5 5 3 5 5 5 5 5 5 5 5 5 5 3 5 5 5 5 5 3 3 5 5 5 5 5 5 3 5 3 5 5 5 5 5 5 3 5 5 5 3 5 5 5 3 5 5 5 5 5 5 3 5 5 5 3 5 5 5 5 5 5 5 3 5 5 5 5 3 5 5 5 5 5 5 3 5 5 5 5 5 5 3 5 5 5 5 5 3 5 5 5 5 5 5 5 5 5 5 5 5 5 5 5 5 5 5 5 5 5 5 5 5 5 5 5 5 5 5 5 5 5 5 5 5 5 5 5 5 5 5 5 5 5 5 5 5 5 5 5 5 5 5 5 5 5 5 5 5 5 5 3 5 5 5 5 5 5 5 3 5 3 5 5 3 5 5 5 3 5 5 5 5 5 3 5 5 3 5 3 3 5 5 5 3 5 5 5 5 5 5 5 5 5 5 5 5 5 5 5 5 3 5 5 5 5 3 5 5 5 3 5 3 5 5 5 5 3 5 5 5 5 3 5 5 5 5 5 5 5 3 5 5 5 5 5 5 5 5 5 3 5 5 5 5 5 5 5 5 5 3 5 5 3 5 5 5 5 5 5 3 5 5 5 3 5 5 5 5 3 5 5 3 5 5 3 5 5 5 5 5 3 5 5 5 5 5 5 5 5 5 5 5 5 5 5 5 5 5 5 5 5 3 5 5 5 3 5 5 5 5 5 5 5 5 5 5 5 3 3 5 5 5 3 5 3 5 5 5 5 5 5 5 5 5 5 5 5 5 5 5 5 5 5 5 5 5 5 3 5 5 5 5 5 5 3 5 5 5 5 5 5 3 5 5 5 5 5 3 5 5 5 5 5 5 5 3 5 3 5 5 5 3 5 5 5 5 5 5 5 5 5 3 3 5 5 5 5 5 5 3 5 5 5 5 3 5 5 5 5 5 5 5 3 5 5 5 5 5 5 5 5 5 5 5 5 5 5 5 5 3 5 5 5 5 5 5 5 5 5 5 5 5 5 3 5 5 5 3 3 5 5 3 5 5 5 5 3 5 5 5 3 5 5 5 5 5 3 5 5 3 5 5 5 3 3 5 5 3 5 5 5 5 5 5 5 5 3 5 5 5 5 5 5 5 5 5 5 5 5 5 5 3 5 5 5 5 5 5 3 5 5 5 3 5 5 5 5 5 5 5 5 5 5 3 5 5 5 5 5 5 5 5 5 5 3 5 5 5 5 5 5 5 5 5 5 5 5 5 5 5 5 5 5 5 5 5 5 5 5 5 5 5 5 5 5 5 5 5 5 5 5 3 5 5 5 5 5 5 5 5 5 5 5 5 5 5 5 3 5 5 5 5 5 5 5 5 3 5 5 5 5 5 5 5 5 5 5 5 5 5 5 3 3 5 5 5 5 5 5 5 5 3 5 5 5 5 5 5 5 5 5 5 5 5 5 5 5 5 5 5 5 5 5 5 3 5 5 5 5 5 5 5 5 5 5 5 5 5 5 5 5 5 5 5 5 5 5 5 5 5 5 5 5 5 5 5 5 5 5 5 5 5 5 5 5 3 5 3 5 5 5 5 5 5 5 5 5 5 3 5 5 5 5 5 5 5 5 5 5 5 5 5 5 5 5 5 5 5 5 5 5 5 5 5 5 5 5 5 5 5 5 5 5 5 5 5 5 5 5 5 5 5 5 5 5 5 5 3 5 5 3 5 5 5 5 5 3 5 5 5 5 5 5 3 5 5 5 5 5 5 3 5 5 5 5 3 5 5 3 5 5 5 5 5 5 5 5 5 5 5 5 5 5 5 3 5 5 5 5 5 5 5 3 5 5 5 3 5 5 5 5 5 5 5 5 5 5 5 5 5 5 5 5 5 5 5 5 5 5 5 5 3 5 5 5 5 5 5 5 5 3 5 5 5 3 5 5 5 5 5 5 5 5 5 5 5 5 5 5 5 5 5 5 5 5 5 5 5 5 5 5 5 5 3 5 5 5 5 5 5 5 5 5 5 5 5 5 5 5 5 5 5 5 5 3 5 5 5 5 5 5 5 3 5 5 5 5 3 5 5 5 5 5 5 5 5 5 5 5 5 5 5 5 5 5 5 5 5 5 5 5 5 5 5 5 5 5 5 5 5 5 5 5 5 5 5 5 5 5 5 5 5 5 5 5 5 5 5 5 5 5 5 5 5 5 5 5 5 5 5 3 5 5 5 5 5 5 5 5 5 5 5 5 5 5 5 5 5 5 5 5 5 5 5 5 5 5 5 3 3 5 5 3 5 3 5 5 5 5 5 5 5 3 5 5 5 3 5 5 5 5 5 5 5 5 5 5 5 5 5 5 5 5 5 5 5 3 5 5 5 5 5 5 5 5 5 5 5 5 5 5 5 5 5 5 5 5 5 5 5 5 5 5 5 3 5 5 5 5 5 5 5 5 5 5 5 5 5 5 5 5 5 5 5 5 5 5 5 5 5 5 5 5 5 5 5 5 5 5 3 5 5 5 5 5 5 5 5 5 5 5 5 5 5 5 5 5 5 5 5 5 5 5 5 5 5 5 5 5 3 5 5 5 5 5 5 3 5 5 5 5 5 5 5 5 5 5 5 5 5 5 5 5 5 5 5 5 5 5 5 5 5 5 5 5 5 5 5 5 5 5 5 5 5 5 5 5 5 5 5 5 5 5 5 5 5 5 5 5 5 5 5 5 5 5 5 5 5 5 5 5 5 5 5 5 5 5 5 5 5 5 5 5 5 5 5 5 5 3 5 5 3 5 5 5 5 5 5 5 5 5 5 5 5 5 5 5 5 5 5 5 5 5 5 5 5 5 5 5 5 5 5 5 5 5 5 5 5 5 5 5 5 5 5 5 5 5 5 5 5 5 5 5 5 5 5 5 5 5 5 5 5 5 5 5 5 5 5 5 5 5 5 5 5 5 5 5 5 5 5 5 5 5 3 5 5 5 5 5 5 3 5 5 3 5 5 5 5 5 5 5 5 5 5 5 5 5 5 5 5 5 5 5 5 5 5 5 5 5 5 5 5 5 5 5 5 3 3 5 5 3 5 5 3 5 5 5 5 5 5 5 5 5 5 5 5 5 5 5 3 5 5 5 5 5 3 5 5 5 3 3 5 5 3 5 3 5 5 3 5 5 5 3 3 5 5 5 5 5 3 5 5 5 5 5 5 5 5 5 5 5 5 5 3 5 5 5 5 3 3 5 5 5 5 5 5 5 5 5 5 5 5 5 5 5 5 5 5 5 5 5 5 5 5 5 5 5 5 5 5 5 5 5 5 5 5 5 5 3 5 5 3 5 5 5 5 5 5 5 5 5 3 5 5 3 5 5 5 5 5 5 5 5 5 3 5 5 5 3 5 5 3 5 5 5 3 5 5 5 5 3 5 5 5 5 5 5 5 5 5 5 5 5 5 5 3 5 5 5 5 3 5 5 
</DataArray>
</Cells>
<PointData Scalars="" Vectors="displacement," Tensors="">
<DataArray type="Float64" Name="displacement" NumberOfComponents="3" format="ascii">
-0.050000291590520655 -0.049993569810264052 0 -0.047725366697910727 -0.050595179984484061 0 -0.040199220776183937 -0.049996590355521217 0 -0.050000291590520655 -0.049993569810264052 0 -0.049996591350058496 -0.048628228343644754 0 -0.047725366697910727 -0.050595179984484061 0 -0.047725366697910727 -0.050595179984484061 0 -0.04546613497067295 -0.050695676041130885 0 -0.040199220776183937 -0.049996590355521217 0 -0.04999909345569039 -0.048613845409126721 0 -0.050197971779079913 -0.046208963684682226 0 -0.049998995448771066 -0.045664481875533111 0 -0.049999241784935922 -0.048617570769989335 0 -0.048794664638384583 -0.048414108040771037 0 -0.050197971779079913 -0.046208963684682226 0 -0.049998995448771066 -0.045664481875533111 0 -0.049796465194387574 -0.045503317605441948 0 -0.049796465194387574 -0.045503317605441948 0 -0.049874174597183032 -0.044546041681243889 0 -0.048702036000926104 -0.045616057383658357 0 -0.049998995448771066 -0.045664481875533111 0 -0.049874174597183032 -0.044546041681243889 0 -0.0499984839395127 -0.042711904102420081 0 -0.049998995448771066 -0.045664481875533111 0 -0.049796465194387574 -0.045503317605441948 0 -0.049874174597183032 -0.044546041681243889 0 -0.047603047082420497 -0.046285293121422322 0 -0.048702036000926104 -0.045616057383658357 0 -0.047813875740705829 -0.045251322975639684 0 -0.047603047082420497 -0.046285293121422322 0 -0.048702036000926104 -0.045616057383658357 0 -0.047261295108185539 -0.046949494091181251 0 -0.050197971779079913 -0.046208963684682226 0 -0.049796465194387574 -0.045503317605441948 0 -0.048556228293456322 -0.045569914075842849 0 -0.049796465194387574 -0.045503317605441948 0 -0.048702036000926104 -0.045616057383658357 0 -0.048556228293456322 -0.045569914075842849 0 -0.047118445070204275 -0.048228307212301619 0 -0.045507218487283778 -0.048951000540907258 0 -0.048556228293456322 -0.045569914075842849 0 -0.047261295108185539 -0.046949494091181251 0 -0.045234494370617842 -0.049146407394954426 0 -0.048702036000926104 -0.045616057383658357 0 -0.048556228293456322 -0.045569914075842849 0 -0.047261295108185539 -0.046949494091181251 0 -0.048794664638384583 -0.048414108040771037 0 -0.047118445070204275 -0.048228307212301619 0 -0.04546613497067295 -0.050695676041130885 0 -0.040199220776183937 -0.049996590355521217 0 -0.045234494370617842 -0.049146407394954426 0 -0.040199220776183937 -0.049996590355521217 0 -0.042001211339720075 -0.049948008595126686 0 -0.045234494370617842 -0.049146407394954426 0 -0.042001211339720075 -0.049948008595126686 0 -0.038250783311040107 -0.050289463166797679 0 -0.040780253815537536 -0.050691799977079156 0 -0.040199220776183937 -0.049996590355521217 0 -0.042001211339720075 -0.049948008595126686 0 -0.038250783311040107 -0.050289463166797679 0 -0.038250783311040107 -0.050289463166797679 0 -0.038057724702104979 -0.05123775086224848 0 -0.040780253815537536 -0.050691799977079156 0 -0.038915733383324908 -0.051449172811152959 0 -0.040878846962198422 -0.049261311215797639 0 -0.038057724702104979 -0.05123775086224848 0 -0.040780253815537536 -0.050691799977079156 0 -0.039523489766591528 -0.052957831015879517 0 -0.040780253815537536 -0.050691799977079156 0 -0.039523489766591528 -0.052957831015879517 0 -0.045611179303452216 -0.049509489368470633 0 -0.042001211339720075 -0.049948008595126686 0 -0.040780253815537536 -0.050691799977079156 0 -0.045611179303452216 -0.049509489368470633 0 -0.040878846962198422 -0.049261311215797639 0 -0.047634822730601135 -0.050143341103874604 0 -0.040878846962198422 -0.049261311215797639 0 -0.042498072285787773 -0.045151573540237924 0 -0.048610932593467791 -0.047470491723967508 0 -0.052263599546449629 -0.048911427597723392 0 -0.045611179303452216 -0.049509489368470633 0 -0.048610932593467791 -0.047470491723967508 0 -0.052263599546449629 -0.048911427597723392 0 -0.049211830798049021 -0.0452889994112902 0 -0.038057724702104979 -0.05123775086224848 0 -0.03868876089084082 -0.052107627800261069 0 -0.036373263599918583 -0.051820607924300231 0 -0.034445973332242981 -0.046596485399195323 0 -0.034461078527878927 -0.046551945078785822 0 -0.034871000777703533 -0.045235671400535589 0 -0.034445973332242981 -0.046596485399195323 0 -0.034461078527878927 -0.046551945078785822 0 -0.034325237458992991 -0.047571487873724561 0 -0.042001211339720075 -0.049948008595126686 0 -0.045234494370617842 -0.049146407394954426 0 -0.045611179303452216 -0.049509489368470633 0 -0.048610932593467791 -0.047470491723967508 0 -0.045611179303452216 -0.049509489368470633 0 -0.04749398365343474 -0.046782796532580412 0 -0.045611179303452216 -0.049509489368470633 0 -0.04749398365343474 -0.046782796532580412 0 -0.046664450020099273 -0.047199502718179021 0 -0.045234494370617842 -0.049146407394954426 0 -0.045611179303452216 -0.049509489368470633 0 -0.046664450020099273 -0.047199502718179021 0 -0.047261295108185539 -0.046949494091181251 0 -0.045234494370617842 -0.049146407394954426 0 -0.046664450020099273 -0.047199502718179021 0 -0.047603047082420497 -0.046285293121422322 0 -0.047261295108185539 -0.046949494091181251 0 -0.046664450020099273 -0.047199502718179021 0 -0.047603047082420497 -0.046285293121422322 0 -0.046664450020099273 -0.047199502718179021 0 -0.047813875740705829 -0.045251322975639684 0 -0.047987604164729997 -0.045184981974420613 0 -0.048380099239459656 -0.04347651230268175 0 -0.047813875740705829 -0.045251322975639684 0 -0.046664450020099273 -0.047199502718179021 0 -0.047987604164729997 -0.045184981974420613 0 -0.047813875740705829 -0.045251322975639684 0 -0.04749398365343474 -0.046782796532580412 0 -0.047987604164729997 -0.045184981974420613 0 -0.049211830798049021 -0.0452889994112902 0 -0.04749398365343474 -0.046782796532580412 0 -0.046664450020099273 -0.047199502718179021 0 -0.047987604164729997 -0.045184981974420613 0 -0.048610932593467791 -0.047470491723967508 0 -0.04749398365343474 -0.046782796532580412 0 -0.049211830798049021 -0.0452889994112902 0 -0.047987604164729997 -0.045184981974420613 0 -0.04901214409490879 -0.043368952438824111 0 -0.049211830798049021 -0.0452889994112902 0 -0.042679251938646579 -0.043351212509717928 0 -0.042498072285787773 -0.045151573540237924 0 -0.047987604164729997 -0.045184981974420613 0 -0.04901214409490879 -0.043368952438824111 0 -0.048380099239459656 -0.04347651230268175 0 -0.034461078527878927 -0.046551945078785822 0 -0.034871000777703533 -0.045235671400535589 0 -0.03454972779874791 -0.0458050972073272 0 -0.036264413558411653 -0.043307374182241828 0 -0.034871000777703533 -0.045235671400535589 0 -0.035170143327240957 -0.044378342336977544 0 -0.034871000777703533 -0.045235671400535589 0 -0.03454972779874791 -0.0458050972073272 0 -0.035170143327240957 -0.044378342336977544 0 -0.036264413558411653 -0.043307374182241828 0 -0.035170143327240957 -0.044378342336977544 0 -0.036377971735811088 -0.043262747256535443 0 -0.036377971735811088 -0.043262747256535443 0 -0.03727534118792164 -0.04336709416285893 0 -0.035268671910656982 -0.04416890175600046 0 -0.035170143327240957 -0.044378342336977544 0 -0.036377971735811088 -0.043262747256535443 0 -0.035268671910656982 -0.04416890175600046 0 -0.035170143327240957 -0.044378342336977544 0 -0.034594152121314614 -0.044839510320573921 0 -0.035268671910656982 -0.04416890175600046 0 -0.042679251938646579 -0.043351212509717928 0 -0.044372024700179841 -0.041326432754425116 0 -0.04901214409490879 -0.043368952438824111 0 -0.048380099239459656 -0.04347651230268175 0 -0.048916761652052242 -0.04098897164917617 0 -0.036264413558411653 -0.043307374182241828 0 -0.036377971735811088 -0.043262747256535443 0 -0.037881323363441986 -0.042293587720203203 0 -0.036264413558411653 -0.043307374182241828 0 -0.037881323363441986 -0.042293587720203203 0 -0.039363661818856428 -0.041245234273792578 0 -0.036377971735811088 -0.043262747256535443 0 -0.037881323363441986 -0.042293587720203203 0 -0.03727534118792164 -0.04336709416285893 0 -0.037881323363441986 -0.042293587720203203 0 -0.039363661818856428 -0.041245234273792578 0 -0.040267918197661234 -0.04208639708402586 0 -0.048916761652052242 -0.04098897164917617 0 -0.048163910821272797 -0.039990348981763887 0 -0.046618232873493162 -0.040004006797167514 0 -0.044372024700179841 -0.041326432754425116 0 -0.046433464593003855 -0.040610497556387452 0 -0.048916761652052242 -0.04098897164917617 0 -0.048163910821272797 -0.039990348981763887 0 -0.048450002823079791 -0.041994143041696831 0 -0.048380099239459656 -0.04347651230268175 0 -0.048916761652052242 -0.04098897164917617 0 -0.048450002823079791 -0.041994143041696831 0 -0.048665354515352185 -0.041667537075544506 0 -0.049427946168537525 -0.039577672244514549 0 -0.048450002823079791 -0.041994143041696831 0 -0.05027393569449734 -0.040272345588707611 0 -0.049337057166438249 -0.042071913674881778 0 -0.048163910821272797 -0.039990348981763887 0 -0.048666963330442209 -0.038799722587600033 0 -0.048650123722694005 -0.039121768467297272 0 -0.048163910821272797 -0.039990348981763887 0 -0.048450002823079791 -0.041994143041696831 0 -0.048666963330442209 -0.038799722587600033 0 -0.05027393569449734 -0.040272345588707611 0 -0.049998365285188265 -0.039759660186902093 0 -0.049999860269589254 -0.036806918895925141 0 -0.049427946168537525 -0.039577672244514549 0 -0.049999635714822424 -0.036805297904285952 0 -0.05027393569449734 -0.040272345588707611 0 -0.049998365285188265 -0.039759660186902093 0 -0.049881890950554918 -0.041638166603839968 0 -0.05027393569449734 -0.040272345588707611 0 -0.049881890950554918 -0.041638166603839968 0 -0.049337057166438249 -0.042071913674881778 0 -0.049881890950554918 -0.041638166603839968 0 -0.049522299876966866 -0.043383718352008875 0 -0.049337057166438249 -0.042071913674881778 0 -0.049881890950554918 -0.041638166603839968 0 -0.0499984839395127 -0.042711904102420081 0 -0.049522299876966866 -0.043383718352008875 0 -0.049998365285188265 -0.039759660186902093 0 -0.049881890950554918 -0.041638166603839968 0 -0.0499984839395127 -0.042711904102420081 0 -0.049874174597183032 -0.044546041681243889 0 -0.0499984839395127 -0.042711904102420081 0 -0.049522299876966866 -0.043383718352008875 0 -0.049874174597183032 -0.044546041681243889 0 -0.048702036000926104 -0.045616057383658357 0 -0.049522299876966866 -0.043383718352008875 0 -0.048702036000926104 -0.045616057383658357 0 -0.049522299876966866 -0.043383718352008875 0 -0.048604087683083178 -0.043677346290604754 0 -0.048702036000926104 -0.045616057383658357 0 -0.047813875740705829 -0.045251322975639684 0 -0.048604087683083178 -0.043677346290604754 0 -0.048380099239459656 -0.04347651230268175 0 -0.047813875740705829 -0.045251322975639684 0 -0.048604087683083178 -0.043677346290604754 0 -0.048380099239459656 -0.04347651230268175 0 -0.048450002823079791 -0.041994143041696831 0 -0.048604087683083178 -0.043677346290604754 0 -0.048450002823079791 -0.041994143041696831 0 -0.048604087683083178 -0.043677346290604754 0 -0.049337057166438249 -0.042071913674881778 0 -0.049522299876966866 -0.043383718352008875 0 -0.048604087683083178 -0.043677346290604754 0 -0.049337057166438249 -0.042071913674881778 0 -0.027247166130781365 -0.050582131752934155 0 -0.026371508299677372 -0.050627382479830042 0 -0.029178061859299598 -0.050034794182523913 0 -0.027247166130781365 -0.050582131752934155 0 -0.026371508299677372 -0.050627382479830042 0 -0.025802050875538336 -0.050809357956860909 0 -0.027247166130781365 -0.050582131752934155 0 -0.029178061859299598 -0.050034794182523913 0 -0.030412155697752227 -0.049803899690747548 0 -0.026371508299677372 -0.050627382479830042 0 -0.027410543251294224 -0.049997419157811911 0 -0.023191913035805409 -0.050736204333813179 0 -0.026371508299677372 -0.050627382479830042 0 -0.027410543251294224 -0.049997419157811911 0 -0.02897342325736291 -0.050481179516146057 0 -0.026371508299677372 -0.050627382479830042 0 -0.02897342325736291 -0.050481179516146057 0 -0.029178061859299598 -0.050034794182523913 0 -0.027410543251294224 -0.049997419157811911 0 -0.031182791807617658 -0.05050665118622806 0 -0.032863299565312018 -0.049998174985031847 0 -0.027410543251294224 -0.049997419157811911 0 -0.02897342325736291 -0.050481179516146057 0 -0.031182791807617658 -0.05050665118622806 0 -0.02921731014708407 -0.050375260260287193 0 -0.030899135234915606 -0.050475450332160297 0 -0.02897342325736291 -0.050481179516146057 0 -0.031182791807617658 -0.05050665118622806 0 -0.031822040465959073 -0.051462788474373709 0 -0.02897342325736291 -0.050481179516146057 0 -0.030023197688477492 -0.049568462614443427 0 -0.029178061859299598 -0.050034794182523913 0 -0.029178061859299598 -0.050034794182523913 0 -0.030895925678632832 -0.049130925829664204 0 -0.030412155697752227 -0.049803899690747548 0 -0.030023197688477492 -0.049568462614443427 0 -0.029178061859299598 -0.050034794182523913 0 -0.030895925678632832 -0.049130925829664204 0 -0.030023197688477492 -0.049568462614443427 0 -0.031190263834343649 -0.048711742611929031 0 -0.030895925678632832 -0.049130925829664204 0 -0.040199220776183937 -0.049996590355521217 0 -0.038250783311040107 -0.050289463166797679 0 -0.032863299565312018 -0.049998174985031847 0 -0.030899135234915606 -0.050475450332160297 0 -0.032696188620540544 -0.049641361191354358 0 -0.034289083775158199 -0.050754592387124514 0 -0.034479362692936631 -0.050310760400694286 0 -0.033654278765013701 -0.050923242700856131 0 -0.034479362692936631 -0.050310760400694286 0 -0.033654278765013701 -0.050923242700856131 0 -0.035177655126286109 -0.05071368316923109 0 -0.031822040465959073 -0.051462788474373709 0 -0.034289083775158199 -0.050754592387124514 0 -0.033654278765013701 -0.050923242700856131 0 -0.033654278765013701 -0.050923242700856131 0 -0.032863299565312018 -0.049998174985031847 0 -0.035177655126286109 -0.05071368316923109 0 -0.031182791807617658 -0.05050665118622806 0 -0.033654278765013701 -0.050923242700856131 0 -0.032863299565312018 -0.049998174985031847 0 -0.031182791807617658 -0.05050665118622806 0 -0.031822040465959073 -0.051462788474373709 0 -0.033654278765013701 -0.050923242700856131 0 -0.038250783311040107 -0.050289463166797679 0 -0.032863299565312018 -0.049998174985031847 0 -0.035177655126286109 -0.05071368316923109 0 -0.038250783311040107 -0.050289463166797679 0 -0.035177655126286109 -0.05071368316923109 0 -0.036308330890332467 -0.051052123381302779 0 -0.038250783311040107 -0.050289463166797679 0 -0.038057724702104979 -0.05123775086224848 0 -0.036308330890332467 -0.051052123381302779 0 -0.038057724702104979 -0.05123775086224848 0 -0.036308330890332467 -0.051052123381302779 0 -0.036373263599918583 -0.051820607924300231 0 -0.034479362692936631 -0.050310760400694286 0 -0.035177655126286109 -0.05071368316923109 0 -0.036308330890332467 -0.051052123381302779 0 -0.034479362692936631 -0.050310760400694286 0 -0.034325237458992991 -0.047571487873724561 0 -0.034234103345177735 -0.04727942497717625 0 -0.034479362692936631 -0.050310760400694286 0 -0.036308330890332467 -0.051052123381302779 0 -0.036373263599918583 -0.051820607924300231 0 -0.035171586592313189 -0.050130666591156073 0 -0.0345787563000289 -0.04978081212724348 0 -0.034461078527878927 -0.046551945078785822 0 -0.034325237458992991 -0.047571487873724561 0 -0.034234103345177735 -0.04727942497717625 0 -0.040878846962198422 -0.049261311215797639 0 -0.0345787563000289 -0.04978081212724348 0 -0.034461078527878927 -0.046551945078785822 0 -0.03454972779874791 -0.0458050972073272 0 -0.034234103345177735 -0.04727942497717625 0 -0.034479362692936631 -0.050310760400694286 0 -0.034234103345177735 -0.04727942497717625 0 -0.03491958419744122 -0.047725736666042178 0 -0.034234103345177735 -0.04727942497717625 0 -0.033960349896898653 -0.045720906464429015 0 -0.03491958419744122 -0.047725736666042178 0 -0.033960349896898653 -0.045720906464429015 0 -0.032506706928453324 -0.046709338723196207 0 -0.032181745253477799 -0.047150059683141794 0 -0.033874918639141369 -0.046010178877902173 0 -0.033538405935990646 -0.047478203116205563 0 -0.03454972779874791 -0.0458050972073272 0 -0.034234103345177735 -0.04727942497717625 0 -0.033960349896898653 -0.045720906464429015 0 -0.03454972779874791 -0.0458050972073272 0 -0.035170143327240957 -0.044378342336977544 0 -0.033960349896898653 -0.045720906464429015 0 -0.035170143327240957 -0.044378342336977544 0 -0.034594152121314614 -0.044839510320573921 0 -0.033960349896898653 -0.045720906464429015 0 -0.033960349896898653 -0.045720906464429015 0 -0.03314368859588801 -0.046010513013290351 0 -0.034034219481630344 -0.045159102353597762 0 -0.034594152121314614 -0.044839510320573921 0 -0.033960349896898653 -0.045720906464429015 0 -0.034034219481630344 -0.045159102353597762 0 -0.034594152121314614 -0.044839510320573921 0 -0.034034219481630344 -0.045159102353597762 0 -0.035268671910656982 -0.04416890175600046 0 -0.033960349896898653 -0.045720906464429015 0 -0.032506706928453324 -0.046709338723196207 0 -0.03314368859588801 -0.046010513013290351 0 -0.032506706928453324 -0.046709338723196207 0 -0.03314368859588801 -0.046010513013290351 0 -0.03243664547620901 -0.046746162389663844 0 -0.03314368859588801 -0.046010513013290351 0 -0.03243664547620901 -0.046746162389663844 0 -0.033068916034110954 -0.045880638076983796 0 -0.032506706928453324 -0.046709338723196207 0 -0.03243664547620901 -0.046746162389663844 0 -0.03176374565916093 -0.047808062966285418 0 -0.032506706928453324 -0.046709338723196207 0 -0.03176374565916093 -0.047808062966285418 0 -0.032181745253477799 -0.047150059683141794 0 -0.032696188620540544 -0.049641361191354358 0 -0.033538405935990646 -0.047478203116205563 0 -0.034289083775158199 -0.050754592387124514 0 -0.034479362692936631 -0.050310760400694286 0 -0.03491958419744122 -0.047725736666042178 0 -0.031190263834343649 -0.048711742611929031 0 -0.03176374565916093 -0.047808062966285418 0 -0.032181745253477799 -0.047150059683141794 0 -0.031190263834343649 -0.048711742611929031 0 -0.03176374565916093 -0.047808062966285418 0 -0.030895925678632832 -0.049130925829664204 0 -0.030895925678632832 -0.049130925829664204 0 -0.030412155697752227 -0.049803899690747548 0 -0.031695475467225641 -0.048047540189895058 0 -0.030520462369563073 -0.04965385817388656 0 -0.030667238912729534 -0.049547149721697742 0 -0.030412155697752227 -0.049803899690747548 0 -0.031695475467225641 -0.048047540189895058 0 -0.033146494559403564 -0.047507851532929322 0 -0.03176374565916093 -0.047808062966285418 0 -0.030895925678632832 -0.049130925829664204 0 -0.031695475467225641 -0.048047540189895058 0 -0.03243664547620901 -0.046746162389663844 0 -0.03176374565916093 -0.047808062966285418 0 -0.031695475467225641 -0.048047540189895058 0 -0.03243664547620901 -0.046746162389663844 0 -0.031695475467225641 -0.048047540189895058 0 -0.032842926770422151 -0.046391488814702404 0 -0.03243664547620901 -0.046746162389663844 0 -0.032842926770422151 -0.046391488814702404 0 -0.033068916034110954 -0.045880638076983796 0 -0.032842926770422151 -0.046391488814702404 0 -0.033146494559403564 -0.047507851532929322 0 -0.033396538221292474 -0.046092606894509572 0 -0.031695475467225641 -0.048047540189895058 0 -0.032842926770422151 -0.046391488814702404 0 -0.033146494559403564 -0.047507851532929322 0 -0.026929545792939876 -0.051526809102481037 0 -0.027148629182284251 -0.051857489191752371 0 -0.02694227683155884 -0.051907154005600621 0 -0.033146494559403564 -0.047507851532929322 0 -0.034004431927322228 -0.046114180918413156 0 -0.033396538221292474 -0.046092606894509572 0 -0.02824105822972672 -0.051883894668789343 0 -0.026929545792939876 -0.051526809102481037 0 -0.027148629182284251 -0.051857489191752371 0 -0.030667238912729534 -0.049547149721697742 0 -0.030495650808843137 -0.048763464287026617 0 -0.02824105822972672 -0.051883894668789343 0 -0.027148629182284251 -0.051857489191752371 0 -0.027609274763924847 -0.051091976070830526 0 -0.027148629182284251 -0.051857489191752371 0 -0.027609274763924847 -0.051091976070830526 0 -0.026732976837364589 -0.051573233881767044 0 -0.027609274763924847 -0.051091976070830526 0 -0.026690078049472547 -0.051107182361546974 0 -0.026732976837364589 -0.051573233881767044 0 -0.030412155697752227 -0.049803899690747548 0 -0.02824105822972672 -0.051883894668789343 0 -0.027609274763924847 -0.051091976070830526 0 -0.027247166130781365 -0.050582131752934155 0 -0.030412155697752227 -0.049803899690747548 0 -0.027609274763924847 -0.051091976070830526 0 -0.027247166130781365 -0.050582131752934155 0 -0.027609274763924847 -0.051091976070830526 0 -0.026690078049472547 -0.051107182361546974 0 -0.034004179389189162 -0.044892496913711236 0 -0.033888215265491434 -0.044860915199618497 0 -0.033946176563379719 -0.045018254513664611 0 -0.034004179389189162 -0.044892496913711236 0 -0.033888215265491434 -0.044860915199618497 0 -0.033872486837300597 -0.044769100607327084 0 -0.033888215265491434 -0.044860915199618497 0 -0.033804978637160171 -0.044696205660996198 0 -0.033872486837300597 -0.044769100607327084 0 -0.033888215265491434 -0.044860915199618497 0 -0.033946176563379719 -0.045018254513664611 0 -0.033819380132506127 -0.044976875116979391 0 -0.033946176563379719 -0.045018254513664611 0 -0.03387969227508026 -0.045210687036246568 0 -0.033819380132506127 -0.044976875116979391 0 -0.03387969227508026 -0.045210687036246568 0 -0.033721830389543357 -0.045180361968609521 0 -0.033819380132506127 -0.044976875116979391 0 -0.02573351606042969 -0.051577070249784585 0 -0.026449532099996939 -0.050660240334208566 0 -0.025523373104298485 -0.05103611946296481 0 -0.034004179389189162 -0.044892496913711236 0 -0.033946176563379719 -0.045018254513664611 0 -0.034123546931925652 -0.045259533464895391 0 -0.029835892927449929 -0.047986558278094463 0 -0.030287562640036562 -0.048028640674414036 0 -0.026449532099996939 -0.050660240334208566 0 -0.026674665553685677 -0.050881410537813254 0 -0.025739557367252374 -0.050559212330230412 0 -0.026929545792939876 -0.051526809102481037 0 -0.026674665553685677 -0.050881410537813254 0 -0.02694227683155884 -0.051907154005600621 0 -0.026449532099996939 -0.050660240334208566 0 -0.025739557367252374 -0.050559212330230412 0 -0.025523373104298485 -0.05103611946296481 0 -0.026929545792939876 -0.051526809102481037 0 -0.026449532099996939 -0.050660240334208566 0 -0.026674665553685677 -0.050881410537813254 0 -0.030495650808843137 -0.048763464287026617 0 -0.030287562640036562 -0.048028640674414036 0 -0.034004431927322228 -0.046114180918413156 0 -0.033717002183411088 -0.045522663626871553 0 -0.033925009969692624 -0.04551020710935022 0 -0.034004431927322228 -0.046114180918413156 0 -0.034123546931925652 -0.045259533464895391 0 -0.033925009969692624 -0.04551020710935022 0 -0.034004431927322228 -0.046114180918413156 0 -0.033717002183411088 -0.045522663626871553 0 -0.033396538221292474 -0.046092606894509572 0 -0.033717002183411088 -0.045522663626871553 0 -0.033925009969692624 -0.04551020710935022 0 -0.03387969227508026 -0.045210687036246568 0 -0.034123546931925652 -0.045259533464895391 0 -0.033925009969692624 -0.04551020710935022 0 -0.03387969227508026 -0.045210687036246568 0 -0.033946176563379719 -0.045018254513664611 0 -0.034123546931925652 -0.045259533464895391 0 -0.03387969227508026 -0.045210687036246568 0 -0.033717002183411088 -0.045522663626871553 0 -0.03387969227508026 -0.045210687036246568 0 -0.033721830389543357 -0.045180361968609521 0 -0.033721830389543357 -0.045180361968609521 0 -0.033471634799156581 -0.045435904995324822 0 -0.033795425817725225 -0.044888427678057424 0 -0.033717002183411088 -0.045522663626871553 0 -0.033721830389543357 -0.045180361968609521 0 -0.033471634799156581 -0.045435904995324822 0 -0.032842926770422151 -0.046391488814702404 0 -0.033396538221292474 -0.046092606894509572 0 -0.033471634799156581 -0.045435904995324822 0 -0.033717002183411088 -0.045522663626871553 0 -0.033396538221292474 -0.046092606894509572 0 -0.033471634799156581 -0.045435904995324822 0 -0.033471634799156581 -0.045435904995324822 0 -0.033548946824487398 -0.045285235576920581 0 -0.033068916034110954 -0.045880638076983796 0 -0.032842926770422151 -0.046391488814702404 0 -0.033471634799156581 -0.045435904995324822 0 -0.033068916034110954 -0.045880638076983796 0 -0.033471634799156581 -0.045435904995324822 0 -0.033795425817725225 -0.044888427678057424 0 -0.033548946824487398 -0.045285235576920581 0 -0.033795425817725225 -0.044888427678057424 0 -0.033819380132506127 -0.044976875116979391 0 -0.033804978637160171 -0.044696205660996198 0 -0.033721830389543357 -0.045180361968609521 0 -0.033795425817725225 -0.044888427678057424 0 -0.033819380132506127 -0.044976875116979391 0 -0.033888215265491434 -0.044860915199618497 0 -0.033819380132506127 -0.044976875116979391 0 -0.033804978637160171 -0.044696205660996198 0 -0.033795425817725225 -0.044888427678057424 0 -0.033804978637160171 -0.044696205660996198 0 -0.034091159267490213 -0.044458613717449594 0 -0.034091159267490213 -0.044458613717449594 0 -0.034000902285918136 -0.044823451394611635 0 -0.034727426808003427 -0.043651082382845922 0 -0.034020839434206938 -0.04470942159349274 0 -0.033632899951046943 -0.044953650089180522 0 -0.034727426808003427 -0.043651082382845922 0 -0.034020839434206938 -0.04470942159349274 0 -0.034000902285918136 -0.044823451394611635 0 -0.034727426808003427 -0.043651082382845922 0 -0.034020839434206938 -0.04470942159349274 0 -0.033800944532171424 -0.045119503680094632 0 -0.034000902285918136 -0.044823451394611635 0 -0.033795425817725225 -0.044888427678057424 0 -0.034000902285918136 -0.044823451394611635 0 -0.033548946824487398 -0.045285235576920581 0 -0.033800944532171424 -0.045119503680094632 0 -0.034000902285918136 -0.044823451394611635 0 -0.033548946824487398 -0.045285235576920581 0 -0.033795425817725225 -0.044888427678057424 0 -0.034091159267490213 -0.044458613717449594 0 -0.034000902285918136 -0.044823451394611635 0 -0.033548946824487398 -0.045285235576920581 0 -0.033068916034110954 -0.045880638076983796 0 -0.033468388449295401 -0.045487098122607518 0 -0.03314368859588801 -0.046010513013290351 0 -0.033068916034110954 -0.045880638076983796 0 -0.033468388449295401 -0.045487098122607518 0 -0.033800944532171424 -0.045119503680094632 0 -0.033548946824487398 -0.045285235576920581 0 -0.033468388449295401 -0.045487098122607518 0 -0.033800944532171424 -0.045119503680094632 0 -0.033468388449295401 -0.045487098122607518 0 -0.033936925885223776 -0.04520752987388453 0 -0.033800944532171424 -0.045119503680094632 0 -0.033936925885223776 -0.04520752987388453 0 -0.034011164350307904 -0.044999060668337892 0 -0.033468388449295401 -0.045487098122607518 0 -0.033936925885223776 -0.04520752987388453 0 -0.034034219481630344 -0.045159102353597762 0 -0.03314368859588801 -0.046010513013290351 0 -0.033468388449295401 -0.045487098122607518 0 -0.034034219481630344 -0.045159102353597762 0 -0.034034219481630344 -0.045159102353597762 0 -0.034393749283353647 -0.045113587060882483 0 -0.034860710947063812 -0.044865619408092687 0 -0.033936925885223776 -0.04520752987388453 0 -0.034034219481630344 -0.045159102353597762 0 -0.034393749283353647 -0.045113587060882483 0 -0.033936925885223776 -0.04520752987388453 0 -0.034393749283353647 -0.045113587060882483 0 -0.034335911554316735 -0.045026172188035257 0 -0.034393749283353647 -0.045113587060882483 0 -0.034653293487947448 -0.045255738930332537 0 -0.034894827906797717 -0.045205612393792768 0 -0.034393749283353647 -0.045113587060882483 0 -0.034653293487947448 -0.045255738930332537 0 -0.034335911554316735 -0.045026172188035257 0 -0.034653293487947448 -0.045255738930332537 0 -0.034335911554316735 -0.045026172188035257 0 -0.03475326297757083 -0.044394962566418644 0 -0.034335911554316735 -0.045026172188035257 0 -0.034056589414829183 -0.044738816841424806 0 -0.03475326297757083 -0.044394962566418644 0 -0.034020839434206938 -0.04470942159349274 0 -0.033800944532171424 -0.045119503680094632 0 -0.034011164350307904 -0.044999060668337892 0 -0.033936925885223776 -0.04520752987388453 0 -0.034335911554316735 -0.045026172188035257 0 -0.034011164350307904 -0.044999060668337892 0 -0.034020839434206938 -0.04470942159349274 0 -0.034011164350307904 -0.044999060668337892 0 -0.034056589414829183 -0.044738816841424806 0 -0.034335911554316735 -0.045026172188035257 0 -0.034011164350307904 -0.044999060668337892 0 -0.034056589414829183 -0.044738816841424806 0 -0.036489697604565226 -0.042936087930122095 0 -0.035009649532169722 -0.043508462625334123 0 -0.034020839434206938 -0.04470942159349274 0 -0.034056589414829183 -0.044738816841424806 0 -0.033632899951046943 -0.044953650089180522 0 -0.039149777514022779 -0.040911903268662266 0 -0.040786084151137783 -0.041604500409636293 0 -0.042014107658847388 -0.040091924179935109 0 -0.036489697604565226 -0.042936087930122095 0 -0.03940012821253909 -0.04197431149934109 0 -0.033632899951046943 -0.044953650089180522 0 -0.03475326297757083 -0.044394962566418644 0 -0.036837261057510014 -0.043975021979804164 0 -0.034056589414829183 -0.044738816841424806 0 -0.033632899951046943 -0.044953650089180522 0 -0.03475326297757083 -0.044394962566418644 0 -0.040139879029672219 -0.043216594017417273 0 -0.040786084151137783 -0.041604500409636293 0 -0.039725140749213024 -0.042090749251834085 0 -0.040139879029672219 -0.043216594017417273 0 -0.041215144376076915 -0.042549161249505758 0 -0.040786084151137783 -0.041604500409636293 0 -0.041215144376076915 -0.042549161249505758 0 -0.040786084151137783 -0.041604500409636293 0 -0.04184426795380234 -0.041484093177736797 0 -0.039149777514022779 -0.040911903268662266 0 -0.040786084151137783 -0.041604500409636293 0 -0.039725140749213024 -0.042090749251834085 0 -0.040139879029672219 -0.043216594017417273 0 -0.037242784036907589 -0.043384661325503671 0 -0.035052278443789955 -0.045355236567061752 0 -0.039149777514022779 -0.040911903268662266 0 -0.039725140749213024 -0.042090749251834085 0 -0.037242784036907589 -0.043384661325503671 0 -0.039149777514022779 -0.040911903268662266 0 -0.037242784036907589 -0.043384661325503671 0 -0.034727426808003427 -0.043651082382845922 0 -0.040139879029672219 -0.043216594017417273 0 -0.039725140749213024 -0.042090749251834085 0 -0.037242784036907589 -0.043384661325503671 0 -0.04068676588479319 -0.043261964232050601 0 -0.040721454873059615 -0.04325335768032685 0 -0.040013527764284039 -0.043326984372212919 0 -0.037601350999961661 -0.044279000305413561 0 -0.040139879029672219 -0.043216594017417273 0 -0.04064899043630818 -0.043268462234499962 0 -0.040163486465960428 -0.043309316790140072 0 -0.040139879029672219 -0.043216594017417273 0 -0.040163486465960428 -0.043309316790140072 0 -0.040149325914776601 -0.043332640836710408 0 -0.040139879029672219 -0.043216594017417273 0 -0.041215144376076915 -0.042549161249505758 0 -0.04064899043630818 -0.043268462234499962 0 -0.041215144376076915 -0.042549161249505758 0 -0.04064899043630818 -0.043268462234499962 0 -0.041698444523235415 -0.043031576323442844 0 -0.04064899043630818 -0.043268462234499962 0 -0.04123101192466657 -0.043286131573719341 0 -0.041698444523235415 -0.043031576323442844 0 -0.04064899043630818 -0.043268462234499962 0 -0.04123101192466657 -0.043286131573719341 0 -0.041160148776803282 -0.043291134243894087 0 -0.04123101192466657 -0.043286131573719341 0 -0.041597459110347804 -0.043398728477050938 0 -0.041698444523235415 -0.043031576323442844 0 -0.04123101192466657 -0.043286131573719341 0 -0.041160148776803282 -0.043291134243894087 0 -0.041597459110347804 -0.043398728477050938 0 -0.041160148776803282 -0.043291134243894087 0 -0.041597459110347804 -0.043398728477050938 0 -0.041393997972729669 -0.043548257232039089 0 -0.041160148776803282 -0.043291134243894087 0 -0.041393997972729669 -0.043548257232039089 0 -0.04127710503893784 -0.043163481999949745 0 -0.041393997972729669 -0.043548257232039089 0 -0.04127710503893784 -0.043163481999949745 0 -0.041374597505898572 -0.042988188723511657 0 -0.041160148776803282 -0.043291134243894087 0 -0.04127710503893784 -0.043163481999949745 0 -0.041279619216626325 -0.043248967935748679 0 -0.04064899043630818 -0.043268462234499962 0 -0.041160148776803282 -0.043291134243894087 0 -0.041279619216626325 -0.043248967935748679 0 -0.040721454873059615 -0.04325335768032685 0 -0.040773700905061785 -0.043057777638599561 0 -0.040163486465960428 -0.043309316790140072 0 -0.040204054924252663 -0.043166730679056443 0 -0.040149325914776601 -0.043332640836710408 0 -0.04127710503893784 -0.043163481999949745 0 -0.041279619216626325 -0.043248967935748679 0 -0.04136663207857804 -0.042940386499224721 0 -0.04127710503893784 -0.043163481999949745 0 -0.04136663207857804 -0.042940386499224721 0 -0.041374597505898572 -0.042988188723511657 0 -0.04136663207857804 -0.042940386499224721 0 -0.041224243661791303 -0.042681475452746226 0 -0.041337654252481856 -0.042763081529655481 0 -0.040204054924252663 -0.043166730679056443 0 -0.040149325914776601 -0.043332640836710408 0 -0.040360988725668762 -0.043332870825525532 0 -0.037601350999961661 -0.044279000305413561 0 -0.037457180250898121 -0.044312181426112852 0 -0.035052278443789955 -0.045355236567061752 0 -0.034051912034685036 -0.044694729376114656 0 -0.033948320480037521 -0.045267247670994569 0 -0.037242784036907589 -0.043384661325503671 0 -0.035052278443789955 -0.045355236567061752 0 -0.034727426808003427 -0.043651082382845922 0 -0.035052278443789955 -0.045355236567061752 0 -0.034727426808003427 -0.043651082382845922 0 -0.034051912034685036 -0.044694729376114656 0 -0.034091159267490213 -0.044458613717449594 0 -0.034727426808003427 -0.043651082382845922 0 -0.034051912034685036 -0.044694729376114656 0 -0.033804978637160171 -0.044696205660996198 0 -0.034091159267490213 -0.044458613717449594 0 -0.034051912034685036 -0.044694729376114656 0 -0.033850768657396342 -0.044594609388600492 0 -0.033472627948701303 -0.045096122958973146 0 -0.033804978637160171 -0.044696205660996198 0 -0.034051912034685036 -0.044694729376114656 0 -0.033622177496078536 -0.044975622326040125 0 -0.033804978637160171 -0.044696205660996198 0 -0.033787304872367266 -0.044695091007016012 0 -0.033872486837300597 -0.044769100607327084 0 -0.033622177496078536 -0.044975622326040125 0 -0.033948320480037521 -0.045267247670994569 0 -0.033531303283363158 -0.045309552902624832 0 -0.034051912034685036 -0.044694729376114656 0 -0.033622177496078536 -0.044975622326040125 0 -0.033948320480037521 -0.045267247670994569 0 -0.040204054924252663 -0.043166730679056443 0 -0.040360988725668762 -0.043332870825525532 0 -0.040480202101045949 -0.043132558665812004 0 -0.040204054924252663 -0.043166730679056443 0 -0.040480202101045949 -0.043132558665812004 0 -0.040440271759388878 -0.042909779853471032 0 -0.040773700905061785 -0.043057777638599561 0 -0.040828517173098468 -0.04280733414592848 0 -0.040440271759388878 -0.042909779853471032 0 -0.040695026207907568 -0.043015793462738774 0 -0.0408391235534026 -0.042849666631091715 0 -0.040480202101045949 -0.043132558665812004 0 -0.040440271759388878 -0.042909779853471032 0 -0.040695026207907568 -0.043015793462738774 0 -0.037457180250898121 -0.044312181426112852 0 -0.035860657052208998 -0.044089032394624479 0 -0.040360988725668762 -0.043332870825525532 0 -0.040480202101045949 -0.043132558665812004 0 -0.040817344225463868 -0.043255442232427853 0 -0.040480202101045949 -0.043132558665812004 0 -0.040695026207907568 -0.043015793462738774 0 -0.040817344225463868 -0.043255442232427853 0 -0.033779913757118175 -0.044530188703074597 0 -0.033766012832483455 -0.044565235440790399 0 -0.033803790609658962 -0.044620205498349469 0 -0.033845670222500367 -0.04460881164867464 0 -0.035860657052208998 -0.044089032394624479 0 -0.033779913757118175 -0.044530188703074597 0 -0.03367097348005621 -0.044568289732250133 0 -0.033766881921924119 -0.044441107128063151 0 -0.033779913757118175 -0.044530188703074597 0 -0.033766881921924119 -0.044441107128063151 0 -0.033824985438610143 -0.044468620199639451 0 -0.040695026207907568 -0.043015793462738774 0 -0.040977789484769309 -0.042921239243328663 0 -0.0408391235534026 -0.042849666631091715 0 -0.040695026207907568 -0.043015793462738774 0 -0.040817344225463868 -0.043255442232427853 0 -0.040977789484769309 -0.042921239243328663 0 -0.035860657052208998 -0.044089032394624479 0 -0.037195441666592367 -0.04341553353887103 0 -0.03367097348005621 -0.044568289732250133 0 -0.033766881921924119 -0.044441107128063151 0 -0.033708815094798006 -0.044275305007178772 0 -0.033766881921924119 -0.044441107128063151 0 -0.033708815094798006 -0.044275305007178772 0 -0.033829839303115838 -0.044362829251814714 0 -0.033708815094798006 -0.044275305007178772 0 -0.033829839303115838 -0.044362829251814714 0 -0.03376445936988845 -0.044058604077045045 0 -0.037195441666592367 -0.04341553353887103 0 -0.03653386026145599 -0.042200453449946419 0 -0.032497587360890916 -0.039412808689544256 0 -0.030046724606998535 -0.041415037811312824 0 -0.033829839303115838 -0.044362829251814714 0 -0.033847853235486128 -0.044171233727670588 0 -0.033940020265425842 -0.044374886235441086 0 -0.03325939123939213 -0.045373038945898121 0 -0.032497587360890916 -0.039412808689544256 0 -0.033829839303115838 -0.044362829251814714 0 -0.033886250178739127 -0.044482421078966737 0 -0.033824985438610143 -0.044468620199639451 0 -0.033766881921924119 -0.044441107128063151 0 -0.033829839303115838 -0.044362829251814714 0 -0.033824985438610143 -0.044468620199639451 0 -0.033829839303115838 -0.044362829251814714 0 -0.033886250178739127 -0.044482421078966737 0 -0.033940020265425842 -0.044374886235441086 0 -0.033886250178739127 -0.044482421078966737 0 -0.033824985438610143 -0.044468620199639451 0 -0.033866883260714957 -0.044598783029940893 0 -0.033779913757118175 -0.044530188703074597 0 -0.033824985438610143 -0.044468620199639451 0 -0.033866883260714957 -0.044598783029940893 0 -0.033779913757118175 -0.044530188703074597 0 -0.033866883260714957 -0.044598783029940893 0 -0.033803790609658962 -0.044620205498349469 0 -0.033866883260714957 -0.044598783029940893 0 -0.033846094284009358 -0.044696819738760378 0 -0.033935816832683742 -0.044783650383304272 0 -0.033866883260714957 -0.044598783029940893 0 -0.033803790609658962 -0.044620205498349469 0 -0.033846094284009358 -0.044696819738760378 0 -0.033472627948701303 -0.045096122958973146 0 -0.035860657052208998 -0.044089032394624479 0 -0.033787304872367266 -0.044695091007016012 0 -0.033766012832483455 -0.044565235440790399 0 -0.033803790609658962 -0.044620205498349469 0 -0.033787304872367266 -0.044695091007016012 0 -0.033803790609658962 -0.044620205498349469 0 -0.033846094284009358 -0.044696819738760378 0 -0.033787304872367266 -0.044695091007016012 0 -0.033846094284009358 -0.044696819738760378 0 -0.033872486837300597 -0.044769100607327084 0 -0.033846094284009358 -0.044696819738760378 0 -0.033872486837300597 -0.044769100607327084 0 -0.033935816832683742 -0.044783650383304272 0 -0.034004179389189162 -0.044892496913711236 0 -0.033872486837300597 -0.044769100607327084 0 -0.033935816832683742 -0.044783650383304272 0 -0.049643261358348623 -0.037040139100101017 0 -0.050678790449269137 -0.036258131369089917 0 -0.049699165571269556 -0.03711007057048394 0 -0.050678790449269137 -0.036258131369089917 0 -0.049811855280425164 -0.03601103820517592 0 -0.049699165571269556 -0.03711007057048394 0 -0.049643261358348623 -0.037040139100101017 0 -0.049167977298693669 -0.03788287352210741 0 -0.04889783163139623 -0.036619944503996575 0 -0.049643261358348623 -0.037040139100101017 0 -0.049167977298693669 -0.03788287352210741 0 -0.050678790449269137 -0.036258131369089917 0 -0.049167977298693669 -0.03788287352210741 0 -0.048259841338147792 -0.040154901583088334 0 -0.049087779620995683 -0.040548479581547822 0 -0.049167977298693669 -0.03788287352210741 0 -0.050678790449269137 -0.036258131369089917 0 -0.049087779620995683 -0.040548479581547822 0 -0.051222357123280098 -0.036670980901103989 0 -0.049216605467023999 -0.035578437584778688 0 -0.050678790449269137 -0.036258131369089917 0 -0.051065546969147703 -0.033443711836592234 0 -0.050050372847132325 -0.03300707551918524 0 -0.050678790449269137 -0.036258131369089917 0 -0.051065546969147703 -0.033443711836592234 0 -0.053354336954074696 -0.033098053588746248 0 -0.050678790449269137 -0.036258131369089917 0 -0.04996343803523972 -0.034042164757595375 0 -0.050050372847132325 -0.03300707551918524 0 -0.04996343803523972 -0.034042164757595375 0 -0.049998725990133795 -0.03383892343150325 0 -0.050002326296671992 -0.030876447924596422 0 -0.04996343803523972 -0.034042164757595375 0 -0.050002326296671992 -0.030876447924596422 0 -0.050050372847132325 -0.03300707551918524 0 -0.04996343803523972 -0.034042164757595375 0 -0.049998725990133795 -0.03383892343150325 0 -0.049811855280425164 -0.03601103820517592 0 -0.050678790449269137 -0.036258131369089917 0 -0.04996343803523972 -0.034042164757595375 0 -0.049811855280425164 -0.03601103820517592 0 -0.049811855280425164 -0.03601103820517592 0 -0.049997558913193393 -0.036805566881355507 0 -0.049312953096987744 -0.038007839878067655 0 -0.049811855280425164 -0.03601103820517592 0 -0.049312953096987744 -0.038007839878067655 0 -0.049699165571269556 -0.03711007057048394 0 -0.049998725990133795 -0.03383892343150325 0 -0.049811855280425164 -0.03601103820517592 0 -0.049997558913193393 -0.036805566881355507 0 -0.048666963330442209 -0.038799722587600033 0 -0.049997558913193393 -0.036805566881355507 0 -0.049312953096987744 -0.038007839878067655 0 -0.048666963330442209 -0.038799722587600033 0 -0.049312953096987744 -0.038007839878067655 0 -0.048650123722694005 -0.039121768467297272 0 -0.049312953096987744 -0.038007839878067655 0 -0.048650123722694005 -0.039121768467297272 0 -0.049119465707857593 -0.039325358277562436 0 -0.048650123722694005 -0.039121768467297272 0 -0.049119465707857593 -0.039325358277562436 0 -0.046618232873493162 -0.040004006797167514 0 -0.049312953096987744 -0.038007839878067655 0 -0.049119465707857593 -0.039325358277562436 0 -0.049699165571269556 -0.03711007057048394 0 -0.049643261358348623 -0.037040139100101017 0 -0.049119465707857593 -0.039325358277562436 0 -0.049699165571269556 -0.03711007057048394 0 -0.049643261358348623 -0.037040139100101017 0 -0.049119465707857593 -0.039325358277562436 0 -0.04889783163139623 -0.036619944503996575 0 -0.04856784585108502 -0.039634024766641331 0 -0.045417320902505769 -0.040951770581722786 0 -0.049119465707857593 -0.039325358277562436 0 -0.046618232873493162 -0.040004006797167514 0 -0.042245292457449693 -0.045442210507719134 0 -0.048163910821272797 -0.039990348981763887 0 -0.048650123722694005 -0.039121768467297272 0 -0.046618232873493162 -0.040004006797167514 0 -0.039363661818856428 -0.041245234273792578 0 -0.046618232873493162 -0.040004006797167514 0 -0.040267918197661234 -0.04208639708402586 0 -0.046618232873493162 -0.040004006797167514 0 -0.040267918197661234 -0.04208639708402586 0 -0.042245292457449693 -0.045442210507719134 0 -0.037881323363441986 -0.042293587720203203 0 -0.040267918197661234 -0.04208639708402586 0 -0.03727534118792164 -0.04336709416285893 0 -0.040267918197661234 -0.04208639708402586 0 -0.03727534118792164 -0.04336709416285893 0 -0.038266048009189854 -0.044397216685300327 0 -0.038266048009189854 -0.044397216685300327 0 -0.035869736811281014 -0.044910133861418587 0 -0.037509050067833116 -0.046393233080051215 0 -0.038266048009189854 -0.044397216685300327 0 -0.042245292457449693 -0.045442210507719134 0 -0.037509050067833116 -0.046393233080051215 0 -0.03727534118792164 -0.04336709416285893 0 -0.038266048009189854 -0.044397216685300327 0 -0.035869736811281014 -0.044910133861418587 0 -0.040267918197661234 -0.04208639708402586 0 -0.038266048009189854 -0.044397216685300327 0 -0.042245292457449693 -0.045442210507719134 0 -0.035268671910656982 -0.04416890175600046 0 -0.035869736811281014 -0.044910133861418587 0 -0.034860710947063812 -0.044865619408092687 0 -0.034034219481630344 -0.045159102353597762 0 -0.035268671910656982 -0.04416890175600046 0 -0.034860710947063812 -0.044865619408092687 0 -0.03727534118792164 -0.04336709416285893 0 -0.035268671910656982 -0.04416890175600046 0 -0.035869736811281014 -0.044910133861418587 0 -0.035869736811281014 -0.044910133861418587 0 -0.034894827906797717 -0.045205612393792768 0 -0.034860710947063812 -0.044865619408092687 0 -0.034393749283353647 -0.045113587060882483 0 -0.034894827906797717 -0.045205612393792768 0 -0.034860710947063812 -0.044865619408092687 0 -0.035869736811281014 -0.044910133861418587 0 -0.034894827906797717 -0.045205612393792768 0 -0.035112831844537749 -0.04594603329271614 0 -0.034653293487947448 -0.045255738930332537 0 -0.03475326297757083 -0.044394962566418644 0 -0.035112831844537749 -0.04594603329271614 0 -0.034653293487947448 -0.045255738930332537 0 -0.034894827906797717 -0.045205612393792768 0 -0.035112831844537749 -0.04594603329271614 0 -0.037277638333105975 -0.043146838214074765 0 -0.04124059245583292 -0.041914609066450809 0 -0.035869736811281014 -0.044910133861418587 0 -0.035112831844537749 -0.04594603329271614 0 -0.037509050067833116 -0.046393233080051215 0 -0.039072408265873701 -0.040351664679710957 0 -0.042839528274668338 -0.041478758272410016 0 -0.044800571564900311 -0.037374746035896439 0 -0.039072408265873701 -0.040351664679710957 0 -0.042839528274668338 -0.041478758272410016 0 -0.036837261057510014 -0.043975021979804164 0 -0.043555406373562672 -0.040339952096321352 0 -0.03940012821253909 -0.04197431149934109 0 -0.035071765283444876 -0.044187692452933441 0 -0.037277638333105975 -0.043146838214074765 0 -0.03475326297757083 -0.044394962566418644 0 -0.039072408265873701 -0.040351664679710957 0 -0.036837261057510014 -0.043975021979804164 0 -0.044356609206740352 -0.039225208561378892 0 -0.042014107658847388 -0.040091924179935109 0 -0.042769197804665642 -0.040957974864477949 0 -0.04889783163139623 -0.036619944503996575 0 -0.044800571564900311 -0.037374746035896439 0 -0.047477992079423534 -0.03868606114798815 0 -0.045417320902505769 -0.040951770581722786 0 -0.04124059245583292 -0.041914609066450809 0 -0.049167977298693669 -0.03788287352210741 0 -0.04889783163139623 -0.036619944503996575 0 -0.047477992079423534 -0.03868606114798815 0 -0.042839528274668338 -0.041478758272410016 0 -0.044800571564900311 -0.037374746035896439 0 -0.047477992079423534 -0.03868606114798815 0 -0.043555406373562672 -0.040339952096321352 0 -0.047135488636759114 -0.038964444205301839 0 -0.044356609206740352 -0.039225208561378892 0 -0.047477992079423534 -0.03868606114798815 0 -0.045808915288097232 -0.040318634873763609 0 -0.044356609206740352 -0.039225208561378892 0 -0.045808915288097232 -0.040318634873763609 0 -0.04389373839109869 -0.041260049751695824 0 -0.047258521132539658 -0.039690317387911574 0 -0.047477992079423534 -0.03868606114798815 0 -0.045808915288097232 -0.040318634873763609 0 -0.049167977298693669 -0.03788287352210741 0 -0.047258521132539658 -0.039690317387911574 0 -0.047477992079423534 -0.03868606114798815 0 -0.049167977298693669 -0.03788287352210741 0 -0.047258521132539658 -0.039690317387911574 0 -0.048259841338147792 -0.040154901583088334 0 -0.046985942944902243 -0.040914435464389845 0 -0.046433128886099941 -0.042668452311204877 0 -0.048894218296984406 -0.040596787427781264 0 -0.047258521132539658 -0.039690317387911574 0 -0.048259841338147792 -0.040154901583088334 0 -0.046985942944902243 -0.040914435464389845 0 -0.048259841338147792 -0.040154901583088334 0 -0.046985942944902243 -0.040914435464389845 0 -0.048894218296984406 -0.040596787427781264 0 -0.047258521132539658 -0.039690317387911574 0 -0.046985942944902243 -0.040914435464389845 0 -0.045808915288097232 -0.040318634873763609 0 -0.045808915288097232 -0.040318634873763609 0 -0.045060406436499563 -0.042087762277706407 0 -0.04389373839109869 -0.041260049751695824 0 -0.046985942944902243 -0.040914435464389845 0 -0.045808915288097232 -0.040318634873763609 0 -0.045060406436499563 -0.042087762277706407 0 -0.046985942944902243 -0.040914435464389845 0 -0.045060406436499563 -0.042087762277706407 0 -0.046433128886099941 -0.042668452311204877 0 -0.045060406436499563 -0.042087762277706407 0 -0.046433128886099941 -0.042668452311204877 0 -0.044368605892434146 -0.043756036433180101 0 -0.046297997786038242 -0.036297192112075334 0 -0.049216605467023999 -0.035578437584778688 0 -0.041215144376076915 -0.042549161249505758 0 -0.04184426795380234 -0.041484093177736797 0 -0.042381824623068359 -0.042050686042854835 0 -0.040786084151137783 -0.041604500409636293 0 -0.042014107658847388 -0.040091924179935109 0 -0.04184426795380234 -0.041484093177736797 0 -0.042014107658847388 -0.040091924179935109 0 -0.04184426795380234 -0.041484093177736797 0 -0.042769197804665642 -0.040957974864477949 0 -0.04184426795380234 -0.041484093177736797 0 -0.042769197804665642 -0.040957974864477949 0 -0.042381824623068359 -0.042050686042854835 0 -0.042769197804665642 -0.040957974864477949 0 -0.042381824623068359 -0.042050686042854835 0 -0.04389373839109869 -0.041260049751695824 0 -0.042381824623068359 -0.042050686042854835 0 -0.04389373839109869 -0.041260049751695824 0 -0.043236135191351714 -0.042590951380236677 0 -0.044356609206740352 -0.039225208561378892 0 -0.042769197804665642 -0.040957974864477949 0 -0.04389373839109869 -0.041260049751695824 0 -0.045060406436499563 -0.042087762277706407 0 -0.043236135191351714 -0.042590951380236677 0 -0.044368605892434146 -0.043756036433180101 0 -0.045060406436499563 -0.042087762277706407 0 -0.04389373839109869 -0.041260049751695824 0 -0.043236135191351714 -0.042590951380236677 0 -0.042381824623068359 -0.042050686042854835 0 -0.043236135191351714 -0.042590951380236677 0 -0.041698444523235415 -0.043031576323442844 0 -0.043236135191351714 -0.042590951380236677 0 -0.041698444523235415 -0.043031576323442844 0 -0.042264068119460013 -0.043294913134974404 0 -0.041215144376076915 -0.042549161249505758 0 -0.042381824623068359 -0.042050686042854835 0 -0.041698444523235415 -0.043031576323442844 0 -0.041597459110347804 -0.043398728477050938 0 -0.042264068119460013 -0.043294913134974404 0 -0.042327094935351146 -0.043775272456575483 0 -0.041597459110347804 -0.043398728477050938 0 -0.041698444523235415 -0.043031576323442844 0 -0.042264068119460013 -0.043294913134974404 0 -0.042264068119460013 -0.043294913134974404 0 -0.042327094935351146 -0.043775272456575483 0 -0.044368605892434146 -0.043756036433180101 0 -0.043236135191351714 -0.042590951380236677 0 -0.042264068119460013 -0.043294913134974404 0 -0.044368605892434146 -0.043756036433180101 0 -0.042327094935351146 -0.043775272456575483 0 -0.044368605892434146 -0.043756036433180101 0 -0.042934136647622162 -0.044486156262724313 0 -0.045197742513100637 -0.037521820120561752 0 -0.041536264993080017 -0.037284149180290126 0 -0.045090437154813617 -0.032032655306627369 0 -0.045483604365635956 -0.031028669877961761 0 -0.043800926256875358 -0.032667068407240277 0 -0.041393997972729669 -0.043548257232039089 0 -0.042327094935351146 -0.043775272456575483 0 -0.042934136647622162 -0.044486156262724313 0 -0.041597459110347804 -0.043398728477050938 0 -0.041393997972729669 -0.043548257232039089 0 -0.042327094935351146 -0.043775272456575483 0 -0.042019637795643681 -0.044831230410969369 0 -0.041536264993080017 -0.037284149180290126 0 -0.046488228585214807 -0.030160749575293681 0 -0.046840769051122839 -0.030735071673743699 0 -0.047496422028820824 -0.030501745459006673 0 -0.046840769051122839 -0.030735071673743699 0 -0.046125900787477331 -0.030799051900396172 0 -0.047250125048858359 -0.031513888599676382 0 -0.046488228585214807 -0.030160749575293681 0 -0.046840769051122839 -0.030735071673743699 0 -0.046125900787477331 -0.030799051900396172 0 -0.046488228585214807 -0.030160749575293681 0 -0.045483604365635956 -0.031028669877961761 0 -0.046125900787477331 -0.030799051900396172 0 -0.046297997786038242 -0.036297192112075334 0 -0.045197742513100637 -0.037521820120561752 0 -0.045483604365635956 -0.031028669877961761 0 -0.046125900787477331 -0.030799051900396172 0 -0.046159533191921419 -0.031414682805785674 0 -0.045483604365635956 -0.031028669877961761 0 -0.046159533191921419 -0.031414682805785674 0 -0.04578458318473462 -0.03175502463148034 0 -0.045090437154813617 -0.032032655306627369 0 -0.04578458318473462 -0.03175502463148034 0 -0.04586694609115545 -0.032054003722583116 0 -0.045090437154813617 -0.032032655306627369 0 -0.045483604365635956 -0.031028669877961761 0 -0.04578458318473462 -0.03175502463148034 0 -0.046159533191921419 -0.031414682805785674 0 -0.04578458318473462 -0.03175502463148034 0 -0.046623988203955462 -0.031773949176474137 0 -0.046125900787477331 -0.030799051900396172 0 -0.046159533191921419 -0.031414682805785674 0 -0.047203730098632546 -0.03137658641641073 0 -0.046159533191921419 -0.031414682805785674 0 -0.047203730098632546 -0.03137658641641073 0 -0.046623988203955462 -0.031773949176474137 0 -0.046260547742710503 -0.030710750681596715 0 -0.046927758159984886 -0.031915982787166682 0 -0.048011080759301619 -0.031306788347991048 0 -0.048760791191050749 -0.031278452106101348 0 -0.048270471230747077 -0.032147438472487001 0 -0.047250125048858359 -0.031513888599676382 0 -0.048011080759301619 -0.031306788347991048 0 -0.048270471230747077 -0.032147438472487001 0 -0.050707377706735855 -0.028678765719868701 0 -0.050680597660548977 -0.028146037853028865 0 -0.048011080759301619 -0.031306788347991048 0 -0.0483664931364889 -0.030663119299036794 0 -0.048760791191050749 -0.031278452106101348 0 -0.048011080759301619 -0.031306788347991048 0 -0.0483664931364889 -0.030663119299036794 0 -0.047496422028820824 -0.030501745459006673 0 -0.046840769051122839 -0.030735071673743699 0 -0.047250125048858359 -0.031513888599676382 0 -0.047496422028820824 -0.030501745459006673 0 -0.047250125048858359 -0.031513888599676382 0 -0.048011080759301619 -0.031306788347991048 0 -0.047496422028820824 -0.030501745459006673 0 -0.047496422028820824 -0.030501745459006673 0 -0.048287123932864093 -0.029834732605221601 0 -0.047314103566352836 -0.029289342419250252 0 -0.046488228585214807 -0.030160749575293681 0 -0.047496422028820824 -0.030501745459006673 0 -0.047314103566352836 -0.029289342419250252 0 -0.0483664931364889 -0.030663119299036794 0 -0.047496422028820824 -0.030501745459006673 0 -0.048287123932864093 -0.029834732605221601 0 -0.050858352748255023 -0.031920672074836579 0 -0.051065546969147703 -0.033443711836592234 0 -0.050122278170720035 -0.032114232495441958 0 -0.050858352748255023 -0.031920672074836579 0 -0.051065546969147703 -0.033443711836592234 0 -0.053354336954074696 -0.033098053588746248 0 -0.049508151087732127 -0.030505786119333696 0 -0.049216605467023999 -0.035578437584778688 0 -0.049695075605714609 -0.037534390740348832 0 -0.049216605467023999 -0.035578437584778688 0 -0.050002326296671992 -0.030876447924596422 0 -0.050050372847132325 -0.03300707551918524 0 -0.0497489188207429 -0.031756563930547828 0 -0.050004010239366611 -0.030869796369463708 0 -0.050769515939569757 -0.029486024368045583 0 -0.049999997920024478 -0.029011371241683712 0 -0.050004088105443573 -0.030869802401979819 0 -0.050236882428947006 -0.030589110564271334 0 -0.050122278170720035 -0.032114232495441958 0 -0.050050372847132325 -0.03300707551918524 0 -0.0497489188207429 -0.031756563930547828 0 -0.051065546969147703 -0.033443711836592234 0 -0.050122278170720035 -0.032114232495441958 0 -0.050050372847132325 -0.03300707551918524 0 -0.0483664931364889 -0.030663119299036794 0 -0.048287123932864093 -0.029834732605221601 0 -0.049264536964370609 -0.03039517082854552 0 -0.049508151087732127 -0.030505786119333696 0 -0.050492446964922881 -0.029483255121936877 0 -0.050858352748255023 -0.031920672074836579 0 -0.050122278170720035 -0.032114232495441958 0 -0.049885422351529866 -0.031358518511199134 0 -0.050236882428947006 -0.030589110564271334 0 -0.050492446964922881 -0.029483255121936877 0 -0.050122278170720035 -0.032114232495441958 0 -0.0497489188207429 -0.031756563930547828 0 -0.049885422351529866 -0.031358518511199134 0 -0.050769515939569757 -0.029486024368045583 0 -0.049999997920024478 -0.029011371241683712 0 -0.051540225082171237 -0.028108559000281631 0 -0.05151694136972549 -0.028091140304069163 0 -0.049999967911936463 -0.027152903913162836 0 -0.051239369727316665 -0.026062916875611006 0 -0.049999997920024478 -0.029011371241683712 0 -0.051540225082171237 -0.028108559000281631 0 -0.049999991868731129 -0.027152948856845861 0 -0.050492446964922881 -0.029483255121936877 0 -0.050000598977002153 -0.027153189731097555 0 -0.05151694136972549 -0.028091140304069163 0 -0.052594485800266107 -0.026162066360916069 0 -0.051239369727316665 -0.026062916875611006 0 -0.0483664931364889 -0.030663119299036794 0 -0.049264536964370609 -0.03039517082854552 0 -0.048760791191050749 -0.031278452106101348 0 -0.050492446964922881 -0.029483255121936877 0 -0.050707377706735855 -0.028678765719868701 0 -0.052594485800266107 -0.026162066360916069 0 -0.051239369727316665 -0.026062916875611006 0 -0.051970462330014636 -0.024647719345210942 0 -0.051239369727316665 -0.026062916875611006 0 -0.049999976561114885 -0.024348155967760469 0 -0.051970462330014636 -0.024647719345210942 0 -0.049999967911936463 -0.027152903913162836 0 -0.051239369727316665 -0.026062916875611006 0 -0.049999976561114885 -0.024348155967760469 0 -0.049999976561114885 -0.024348155967760469 0 -0.051970462330014636 -0.024647719345210942 0 -0.051845796215465485 -0.022896671438585064 0 -0.052594485800266107 -0.026162066360916069 0 -0.051970462330014636 -0.024647719345210942 0 -0.053665168149440563 -0.024244892169385621 0 -0.051970462330014636 -0.024647719345210942 0 -0.051845796215465485 -0.022896671438585064 0 -0.053665168149440563 -0.024244892169385621 0 -0.051978794069646554 -0.022572884826908227 0 -0.050680597660548977 -0.028146037853028865 0 -0.051634439573143086 -0.022899965884153557 0 -0.052710277928341584 -0.023165420643416635 0 -0.053243418049984281 -0.024199123973899419 0 -0.051634439573143086 -0.022899965884153557 0 -0.052710277928341584 -0.023165420643416635 0 -0.051932891971815165 -0.021913853344419747 0 -0.049999976561114885 -0.024348155967760469 0 -0.051845796215465485 -0.022896671438585064 0 -0.049999992400871204 -0.021543305451960388 0 -0.051634439573143086 -0.022899965884153557 0 -0.049999771369648296 -0.021543173819031838 0 -0.051932891971815165 -0.021913853344419747 0 -0.051978794069646554 -0.022572884826908227 0 -0.050000305389207307 -0.021543705538109952 0 -0.047203730098632546 -0.03137658641641073 0 -0.047261049286702633 -0.032028974649048393 0 -0.047609198570262246 -0.031883190584610137 0 -0.046927758159984886 -0.031915982787166682 0 -0.050680597660548977 -0.028146037853028865 0 -0.047203730098632546 -0.03137658641641073 0 -0.047609198570262246 -0.031883190584610137 0 -0.048103773712021819 -0.031850587105570823 0 -0.047759450054614884 -0.031882148995047141 0 -0.050495772698379592 -0.027039234111746691 0 -0.047261049286702633 -0.032028974649048393 0 -0.047609198570262246 -0.031883190584610137 0 -0.047866330732247046 -0.032268107591780587 0 -0.050680597660548977 -0.028146037853028865 0 -0.050495772698379592 -0.027039234111746691 0 -0.047609198570262246 -0.031883190584610137 0 -0.048103773712021819 -0.031850587105570823 0 -0.047866330732247046 -0.032268107591780587 0 -0.052710277928341584 -0.023165420643416635 0 -0.053243418049984281 -0.024199123973899419 0 -0.05380144291540459 -0.023201472827150425 0 -0.052183222002484222 -0.022269577864558746 0 -0.052101213097632187 -0.020817446794223329 0 -0.051096727058439831 -0.020955985100537169 0 -0.050495772698379592 -0.027039234111746691 0 -0.051770403430248212 -0.0210024564029129 0 -0.052710277928341584 -0.023165420643416635 0 -0.05380144291540459 -0.023201472827150425 0 -0.051932891971815165 -0.021913853344419747 0 -0.052456825528448429 -0.021823714550871714 0 -0.052861216790486894 -0.020953588629655309 0 -0.052101213097632187 -0.020817446794223329 0 -0.052456825528448429 -0.021823714550871714 0 -0.052183222002484222 -0.022269577864558746 0 -0.052101213097632187 -0.020817446794223329 0 -0.050401602645041718 -0.024557730915122301 0 -0.050495772698379592 -0.027039234111746691 0 -0.05217222620897527 -0.02120712890902493 0 -0.052715610183860423 -0.021047516153384509 0 -0.053287124137123824 -0.021349205416660709 0 -0.05217222620897527 -0.02120712890902493 0 -0.053287124137123824 -0.021349205416660709 0 -0.053603588608062719 -0.021749618954816613 0 -0.047894951688825904 -0.031660201823062478 0 -0.049034312748599457 -0.031932274069261975 0 -0.046729991508373536 -0.032358222432055925 0 -0.050401602645041718 -0.024557730915122301 0 -0.050835499530726323 -0.027291053881393558 0 -0.047894951688825904 -0.031660201823062478 0 -0.049034312748599457 -0.031932274069261975 0 -0.049264603411747654 -0.031539176309769747 0 -0.050401602645041718 -0.024557730915122301 0 -0.052626404956012396 -0.020769361953627948 0 -0.05217222620897527 -0.02120712890902493 0 -0.052715610183860423 -0.021047516153384509 0 -0.052426159274621097 -0.020723915111782652 0 -0.052949700624759274 -0.020887545787738295 0 -0.052715610183860423 -0.021047516153384509 0 -0.052426159274621097 -0.020723915111782652 0 -0.052949700624759274 -0.020887545787738295 0 -0.052715610183860423 -0.021047516153384509 0 -0.053287124137123824 -0.021349205416660709 0 -0.052966155019892922 -0.020098121668367969 0 -0.052626404956012396 -0.020769361953627948 0 -0.053028410669178974 -0.019894075662653329 0 -0.053063147488983067 -0.020503885291753225 0 -0.052426159274621097 -0.020723915111782652 0 -0.052949700624759274 -0.020887545787738295 0 -0.053063147488983067 -0.020503885291753225 0 -0.052426159274621097 -0.020723915111782652 0 -0.053028410669178974 -0.019894075662653329 0 -0.052861216790486894 -0.020953588629655309 0 -0.052516949315229842 -0.020132002839040625 0 -0.052101213097632187 -0.020817446794223329 0 -0.051911301802817125 -0.019876087748014012 0 -0.051096727058439831 -0.020955985100537169 0 -0.052516949315229842 -0.020132002839040625 0 -0.052101213097632187 -0.020817446794223329 0 -0.051911301802817125 -0.019876087748014012 0 -0.052861216790486894 -0.020953588629655309 0 -0.052516949315229842 -0.020132002839040625 0 -0.052101213097632187 -0.020817446794223329 0 -0.051911301802817125 -0.019876087748014012 0 -0.052616694615641606 -0.019267954696826628 0 -0.052025264335167569 -0.01846489405129513 0 -0.052516949315229842 -0.020132002839040625 0 -0.051911301802817125 -0.019876087748014012 0 -0.052616694615641606 -0.019267954696826628 0 -0.052616694615641606 -0.019267954696826628 0 -0.052857807695694099 -0.01822097326154782 0 -0.053219752010957813 -0.019071319142508782 0 -0.053028410669178974 -0.019894075662653329 0 -0.052516949315229842 -0.020132002839040625 0 -0.052616694615641606 -0.019267954696826628 0 -0.053028410669178974 -0.019894075662653329 0 -0.052616694615641606 -0.019267954696826628 0 -0.053219752010957813 -0.019071319142508782 0 -0.050000089099966227 -0.020528120103756348 0 -0.051770403430248212 -0.0210024564029129 0 -0.049999519398542802 -0.020526015273318671 0 -0.051096727058439831 -0.020955985100537169 0 -0.051125831534046422 -0.019239341294381367 0 -0.05000013256107276 -0.020528018197636048 0 -0.049999771369648296 -0.021543173819031838 0 -0.051932891971815165 -0.021913853344419747 0 -0.051911301802817125 -0.019876087748014012 0 -0.051096727058439831 -0.020955985100537169 0 -0.051125831534046422 -0.019239341294381367 0 -0.051911301802817125 -0.019876087748014012 0 -0.051125831534046422 -0.019239341294381367 0 -0.052025264335167569 -0.01846489405129513 0 -0.049999519398542802 -0.020526015273318671 0 -0.051125831534046422 -0.019239341294381367 0 -0.049999625424822509 -0.017718808919700693 0 -0.051125831534046422 -0.019239341294381367 0 -0.049999625424822509 -0.017718808919700693 0 -0.051223380242987414 -0.016847550716537023 0 -0.049999625424822509 -0.017718808919700693 0 -0.051223380242987414 -0.016847550716537023 0 -0.049999366193546169 -0.014907848056172273 0 -0.051223380242987414 -0.016847550716537023 0 -0.052025264335167569 -0.01846489405129513 0 -0.052755144305724047 -0.016074251038784227 0 -0.051223380242987414 -0.016847550716537023 0 -0.052755144305724047 -0.016074251038784227 0 -0.051437064666846444 -0.014341938276580932 0 -0.051125831534046422 -0.019239341294381367 0 -0.051223380242987414 -0.016847550716537023 0 -0.052025264335167569 -0.01846489405129513 0 -0.052616694615641606 -0.019267954696826628 0 -0.052025264335167569 -0.01846489405129513 0 -0.052857807695694099 -0.01822097326154782 0 -0.052025264335167569 -0.01846489405129513 0 -0.052857807695694099 -0.01822097326154782 0 -0.051783079448868473 -0.017197329992248201 0 -0.052857807695694099 -0.01822097326154782 0 -0.051783079448868473 -0.017197329992248201 0 -0.052733273571894682 -0.016633457283693306 0 -0.052857807695694099 -0.01822097326154782 0 -0.052733273571894682 -0.016633457283693306 0 -0.053530785808163783 -0.017243544843843529 0 -0.052059881343397355 -0.018283591235681605 0 -0.052244012725445724 -0.016635404435694556 0 -0.052244012725445724 -0.016635404435694556 0 -0.052256234163443799 -0.014829449436235188 0 -0.051783079448868473 -0.017197329992248201 0 -0.052733273571894682 -0.016633457283693306 0 -0.051757553906820367 -0.015795152825666681 0 -0.052733273571894682 -0.016633457283693306 0 -0.052762453238075359 -0.015411454798283238 0 -0.05362008130632074 -0.015891459837216376 0 -0.052733273571894682 -0.016633457283693306 0 -0.052762453238075359 -0.015411454798283238 0 -0.051757553906820367 -0.015795152825666681 0 -0.052762453238075359 -0.015411454798283238 0 -0.051757553906820367 -0.015795152825666681 0 -0.051753675473721096 -0.014215055068143115 0 -0.052256234163443799 -0.014829449436235188 0 -0.052116131395333803 -0.013225179550447856 0 -0.052797410821176366 -0.013822798255477014 0 -0.051437064666846444 -0.014341938276580932 0 -0.05170303138426359 -0.012471594547527417 0 -0.049999366193546169 -0.014907848056172273 0 -0.051437064666846444 -0.014341938276580932 0 -0.050000535117529082 -0.012100768554923105 0 -0.051437064666846444 -0.014341938276580932 0 -0.05170303138426359 -0.012471594547527417 0 -0.050000535117529082 -0.012100768554923105 0 -0.051223380242987414 -0.016847550716537023 0 -0.049999366193546169 -0.014907848056172273 0 -0.051437064666846444 -0.014341938276580932 0 -0.052755144305724047 -0.016074251038784227 0 -0.052797410821176366 -0.013822798255477014 0 -0.051437064666846444 -0.014341938276580932 0 -0.054533970483839574 -0.016077617505813255 0 -0.056576907583775947 -0.01643317397373989 0 -0.055068936760529978 -0.017082687203063933 0 -0.055568008334488925 -0.016249124523091719 0 -0.053255377688206165 -0.015526117178898118 0 -0.054533970483839574 -0.016077617505813255 0 -0.054568548314470243 -0.015595308315366787 0 -0.054646738097730602 -0.015693790614052301 0 -0.054568548314470243 -0.015595308315366787 0 -0.054646738097730602 -0.015693790614052301 0 -0.054601003537890616 -0.015315602591176595 0 -0.053255377688206165 -0.015526117178898118 0 -0.05433027088180422 -0.01370537834578082 0 -0.054568548314470243 -0.015595308315366787 0 -0.054420550787682223 -0.015258886885117961 0 -0.054601003537890616 -0.015315602591176595 0 -0.054533970483839574 -0.016077617505813255 0 -0.054568548314470243 -0.015595308315366787 0 -0.054420550787682223 -0.015258886885117961 0 -0.054533970483839574 -0.016077617505813255 0 -0.054420550787682223 -0.015258886885117961 0 -0.054103557086453639 -0.015162747164981099 0 -0.054533970483839574 -0.016077617505813255 0 -0.05362008130632074 -0.015891459837216376 0 -0.054103557086453639 -0.015162747164981099 0 -0.05362008130632074 -0.015891459837216376 0 -0.053543345773012625 -0.015004397892106445 0 -0.054103557086453639 -0.015162747164981099 0 -0.052762453238075359 -0.015411454798283238 0 -0.05362008130632074 -0.015891459837216376 0 -0.053543345773012625 -0.015004397892106445 0 -0.052733273571894682 -0.016633457283693306 0 -0.05362008130632074 -0.015891459837216376 0 -0.053530785808163783 -0.017243544843843529 0 -0.054533970483839574 -0.016077617505813255 0 -0.05362008130632074 -0.015891459837216376 0 -0.053530785808163783 -0.017243544843843529 0 -0.054533970483839574 -0.016077617505813255 0 -0.054397921529481544 -0.017407349895112518 0 -0.053530785808163783 -0.017243544843843529 0 -0.054397921529481544 -0.017407349895112518 0 -0.053530785808163783 -0.017243544843843529 0 -0.053963829293675984 -0.018510335407016118 0 -0.052857807695694099 -0.01822097326154782 0 -0.053963829293675984 -0.018510335407016118 0 -0.053219752010957813 -0.019071319142508782 0 -0.052857807695694099 -0.01822097326154782 0 -0.053530785808163783 -0.017243544843843529 0 -0.053963829293675984 -0.018510335407016118 0 -0.054397921529481544 -0.017407349895112518 0 -0.053963829293675984 -0.018510335407016118 0 -0.05498430702702381 -0.0180552307085259 0 -0.053963829293675984 -0.018510335407016118 0 -0.05498430702702381 -0.0180552307085259 0 -0.054812369497482562 -0.019096985890629765 0 -0.055351133424643262 -0.018645305441922631 0 -0.05498430702702381 -0.0180552307085259 0 -0.054812369497482562 -0.019096985890629765 0 -0.055351133424643262 -0.018645305441922631 0 -0.055655740544907677 -0.018006225333216351 0 -0.055965599662757846 -0.018731249598479393 0 -0.055351133424643262 -0.018645305441922631 0 -0.055655740544907677 -0.018006225333216351 0 -0.05498430702702381 -0.0180552307085259 0 -0.055655740544907677 -0.018006225333216351 0 -0.05498430702702381 -0.0180552307085259 0 -0.055432434869435492 -0.017628689981246753 0 -0.054533970483839574 -0.016077617505813255 0 -0.054397921529481544 -0.017407349895112518 0 -0.055068936760529978 -0.017082687203063933 0 -0.054397921529481544 -0.017407349895112518 0 -0.05498430702702381 -0.0180552307085259 0 -0.055068936760529978 -0.017082687203063933 0 -0.055432434869435492 -0.017628689981246753 0 -0.055068936760529978 -0.017082687203063933 0 -0.056017008731874852 -0.017472129918034107 0 -0.05498430702702381 -0.0180552307085259 0 -0.055432434869435492 -0.017628689981246753 0 -0.055068936760529978 -0.017082687203063933 0 -0.056576907583775947 -0.01643317397373989 0 -0.055068936760529978 -0.017082687203063933 0 -0.056017008731874852 -0.017472129918034107 0 -0.056576907583775947 -0.01643317397373989 0 -0.056017008731874852 -0.017472129918034107 0 -0.056270023091421748 -0.017582770105290555 0 -0.053255377688206165 -0.015526117178898118 0 -0.050801319594610907 -0.018685886425578495 0 -0.050071241164273007 -0.019051964020515576 0 -0.050707506611920139 -0.016531361587306625 0 -0.048299598091302014 -0.017230493179602905 0 -0.055655740544907677 -0.018006225333216351 0 -0.056017008731874852 -0.017472129918034107 0 -0.05624976066003181 -0.017577321038301324 0 -0.055655740544907677 -0.018006225333216351 0 -0.055432434869435492 -0.017628689981246753 0 -0.056017008731874852 -0.017472129918034107 0 -0.052680791579021967 -0.019023368198118777 0 -0.050801319594610907 -0.018685886425578495 0 -0.055655740544907677 -0.018006225333216351 0 -0.05624976066003181 -0.017577321038301324 0 -0.055965599662757846 -0.018731249598479393 0 -0.046330913217563829 -0.021787560653419396 0 -0.046799204271467623 -0.019871515235079618 0 -0.045350863626918599 -0.020302572785171395 0 -0.050801319594610907 -0.018685886425578495 0 -0.05150908267247499 -0.018825840965223599 0 -0.046799204271467623 -0.019871515235079618 0 -0.044417404810691667 -0.018759411945311177 0 -0.045350863626918599 -0.020302572785171395 0 -0.046882954391512875 -0.021690444822484764 0 -0.041407402851176299 -0.022233176817302226 0 -0.046799204271467623 -0.019871515235079618 0 -0.047278539128761156 -0.017978863763599619 0 -0.044417404810691667 -0.018759411945311177 0 -0.037687572495250378 -0.025626284048249071 0 -0.039369615969139952 -0.025033965076139395 0 -0.039010554020422583 -0.02591566043520506 0 -0.05150908267247499 -0.018825840965223599 0 -0.046882954391512875 -0.021690444822484764 0 -0.055351133424643262 -0.018645305441922631 0 -0.055965599662757846 -0.018731249598479393 0 -0.055366604739392845 -0.019323689932549709 0 -0.055965599662757846 -0.018731249598479393 0 -0.055366604739392845 -0.019323689932549709 0 -0.055672077071624373 -0.019894185874933606 0 -0.055351133424643262 -0.018645305441922631 0 -0.055366604739392845 -0.019323689932549709 0 -0.054812369497482562 -0.019096985890629765 0 -0.055366604739392845 -0.019323689932549709 0 -0.054812369497482562 -0.019096985890629765 0 -0.055048477054281307 -0.019642102715897787 0 -0.054812369497482562 -0.019096985890629765 0 -0.055048477054281307 -0.019642102715897787 0 -0.054688518199637999 -0.020001346081210312 0 -0.055048477054281307 -0.019642102715897787 0 -0.055422940058941501 -0.019974461674022444 0 -0.055062182321723795 -0.020006344825763765 0 -0.055048477054281307 -0.019642102715897787 0 -0.055062182321723795 -0.020006344825763765 0 -0.054688518199637999 -0.020001346081210312 0 -0.055366604739392845 -0.019323689932549709 0 -0.055048477054281307 -0.019642102715897787 0 -0.055422940058941501 -0.019974461674022444 0 -0.055366604739392845 -0.019323689932549709 0 -0.055672077071624373 -0.019894185874933606 0 -0.055422940058941501 -0.019974461674022444 0 -0.046882954391512875 -0.021690444822484764 0 -0.050318509266677691 -0.02079166867666812 0 -0.055624609194800861 -0.019938604976749943 0 -0.055422940058941501 -0.019974461674022444 0 -0.055092584652280951 -0.020400804170400331 0 -0.055624609194800861 -0.019938604976749943 0 -0.055092584652280951 -0.020400804170400331 0 -0.055279703507981851 -0.021192076839795508 0 -0.046882954391512875 -0.021690444822484764 0 -0.046362910303743288 -0.0237856311846413 0 -0.055092584652280951 -0.020400804170400331 0 -0.054688518199637999 -0.020001346081210312 0 -0.054571730863109187 -0.020749952488594989 0 -0.055062182321723795 -0.020006344825763765 0 -0.055092584652280951 -0.020400804170400331 0 -0.054688518199637999 -0.020001346081210312 0 -0.055422940058941501 -0.019974461674022444 0 -0.055062182321723795 -0.020006344825763765 0 -0.055092584652280951 -0.020400804170400331 0 -0.055092584652280951 -0.020400804170400331 0 -0.054571730863109187 -0.020749952488594989 0 -0.055279703507981851 -0.021192076839795508 0 -0.037687572495250378 -0.025626284048249071 0 -0.038240019263537206 -0.026275487674687993 0 -0.03747410082935522 -0.026998498103670859 0 -0.037687572495250378 -0.025626284048249071 0 -0.038240019263537206 -0.026275487674687993 0 -0.039010554020422583 -0.02591566043520506 0 -0.038240019263537206 -0.026275487674687993 0 -0.039010554020422583 -0.02591566043520506 0 -0.038763872347865019 -0.026849763529913463 0 -0.038240019263537206 -0.026275487674687993 0 -0.038116423535409318 -0.027072408564070314 0 -0.038763872347865019 -0.026849763529913463 0 -0.053963829293675984 -0.018510335407016118 0 -0.053219752010957813 -0.019071319142508782 0 -0.053700738407397336 -0.019439697640573728 0 -0.053028410669178974 -0.019894075662653329 0 -0.053700738407397336 -0.019439697640573728 0 -0.053500129498658622 -0.02010699459572942 0 -0.053028410669178974 -0.019894075662653329 0 -0.053219752010957813 -0.019071319142508782 0 -0.053700738407397336 -0.019439697640573728 0 -0.053700738407397336 -0.019439697640573728 0 -0.054252634246203961 -0.019441390004264713 0 -0.054035881954456647 -0.020285184037908272 0 -0.053963829293675984 -0.018510335407016118 0 -0.053700738407397336 -0.019439697640573728 0 -0.054252634246203961 -0.019441390004264713 0 -0.053963829293675984 -0.018510335407016118 0 -0.054812369497482562 -0.019096985890629765 0 -0.054252634246203961 -0.019441390004264713 0 -0.054812369497482562 -0.019096985890629765 0 -0.054252634246203961 -0.019441390004264713 0 -0.054688518199637999 -0.020001346081210312 0 -0.054688518199637999 -0.020001346081210312 0 -0.054571730863109187 -0.020749952488594989 0 -0.054035881954456647 -0.020285184037908272 0 -0.054571730863109187 -0.020749952488594989 0 -0.054035881954456647 -0.020285184037908272 0 -0.053904742895239922 -0.021128551267482143 0 -0.054252634246203961 -0.019441390004264713 0 -0.054688518199637999 -0.020001346081210312 0 -0.054035881954456647 -0.020285184037908272 0 -0.053700738407397336 -0.019439697640573728 0 -0.054035881954456647 -0.020285184037908272 0 -0.053500129498658622 -0.02010699459572942 0 -0.054035881954456647 -0.020285184037908272 0 -0.053401830004823736 -0.020770399107789529 0 -0.053500129498658622 -0.02010699459572942 0 -0.054035881954456647 -0.020285184037908272 0 -0.053401830004823736 -0.020770399107789529 0 -0.053904742895239922 -0.021128551267482143 0 -0.053063147488983067 -0.020503885291753225 0 -0.053401830004823736 -0.020770399107789529 0 -0.053500129498658622 -0.02010699459572942 0 -0.052949700624759274 -0.020887545787738295 0 -0.053063147488983067 -0.020503885291753225 0 -0.053401830004823736 -0.020770399107789529 0 -0.053028410669178974 -0.019894075662653329 0 -0.053063147488983067 -0.020503885291753225 0 -0.053500129498658622 -0.02010699459572942 0 -0.052949700624759274 -0.020887545787738295 0 -0.053401830004823736 -0.020770399107789529 0 -0.053287124137123824 -0.021349205416660709 0 -0.053401830004823736 -0.020770399107789529 0 -0.053287124137123824 -0.021349205416660709 0 -0.053904742895239922 -0.021128551267482143 0 -0.053287124137123824 -0.021349205416660709 0 -0.053904742895239922 -0.021128551267482143 0 -0.053603588608062719 -0.021749618954816613 0 -0.053904742895239922 -0.021128551267482143 0 -0.054452252021381709 -0.021471648297954407 0 -0.053603588608062719 -0.021749618954816613 0 -0.054571730863109187 -0.020749952488594989 0 -0.053904742895239922 -0.021128551267482143 0 -0.054452252021381709 -0.021471648297954407 0 -0.050835499530726323 -0.027291053881393558 0 -0.046922236904838807 -0.02809309666938704 0 -0.04586694609115545 -0.032054003722583116 0 -0.046729991508373536 -0.032358222432055925 0 -0.045087635302077683 -0.03235931093461554 0 -0.054452252021381709 -0.021471648297954407 0 -0.053603588608062719 -0.021749618954816613 0 -0.054930005554499048 -0.022366355612034917 0 -0.045090437154813617 -0.032032655306627369 0 -0.04586694609115545 -0.032054003722583116 0 -0.045087635302077683 -0.03235931093461554 0 -0.04578458318473462 -0.03175502463148034 0 -0.04586694609115545 -0.032054003722583116 0 -0.046623988203955462 -0.031773949176474137 0 -0.047203730098632546 -0.03137658641641073 0 -0.047261049286702633 -0.032028974649048393 0 -0.046623988203955462 -0.031773949176474137 0 -0.04586694609115545 -0.032054003722583116 0 -0.046729991508373536 -0.032358222432055925 0 -0.046623988203955462 -0.031773949176474137 0 -0.047759450054614884 -0.031882148995047141 0 -0.046789800047303397 -0.031701013892012173 0 -0.047894951688825904 -0.031660201823062478 0 -0.046729991508373536 -0.032358222432055925 0 -0.046623988203955462 -0.031773949176474137 0 -0.037819376435032255 -0.027646092338482278 0 -0.038382603570077424 -0.027627866206845028 0 -0.038116423535409318 -0.027072408564070314 0 -0.038382603570077424 -0.027627866206845028 0 -0.038116423535409318 -0.027072408564070314 0 -0.038763872347865019 -0.026849763529913463 0 -0.037819376435032255 -0.027646092338482278 0 -0.038116423535409318 -0.027072408564070314 0 -0.03747410082935522 -0.026998498103670859 0 -0.038240019263537206 -0.026275487674687993 0 -0.038116423535409318 -0.027072408564070314 0 -0.03747410082935522 -0.026998498103670859 0 -0.054452252021381709 -0.021471648297954407 0 -0.055279703507981851 -0.021192076839795508 0 -0.054930005554499048 -0.022366355612034917 0 -0.037819376435032255 -0.027646092338482278 0 -0.03747410082935522 -0.026998498103670859 0 -0.037316790549047817 -0.028136939225852822 0 -0.046362910303743288 -0.0237856311846413 0 -0.046922236904838807 -0.02809309666938704 0 -0.054571730863109187 -0.020749952488594989 0 -0.054452252021381709 -0.021471648297954407 0 -0.055279703507981851 -0.021192076839795508 0 -0.037819376435032255 -0.027646092338482278 0 -0.037316790549047817 -0.028136939225852822 0 -0.037804830410283617 -0.028329898653607306 0 -0.045090437154813617 -0.032032655306627369 0 -0.044847687398651165 -0.033002251970466891 0 -0.043800926256875358 -0.032667068407240277 0 -0.045283377258071224 -0.032652943775706697 0 -0.046922236904838807 -0.02809309666938704 0 -0.046922236904838807 -0.02809309666938704 0 -0.041536264993080017 -0.037284149180290126 0 -0.041393997972729669 -0.043548257232039089 0 -0.041130404328564803 -0.042651375931336867 0 -0.040641666420637677 -0.043193071789490778 0 -0.037819376435032255 -0.027646092338482278 0 -0.038382603570077424 -0.027627866206845028 0 -0.037804830410283617 -0.028329898653607306 0 -0.039341212842484354 -0.035812772115698818 0 -0.041536264993080017 -0.037284149180290126 0 -0.041393997972729669 -0.043548257232039089 0 -0.041130404328564803 -0.042651375931336867 0 -0.041434662104631488 -0.042789739634564464 0 -0.041130404328564803 -0.042651375931336867 0 -0.041434662104631488 -0.042789739634564464 0 -0.041378311931543052 -0.042426915306987924 0 -0.039341212842484354 -0.035812772115698818 0 -0.038349034414012745 -0.027990566923732196 0 -0.038382603570077424 -0.027627866206845028 0 -0.038763872347865019 -0.026849763529913463 0 -0.039034314588723959 -0.026902933233497062 0 -0.041434662104631488 -0.042789739634564464 0 -0.041386037489605371 -0.042749945994868976 0 -0.041405522256107115 -0.042655428486247392 0 -0.041434662104631488 -0.042789739634564464 0 -0.041405522256107115 -0.042655428486247392 0 -0.041378311931543052 -0.042426915306987924 0 -0.041393997972729669 -0.043548257232039089 0 -0.041434662104631488 -0.042789739634564464 0 -0.041374597505898572 -0.042988188723511657 0 -0.041434662104631488 -0.042789739634564464 0 -0.041374597505898572 -0.042988188723511657 0 -0.041386037489605371 -0.042749945994868976 0 -0.04136663207857804 -0.042940386499224721 0 -0.041374597505898572 -0.042988188723511657 0 -0.041337654252481856 -0.042763081529655481 0 -0.041374597505898572 -0.042988188723511657 0 -0.041337654252481856 -0.042763081529655481 0 -0.041386037489605371 -0.042749945994868976 0 -0.041337654252481856 -0.042763081529655481 0 -0.041284423799406673 -0.042696226483052074 0 -0.041211003495267427 -0.04269170865417287 0 -0.041337654252481856 -0.042763081529655481 0 -0.041386037489605371 -0.042749945994868976 0 -0.041284423799406673 -0.042696226483052074 0 -0.041386037489605371 -0.042749945994868976 0 -0.041405522256107115 -0.042655428486247392 0 -0.041284423799406673 -0.042696226483052074 0 -0.035958830601607622 -0.018581866749131766 0 -0.035320620485847387 -0.018836838912400733 0 -0.035705029551890512 -0.018966215030438178 0 -0.035958830601607622 -0.018581866749131766 0 -0.035001744056742758 -0.018450409668057929 0 -0.035320620485847387 -0.018836838912400733 0 -0.03876983787346383 -0.030850051511055163 0 -0.038120525075406315 -0.030541588337185101 0 -0.035958830601607622 -0.018581866749131766 0 -0.035983052982716285 -0.019037055548547465 0 -0.035705029551890512 -0.018966215030438178 0 -0.035001744056742758 -0.018450409668057929 0 -0.035320620485847387 -0.018836838912400733 0 -0.034793830651893176 -0.019012353352192438 0 -0.033057643273443398 -0.017412976865755454 0 -0.032281856762276559 -0.017009827691120916 0 -0.032990218884537091 -0.016768629960891377 0 -0.035320620485847387 -0.018836838912400733 0 -0.034793830651893176 -0.019012353352192438 0 -0.035488360568918693 -0.019108086254276433 0 -0.034793830651893176 -0.019012353352192438 0 -0.035488360568918693 -0.019108086254276433 0 -0.035818039155029409 -0.019515175890089512 0 -0.033497098344602905 -0.018121565089000473 0 -0.036190144596341997 -0.018236327953628839 0 -0.035983052982716285 -0.019037055548547465 0 -0.035705029551890512 -0.018966215030438178 0 -0.035786827811157024 -0.019226108629848429 0 -0.035320620485847387 -0.018836838912400733 0 -0.035705029551890512 -0.018966215030438178 0 -0.035488360568918693 -0.019108086254276433 0 -0.035705029551890512 -0.018966215030438178 0 -0.035488360568918693 -0.019108086254276433 0 -0.035786827811157024 -0.019226108629848429 0 -0.035488360568918693 -0.019108086254276433 0 -0.035786827811157024 -0.019226108629848429 0 -0.035818039155029409 -0.019515175890089512 0 -0.035786827811157024 -0.019226108629848429 0 -0.035924553957968744 -0.019470231844758018 0 -0.035818039155029409 -0.019515175890089512 0 -0.035983052982716285 -0.019037055548547465 0 -0.035786827811157024 -0.019226108629848429 0 -0.035924553957968744 -0.019470231844758018 0 -0.039127525257648024 -0.019704597456095787 0 -0.036190144596341997 -0.018236327953628839 0 -0.039127525257648024 -0.019704597456095787 0 -0.038486994848481247 -0.021988774207890017 0 -0.041334176909107602 -0.024344021361102447 0 -0.040354929466597703 -0.025583649033543807 0 -0.039369615969139952 -0.025033965076139395 0 -0.039127525257648024 -0.019704597456095787 0 -0.041407402851176299 -0.022233176817302226 0 -0.035983052982716285 -0.019037055548547465 0 -0.035924553957968744 -0.019470231844758018 0 -0.036319745679682665 -0.018985832549574252 0 -0.040354929466597703 -0.025583649033543807 0 -0.039369615969139952 -0.025033965076139395 0 -0.039010554020422583 -0.02591566043520506 0 -0.040354929466597703 -0.025583649033543807 0 -0.039010554020422583 -0.02591566043520506 0 -0.039370323390437501 -0.026780133407973829 0 -0.038486994848481247 -0.021988774207890017 0 -0.038349034414012745 -0.027990566923732196 0 -0.039010554020422583 -0.02591566043520506 0 -0.038763872347865019 -0.026849763529913463 0 -0.039370323390437501 -0.026780133407973829 0 -0.038848980278395721 -0.027557788690643879 0 -0.038349034414012745 -0.027990566923732196 0 -0.035958830601607622 -0.018581866749131766 0 -0.036319745679682665 -0.018985832549574252 0 -0.036690695180652613 -0.018662003179608821 0 -0.03876983787346383 -0.030850051511055163 0 -0.038349034414012745 -0.027990566923732196 0 -0.035958830601607622 -0.018581866749131766 0 -0.035983052982716285 -0.019037055548547465 0 -0.036319745679682665 -0.018985832549574252 0 -0.038749594918703709 -0.041292088728044594 0 -0.039324848589690174 -0.04104076304535436 0 -0.039086654772616677 -0.03988434534524711 0 -0.038749594918703709 -0.041292088728044594 0 -0.039324848589690174 -0.04104076304535436 0 -0.039411799390609639 -0.041865481315208106 0 -0.039324848589690174 -0.04104076304535436 0 -0.040258572012450561 -0.041457170668157461 0 -0.039411799390609639 -0.041865481315208106 0 -0.039324848589690174 -0.04104076304535436 0 -0.039556269854291552 -0.04040634619309412 0 -0.040258572012450561 -0.041457170668157461 0 -0.039056223697288818 -0.040702228860785707 0 -0.038302672866246029 -0.041650229950262838 0 -0.032585777935452719 -0.037236023660450236 0 -0.032497587360890916 -0.039412808689544256 0 -0.026985245752017106 -0.031259470378901845 0 -0.026712027350021046 -0.032352071778513576 0 -0.027509216740522303 -0.032120940844322675 0 -0.039324848589690174 -0.04104076304535436 0 -0.039086654772616677 -0.03988434534524711 0 -0.039511049317582848 -0.040442274471864707 0 -0.033829839303115838 -0.044362829251814714 0 -0.033945519644795266 -0.044022558141570141 0 -0.03376445936988845 -0.044058604077045045 0 -0.032497587360890916 -0.039412808689544256 0 -0.03653386026145599 -0.042200453449946419 0 -0.035645274256714293 -0.040917165892780209 0 -0.036217268735659953 -0.041709115972791276 0 -0.036539584400408269 -0.040822857788201404 0 -0.038302672866246029 -0.041650229950262838 0 -0.03653386026145599 -0.042200453449946419 0 -0.032497587360890916 -0.039412808689544256 0 -0.038302672866246029 -0.041650229950262838 0 -0.041002967779733973 -0.042643481043094851 0 -0.040939491751535814 -0.042708050936917284 0 -0.040931343948021351 -0.042625304933372604 0 -0.041002967779733973 -0.042643481043094851 0 -0.041009484540775763 -0.042748240689931681 0 -0.040939491751535814 -0.042708050936917284 0 -0.040977789484769309 -0.042921239243328663 0 -0.041009484540775763 -0.042748240689931681 0 -0.040939491751535814 -0.042708050936917284 0 -0.040977789484769309 -0.042921239243328663 0 -0.0408391235534026 -0.042849666631091715 0 -0.040939491751535814 -0.042708050936917284 0 -0.0408391235534026 -0.042849666631091715 0 -0.040939491751535814 -0.042708050936917284 0 -0.040896990461710588 -0.042638991653922653 0 -0.040939491751535814 -0.042708050936917284 0 -0.040896990461710588 -0.042638991653922653 0 -0.040931343948021351 -0.042625304933372604 0 -0.040896990461710588 -0.042638991653922653 0 -0.040931343948021351 -0.042625304933372604 0 -0.040947736195038699 -0.042608701213602662 0 -0.040931343948021351 -0.042625304933372604 0 -0.040915214889966821 -0.042598171998031835 0 -0.040947736195038699 -0.042608701213602662 0 -0.041002967779733973 -0.042643481043094851 0 -0.040931343948021351 -0.042625304933372604 0 -0.040915214889966821 -0.042598171998031835 0 -0.038302672866246029 -0.041650229950262838 0 -0.040617799423791859 -0.042209342195607867 0 -0.040915214889966821 -0.042598171998031835 0 -0.040947736195038699 -0.042608701213602662 0 -0.04070844783865149 -0.042544987403561503 0 -0.040947736195038699 -0.042608701213602662 0 -0.041211003495267427 -0.04269170865417287 0 -0.041143610086499818 -0.04266694957073959 0 -0.040947736195038699 -0.042608701213602662 0 -0.041148661230824883 -0.042675854687835212 0 -0.041211003495267427 -0.04269170865417287 0 -0.040896990461710588 -0.042638991653922653 0 -0.040947736195038699 -0.042608701213602662 0 -0.041148661230824883 -0.042675854687835212 0 -0.040828517173098468 -0.04280733414592848 0 -0.040890177217383479 -0.042665207937049407 0 -0.040440271759388878 -0.042909779853471032 0 -0.0408391235534026 -0.042849666631091715 0 -0.040896990461710588 -0.042638991653922653 0 -0.041224243661791303 -0.042681475452746226 0 -0.040896990461710588 -0.042638991653922653 0 -0.041148661230824883 -0.042675854687835212 0 -0.041224243661791303 -0.042681475452746226 0 -0.041337654252481856 -0.042763081529655481 0 -0.041148661230824883 -0.042675854687835212 0 -0.041337654252481856 -0.042763081529655481 0 -0.041148661230824883 -0.042675854687835212 0 -0.041211003495267427 -0.04269170865417287 0 -0.034793830651893176 -0.019012353352192438 0 -0.03403809364894065 -0.018146051236127989 0 -0.03403477755374567 -0.018048826842690352 0 -0.035001744056742758 -0.018450409668057929 0 -0.034793830651893176 -0.019012353352192438 0 -0.03403809364894065 -0.018146051236127989 0 -0.038120525075406315 -0.030541588337185101 0 -0.037511113176591754 -0.030396575344308719 0 -0.041284423799406673 -0.042696226483052074 0 -0.041211003495267427 -0.04269170865417287 0 -0.041143610086499818 -0.04266694957073959 0 -0.033057643273443398 -0.017412976865755454 0 -0.033370824033689975 -0.017212999234220303 0 -0.03403477755374567 -0.018048826842690352 0 -0.033057643273443398 -0.017412976865755454 0 -0.033370824033689975 -0.017212999234220303 0 -0.032990218884537091 -0.016768629960891377 0 -0.033497098344602905 -0.018121565089000473 0 -0.034245102131799154 -0.01815303866850411 0 -0.033370824033689975 -0.017212999234220303 0 -0.033698989082229368 -0.017224374258286115 0 -0.03403477755374567 -0.018048826842690352 0 -0.033370824033689975 -0.017212999234220303 0 -0.033698989082229368 -0.017224374258286115 0 -0.033385901055609436 -0.016803091937985817 0 -0.033698989082229368 -0.017224374258286115 0 -0.03397738273642012 -0.017431738896903907 0 -0.03403477755374567 -0.018048826842690352 0 -0.033698989082229368 -0.017224374258286115 0 -0.03397738273642012 -0.017431738896903907 0 -0.03395615182820115 -0.017071632453030314 0 -0.034209182332256033 -0.017400038894622338 0 -0.034185501562647699 -0.016946088004272931 0 -0.03395615182820115 -0.017071632453030314 0 -0.03397738273642012 -0.017431738896903907 0 -0.034209182332256033 -0.017400038894622338 0 -0.03395615182820115 -0.017071632453030314 0 -0.03397738273642012 -0.017431738896903907 0 -0.03403477755374567 -0.018048826842690352 0 -0.034209182332256033 -0.017400038894622338 0 -0.041143610086499818 -0.04266694957073959 0 -0.040217876026056844 -0.042582692601219607 0 -0.04070844783865149 -0.042544987403561503 0 -0.037511113176591754 -0.030396575344308719 0 -0.0377389271246222 -0.030479610663546715 0 -0.03403809364894065 -0.018146051236127989 0 -0.03403477755374567 -0.018048826842690352 0 -0.034448821602972836 -0.017926415524961152 0 -0.040947736195038699 -0.042608701213602662 0 -0.041143610086499818 -0.04266694957073959 0 -0.04070844783865149 -0.042544987403561503 0 -0.040258572012450561 -0.041457170668157461 0 -0.040217876026056844 -0.042582692601219607 0 -0.039411799390609639 -0.041865481315208106 0 -0.040258572012450561 -0.041457170668157461 0 -0.040217876026056844 -0.042582692601219607 0 -0.04070844783865149 -0.042544987403561503 0 -0.03403477755374567 -0.018048826842690352 0 -0.034448821602972836 -0.017926415524961152 0 -0.034209182332256033 -0.017400038894622338 0 -0.040617799423791859 -0.042209342195607867 0 -0.040691744450501055 -0.042400327495382362 0 -0.034448821602972836 -0.017926415524961152 0 -0.034209182332256033 -0.017400038894622338 0 -0.034458440954113587 -0.017249423026012262 0 -0.034448821602972836 -0.017926415524961152 0 -0.034458440954113587 -0.017249423026012262 0 -0.034790109279975501 -0.017482380759919577 0 -0.034209182332256033 -0.017400038894622338 0 -0.034458440954113587 -0.017249423026012262 0 -0.034185501562647699 -0.016946088004272931 0 -0.034790109279975501 -0.017482380759919577 0 -0.035084673117115973 -0.017267681987020164 0 -0.035259744103465045 -0.01784890057342222 0 -0.034448821602972836 -0.017926415524961152 0 -0.034790109279975501 -0.017482380759919577 0 -0.035259744103465045 -0.01784890057342222 0 -0.034458440954113587 -0.017249423026012262 0 -0.034790109279975501 -0.017482380759919577 0 -0.034741731210083171 -0.017025736972202693 0 -0.034790109279975501 -0.017482380759919577 0 -0.035084673117115973 -0.017267681987020164 0 -0.034741731210083171 -0.017025736972202693 0 -0.040217876026056844 -0.042582692601219607 0 -0.039411799390609639 -0.041865481315208106 0 -0.038322730278088427 -0.04261867317808838 0 -0.038749594918703709 -0.041292088728044594 0 -0.039411799390609639 -0.041865481315208106 0 -0.038322730278088427 -0.04261867317808838 0 -0.0377389271246222 -0.030479610663546715 0 -0.034738581715433793 -0.02780158322903924 0 -0.034451364289130558 -0.01594764469208566 0 -0.035109727163356967 -0.016305550123268758 0 -0.035041809091424042 -0.015589782605894819 0 -0.034684401772713251 -0.016552919441372393 0 -0.034451364289130558 -0.01594764469208566 0 -0.035109727163356967 -0.016305550123268758 0 -0.035006700684348496 -0.016836269294007777 0 -0.034684401772713251 -0.016552919441372393 0 -0.035109727163356967 -0.016305550123268758 0 -0.035084673117115973 -0.017267681987020164 0 -0.035006700684348496 -0.016836269294007777 0 -0.034741731210083171 -0.017025736972202693 0 -0.034741731210083171 -0.017025736972202693 0 -0.034684401772713251 -0.016552919441372393 0 -0.034343939962254044 -0.016621535418676357 0 -0.035006700684348496 -0.016836269294007777 0 -0.034741731210083171 -0.017025736972202693 0 -0.034684401772713251 -0.016552919441372393 0 -0.034458440954113587 -0.017249423026012262 0 -0.034741731210083171 -0.017025736972202693 0 -0.034343939962254044 -0.016621535418676357 0 -0.034458440954113587 -0.017249423026012262 0 -0.034343939962254044 -0.016621535418676357 0 -0.034185501562647699 -0.016946088004272931 0 -0.034343939962254044 -0.016621535418676357 0 -0.034103954985952013 -0.016201334438027969 0 -0.033968085158416615 -0.016635893929135719 0 -0.034343939962254044 -0.016621535418676357 0 -0.034185501562647699 -0.016946088004272931 0 -0.033968085158416615 -0.016635893929135719 0 -0.034343939962254044 -0.016621535418676357 0 -0.034103954985952013 -0.016201334438027969 0 -0.034451364289130558 -0.01594764469208566 0 -0.034684401772713251 -0.016552919441372393 0 -0.034343939962254044 -0.016621535418676357 0 -0.034451364289130558 -0.01594764469208566 0 -0.034103954985952013 -0.016201334438027969 0 -0.034451364289130558 -0.01594764469208566 0 -0.034093447842766522 -0.01588451208179946 0 -0.034103954985952013 -0.016201334438027969 0 -0.034093447842766522 -0.01588451208179946 0 -0.033774357974244988 -0.015918748614439811 0 -0.033774357974244988 -0.015918748614439811 0 -0.033764500290275008 -0.016356372074288441 0 -0.033570781370612458 -0.016183103255475943 0 -0.034103954985952013 -0.016201334438027969 0 -0.033774357974244988 -0.015918748614439811 0 -0.033764500290275008 -0.016356372074288441 0 -0.034103954985952013 -0.016201334438027969 0 -0.033764500290275008 -0.016356372074288441 0 -0.033968085158416615 -0.016635893929135719 0 -0.034185501562647699 -0.016946088004272931 0 -0.033968085158416615 -0.016635893929135719 0 -0.03395615182820115 -0.017071632453030314 0 -0.033698989082229368 -0.017224374258286115 0 -0.03395615182820115 -0.017071632453030314 0 -0.033692385406858212 -0.016764138049008528 0 -0.033968085158416615 -0.016635893929135719 0 -0.03395615182820115 -0.017071632453030314 0 -0.033692385406858212 -0.016764138049008528 0 -0.033764500290275008 -0.016356372074288441 0 -0.033968085158416615 -0.016635893929135719 0 -0.033692385406858212 -0.016764138049008528 0 -0.033692385406858212 -0.016764138049008528 0 -0.033465850745415492 -0.016459171008048196 0 -0.033385901055609436 -0.016803091937985817 0 -0.033764500290275008 -0.016356372074288441 0 -0.033692385406858212 -0.016764138049008528 0 -0.033465850745415492 -0.016459171008048196 0 -0.033698989082229368 -0.017224374258286115 0 -0.033692385406858212 -0.016764138049008528 0 -0.033385901055609436 -0.016803091937985817 0 -0.033370824033689975 -0.017212999234220303 0 -0.033385901055609436 -0.016803091937985817 0 -0.032990218884537091 -0.016768629960891377 0 -0.033385901055609436 -0.016803091937985817 0 -0.032990218884537091 -0.016768629960891377 0 -0.033172267225747266 -0.01644786096482808 0 -0.033465850745415492 -0.016459171008048196 0 -0.033385901055609436 -0.016803091937985817 0 -0.033172267225747266 -0.01644786096482808 0 -0.033294555570724776 -0.016200894706277984 0 -0.033172267225747266 -0.01644786096482808 0 -0.033135202608174361 -0.016286350641949662 0 -0.033465850745415492 -0.016459171008048196 0 -0.033294555570724776 -0.016200894706277984 0 -0.033172267225747266 -0.01644786096482808 0 -0.033764500290275008 -0.016356372074288441 0 -0.033465850745415492 -0.016459171008048196 0 -0.033570781370612458 -0.016183103255475943 0 -0.033465850745415492 -0.016459171008048196 0 -0.033294555570724776 -0.016200894706277984 0 -0.033570781370612458 -0.016183103255475943 0 -0.033774357974244988 -0.015918748614439811 0 -0.033570781370612458 -0.016183103255475943 0 -0.033441055377411377 -0.015970621868969141 0 -0.033294555570724776 -0.016200894706277984 0 -0.033441055377411377 -0.015970621868969141 0 -0.033078936367780677 -0.016108532307537709 0 -0.033294555570724776 -0.016200894706277984 0 -0.033570781370612458 -0.016183103255475943 0 -0.033441055377411377 -0.015970621868969141 0 -0.033441055377411377 -0.015970621868969141 0 -0.033447062188744756 -0.015523726563789014 0 -0.033078936367780677 -0.016108532307537709 0 -0.033774357974244988 -0.015918748614439811 0 -0.033441055377411377 -0.015970621868969141 0 -0.033447062188744756 -0.015523726563789014 0 -0.049854270829938749 -0.012043735978421094 0 -0.049071150783872239 -0.012925089566864533 0 -0.050256363469364108 -0.013359248689123427 0 -0.039922088372021151 -0.012646988621967952 0 -0.037506736369547697 -0.01055049734295295 0 -0.032704753759093687 -0.011700365002020817 0 -0.032987830582569162 -0.01143096237097989 0 -0.032994353289287161 -0.011307890205153853 0 -0.036553776860073779 -0.010852993173815977 0 -0.037506736369547697 -0.01055049734295295 0 -0.032987830582569162 -0.01143096237097989 0 -0.032889136712688782 -0.011208159207407951 0 -0.033247312604869933 -0.011253359371255333 0 -0.032987830582569162 -0.01143096237097989 0 -0.033247312604869933 -0.011253359371255333 0 -0.033278794299347936 -0.011910558071975278 0 -0.039922088372021151 -0.012646988621967952 0 -0.032225367218406013 -0.013811231538816032 0 -0.033774357974244988 -0.015918748614439811 0 -0.033447062188744756 -0.015523726563789014 0 -0.034045012788282071 -0.015479223748955731 0 -0.032704753759093687 -0.011700365002020817 0 -0.032987830582569162 -0.01143096237097989 0 -0.033278794299347936 -0.011910558071975278 0 -0.034093447842766522 -0.01588451208179946 0 -0.033774357974244988 -0.015918748614439811 0 -0.034045012788282071 -0.015479223748955731 0 -0.032225367218406013 -0.013811231538816032 0 -0.035031682651771749 -0.01365086986680019 0 -0.034451364289130558 -0.01594764469208566 0 -0.034045012788282071 -0.015479223748955731 0 -0.034742313487506747 -0.015148675727912715 0 -0.034451364289130558 -0.01594764469208566 0 -0.034093447842766522 -0.01588451208179946 0 -0.034045012788282071 -0.015479223748955731 0 -0.033278794299347936 -0.011910558071975278 0 -0.033783678735335762 -0.011270087471983598 0 -0.034600049987675352 -0.012239584674043558 0 -0.033247312604869933 -0.011253359371255333 0 -0.033278794299347936 -0.011910558071975278 0 -0.033783678735335762 -0.011270087471983598 0 -0.034600049987675352 -0.012239584674043558 0 -0.034688898519791483 -0.01051205521218285 0 -0.035748414797690774 -0.01127280629290774 0 -0.033783678735335762 -0.011270087471983598 0 -0.034600049987675352 -0.012239584674043558 0 -0.034688898519791483 -0.01051205521218285 0 -0.034451364289130558 -0.01594764469208566 0 -0.034742313487506747 -0.015148675727912715 0 -0.035041809091424042 -0.015589782605894819 0 -0.045225415668917794 -0.018268948484911209 0 -0.047193213688642204 -0.015069605943566057 0 -0.044530325897314121 -0.015626139203964395 0 -0.050707506611920139 -0.016531361587306625 0 -0.048299598091302014 -0.017230493179602905 0 -0.047193213688642204 -0.015069605943566057 0 -0.050071241164273007 -0.019051964020515576 0 -0.045225415668917794 -0.018268948484911209 0 -0.048299598091302014 -0.017230493179602905 0 -0.045225415668917794 -0.018268948484911209 0 -0.048299598091302014 -0.017230493179602905 0 -0.047193213688642204 -0.015069605943566057 0 -0.046330913217563829 -0.021787560653419396 0 -0.043847291576620158 -0.020789498801158681 0 -0.045350863626918599 -0.020302572785171395 0 -0.050801319594610907 -0.018685886425578495 0 -0.045594296024337684 -0.017841454385498931 0 -0.044417404810691667 -0.018759411945311177 0 -0.043847291576620158 -0.020789498801158681 0 -0.045350863626918599 -0.020302572785171395 0 -0.041464729335462427 -0.019569788197413087 0 -0.044417404810691667 -0.018759411945311177 0 -0.043847291576620158 -0.020789498801158681 0 -0.045594296024337684 -0.017841454385498931 0 -0.039540120938816037 -0.018297212724558139 0 -0.041464729335462427 -0.019569788197413087 0 -0.043847291576620158 -0.020789498801158681 0 -0.041316163394222005 -0.019742470675562562 0 -0.047193213688642204 -0.015069605943566057 0 -0.044530325897314121 -0.015626139203964395 0 -0.043674458678121156 -0.013623841616477589 0 -0.032526887293716333 -0.016845521878766964 0 -0.032553996065407341 -0.016857656128981761 0 -0.032702032222689269 -0.016570004489542454 0 -0.032553996065407341 -0.016857656128981761 0 -0.032702032222689269 -0.016570004489542454 0 -0.032990218884537091 -0.016768629960891377 0 -0.038833174293656694 -0.019289302971727724 0 -0.039312484888260023 -0.018718214538914611 0 -0.03991075221530771 -0.018969616367999143 0 -0.039127525257648024 -0.019704597456095787 0 -0.039540120938816037 -0.018297212724558139 0 -0.039540120938816037 -0.018297212724558139 0 -0.036190144596341997 -0.018236327953628839 0 -0.039540120938816037 -0.018297212724558139 0 -0.037324126209773489 -0.016366116020626882 0 -0.044530325897314121 -0.015626139203964395 0 -0.043674458678121156 -0.013623841616477589 0 -0.042033984109494896 -0.015545372556056609 0 -0.036190144596341997 -0.018236327953628839 0 -0.031632835899710048 -0.016813391306681504 0 -0.032702032222689269 -0.016570004489542454 0 -0.032990218884537091 -0.016768629960891377 0 -0.032987694034580226 -0.016387918605405567 0 -0.032990218884537091 -0.016768629960891377 0 -0.033172267225747266 -0.01644786096482808 0 -0.032987694034580226 -0.016387918605405567 0 -0.033447062188744756 -0.015523726563789014 0 -0.033006445246184013 -0.016083110252406916 0 -0.033078936367780677 -0.016108532307537709 0 -0.033294555570724776 -0.016200894706277984 0 -0.033135202608174361 -0.016286350641949662 0 -0.033078936367780677 -0.016108532307537709 0 -0.033172267225747266 -0.01644786096482808 0 -0.033135202608174361 -0.016286350641949662 0 -0.032987694034580226 -0.016387918605405567 0 -0.033135202608174361 -0.016286350641949662 0 -0.032987694034580226 -0.016387918605405567 0 -0.033078936367780677 -0.016108532307537709 0 -0.032987694034580226 -0.016387918605405567 0 -0.032970954222534141 -0.016109291322542407 0 -0.033078936367780677 -0.016108532307537709 0 -0.037324126209773489 -0.016366116020626882 0 -0.039809461803815213 -0.015166633139459396 0 -0.032702032222689269 -0.016570004489542454 0 -0.032987694034580226 -0.016387918605405567 0 -0.032970954222534141 -0.016109291322542407 0 -0.039809461803815213 -0.015166633139459396 0 -0.038080811053344772 -0.015039288368869485 0 -0.045225415668917794 -0.018268948484911209 0 -0.044530325897314121 -0.015626139203964395 0 -0.042033984109494896 -0.015545372556056609 0 -0.048674522942007241 -0.01423900796105957 0 -0.039809461803815213 -0.015166633139459396 0 -0.045225415668917794 -0.018268948484911209 0 -0.042033984109494896 -0.015545372556056609 0 -0.040384075131488978 -0.017471336130827683 0 -0.051356517875604323 -0.01066493973251504 0 -0.045255702293893148 -0.0096815527648820045 0 -0.047771174353207775 -0.012968867535242718 0 -0.039922088372021151 -0.012646988621967952 0 -0.05093729216593313 -0.012449737327016954 0 -0.042048030863252116 -0.01338632252921805 0 -0.045255702293893148 -0.0096815527648820045 0 -0.047771174353207775 -0.012968867535242718 0 -0.049854270829938749 -0.012043735978421094 0 -0.051368247348509706 -0.012026385822190471 0 -0.051338370735838953 -0.012915887987606747 0 -0.039922088372021151 -0.012646988621967952 0 -0.039809461803815213 -0.015166633139459396 0 -0.049854270829938749 -0.012043735978421094 0 -0.051338370735838953 -0.012915887987606747 0 -0.050256363469364108 -0.013359248689123427 0 -0.051368247348509706 -0.012026385822190471 0 -0.051338370735838953 -0.012915887987606747 0 -0.05208034763514352 -0.012578056000851967 0 -0.051338370735838953 -0.012915887987606747 0 -0.05208034763514352 -0.012578056000851967 0 -0.052356430101864374 -0.013262177303999777 0 -0.05208034763514352 -0.012578056000851967 0 -0.052927857944088899 -0.012875664767209425 0 -0.052356430101864374 -0.013262177303999777 0 -0.05208034763514352 -0.012578056000851967 0 -0.052485663859042873 -0.01204144379694594 0 -0.052927857944088899 -0.012875664767209425 0 -0.05093729216593313 -0.012449737327016954 0 -0.051699209925701414 -0.01213538415364804 0 -0.051356517875604323 -0.01066493973251504 0 -0.047771174353207775 -0.012968867535242718 0 -0.052485663859042873 -0.01204144379694594 0 -0.051368247348509706 -0.012026385822190471 0 -0.05208034763514352 -0.012578056000851967 0 -0.052485663859042873 -0.01204144379694594 0 -0.054544999580509415 -0.011525297031898189 0 -0.051356517875604323 -0.01066493973251504 0 -0.052485663859042873 -0.01204144379694594 0 -0.054544999580509415 -0.011525297031898189 0 -0.053430412985270799 -0.012350860614216912 0 -0.053727262069975017 -0.012953335168007179 0 -0.054544999580509415 -0.011525297031898189 0 -0.052485663859042873 -0.01204144379694594 0 -0.053430412985270799 -0.012350860614216912 0 -0.053255377688206165 -0.015526117178898118 0 -0.048674522942007241 -0.01423900796105957 0 -0.052485663859042873 -0.01204144379694594 0 -0.053430412985270799 -0.012350860614216912 0 -0.052927857944088899 -0.012875664767209425 0 -0.052927857944088899 -0.012875664767209425 0 -0.053727262069975017 -0.012953335168007179 0 -0.05344584188834911 -0.013885685033760762 0 -0.053430412985270799 -0.012350860614216912 0 -0.052927857944088899 -0.012875664767209425 0 -0.053727262069975017 -0.012953335168007179 0 -0.05433027088180422 -0.01370537834578082 0 -0.053781378693294496 -0.014534558224497385 0 -0.05344584188834911 -0.013885685033760762 0 -0.052599324370039696 -0.014127135224499387 0 -0.053409153095753066 -0.014889293882186598 0 -0.054217945120797369 -0.014874175451464477 0 -0.053409153095753066 -0.014889293882186598 0 -0.054001288331818852 -0.014890679370270513 0 -0.053781378693294496 -0.014534558224497385 0 -0.053486218499434725 -0.014880793583780912 0 -0.052599324370039696 -0.014127135224499387 0 -0.052178496891840905 -0.014848830501194864 0 -0.053409153095753066 -0.014889293882186598 0 -0.052927857944088899 -0.012875664767209425 0 -0.05344584188834911 -0.013885685033760762 0 -0.052356430101864374 -0.013262177303999777 0 -0.052599324370039696 -0.014127135224499387 0 -0.052356430101864374 -0.013262177303999777 0 -0.051576889538417332 -0.01379583499323277 0 -0.05344584188834911 -0.013885685033760762 0 -0.052599324370039696 -0.014127135224499387 0 -0.052356430101864374 -0.013262177303999777 0 -0.051338370735838953 -0.012915887987606747 0 -0.052356430101864374 -0.013262177303999777 0 -0.051576889538417332 -0.01379583499323277 0 -0.051576889538417332 -0.01379583499323277 0 -0.050562822016110745 -0.014452191029819695 0 -0.050256363469364108 -0.013359248689123427 0 -0.051338370735838953 -0.012915887987606747 0 -0.051576889538417332 -0.01379583499323277 0 -0.050256363469364108 -0.013359248689123427 0 -0.051576889538417332 -0.01379583499323277 0 -0.050562822016110745 -0.014452191029819695 0 -0.052178496891840905 -0.014848830501194864 0 -0.052599324370039696 -0.014127135224499387 0 -0.051576889538417332 -0.01379583499323277 0 -0.052178496891840905 -0.014848830501194864 0 -0.052178496891840905 -0.014848830501194864 0 -0.051010754211984595 -0.015571443954809638 0 -0.052705020239272642 -0.015709113963159441 0 -0.050562822016110745 -0.014452191029819695 0 -0.052178496891840905 -0.014848830501194864 0 -0.051010754211984595 -0.015571443954809638 0 -0.051259078484284529 -0.013337774737639656 0 -0.051839131273477015 -0.014535041418221184 0 -0.050713265068658211 -0.015110400156960824 0 -0.052439994925902601 -0.014944489152985376 0 -0.052364591013341191 -0.014773825100685268 0 -0.051259078484284529 -0.013337774737639656 0 -0.05277024928343501 -0.014099448667916958 0 -0.051839131273477015 -0.014535041418221184 0 -0.052364591013341191 -0.014773825100685268 0 -0.053600786379449504 -0.015088094113853716 0 -0.05277024928343501 -0.014099448667916958 0 -0.053582482439663993 -0.015062661725318872 0 -0.053136849563928744 -0.014823533946972393 0 -0.052705020239272642 -0.015709113963159441 0 -0.053582482439663993 -0.015062661725318872 0 -0.053227210186131427 -0.01529972814257473 0 -0.053582482439663993 -0.015062661725318872 0 -0.05360922409913825 -0.015206340675425084 0 -0.053227210186131427 -0.01529972814257473 0 -0.05360922409913825 -0.015206340675425084 0 -0.053227210186131427 -0.01529972814257473 0 -0.053409153095753066 -0.014889293882186598 0 -0.05360922409913825 -0.015206340675425084 0 -0.053409153095753066 -0.014889293882186598 0 -0.053827983282591231 -0.015022404642383002 0 -0.053409153095753066 -0.014889293882186598 0 -0.054001288331818852 -0.014890679370270513 0 -0.053827983282591231 -0.015022404642383002 0 -0.052178496891840905 -0.014848830501194864 0 -0.052705020239272642 -0.015709113963159441 0 -0.053227210186131427 -0.01529972814257473 0 -0.052178496891840905 -0.014848830501194864 0 -0.053227210186131427 -0.01529972814257473 0 -0.053409153095753066 -0.014889293882186598 0 -0.034095085920620258 -0.0089113093352720645 0 -0.034688898519791483 -0.01051205521218285 0 -0.035266094429729972 -0.0089536731267018752 0 -0.034095085920620258 -0.0089113093352720645 0 -0.034688898519791483 -0.01051205521218285 0 -0.033324103822663119 -0.010213310983560384 0 -0.033783678735335762 -0.011270087471983598 0 -0.034688898519791483 -0.01051205521218285 0 -0.033324103822663119 -0.010213310983560384 0 -0.033247312604869933 -0.011253359371255333 0 -0.033783678735335762 -0.011270087471983598 0 -0.033324103822663119 -0.010213310983560384 0 -0.034800388831314519 -0.0079195606840268516 0 -0.034786496168216288 -0.0075878785696714846 0 -0.034695158451016131 -0.0076907535594573874 0 -0.034627253740181801 -0.0082231724533782281 0 -0.033700273387188562 -0.0091981431928438682 0 -0.034966423618500997 -0.0076587529073044178 0 -0.034800388831314519 -0.0079195606840268516 0 -0.034786496168216288 -0.0075878785696714846 0 -0.034695158451016131 -0.0076907535594573874 0 -0.034564960020920375 -0.0078401959178425341 0 -0.034560152272029569 -0.007461934333456233 0 -0.04207623695726203 -0.010947260092778559 0 -0.043658974351981461 -0.011374606720250719 0 -0.034786496168216288 -0.0075878785696714846 0 -0.034695158451016131 -0.0076907535594573874 0 -0.034691100514911193 -0.00748158226917161 0 -0.034800388831314519 -0.0079195606840268516 0 -0.034695158451016131 -0.0076907535594573874 0 -0.034564960020920375 -0.0078401959178425341 0 -0.032889136712688782 -0.011208159207407951 0 -0.033247312604869933 -0.011253359371255333 0 -0.033324103822663119 -0.010213310983560384 0 -0.037506736369547697 -0.01055049734295295 0 -0.033700273387188562 -0.0091981431928438682 0 -0.037506736369547697 -0.01055049734295295 0 -0.04207623695726203 -0.010947260092778559 0 -0.034617338245956239 -0.0082275870078814626 0 -0.034800388831314519 -0.0079195606840268516 0 -0.034564960020920375 -0.0078401959178425341 0 -0.049071150783872239 -0.012925089566864533 0 -0.049256383079111996 -0.014002293385332319 0 -0.050256363469364108 -0.013359248689123427 0 -0.050562822016110745 -0.014452191029819695 0 -0.049256383079111996 -0.014002293385332319 0 -0.050256363469364108 -0.013359248689123427 0 -0.050562822016110745 -0.014452191029819695 0 -0.049256383079111996 -0.014002293385332319 0 -0.049385882776750878 -0.015162905094738372 0 -0.050562822016110745 -0.014452191029819695 0 -0.051010754211984595 -0.015571443954809638 0 -0.049385882776750878 -0.015162905094738372 0 -0.052439994925902601 -0.014944489152985376 0 -0.043658974351981461 -0.011374606720250719 0 -0.051259078484284529 -0.013337774737639656 0 -0.04961573948435935 -0.013980815784448068 0 -0.049445073786364757 -0.012723784921405249 0 -0.051259078484284529 -0.013337774737639656 0 -0.04961573948435935 -0.013980815784448068 0 -0.050713265068658211 -0.015110400156960824 0 -0.041345238914935772 -0.0095406097144161723 0 -0.043658974351981461 -0.011374606720250719 0 -0.034344578672836523 -0.0066687296334461124 0 -0.034593938530503562 -0.0075460249129515209 0 -0.034651334716298887 -0.0069273101346297456 0 -0.041345238914935772 -0.0095406097144161723 0 -0.032616902545059619 -0.0062875798201184946 0 -0.033767884840596729 -0.0067373509019261792 0 -0.034344578672836523 -0.0066687296334461124 0 -0.034593938530503562 -0.0075460249129515209 0 -0.033767884840596729 -0.0067373509019261792 0 -0.034344578672836523 -0.0066687296334461124 0 -0.034051462560547648 -0.0057677561282537112 0 -0.034344578672836523 -0.0066687296334461124 0 -0.034651334716298887 -0.0069273101346297456 0 -0.034680721333014475 -0.0062698162266380817 0 -0.035628700366698303 -0.0088877443115214574 0 -0.035097756301314474 -0.0078176956023361839 0 -0.035478946430101646 -0.0075325782115515079 0 -0.035628700366698303 -0.0088877443115214574 0 -0.034593938530503562 -0.0075460249129515209 0 -0.035097756301314474 -0.0078176956023361839 0 -0.043658974351981461 -0.011374606720250719 0 -0.033549062296259258 -0.0075950107017424343 0 -0.035097756301314474 -0.0078176956023361839 0 -0.035478946430101646 -0.0075325782115515079 0 -0.034691100514911193 -0.00748158226917161 0 -0.034593938530503562 -0.0075460249129515209 0 -0.034691100514911193 -0.00748158226917161 0 -0.034697822205236178 -0.0074908418958400079 0 -0.034695158451016131 -0.0076907535594573874 0 -0.034560152272029569 -0.007461934333456233 0 -0.034691100514911193 -0.00748158226917161 0 -0.034593938530503562 -0.0075460249129515209 0 -0.035097756301314474 -0.0078176956023361839 0 -0.034691100514911193 -0.00748158226917161 0 -0.034966423618500997 -0.0076587529073044178 0 -0.03483995082351235 -0.0073814994120720697 0 -0.035038017432993243 -0.0073179424480548181 0 -0.034786496168216288 -0.0075878785696714846 0 -0.034691100514911193 -0.00748158226917161 0 -0.034697822205236178 -0.0074908418958400079 0 -0.034786496168216288 -0.0075878785696714846 0 -0.034697822205236178 -0.0074908418958400079 0 -0.03483995082351235 -0.0073814994120720697 0 -0.034966423618500997 -0.0076587529073044178 0 -0.034786496168216288 -0.0075878785696714846 0 -0.03483995082351235 -0.0073814994120720697 0 -0.03483995082351235 -0.0073814994120720697 0 -0.03495235408536751 -0.0069349369320956993 0 -0.035038017432993243 -0.0073179424480548181 0 -0.03483995082351235 -0.0073814994120720697 0 -0.034697645476044398 -0.0073460745930127632 0 -0.034651334716298887 -0.0069273101346297456 0 -0.034593938530503562 -0.0075460249129515209 0 -0.034697645476044398 -0.0073460745930127632 0 -0.034651334716298887 -0.0069273101346297456 0 -0.034697822205236178 -0.0074908418958400079 0 -0.03483995082351235 -0.0073814994120720697 0 -0.034697645476044398 -0.0073460745930127632 0 -0.034593938530503562 -0.0075460249129515209 0 -0.034697822205236178 -0.0074908418958400079 0 -0.034697645476044398 -0.0073460745930127632 0 -0.03495235408536751 -0.0069349369320956993 0 -0.03522614983124505 -0.0067563035823757214 0 -0.034468801775084559 -0.006311520759121835 0 -0.037089390319663358 0.0072580223493832119 0 -0.035036154451651425 0.0010853360056645091 0 -0.034651334716298887 -0.0069273101346297456 0 -0.03495235408536751 -0.0069349369320956993 0 -0.034680721333014475 -0.0062698162266380817 0 -0.035859993897322355 -0.0083709923522048198 0 -0.035036154451651425 0.0010853360056645091 0 -0.03483995082351235 -0.0073814994120720697 0 -0.034651334716298887 -0.0069273101346297456 0 -0.03495235408536751 -0.0069349369320956993 0 -0.03495235408536751 -0.0069349369320956993 0 -0.03522614983124505 -0.0067563035823757214 0 -0.035038017432993243 -0.0073179424480548181 0 -0.03522614983124505 -0.0067563035823757214 0 -0.03526962167095931 -0.0074507816659575843 0 -0.035038017432993243 -0.0073179424480548181 0 -0.034095085920620258 -0.0089113093352720645 0 -0.03526962167095931 -0.0074507816659575843 0 -0.035266094429729972 -0.0089536731267018752 0 -0.034966423618500997 -0.0076587529073044178 0 -0.03526962167095931 -0.0074507816659575843 0 -0.035038017432993243 -0.0073179424480548181 0 -0.034627253740181801 -0.0082231724533782281 0 -0.035185433483703558 -0.0075346661362378142 0 -0.038373029307106551 0.01830417057144991 0 -0.038742598788480527 0.019035219583251349 0 -0.037705476892474693 0.019251102865802457 0 -0.038373029307106551 0.01830417057144991 0 -0.038742598788480527 0.019035219583251349 0 -0.039647031742163004 0.018035474965366637 0 -0.038318920904619351 0.020001507152801586 0 -0.038742598788480527 0.019035219583251349 0 -0.037705476892474693 0.019251102865802457 0 -0.038318920904619351 0.020001507152801586 0 -0.038742598788480527 0.019035219583251349 0 -0.039677633569173254 0.01941923269899954 0 -0.038742598788480527 0.019035219583251349 0 -0.039677633569173254 0.01941923269899954 0 -0.039647031742163004 0.018035474965366637 0 -0.039603145352396382 0.018716757791849156 0 -0.041512044584503693 0.018937886034147755 0 -0.041512044584503693 0.018937886034147755 0 -0.043843671613150087 0.015002722168070522 0 -0.039647031742163004 0.018035474965366637 0 -0.040968826726773488 0.018246975543132173 0 -0.04101631875737282 0.017867517761930147 0 -0.039677633569173254 0.01941923269899954 0 -0.039647031742163004 0.018035474965366637 0 -0.040968826726773488 0.018246975543132173 0 -0.035036154451651425 0.0010853360056645091 0 -0.039905127584110668 0.0043376804650587806 0 -0.034950537902540983 -0.0060750651141737184 0 -0.034051462560547648 -0.0057677561282537112 0 -0.033588746849059631 -0.0047998134169633085 0 -0.035036154451651425 0.0010853360056645091 0 -0.035014252256994317 -0.00535985131696345 0 -0.034344578672836523 -0.0066687296334461124 0 -0.034680721333014475 -0.0062698162266380817 0 -0.034051462560547648 -0.0057677561282537112 0 -0.033767884840596729 -0.0067373509019261792 0 -0.034051462560547648 -0.0057677561282537112 0 -0.033588746849059631 -0.0047998134169633085 0 -0.041345238914935772 -0.0095406097144161723 0 -0.039905127584110668 0.0043376804650587806 0 -0.046097581139986153 -0.0047295558533085461 0 -0.046037800532276484 -0.0036087993851853101 0 -0.045622512821164078 -0.004030563452882014 0 -0.041345238914935772 -0.0095406097144161723 0 -0.049119726334030715 -0.010714356021065831 0 -0.046037800532276484 -0.0036087993851853101 0 -0.045812046243665229 -0.0033963353412263526 0 -0.045622512821164078 -0.004030563452882014 0 -0.039905127584110668 0.0043376804650587806 0 -0.043843671613150087 0.015002722168070522 0 -0.039905127584110668 0.0043376804650587806 0 -0.045310898714506685 0.0079335631747776969 0 -0.043843671613150087 0.015002722168070522 0 -0.045310898714506685 0.0079335631747776969 0 -0.04140049546013061 0.0089187325482706064 0 -0.041507907435991802 0.007951913339511979 0 -0.04251789569674528 0.0079324524328191568 0 -0.046204666191812585 0.017814636107561666 0 -0.046705806374517121 0.017128184251051237 0 -0.046295991281279571 0.016205875604740863 0 -0.043843671613150087 0.015002722168070522 0 -0.046792612471539666 0.017754358861792798 0 -0.046017401416422292 0.019153795028539554 0 -0.046295991281279571 0.016205875604740863 0 -0.044692471519713631 0.017568567692491602 0 -0.046204666191812585 0.017814636107561666 0 -0.046588998826729525 0.017805035539907393 0 -0.046705806374517121 0.017128184251051237 0 -0.046295991281279571 0.016205875604740863 0 -0.044011321817893162 0.01612231462594688 0 -0.044692471519713631 0.017568567692491602 0 -0.043505680488938839 0.019246137727024722 0 -0.046017401416422292 0.019153795028539554 0 -0.044692471519713631 0.017568567692491602 0 -0.040789224900208629 0.019245261321832602 0 -0.043505680488938839 0.019246137727024722 0 -0.042651462592370987 0.0174639623818134 0 -0.043505680488938839 0.019246137727024722 0 -0.044692471519713631 0.017568567692491602 0 -0.042651462592370987 0.0174639623818134 0 -0.044011321817893162 0.01612231462594688 0 -0.044692471519713631 0.017568567692491602 0 -0.042651462592370987 0.0174639623818134 0 -0.044011321817893162 0.01612231462594688 0 -0.042651462592370987 0.0174639623818134 0 -0.042088430820482428 0.015767895894359795 0 -0.040502520345188767 0.017508610288045928 0 -0.039248679079273777 0.016442018370739993 0 -0.042088430820482428 0.015767895894359795 0 -0.042651462592370987 0.0174639623818134 0 -0.040502520345188767 0.017508610288045928 0 -0.042088430820482428 0.015767895894359795 0 -0.040789224900208629 0.019245261321832602 0 -0.042651462592370987 0.0174639623818134 0 -0.040502520345188767 0.017508610288045928 0 -0.054904105904326948 -0.0064819065403754822 0 -0.052376432542617375 -0.0062423920053766698 0 -0.053043483784282495 -0.015451678287218027 0 -0.053219463451485899 -0.015167880080477179 0 -0.052562426989448421 -0.015077142535387993 0 -0.053043483784282495 -0.015451678287218027 0 -0.052562426989448421 -0.015077142535387993 0 -0.052387706726266137 -0.015401168228295648 0 -0.054904105904326948 -0.0064819065403754822 0 -0.054671117664694367 -0.0054720575338590427 0 -0.053219463451485899 -0.015167880080477179 0 -0.053448224680142445 -0.015067318887192363 0 -0.05359205459575396 -0.015326065949599253 0 -0.053043483784282495 -0.015451678287218027 0 -0.053219463451485899 -0.015167880080477179 0 -0.05359205459575396 -0.015326065949599253 0 -0.053219463451485899 -0.015167880080477179 0 -0.053448224680142445 -0.015067318887192363 0 -0.053136849563928744 -0.014823533946972393 0 -0.053582482439663993 -0.015062661725318872 0 -0.053448224680142445 -0.015067318887192363 0 -0.053136849563928744 -0.014823533946972393 0 -0.053219463451485899 -0.015167880080477179 0 -0.053136849563928744 -0.014823533946972393 0 -0.052562426989448421 -0.015077142535387993 0 -0.05277024928343501 -0.014099448667916958 0 -0.053136849563928744 -0.014823533946972393 0 -0.052562426989448421 -0.015077142535387993 0 -0.05277024928343501 -0.014099448667916958 0 -0.051839131273477015 -0.014535041418221184 0 -0.052562426989448421 -0.015077142535387993 0 -0.051839131273477015 -0.014535041418221184 0 -0.052562426989448421 -0.015077142535387993 0 -0.051823129552479058 -0.015378407649387587 0 -0.051839131273477015 -0.014535041418221184 0 -0.050713265068658211 -0.015110400156960824 0 -0.051823129552479058 -0.015378407649387587 0 -0.049119726334030715 -0.010714356021065831 0 -0.05038905000787585 -0.0038409025871546849 0 -0.045812046243665229 -0.0033963353412263526 0 -0.045622512821164078 -0.004030563452882014 0 -0.04520793005873764 -0.0034122905434585838 0 -0.045310898714506685 0.0079335631747776969 0 -0.05038905000787585 -0.0038409025871546849 0 -0.050713265068658211 -0.015110400156960824 0 -0.051823129552479058 -0.015378407649387587 0 -0.051690366764849505 -0.016067353197838415 0 -0.051405602445170118 -0.018149581420989581 0 -0.052376432542617375 -0.0062423920053766698 0 -0.052562426989448421 -0.015077142535387993 0 -0.051823129552479058 -0.015378407649387587 0 -0.051910326545578679 -0.016074028099329209 0 -0.051823129552479058 -0.015378407649387587 0 -0.051690366764849505 -0.016067353197838415 0 -0.051910326545578679 -0.016074028099329209 0 -0.05038905000787585 -0.0038409025871546849 0 -0.052376432542617375 -0.0062423920053766698 0 -0.057745153369529879 0.0027573410299874539 0 -0.056743287649460364 0.0043196398802083785 0 -0.05685240524684488 0.0032073958347257022 0 -0.051650962412775982 0.0020253613427587713 0 -0.05463900426350727 0.008422069858246015 0 -0.050584519483115195 0.012619714199911314 0 -0.049929974345083353 0.011463173435689356 0 -0.051166062088680284 0.01035168967023741 0 -0.057651757420143258 0.002571425784146656 0 -0.057745153369529879 0.0027573410299874539 0 -0.05685240524684488 0.0032073958347257022 0 -0.049065913306977828 0.0066837173385783195 0 -0.049198061121800064 0.0065344225257689768 0 -0.048821184746310239 0.0059050738607512518 0 -0.052376432542617375 -0.0062423920053766698 0 -0.051650962412775982 0.0020253613427587713 0 -0.050327882855853927 -0.0040724563579615436 0 -0.053898058227896187 -0.0041409867719815622 0 -0.052509809986991396 -0.0066039141642165265 0 -0.05038905000787585 -0.0038409025871546849 0 -0.051650962412775982 0.0020253613427587713 0 -0.045310898714506685 0.0079335631747776969 0 -0.049380838580109783 0.012737019385919637 0 -0.047874164866567322 0.0067258930160850284 0 -0.049065913306977828 0.0066837173385783195 0 -0.048821184746310239 0.0059050738607512518 0 -0.046588998826729525 0.017805035539907393 0 -0.046705806374517121 0.017128184251051237 0 -0.047698586910206398 0.01691523568516216 0 -0.051650962412775982 0.0020253613427587713 0 -0.049380838580109783 0.012737019385919637 0 -0.049380838580109783 0.012737019385919637 0 -0.048054272294106477 0.012829009864435586 0 -0.046705806374517121 0.017128184251051237 0 -0.046295991281279571 0.016205875604740863 0 -0.047698586910206398 0.01691523568516216 0 -0.050225043193823656 0.011411538332700711 0 -0.050337949666832665 0.010005016058527287 0 -0.049312807744645339 0.009905019849060814 0 -0.046295991281279571 0.016205875604740863 0 -0.047698586910206398 0.01691523568516216 0 -0.046874678149959888 0.015193140319419098 0 -0.050225043193823656 0.011411538332700711 0 -0.051272229752486062 0.010563554161944705 0 -0.050337949666832665 0.010005016058527287 0 -0.050584519483115195 0.012619714199911314 0 -0.051166062088680284 0.01035168967023741 0 -0.052437983588689917 0.01075369380186016 0 -0.049380838580109783 0.012737019385919637 0 -0.051411837257011699 0.01019406800850247 0 -0.051166062088680284 0.01035168967023741 0 -0.052437983588689917 0.01075369380186016 0 -0.052569194206711779 0.0087551571424952113 0 -0.056743287649460364 0.0043196398802083785 0 -0.055461481405149025 0.0046982762302591645 0 -0.054413021581426288 0.0068923911993185212 0 -0.056743287649460364 0.0043196398802083785 0 -0.056077878554623338 0.0036944707825730784 0 -0.055461481405149025 0.0046982762302591645 0 -0.056743287649460364 0.0043196398802083785 0 -0.056077878554623338 0.0036944707825730784 0 -0.05685240524684488 0.0032073958347257022 0 -0.055940106822460506 0.0026551806317292254 0 -0.057651757420143258 0.002571425784146656 0 -0.05685240524684488 0.0032073958347257022 0 -0.055940106822460506 0.0026551806317292254 0 -0.056077878554623338 0.0036944707825730784 0 -0.05556505760207741 0.0034434075681833471 0 -0.055940106822460506 0.0026551806317292254 0 -0.056077878554623338 0.0036944707825730784 0 -0.05685240524684488 0.0032073958347257022 0 -0.055940106822460506 0.0026551806317292254 0 -0.055044714487852919 0.0034047277491995576 0 -0.054411831658182759 0.0028332128095964375 0 -0.055940106822460506 0.0026551806317292254 0 -0.05556505760207741 0.0034434075681833471 0 -0.055044714487852919 0.0034047277491995576 0 -0.056077878554623338 0.0036944707825730784 0 -0.05556505760207741 0.0034434075681833471 0 -0.055192748166718458 0.0040812860750415042 0 -0.05556505760207741 0.0034434075681833471 0 -0.055044714487852919 0.0034047277491995576 0 -0.055192748166718458 0.0040812860750415042 0 -0.055044714487852919 0.0034047277491995576 0 -0.055192748166718458 0.0040812860750415042 0 -0.054705504233700145 0.0040226540907699242 0 -0.055192748166718458 0.0040812860750415042 0 -0.054711539858273338 0.0046102345997198133 0 -0.054705504233700145 0.0040226540907699242 0 -0.056077878554623338 0.0036944707825730784 0 -0.055192748166718458 0.0040812860750415042 0 -0.055461481405149025 0.0046982762302591645 0 -0.055192748166718458 0.0040812860750415042 0 -0.055461481405149025 0.0046982762302591645 0 -0.054839900539807897 0.0051266003175628287 0 -0.055192748166718458 0.0040812860750415042 0 -0.054711539858273338 0.0046102345997198133 0 -0.054839900539807897 0.0051266003175628287 0 -0.054711539858273338 0.0046102345997198133 0 -0.054839900539807897 0.0051266003175628287 0 -0.054515965158521126 0.0051085043434647625 0 -0.054711539858273338 0.0046102345997198133 0 -0.054536297164841853 0.0045585661357137024 0 -0.054705504233700145 0.0040226540907699242 0 -0.054711539858273338 0.0046102345997198133 0 -0.054536297164841853 0.0045585661357137024 0 -0.054515965158521126 0.0051085043434647625 0 -0.054536297164841853 0.0045585661357137024 0 -0.054495317913568563 0.0049128716167771728 0 -0.054515965158521126 0.0051085043434647625 0 -0.054536297164841853 0.0045585661357137024 0 -0.05453579008373733 0.0043273200353454288 0 -0.054526157809265438 0.0040124161274645576 0 -0.054536297164841853 0.0045585661357137024 0 -0.05453579008373733 0.0043273200353454288 0 -0.054495317913568563 0.0049128716167771728 0 -0.054526157809265438 0.0040124161274645576 0 -0.054538072548451132 0.0036585313689342074 0 -0.05450620662868301 0.0035878268743961528 0 -0.05453579008373733 0.0043273200353454288 0 -0.054526157809265438 0.0040124161274645576 0 -0.054538072548451132 0.0036585313689342074 0 -0.054536297164841853 0.0045585661357137024 0 -0.054526157809265438 0.0040124161274645576 0 -0.054705504233700145 0.0040226540907699242 0 -0.054526157809265438 0.0040124161274645576 0 -0.054705504233700145 0.0040226540907699242 0 -0.054548787505323375 0.0034276731762423298 0 -0.054619672791545816 0.0037538583548848022 0 -0.054695793885726353 0.0032908428238530608 0 -0.054749151901544807 0.0037738640503592316 0 -0.05453579008373733 0.0043273200353454288 0 -0.054619672791545816 0.0037538583548848022 0 -0.054674432468763107 0.0042314944005600961 0 -0.05453579008373733 0.0043273200353454288 0 -0.054619672791545816 0.0037538583548848022 0 -0.054538072548451132 0.0036585313689342074 0 -0.054619672791545816 0.0037538583548848022 0 -0.054611705938106235 0.0031032289885271577 0 -0.054695793885726353 0.0032908428238530608 0 -0.054619672791545816 0.0037538583548848022 0 -0.054538072548451132 0.0036585313689342074 0 -0.054611705938106235 0.0031032289885271577 0 -0.054611705938106235 0.0031032289885271577 0 -0.054505423532090799 0.0030433129482198623 0 -0.054507814540023528 0.0033332144532357924 0 -0.054505423532090799 0.0030433129482198623 0 -0.054507814540023528 0.0033332144532357924 0 -0.054562203972964414 0.0032962017244797569 0 -0.055683333442525684 -0.0015889316001114829 0 -0.054671117664694367 -0.0054720575338590427 0 -0.054538072548451132 0.0036585313689342074 0 -0.054611705938106235 0.0031032289885271577 0 -0.054507814540023528 0.0033332144532357924 0 -0.054538072548451132 0.0036585313689342074 0 -0.054507814540023528 0.0033332144532357924 0 -0.05450620662868301 0.0035878268743961528 0 -0.055044714487852919 0.0034047277491995576 0 -0.054705504233700145 0.0040226540907699242 0 -0.054548787505323375 0.0034276731762423298 0 -0.054507814540023528 0.0033332144532357924 0 -0.054548787505323375 0.0034276731762423298 0 -0.05450620662868301 0.0035878268743961528 0 -0.054526157809265438 0.0040124161274645576 0 -0.054548787505323375 0.0034276731762423298 0 -0.05450620662868301 0.0035878268743961528 0 -0.054507814540023528 0.0033332144532357924 0 -0.054548787505323375 0.0034276731762423298 0 -0.054562203972964414 0.0032962017244797569 0 -0.054985121830804527 0.0036766556181345262 0 -0.054671117664694367 -0.0054720575338590427 0 -0.055044714487852919 0.0034047277491995576 0 -0.054548787505323375 0.0034276731762423298 0 -0.054411831658182759 0.0028332128095964375 0 -0.058248665510692417 -0.0067854355366203725 0 -0.057032404013863801 -0.0080238669683752074 0 -0.058079594361264329 -0.0090913581522685371 0 -0.054671117664694367 -0.0054720575338590427 0 -0.055996381608904938 -0.013185524860130918 0 -0.05629684924070634 -0.0067439192250337331 0 -0.058248665510692417 -0.0067854355366203725 0 -0.057032404013863801 -0.0080238669683752074 0 -0.05629684924070634 -0.0067439192250337331 0 -0.057032404013863801 -0.0080238669683752074 0 -0.055686917505880541 -0.007957638467230424 0 -0.057032404013863801 -0.0080238669683752074 0 -0.056190770474377136 -0.0092589782466528589 0 -0.055686917505880541 -0.007957638467230424 0 -0.057032404013863801 -0.0080238669683752074 0 -0.057134572621821311 -0.0090591816397989338 0 -0.058079594361264329 -0.0090913581522685371 0 -0.057032404013863801 -0.0080238669683752074 0 -0.056190770474377136 -0.0092589782466528589 0 -0.057134572621821311 -0.0090591816397989338 0 -0.056190770474377136 -0.0092589782466528589 0 -0.057134572621821311 -0.0090591816397989338 0 -0.057237717015155808 -0.0098658014277725383 0 -0.057134572621821311 -0.0090591816397989338 0 -0.058079594361264329 -0.0090913581522685371 0 -0.057237717015155808 -0.0098658014277725383 0 -0.053448224680142445 -0.015067318887192363 0 -0.05359205459575396 -0.015326065949599253 0 -0.053555549413790586 -0.015010431634346346 0 -0.053582482439663993 -0.015062661725318872 0 -0.053448224680142445 -0.015067318887192363 0 -0.053555549413790586 -0.015010431634346346 0 -0.054568614444304608 -0.0090710231787072947 0 -0.052907718382925496 -0.0085923992523008873 0 -0.05335380187289316 -0.010544209802375852 0 -0.054568614444304608 -0.0090710231787072947 0 -0.054362364451806713 -0.0066988183105682955 0 -0.052907718382925496 -0.0085923992523008873 0 -0.056190770474377136 -0.0092589782466528589 0 -0.054568614444304608 -0.0090710231787072947 0 -0.055686917505880541 -0.007957638467230424 0 -0.05629684924070634 -0.0067439192250337331 0 -0.055686917505880541 -0.007957638467230424 0 -0.054362364451806713 -0.0066988183105682955 0 -0.055029122655122595 -0.0014089165719999653 0 -0.054173981302640159 -0.0069447580170571687 0 -0.054568614444304608 -0.0090710231787072947 0 -0.055686917505880541 -0.007957638467230424 0 -0.054362364451806713 -0.0066988183105682955 0 -0.055029122655122595 -0.0014089165719999653 0 -0.055646549327594011 0.0022030043026497301 0 -0.054568751867146263 0.0012038577645304312 0 -0.054908923562316581 0.0022686123819645959 0 -0.054675229387551157 0.0022680007299832714 0 -0.054832973042767456 0.00094914629379520702 0 -0.054568751867146263 0.0012038577645304312 0 -0.054908923562316581 0.0022686123819645959 0 -0.055683333442525684 -0.0015889316001114829 0 -0.055029122655122595 -0.0014089165719999653 0 -0.054611705938106235 0.0031032289885271577 0 -0.054505423532090799 0.0030433129482198623 0 -0.054908923562316581 0.0022686123819645959 0 -0.054505423532090799 0.0030433129482198623 0 -0.055217971935053213 0.0026304664030640671 0 -0.054908923562316581 0.0022686123819645959 0 -0.054611705938106235 0.0031032289885271577 0 -0.054908923562316581 0.0022686123819645959 0 -0.054768859694996334 0.0027332998685738459 0 -0.054611705938106235 0.0031032289885271577 0 -0.054768859694996334 0.0027332998685738459 0 -0.054695793885726353 0.0032908428238530608 0 -0.054908923562316581 0.0022686123819645959 0 -0.054768859694996334 0.0027332998685738459 0 -0.054675229387551157 0.0022680007299832714 0 -0.054768859694996334 0.0027332998685738459 0 -0.054675229387551157 0.0022680007299832714 0 -0.054735757475883363 0.0031447178130808344 0 -0.054768859694996334 0.0027332998685738459 0 -0.054695793885726353 0.0032908428238530608 0 -0.054735757475883363 0.0031447178130808344 0 -0.054675229387551157 0.0022680007299832714 0 -0.054105459706831532 0.0015203092502365202 0 -0.05431232501045858 0.0028411500933208525 0 -0.054568751867146263 0.0012038577645304312 0 -0.054675229387551157 0.0022680007299832714 0 -0.054105459706831532 0.0015203092502365202 0 -0.054105459706831532 0.0015203092502365202 0 -0.052947280506461546 0.00066297712339593467 0 -0.053137921775201033 0.0028290471545848296 0 -0.052947280506461546 0.00066297712339593467 0 -0.053933677156794264 -0.0011022587575487118 0 -0.05172707859336878 -0.0015718840159147341 0 -0.054105459706831532 0.0015203092502365202 0 -0.052947280506461546 0.00066297712339593467 0 -0.053933677156794264 -0.0011022587575487118 0 -0.055029122655122595 -0.0014089165719999653 0 -0.05446851382815824 -0.00062351635032356818 0 -0.054832973042767456 0.00094914629379520702 0 -0.054568751867146263 0.0012038577645304312 0 -0.053933677156794264 -0.0011022587575487118 0 -0.054568751867146263 0.0012038577645304312 0 -0.054105459706831532 0.0015203092502365202 0 -0.053933677156794264 -0.0011022587575487118 0 -0.050000339566581176 -0.0013552921877540707 0 -0.051590919199851024 0.00074547713432559387 0 -0.049999260832848433 -0.0013535340248938764 0 -0.05172707859336878 -0.0015718840159147341 0 -0.051549264113238659 0.0011463774290146583 0 -0.05000005760880024 -0.0013557801747313386 0 -0.051584923528500026 0.00037871824493601066 0 -0.049999791810282107 0.0002924733836056593 0 -0.052947280506461546 0.00066297712339593467 0 -0.05172707859336878 -0.0015718840159147341 0 -0.051549264113238659 0.0011463774290146583 0 -0.049999260832848433 -0.0013535340248938764 0 -0.05172707859336878 -0.0015718840159147341 0 -0.049999661273701208 -0.0043277776652524249 0 -0.05172707859336878 -0.0015718840159147341 0 -0.049999661273701208 -0.0043277776652524249 0 -0.052208633230190982 -0.0045064136783023543 0 -0.053933677156794264 -0.0011022587575487118 0 -0.05172707859336878 -0.0015718840159147341 0 -0.052208633230190982 -0.0045064136783023543 0 -0.052208633230190982 -0.0045064136783023543 0 -0.050815866454657514 -0.0056094988108432147 0 -0.051522952478066722 -0.0071063405653067069 0 -0.049999661273701208 -0.0043277776652524249 0 -0.052208633230190982 -0.0045064136783023543 0 -0.050815866454657514 -0.0056094988108432147 0 -0.049999661273701208 -0.0043277776652524249 0 -0.050815866454657514 -0.0056094988108432147 0 -0.049999730271514609 -0.0072996237316122949 0 -0.057845919194141102 -0.0011944136611076542 0 -0.053933677156794264 -0.0011022587575487118 0 -0.055311950833069924 -0.0045078085052636828 0 -0.053933677156794264 -0.0011022587575487118 0 -0.052208633230190982 -0.0045064136783023543 0 -0.055311950833069924 -0.0045078085052636828 0 -0.052208633230190982 -0.0045064136783023543 0 -0.055311950833069924 -0.0045078085052636828 0 -0.053367642150299183 -0.0071712305166099785 0 -0.052907718382925496 -0.0085923992523008873 0 -0.05335380187289316 -0.010544209802375852 0 -0.05148324118948689 -0.01041832308137546 0 -0.053213366169304638 -0.010830477863692923 0 -0.052557338143103871 -0.0089659491710751913 0 -0.054173981302640159 -0.0069447580170571687 0 -0.052557338143103871 -0.0089659491710751913 0 -0.053377625977714616 -0.010801485648169479 0 -0.051922786078925399 -0.010959300367183126 0 -0.052157237421202381 -0.011687171999848148 0 -0.051922786078925399 -0.010959300367183126 0 -0.052157237421202381 -0.011687171999848148 0 -0.051961792666833206 -0.011847094542508442 0 -0.053377625977714616 -0.010801485648169479 0 -0.052157237421202381 -0.011687171999848148 0 -0.053400890361853012 -0.012461787788633135 0 -0.050815866454657514 -0.0056094988108432147 0 -0.049999730271514609 -0.0072996237316122949 0 -0.051522952478066722 -0.0071063405653067069 0 -0.049999997576951227 -0.0073005632102305113 0 -0.051791609376348455 -0.0074335395741321423 0 -0.050900945683666085 -0.0085564348533564757 0 -0.05000025057323812 -0.0073004410886992931 0 -0.051791464658010024 -0.0072656213000824978 0 -0.052208633230190982 -0.0045064136783023543 0 -0.053367642150299183 -0.0071712305166099785 0 -0.051522952478066722 -0.0071063405653067069 0 -0.052557338143103871 -0.0089659491710751913 0 -0.051791464658010024 -0.0072656213000824978 0 -0.052557338143103871 -0.0089659491710751913 0 -0.05156855865348231 -0.01074987312300398 0 -0.051922786078925399 -0.010959300367183126 0 -0.051379891798899083 -0.011601014622533521 0 -0.051961792666833206 -0.011847094542508442 0 -0.053558771047314643 -0.0075417539324697802 0 -0.051791609376348455 -0.0074335395741321423 0 -0.051798012845725487 -0.0097915783561124004 0 -0.050900945683666085 -0.0085564348533564757 0 -0.049999981982583971 -0.0096995494273523827 0 -0.051798012845725487 -0.0097915783561124004 0 -0.051791609376348455 -0.0074335395741321423 0 -0.050900945683666085 -0.0085564348533564757 0 -0.051798012845725487 -0.0097915783561124004 0 -0.049999997576951227 -0.0073005632102305113 0 -0.050900945683666085 -0.0085564348533564757 0 -0.049999981982583971 -0.0096995494273523827 0 -0.049999981982583971 -0.0096995494273523827 0 -0.051798012845725487 -0.0097915783561124004 0 -0.050000003323790149 -0.012098615877859634 0 -0.051379891798899083 -0.011601014622533521 0 -0.05170303138426359 -0.012471594547527417 0 -0.051961792666833206 -0.011847094542508442 0 -0.051379891798899083 -0.011601014622533521 0 -0.05170303138426359 -0.012471594547527417 0 -0.050000535117529082 -0.012100768554923105 0 -0.05156855865348231 -0.01074987312300398 0 -0.050000247912003852 -0.012098503919476302 0 -0.052157237421202381 -0.011687171999848148 0 -0.053400890361853012 -0.012461787788633135 0 -0.052579975024285019 -0.013174777617630638 0 -0.053400890361853012 -0.012461787788633135 0 -0.052579975024285019 -0.013174777617630638 0 -0.053000176321728099 -0.014337309431027173 0 -0.052157237421202381 -0.011687171999848148 0 -0.052579975024285019 -0.013174777617630638 0 -0.051753675473721096 -0.014215055068143115 0 -0.05215785774942041 -0.011821056475851513 0 -0.052116131395333803 -0.013225179550447856 0 -0.052157237421202381 -0.011687171999848148 0 -0.051961792666833206 -0.011847094542508442 0 -0.052421129948584083 -0.012228061324825814 0 -0.05170303138426359 -0.012471594547527417 0 -0.051961792666833206 -0.011847094542508442 0 -0.052421129948584083 -0.012228061324825814 0 -0.052797410821176366 -0.013822798255477014 0 -0.05170303138426359 -0.012471594547527417 0 -0.052421129948584083 -0.012228061324825814 0 -0.052762453238075359 -0.015411454798283238 0 -0.051753675473721096 -0.014215055068143115 0 -0.053000176321728099 -0.014337309431027173 0 -0.052762453238075359 -0.015411454798283238 0 -0.053000176321728099 -0.014337309431027173 0 -0.053543345773012625 -0.015004397892106445 0 -0.052579975024285019 -0.013174777617630638 0 -0.051753675473721096 -0.014215055068143115 0 -0.053000176321728099 -0.014337309431027173 0 -0.053000176321728099 -0.014337309431027173 0 -0.053543345773012625 -0.015004397892106445 0 -0.053717291643300427 -0.01449936135986904 0 -0.053543345773012625 -0.015004397892106445 0 -0.053717291643300427 -0.01449936135986904 0 -0.054103557086453639 -0.015162747164981099 0 -0.053400890361853012 -0.012461787788633135 0 -0.054784678613340916 -0.01315562702904512 0 -0.054505241105546109 -0.011845305042550906 0 -0.053092767412238243 -0.014323629519506446 0 -0.054142927832756066 -0.01387322087143195 0 -0.053400890361853012 -0.012461787788633135 0 -0.053000176321728099 -0.014337309431027173 0 -0.054784678613340916 -0.01315562702904512 0 -0.054142927832756066 -0.01387322087143195 0 -0.055425448882574217 -0.013269744982591916 0 -0.054784678613340916 -0.01315562702904512 0 -0.056298366439990581 -0.012273113108388646 0 -0.054505241105546109 -0.011845305042550906 0 -0.053717291643300427 -0.01449936135986904 0 -0.054170747347951936 -0.01479191005975522 0 -0.05411964807447539 -0.014520458289909378 0 -0.053717291643300427 -0.01449936135986904 0 -0.054103557086453639 -0.015162747164981099 0 -0.054170747347951936 -0.01479191005975522 0 -0.054420550787682223 -0.015258886885117961 0 -0.054170747347951936 -0.01479191005975522 0 -0.054317159953275913 -0.014844392204436781 0 -0.054420550787682223 -0.015258886885117961 0 -0.054103557086453639 -0.015162747164981099 0 -0.054170747347951936 -0.01479191005975522 0 -0.054601003537890616 -0.015315602591176595 0 -0.054217945120797369 -0.014874175451464477 0 -0.054317159953275913 -0.014844392204436781 0 -0.054420550787682223 -0.015258886885117961 0 -0.054601003537890616 -0.015315602591176595 0 -0.054317159953275913 -0.014844392204436781 0 -0.054217945120797369 -0.014874175451464477 0 -0.054317159953275913 -0.014844392204436781 0 -0.054001288331818852 -0.014890679370270513 0 -0.054093797204134354 -0.01531939674833877 0 -0.055093638737488168 -0.013541238451963422 0 -0.054317159953275913 -0.014844392204436781 0 -0.054001288331818852 -0.014890679370270513 0 -0.054049459074793457 -0.015065536545428849 0 -0.054317159953275913 -0.014844392204436781 0 -0.05411964807447539 -0.014520458289909378 0 -0.054418060702333862 -0.014369998920002311 0 -0.054170747347951936 -0.01479191005975522 0 -0.054317159953275913 -0.014844392204436781 0 -0.05411964807447539 -0.014520458289909378 0 -0.055425448882574217 -0.013269744982591916 0 -0.055093638737488168 -0.013541238451963422 0 -0.056298366439990581 -0.012273113108388646 0 -0.057226918722714466 -0.010912600437683813 0 -0.055347964748042489 -0.01087003961725134 0 -0.056298366439990581 -0.012273113108388646 0 -0.057226918722714466 -0.010912600437683813 0 -0.057884477673666015 -0.01142349997341255 0 -0.054001288331818852 -0.014890679370270513 0 -0.053827983282591231 -0.015022404642383002 0 -0.054049459074793457 -0.015065536545428849 0 -0.05312889527595125 -0.015365979997961609 0 -0.055093638737488168 -0.013541238451963422 0 -0.05360922409913825 -0.015206340675425084 0 -0.053827983282591231 -0.015022404642383002 0 -0.054049459074793457 -0.015065536545428849 0 -0.058079594361264329 -0.0090913581522685371 0 -0.057884477673666015 -0.01142349997341255 0 -0.057237717015155808 -0.0098658014277725383 0 -0.055996381608904938 -0.013185524860130918 0 -0.055093638737488168 -0.013541238451963422 0 -0.053582482439663993 -0.015062661725318872 0 -0.053555549413790586 -0.015010431634346346 0 -0.053509458535018373 -0.015231169157897632 0 -0.053582482439663993 -0.015062661725318872 0 -0.05360922409913825 -0.015206340675425084 0 -0.053509458535018373 -0.015231169157897632 0 -0.057226918722714466 -0.010912600437683813 0 -0.057884477673666015 -0.01142349997341255 0 -0.057237717015155808 -0.0098658014277725383 0 -0.057226918722714466 -0.010912600437683813 0 -0.056475544849154652 -0.010184046452791421 0 -0.055256187993324379 -0.01070385506293792 0 -0.057086594244620467 -0.010902241138323405 0 -0.055369129871938011 -0.010777847736940422 0 -0.057226918722714466 -0.010912600437683813 0 -0.056475544849154652 -0.010184046452791421 0 -0.057237717015155808 -0.0098658014277725383 0 -0.056190770474377136 -0.0092589782466528589 0 -0.056475544849154652 -0.010184046452791421 0 -0.057237717015155808 -0.0098658014277725383 0 -0.056190770474377136 -0.0092589782466528589 0 -0.056475544849154652 -0.010184046452791421 0 -0.055256187993324379 -0.01070385506293792 0 -0.056190770474377136 -0.0092589782466528589 0 -0.054568614444304608 -0.0090710231787072947 0 -0.055256187993324379 -0.01070385506293792 0 -0.054568614444304608 -0.0090710231787072947 0 -0.05335380187289316 -0.010544209802375852 0 -0.055256187993324379 -0.01070385506293792 0 -0.053213366169304638 -0.010830477863692923 0 -0.055369129871938011 -0.010777847736940422 0 -0.053377625977714616 -0.010801485648169479 0 -0.055347964748042489 -0.01087003961725134 0 -0.054505241105546109 -0.011845305042550906 0 -0.053377625977714616 -0.010801485648169479 0 -0.053400890361853012 -0.012461787788633135 0 -0.054505241105546109 -0.011845305042550906 0 -0.056298366439990581 -0.012273113108388646 0 -0.055347964748042489 -0.01087003961725134 0 -0.054505241105546109 -0.011845305042550906 0 -0.016122204041628247 0.0042211751421234811 0 -0.01632793819252094 0.003281032082054896 0 -0.017361314850023506 0.0054299508584477818 0 -0.01612288592952919 0.0043716886256958435 0 -0.016787049496656603 0.0060720548543821227 0 -0.017575392693648315 0.0046395568696060716 0 -0.017361314850023506 0.0054299508584477818 0 -0.01612288592952919 0.0043716886256958435 0 -0.016851409422443352 0.0034438427196762859 0 -0.01612288592952919 0.0043716886256958435 0 -0.015558336206117346 0.0012107865674533 0 -0.016851409422443352 0.0034438427196762859 0 -0.017163055323681117 -2.8458944158835134e-05 0 -0.018791738328596871 0.0026628377542273866 0 -0.016851409422443352 0.0034438427196762859 0 -0.015558336206117346 0.0012107865674533 0 -0.017163055323681117 -2.8458944158835134e-05 0 -0.016851409422443352 0.0034438427196762859 0 -0.017082958756694331 0.0053121638262383841 0 -0.016265102893187919 0.0048390891565078809 0 -0.016851409422443352 0.0034438427196762859 0 -0.017082958756694331 0.0053121638262383841 0 -0.018023220028560751 0.0044867358909655569 0 -0.017082958756694331 0.0053121638262383841 0 -0.018023220028560751 0.0044867358909655569 0 -0.01822082103581546 0.006036871298312302 0 -0.017082958756694331 0.0053121638262383841 0 -0.016265102893187919 0.0048390891565078809 0 -0.01620511995556519 0.0062316313461273304 0 -0.016265102893187919 0.0048390891565078809 0 -0.015497635108555671 0.0048212107607644387 0 -0.01620511995556519 0.0062316313461273304 0 -0.016851409422443352 0.0034438427196762859 0 -0.016265102893187919 0.0048390891565078809 0 -0.01612288592952919 0.0043716886256958435 0 -0.016265102893187919 0.0048390891565078809 0 -0.01612288592952919 0.0043716886256958435 0 -0.015497635108555671 0.0048212107607644387 0 -0.017469734235509266 0.0050220752133533749 0 -0.016761822138834051 0.0033819514144564455 0 -0.017575392693648315 0.0046395568696060716 0 -0.01612288592952919 0.0043716886256958435 0 -0.015497635108555671 0.0048212107607644387 0 -0.017575392693648315 0.0046395568696060716 0 -0.018145867826735548 0.0029382957199272728 0 -0.018649348851438929 0.0035421093959263385 0 -0.018145867826735548 0.0029382957199272728 0 -0.01870480371425616 0.0027352767815857792 0 -0.018649348851438929 0.0035421093959263385 0 -0.01870480371425616 0.0027352767815857792 0 -0.019567007111043179 0.0033952086157411176 0 -0.018649348851438929 0.0035421093959263385 0 -0.01870480371425616 0.0027352767815857792 0 -0.019567007111043179 0.0033952086157411176 0 -0.019412036149572303 0.0022794680025689366 0 -0.019567007111043179 0.0033952086157411176 0 -0.02132283721282871 0.0034086027129428091 0 -0.019412036149572303 0.0022794680025689366 0 -0.019567007111043179 0.0033952086157411176 0 -0.020214068286510303 0.0042708988510592885 0 -0.019307229034344522 0.0043160151275814605 0 -0.019567007111043179 0.0033952086157411176 0 -0.018649348851438929 0.0035421093959263385 0 -0.019307229034344522 0.0043160151275814605 0 -0.017575392693648315 0.0046395568696060716 0 -0.018649348851438929 0.0035421093959263385 0 -0.019307229034344522 0.0043160151275814605 0 -0.024049874509145811 0.011718071310367242 0 -0.021481713262461875 0.010904990134597531 0 -0.02463836954559857 0.02006845886586035 0 -0.02431478480119326 0.019297444741833827 0 -0.022858079936583984 0.019252080043079194 0 -0.023308580138391734 0.0031837435795478769 0 -0.02132283721282871 0.0034086027129428091 0 -0.019412036149572303 0.0022794680025689366 0 -0.02132283721282871 0.0034086027129428091 0 -0.020214068286510303 0.0042708988510592885 0 -0.020779966723481327 0.0050497026072635481 0 -0.019567007111043179 0.0033952086157411176 0 -0.02132283721282871 0.0034086027129428091 0 -0.020214068286510303 0.0042708988510592885 0 -0.021295844481409292 0.003476389819703015 0 -0.021777414533553099 0.0057805493076148818 0 -0.023308580138391734 0.0031837435795478769 0 -0.02132283721282871 0.0034086027129428091 0 -0.022899491045134349 0.0045494864383883666 0 -0.02132283721282871 0.0034086027129428091 0 -0.022899491045134349 0.0045494864383883666 0 -0.022447122512441468 0.0060713213341016658 0 -0.022899491045134349 0.0045494864383883666 0 -0.022447122512441468 0.0060713213341016658 0 -0.024548555070011316 0.0054685979087418825 0 -0.020214068286510303 0.0042708988510592885 0 -0.020779966723481327 0.0050497026072635481 0 -0.019851667438244205 0.0049345840728548329 0 -0.020779966723481327 0.0050497026072635481 0 -0.019851667438244205 0.0049345840728548329 0 -0.019775443742213281 0.0056146209717835901 0 -0.020779966723481327 0.0050497026072635481 0 -0.019775443742213281 0.0056146209717835901 0 -0.021098420496532815 0.00683803768870725 0 -0.021777414533553099 0.0057805493076148818 0 -0.024422394507852042 0.0053442987680928991 0 -0.022447122512441468 0.0060713213341016658 0 -0.023905045709724765 0.0072502219647797017 0 -0.024548555070011316 0.0054685979087418825 0 -0.022447122512441468 0.0060713213341016658 0 -0.023104745015476782 0.0090518336862556743 0 -0.023905045709724765 0.0072502219647797017 0 -0.017575392693648315 0.0046395568696060716 0 -0.019307229034344522 0.0043160151275814605 0 -0.018778127428762857 0.005473821750086906 0 -0.019851667438244205 0.0049345840728548329 0 -0.019307229034344522 0.0043160151275814605 0 -0.018778127428762857 0.005473821750086906 0 -0.020214068286510303 0.0042708988510592885 0 -0.019851667438244205 0.0049345840728548329 0 -0.019307229034344522 0.0043160151275814605 0 -0.019775443742213281 0.0056146209717835901 0 -0.018778127428762857 0.005473821750086906 0 -0.018875702596903316 0.0062821694317014799 0 -0.019851667438244205 0.0049345840728548329 0 -0.019775443742213281 0.0056146209717835901 0 -0.018778127428762857 0.005473821750086906 0 -0.017575392693648315 0.0046395568696060716 0 -0.017361314850023506 0.0054299508584477818 0 -0.018778127428762857 0.005473821750086906 0 -0.017361314850023506 0.0054299508584477818 0 -0.018778127428762857 0.005473821750086906 0 -0.017894777873719767 0.0062522171188671843 0 -0.018875702596903316 0.0062821694317014799 0 -0.019838659065791645 0.0066170170473591298 0 -0.018156742203825009 0.0071228107441239606 0 -0.018778127428762857 0.005473821750086906 0 -0.017894777873719767 0.0062522171188671843 0 -0.018875702596903316 0.0062821694317014799 0 -0.02259444534200216 0.0016735029485818826 0 -0.022010593911649324 -0.0017383562399936325 0 -0.017894777873719767 0.0062522171188671843 0 -0.018875702596903316 0.0062821694317014799 0 -0.018156742203825009 0.0071228107441239606 0 -0.025452091166087376 0.0028616343798626249 0 -0.027054750532584465 0.001896299778949753 0 -0.024392053357110238 -0.0029407902805628702 0 -0.020674223128833276 0.0066432263116713098 0 -0.02259444534200216 0.0016735029485818826 0 -0.019775443742213281 0.0056146209717835901 0 -0.018875702596903316 0.0062821694317014799 0 -0.019838659065791645 0.0066170170473591298 0 -0.019775443742213281 0.0056146209717835901 0 -0.021098420496532815 0.00683803768870725 0 -0.02041008261055759 0.0072391012725904246 0 -0.024422394507852042 0.0053442987680928991 0 -0.02259444534200216 0.0016735029485818826 0 -0.024204231152718553 -0.01065918518115209 0 -0.02483010425143569 -0.010182450023961537 0 -0.025062571339068512 -0.010942008323569907 0 -0.02259444534200216 0.0016735029485818826 0 -0.024521385085044714 -0.0080919801595240679 0 -0.024422394507852042 0.0053442987680928991 0 -0.027164748291877074 -0.00011266705965371503 0 -0.024512096111642467 -0.0093494319587346889 0 -0.024204231152718553 -0.01065918518115209 0 -0.02483010425143569 -0.010182450023961537 0 -0.027054750532584465 0.001896299778949753 0 -0.025191006394933262 -0.0034214573011394616 0 -0.024392053357110238 -0.0029407902805628702 0 -0.025606829831781721 -0.010027977224206315 0 -0.025912235299670346 -0.011101239069237922 0 -0.025062571339068512 -0.010942008323569907 0 -0.024512096111642467 -0.0093494319587346889 0 -0.02483010425143569 -0.010182450023961537 0 -0.025606829831781721 -0.010027977224206315 0 -0.02483010425143569 -0.010182450023961537 0 -0.025606829831781721 -0.010027977224206315 0 -0.025062571339068512 -0.010942008323569907 0 -0.022010593911649324 -0.0017383562399936325 0 -0.022295358855688018 -0.0016837859137103243 0 -0.025606829831781721 -0.010027977224206315 0 -0.02683670979014131 -0.010556718099743871 0 -0.025912235299670346 -0.011101239069237922 0 -0.018156742203825009 0.0071228107441239606 0 -0.017332609130744744 0.0067710757839455262 0 -0.017180871855292393 0.0070235089944457882 0 -0.017361314850023506 0.0054299508584477818 0 -0.017894777873719767 0.0062522171188671843 0 -0.016787049496656603 0.0060720548543821227 0 -0.017894777873719767 0.0062522171188671843 0 -0.018156742203825009 0.0071228107441239606 0 -0.017332609130744744 0.0067710757839455262 0 -0.017894777873719767 0.0062522171188671843 0 -0.017332609130744744 0.0067710757839455262 0 -0.016787049496656603 0.0060720548543821227 0 -0.015558336206117346 0.0012107865674533 0 -0.017163055323681117 -2.8458944158835134e-05 0 -0.015988810676681883 -0.0024558958573463394 0 -0.017332609130744744 0.0067710757839455262 0 -0.016787049496656603 0.0060720548543821227 0 -0.017030492933723551 0.0069046431930435024 0 -0.01632793819252094 0.003281032082054896 0 -0.016041888003616681 0.0032104499621148789 0 -0.017163055323681117 -2.8458944158835134e-05 0 -0.015988810676681883 -0.0024558958573463394 0 -0.017311714087807184 -0.002953430490791718 0 -0.017332609130744744 0.0067710757839455262 0 -0.017030492933723551 0.0069046431930435024 0 -0.017180871855292393 0.0070235089944457882 0 -0.015988810676681883 -0.0024558958573463394 0 -0.017311714087807184 -0.002953430490791718 0 -0.017169443879535191 -0.0044424783689548959 0 -0.017311714087807184 -0.002953430490791718 0 -0.018381714117603667 -0.0019889563384986879 0 -0.018225155640710013 -0.0040677365982566037 0 -0.017163055323681117 -2.8458944158835134e-05 0 -0.017311714087807184 -0.002953430490791718 0 -0.018381714117603667 -0.0019889563384986879 0 -0.017311714087807184 -0.002953430490791718 0 -0.018225155640710013 -0.0040677365982566037 0 -0.017169443879535191 -0.0044424783689548959 0 -0.018381714117603667 -0.0019889563384986879 0 -0.019542477003825779 -0.0029107589544603526 0 -0.019741647853956858 -1.3579554671660173e-05 0 -0.018381714117603667 -0.0019889563384986879 0 -0.018225155640710013 -0.0040677365982566037 0 -0.019542477003825779 -0.0029107589544603526 0 -0.021460056024127625 -0.001986469998901634 0 -0.019542477003825779 -0.0029107589544603526 0 -0.019741647853956858 -1.3579554671660173e-05 0 -0.018225155640710013 -0.0040677365982566037 0 -0.019542477003825779 -0.0029107589544603526 0 -0.019113659763093115 -0.0051786836844343693 0 -0.020896435230029035 -0.0042418201264467614 0 -0.019542477003825779 -0.0029107589544603526 0 -0.019113659763093115 -0.0051786836844343693 0 -0.020896435230029035 -0.0042418201264467614 0 -0.021460056024127625 -0.001986469998901634 0 -0.019542477003825779 -0.0029107589544603526 0 -0.021864508805138103 0.00038097132051710534 0 -0.019741647853956858 -1.3579554671660173e-05 0 -0.021814992444149538 0.0028936385014735415 0 -0.021460056024127625 -0.001986469998901634 0 -0.021864508805138103 0.00038097132051710534 0 -0.019741647853956858 -1.3579554671660173e-05 0 -0.017163055323681117 -2.8458944158835134e-05 0 -0.019741647853956858 -1.3579554671660173e-05 0 -0.018791738328596871 0.0026628377542273866 0 -0.017163055323681117 -2.8458944158835134e-05 0 -0.018381714117603667 -0.0019889563384986879 0 -0.019741647853956858 -1.3579554671660173e-05 0 -0.021662795093477731 -0.0098321980210644647 0 -0.025003411066402893 -0.008497968324783561 0 -0.021536992804089383 -0.0098773227329887799 0 -0.022596712728824412 -0.010882548530072757 0 -0.022811397224512846 -0.0095421262600681855 0 -0.021536992804089383 -0.0098773227329887799 0 -0.023354270624411897 -0.006712612038001998 0 -0.026455954760187896 -0.0073975953530184529 0 -0.022773482046688501 -0.0018342982521758206 0 -0.021810015688372739 -0.0080464922128588856 0 -0.021536992804089383 -0.0098773227329887799 0 -0.021169074434642044 -0.0042267254488673354 0 -0.020147638514934004 -0.01121386888970514 0 -0.021460056024127625 -0.001986469998901634 0 -0.024303688495738857 0.00063979691309910391 0 -0.023606215255887256 -0.0049280664200115707 0 -0.020896435230029035 -0.0042418201264467614 0 -0.021460056024127625 -0.001986469998901634 0 -0.023606215255887256 -0.0049280664200115707 0 -0.021460056024127625 -0.001986469998901634 0 -0.021864508805138103 0.00038097132051710534 0 -0.024303688495738857 0.00063979691309910391 0 -0.021169074434642044 -0.0042267254488673354 0 -0.025097153299172528 -0.0047276223160982178 0 -0.026449747492908026 -0.0010392358103021805 0 -0.021536992804089383 -0.0098773227329887799 0 -0.021169074434642044 -0.0042267254488673354 0 -0.023354270624411897 -0.006712612038001998 0 -0.021169074434642044 -0.0042267254488673354 0 -0.023354270624411897 -0.006712612038001998 0 -0.025097153299172528 -0.0047276223160982178 0 -0.023354270624411897 -0.006712612038001998 0 -0.025097153299172528 -0.0047276223160982178 0 -0.026455954760187896 -0.0073975953530184529 0 -0.021169074434642044 -0.0042267254488673354 0 -0.023050806131678116 0.0029767236470752143 0 -0.026449747492908026 -0.0010392358103021805 0 -0.022773482046688501 -0.0018342982521758206 0 -0.024023765744232744 0.0040492410125501678 0 -0.024303688495738857 0.00063979691309910391 0 -0.024966061713838163 0.005139025412856723 0 -0.021814992444149538 0.0028936385014735415 0 -0.021864508805138103 0.00038097132051710534 0 -0.024303688495738857 0.00063979691309910391 0 -0.021814992444149538 0.0028936385014735415 0 -0.024966061713838163 0.005139025412856723 0 -0.022169987781493816 0.0054922425700640962 0 -0.023231142151513041 0.0073035998678098388 0 -0.024966061713838163 0.005139025412856723 0 -0.021814992444149538 0.0028936385014735415 0 -0.022169987781493816 0.0054922425700640962 0 -0.023050806131678116 0.0029767236470752143 0 -0.026449747492908026 -0.0010392358103021805 0 -0.026975191083944132 0.0049654750019756102 0 -0.016851409422443352 0.0034438427196762859 0 -0.018791738328596871 0.0026628377542273866 0 -0.018023220028560751 0.0044867358909655569 0 -0.018791738328596871 0.0026628377542273866 0 -0.021814992444149538 0.0028936385014735415 0 -0.019639010125822039 0.0049179998804239951 0 -0.019741647853956858 -1.3579554671660173e-05 0 -0.018791738328596871 0.0026628377542273866 0 -0.021814992444149538 0.0028936385014735415 0 -0.021814992444149538 0.0028936385014735415 0 -0.022169987781493816 0.0054922425700640962 0 -0.019639010125822039 0.0049179998804239951 0 -0.022169987781493816 0.0054922425700640962 0 -0.019639010125822039 0.0049179998804239951 0 -0.021281345812010261 0.0071521922623402822 0 -0.018791738328596871 0.0026628377542273866 0 -0.019639010125822039 0.0049179998804239951 0 -0.018023220028560751 0.0044867358909655569 0 -0.019639010125822039 0.0049179998804239951 0 -0.018023220028560751 0.0044867358909655569 0 -0.01822082103581546 0.006036871298312302 0 -0.01822082103581546 0.006036871298312302 0 -0.018249509423960333 0.0076011714456972867 0 -0.01951887638941565 0.006911272359865296 0 -0.018249509423960333 0.0076011714456972867 0 -0.01951887638941565 0.006911272359865296 0 -0.019759520022209841 0.0087689541791427742 0 -0.01951887638941565 0.006911272359865296 0 -0.021281345812010261 0.0071521922623402822 0 -0.019759520022209841 0.0087689541791427742 0 -0.019639010125822039 0.0049179998804239951 0 -0.01822082103581546 0.006036871298312302 0 -0.01951887638941565 0.006911272359865296 0 -0.019639010125822039 0.0049179998804239951 0 -0.01951887638941565 0.006911272359865296 0 -0.021281345812010261 0.0071521922623402822 0 -0.021281345812010261 0.0071521922623402822 0 -0.023231142151513041 0.0073035998678098388 0 -0.022665945078705483 0.0097501993288024707 0 -0.022169987781493816 0.0054922425700640962 0 -0.021281345812010261 0.0071521922623402822 0 -0.023231142151513041 0.0073035998678098388 0 -0.021281345812010261 0.0071521922623402822 0 -0.019759520022209841 0.0087689541791427742 0 -0.022665945078705483 0.0097501993288024707 0 -0.019759520022209841 0.0087689541791427742 0 -0.022665945078705483 0.0097501993288024707 0 -0.01979170160139692 0.011260086555312965 0 -0.019759520022209841 0.0087689541791427742 0 -0.01979170160139692 0.011260086555312965 0 -0.017292607749333264 0.0095315023308163594 0 -0.018249509423960333 0.0076011714456972867 0 -0.019759520022209841 0.0087689541791427742 0 -0.017292607749333264 0.0095315023308163594 0 -0.023050806131678116 0.0029767236470752143 0 -0.025345452618649407 0.0092591149654989591 0 -0.026975191083944132 0.0049654750019756102 0 -0.024023765744232744 0.0040492410125501678 0 -0.025223800590664168 0.0089564048759784246 0 -0.024966061713838163 0.005139025412856723 0 -0.023231142151513041 0.0073035998678098388 0 -0.025345452618649407 0.0092591149654989591 0 -0.023231142151513041 0.0073035998678098388 0 -0.022665945078705483 0.0097501993288024707 0 -0.025345452618649407 0.0092591149654989591 0 -0.022665945078705483 0.0097501993288024707 0 -0.025345452618649407 0.0092591149654989591 0 -0.023370735078224531 0.01188886567870783 0 -0.025345452618649407 0.0092591149654989591 0 -0.026690500246312778 0.01254355307268528 0 -0.028270267832224506 0.011561615080470333 0 -0.025345452618649407 0.0092591149654989591 0 -0.026690500246312778 0.01254355307268528 0 -0.024928550085123024 0.013081997532514463 0 -0.025345452618649407 0.0092591149654989591 0 -0.024928550085123024 0.013081997532514463 0 -0.023370735078224531 0.01188886567870783 0 -0.024928550085123024 0.013081997532514463 0 -0.023370735078224531 0.01188886567870783 0 -0.023045034279456294 0.014045655676191865 0 -0.023370735078224531 0.01188886567870783 0 -0.023045034279456294 0.014045655676191865 0 -0.021776266367684184 0.013135088419111565 0 -0.023045034279456294 0.014045655676191865 0 -0.024658053860479645 0.014773711439843528 0 -0.022680762452457395 0.015920517984960535 0 -0.024928550085123024 0.013081997532514463 0 -0.023045034279456294 0.014045655676191865 0 -0.024658053860479645 0.014773711439843528 0 -0.024928550085123024 0.013081997532514463 0 -0.024658053860479645 0.014773711439843528 0 -0.026450037945204417 0.014420381797048023 0 -0.024658053860479645 0.014773711439843528 0 -0.026450037945204417 0.014420381797048023 0 -0.026178480758981687 0.016338923054909804 0 -0.026690500246312778 0.01254355307268528 0 -0.024928550085123024 0.013081997532514463 0 -0.026450037945204417 0.014420381797048023 0 -0.02180244278053611 0.013299307711640602 0 -0.019973277786439352 0.014066878943578665 0 -0.01979170160139692 0.011260086555312965 0 -0.018959781852970689 0.013435486603159331 0 -0.017505615581444912 0.011903545665370214 0 -0.01979170160139692 0.011260086555312965 0 -0.017505615581444912 0.011903545665370214 0 -0.017292607749333264 0.0095315023308163594 0 -0.01979170160139692 0.011260086555312965 0 -0.021776266367684184 0.013135088419111565 0 -0.018959781852970689 0.013435486603159331 0 -0.022665945078705483 0.0097501993288024707 0 -0.01979170160139692 0.011260086555312965 0 -0.021776266367684184 0.013135088419111565 0 -0.022665945078705483 0.0097501993288024707 0 -0.023370735078224531 0.01188886567870783 0 -0.021776266367684184 0.013135088419111565 0 -0.023045034279456294 0.014045655676191865 0 -0.021540524214185765 0.014877662338265648 0 -0.022680762452457395 0.015920517984960535 0 -0.023045034279456294 0.014045655676191865 0 -0.021776266367684184 0.013135088419111565 0 -0.021540524214185765 0.014877662338265648 0 -0.021776266367684184 0.013135088419111565 0 -0.021540524214185765 0.014877662338265648 0 -0.021092680359634696 0.014754945102092651 0 -0.021540524214185765 0.014877662338265648 0 -0.021115683865573477 0.015409526348242206 0 -0.02101486653152226 0.015539647193526357 0 -0.021540524214185765 0.014877662338265648 0 -0.021092680359634696 0.014754945102092651 0 -0.021115683865573477 0.015409526348242206 0 -0.019973277786439352 0.014066878943578665 0 -0.019847854967112787 0.015033719540025331 0 -0.018959781852970689 0.013435486603159331 0 -0.016295966583521688 0.014008462799208102 0 -0.017505615581444912 0.011903545665370214 0 -0.021115683865573477 0.015409526348242206 0 -0.021313546888456453 0.015912511377765091 0 -0.021095798387597516 0.015579283780353746 0 -0.021092680359634696 0.014754945102092651 0 -0.021115683865573477 0.015409526348242206 0 -0.021095798387597516 0.015579283780353746 0 -0.021313546888456453 0.015912511377765091 0 -0.021498958212285108 0.016286785802449081 0 -0.021676692662828515 0.016311677787462099 0 -0.020742477567720727 0.016050295888031411 0 -0.019847854967112787 0.015033719540025331 0 -0.021498958212285108 0.016286785802449081 0 -0.021676692662828515 0.016311677787462099 0 -0.021759327728429947 0.016586512067622843 0 -0.019847854967112787 0.015033719540025331 0 -0.022461725305163941 0.016293759156474425 0 -0.021183285038490807 0.016008810084482794 0 -0.022279271416340795 0.016260330706970066 0 -0.021915284174739445 0.016639044601954214 0 -0.021183285038490807 0.016008810084482794 0 -0.022279271416340795 0.016260330706970066 0 -0.022567271899920211 0.01571823218131203 0 -0.021676692662828515 0.016311677787462099 0 -0.021759327728429947 0.016586512067622843 0 -0.021746361795797364 0.016432850178797816 0 -0.021183285038490807 0.016008810084482794 0 -0.021915284174739445 0.016639044601954214 0 -0.021457483499771796 0.017192303314941326 0 -0.021915284174739445 0.016639044601954214 0 -0.022238733962460702 0.017138527690980593 0 -0.022413460546731857 0.016649492318249613 0 -0.022279271416340795 0.016260330706970066 0 -0.021915284174739445 0.016639044601954214 0 -0.022413460546731857 0.016649492318249613 0 -0.021915284174739445 0.016639044601954214 0 -0.021457483499771796 0.017192303314941326 0 -0.022238733962460702 0.017138527690980593 0 -0.016295966583521688 0.014008462799208102 0 -0.01551252418506594 0.010806755533241496 0 -0.017505615581444912 0.011903545665370214 0 -0.019847854967112787 0.015033719540025331 0 -0.018463960351094804 0.014588095607092491 0 -0.01551252418506594 0.010806755533241496 0 -0.017505615581444912 0.011903545665370214 0 -0.017292607749333264 0.0095315023308163594 0 -0.01551252418506594 0.010806755533241496 0 -0.017292607749333264 0.0095315023308163594 0 -0.015946838673066781 0.0078704132374271193 0 -0.017292607749333264 0.0095315023308163594 0 -0.015946838673066781 0.0078704132374271193 0 -0.017050862874432242 0.0070992393994595187 0 -0.021457483499771796 0.017192303314941326 0 -0.021886107233268084 0.017667932615681416 0 -0.021437506998803604 0.018389150875258289 0 -0.01551252418506594 0.010806755533241496 0 -0.015946838673066781 0.0078704132374271193 0 -0.014844168372480799 0.007354590680669521 0 -0.018463960351094804 0.014588095607092491 0 -0.018701089502157552 0.0095044240493762071 0 -0.021457483499771796 0.017192303314941326 0 -0.022238733962460702 0.017138527690980593 0 -0.021886107233268084 0.017667932615681416 0 -0.022238733962460702 0.017138527690980593 0 -0.021886107233268084 0.017667932615681416 0 -0.022368681850992105 0.017735016543360484 0 -0.021886107233268084 0.017667932615681416 0 -0.021973300042384729 0.018071162460511485 0 -0.021437506998803604 0.018389150875258289 0 -0.021886107233268084 0.017667932615681416 0 -0.021973300042384729 0.018071162460511485 0 -0.022368681850992105 0.017735016543360484 0 -0.015946838673066781 0.0078704132374271193 0 -0.01523596549717934 0.0072218784072882632 0 -0.01620511995556519 0.0062316313461273304 0 -0.015873467281361544 0.0080121067470478018 0 -0.018701089502157552 0.0095044240493762071 0 -0.021973300042384729 0.018071162460511485 0 -0.021437506998803604 0.018389150875258289 0 -0.022411594245325205 0.018389952042905219 0 -0.016761822138834051 0.0033819514144564455 0 -0.018701089502157552 0.0095044240493762071 0 -0.018145867826735548 0.0029382957199272728 0 -0.01870480371425616 0.0027352767815857792 0 -0.0183133043937811 0.0022812947217911821 0 -0.015497635108555671 0.0048212107607644387 0 -0.01523596549717934 0.0072218784072882632 0 -0.01620511995556519 0.0062316313461273304 0 -0.017082958756694331 0.0053121638262383841 0 -0.01620511995556519 0.0062316313461273304 0 -0.017050862874432242 0.0070992393994595187 0 -0.017082958756694331 0.0053121638262383841 0 -0.01822082103581546 0.006036871298312302 0 -0.017050862874432242 0.0070992393994595187 0 -0.01822082103581546 0.006036871298312302 0 -0.018249509423960333 0.0076011714456972867 0 -0.017050862874432242 0.0070992393994595187 0 -0.018249509423960333 0.0076011714456972867 0 -0.017292607749333264 0.0095315023308163594 0 -0.017050862874432242 0.0070992393994595187 0 -0.015946838673066781 0.0078704132374271193 0 -0.01620511995556519 0.0062316313461273304 0 -0.017050862874432242 0.0070992393994595187 0 -0.023786372898355175 0.018712957303912724 0 -0.02431478480119326 0.019297444741833827 0 -0.022858079936583984 0.019252080043079194 0 -0.023786372898355175 0.018712957303912724 0 -0.023217118139732422 0.018393213722979283 0 -0.023867155163343829 0.018106949279735458 0 -0.023786372898355175 0.018712957303912724 0 -0.024533407672000369 0.01862517638978187 0 -0.02431478480119326 0.019297444741833827 0 -0.023786372898355175 0.018712957303912724 0 -0.024533407672000369 0.01862517638978187 0 -0.023867155163343829 0.018106949279735458 0 -0.018701089502157552 0.0095044240493762071 0 -0.021481713262461875 0.010904990134597531 0 -0.01870480371425616 0.0027352767815857792 0 -0.0183133043937811 0.0022812947217911821 0 -0.019412036149572303 0.0022794680025689366 0 -0.021437506998803604 0.018389150875258289 0 -0.022858079936583984 0.019252080043079194 0 -0.022411594245325205 0.018389952042905219 0 -0.022858079936583984 0.019252080043079194 0 -0.022411594245325205 0.018389952042905219 0 -0.023217118139732422 0.018393213722979283 0 -0.023786372898355175 0.018712957303912724 0 -0.022858079936583984 0.019252080043079194 0 -0.023217118139732422 0.018393213722979283 0 -0.022411594245325205 0.018389952042905219 0 -0.023217118139732422 0.018393213722979283 0 -0.023022979402528371 0.017843486614514414 0 -0.022411594245325205 0.018389952042905219 0 -0.023022979402528371 0.017843486614514414 0 -0.022368681850992105 0.017735016543360484 0 -0.021973300042384729 0.018071162460511485 0 -0.022411594245325205 0.018389952042905219 0 -0.022368681850992105 0.017735016543360484 0 -0.022238733962460702 0.017138527690980593 0 -0.022368681850992105 0.017735016543360484 0 -0.02295620488297697 0.017295940130599079 0 -0.023022979402528371 0.017843486614514414 0 -0.022368681850992105 0.017735016543360484 0 -0.02295620488297697 0.017295940130599079 0 -0.023022979402528371 0.017843486614514414 0 -0.02295620488297697 0.017295940130599079 0 -0.023764953431227892 0.017459527285171049 0 -0.023217118139732422 0.018393213722979283 0 -0.023022979402528371 0.017843486614514414 0 -0.023867155163343829 0.018106949279735458 0 -0.023022979402528371 0.017843486614514414 0 -0.023764953431227892 0.017459527285171049 0 -0.023867155163343829 0.018106949279735458 0 -0.024533407672000369 0.01862517638978187 0 -0.023867155163343829 0.018106949279735458 0 -0.024692349535649274 0.017792337988974873 0 -0.023764953431227892 0.017459527285171049 0 -0.023867155163343829 0.018106949279735458 0 -0.024692349535649274 0.017792337988974873 0 -0.023764953431227892 0.017459527285171049 0 -0.024757042862636153 0.016934790086542029 0 -0.024692349535649274 0.017792337988974873 0 -0.023764953431227892 0.017459527285171049 0 -0.023598000341764288 0.016858764930778817 0 -0.024757042862636153 0.016934790086542029 0 -0.02295620488297697 0.017295940130599079 0 -0.023764953431227892 0.017459527285171049 0 -0.023598000341764288 0.016858764930778817 0 -0.023598000341764288 0.016858764930778817 0 -0.024071348745609254 0.016410135813470204 0 -0.023430194374679993 0.016350780813877544 0 -0.024071348745609254 0.016410135813470204 0 -0.024769549424435103 0.015691330044629196 0 -0.024757042862636153 0.016934790086542029 0 -0.023598000341764288 0.016858764930778817 0 -0.024071348745609254 0.016410135813470204 0 -0.024757042862636153 0.016934790086542029 0 -0.022238733962460702 0.017138527690980593 0 -0.022881104127249106 0.0167993273490132 0 -0.022413460546731857 0.016649492318249613 0 -0.022238733962460702 0.017138527690980593 0 -0.02295620488297697 0.017295940130599079 0 -0.022881104127249106 0.0167993273490132 0 -0.02295620488297697 0.017295940130599079 0 -0.023598000341764288 0.016858764930778817 0 -0.022881104127249106 0.0167993273490132 0 -0.023598000341764288 0.016858764930778817 0 -0.023430194374679993 0.016350780813877544 0 -0.022881104127249106 0.0167993273490132 0 -0.023430194374679993 0.016350780813877544 0 -0.022881104127249106 0.0167993273490132 0 -0.022766624050458352 0.016411323166767793 0 -0.022881104127249106 0.0167993273490132 0 -0.022766624050458352 0.016411323166767793 0 -0.022413460546731857 0.016649492318249613 0 -0.022279271416340795 0.016260330706970066 0 -0.022766624050458352 0.016411323166767793 0 -0.022413460546731857 0.016649492318249613 0 -0.022461725305163941 0.016293759156474425 0 -0.023715380752830733 0.016628662382467518 0 -0.021759327728429947 0.016586512067622843 0 -0.022105588146706448 0.017538333106138254 0 -0.02182195284858901 0.0168761850392346 0 -0.022938293277085749 0.016125034959304823 0 -0.022567271899920211 0.01571823218131203 0 -0.025157983513147023 0.015909634860112806 0 -0.022279271416340795 0.016260330706970066 0 -0.022766624050458352 0.016411323166767793 0 -0.022938293277085749 0.016125034959304823 0 -0.022279271416340795 0.016260330706970066 0 -0.022938293277085749 0.016125034959304823 0 -0.022567271899920211 0.01571823218131203 0 -0.023430194374679993 0.016350780813877544 0 -0.022766624050458352 0.016411323166767793 0 -0.022938293277085749 0.016125034959304823 0 -0.024071348745609254 0.016410135813470204 0 -0.023430194374679993 0.016350780813877544 0 -0.024769549424435103 0.015691330044629196 0 -0.023430194374679993 0.016350780813877544 0 -0.022938293277085749 0.016125034959304823 0 -0.024769549424435103 0.015691330044629196 0 -0.022938293277085749 0.016125034959304823 0 -0.026026123940198376 0.017452995888279834 0 -0.025157983513147023 0.015909634860112806 0 -0.023169809973323591 0.016197784267015528 0 -0.02542799503759087 0.016554016506733878 0 -0.027815802399981545 0.017252216626606143 0 -0.026026123940198376 0.017452995888279834 0 -0.029622014748633959 0.017869284598910667 0 -0.02542799503759087 0.016554016506733878 0 -0.028714905563596609 0.016836353643262764 0 -0.027467335698172595 0.016587679480675924 0 -0.026026123940198376 0.017452995888279834 0 -0.025157983513147023 0.015909634860112806 0 -0.024769549424435103 0.015691330044629196 0 -0.025494966258314086 0.016490795094574542 0 -0.026609163484627184 0.016482242425262812 0 -0.027467335698172595 0.016587679480675924 0 -0.027815802399981545 0.017252216626606143 0 -0.026026123940198376 0.017452995888279834 0 -0.024769549424435103 0.015691330044629196 0 -0.025494966258314086 0.016490795094574542 0 -0.024757042862636153 0.016934790086542029 0 -0.026124703422621957 0.016904697507761409 0 -0.024757042862636153 0.016934790086542029 0 -0.026428973234162722 0.017598600889924685 0 -0.025494966258314086 0.016490795094574542 0 -0.026124703422621957 0.016904697507761409 0 -0.024757042862636153 0.016934790086542029 0 -0.025494966258314086 0.016490795094574542 0 -0.026124703422621957 0.016904697507761409 0 -0.026609163484627184 0.016482242425262812 0 -0.026753875602625692 0.017243533827012526 0 -0.028128633516303569 0.016507595095103057 0 -0.025481781318621208 0.017660897116677874 0 -0.026124703422621957 0.016904697507761409 0 -0.026753875602625692 0.017243533827012526 0 -0.026428973234162722 0.017598600889924685 0 -0.026124703422621957 0.016904697507761409 0 -0.026753875602625692 0.017243533827012526 0 -0.026609163484627184 0.016482242425262812 0 -0.026753875602625692 0.017243533827012526 0 -0.026609163484627184 0.016482242425262812 0 -0.028128633516303569 0.016507595095103057 0 -0.026609163484627184 0.016482242425262812 0 -0.027733173543162588 0.015879644518071563 0 -0.028128633516303569 0.016507595095103057 0 -0.024769549424435103 0.015691330044629196 0 -0.026609163484627184 0.016482242425262812 0 -0.027733173543162588 0.015879644518071563 0 -0.027467335698172595 0.016587679480675924 0 -0.027815802399981545 0.017252216626606143 0 -0.029095560644913691 0.016733394899634969 0 -0.027815802399981545 0.017252216626606143 0 -0.029622014748633959 0.017869284598910667 0 -0.029095560644913691 0.016733394899634969 0 -0.029622014748633959 0.017869284598910667 0 -0.029095560644913691 0.016733394899634969 0 -0.030000094928521761 0.016772192160383729 0 -0.029095560644913691 0.016733394899634969 0 -0.030000094928521761 0.016772192160383729 0 -0.030038568385812217 0.016166734190772032 0 -0.028714905563596609 0.016836353643262764 0 -0.032452957478849978 0.01688295172493693 0 -0.029622014748633959 0.017869284598910667 0 -0.030000094928521761 0.016772192160383729 0 -0.031199381161897001 0.016487403123077258 0 -0.030000094928521761 0.016772192160383729 0 -0.031199381161897001 0.016487403123077258 0 -0.030038568385812217 0.016166734190772032 0 -0.029622014748633959 0.017869284598910667 0 -0.031199381161897001 0.016487403123077258 0 -0.032819413721032732 0.016843186282749657 0 -0.027733173543162588 0.015879644518071563 0 -0.028128633516303569 0.016507595095103057 0 -0.032819413721032732 0.016843186282749657 0 -0.032819413721032732 0.016843186282749657 0 -0.034607561385142115 0.016395582692499914 0 -0.03293847025057197 0.015875357145377949 0 -0.031199381161897001 0.016487403123077258 0 -0.032819413721032732 0.016843186282749657 0 -0.03293847025057197 0.015875357145377949 0 -0.032819413721032732 0.016843186282749657 0 -0.031619445154284463 0.017938196575963062 0 -0.033331817167013889 0.018471912450308606 0 -0.028091822596563447 0.016599350820895725 0 -0.028371743134355542 0.017797503469024159 0 -0.028128633516303569 0.016507595095103057 0 -0.032819413721032732 0.016843186282749657 0 -0.031619445154284463 0.017938196575963062 0 -0.028128633516303569 0.016507595095103057 0 -0.031619445154284463 0.017938196575963062 0 -0.031533645992531237 0.019383053190956758 0 -0.031533645992531237 0.019383053190956758 0 -0.033331817167013889 0.018471912450308606 0 -0.033299502473102024 0.019452034412998327 0 -0.031619445154284463 0.017938196575963062 0 -0.031533645992531237 0.019383053190956758 0 -0.033331817167013889 0.018471912450308606 0 -0.031533645992531237 0.019383053190956758 0 -0.033299502473102024 0.019452034412998327 0 -0.032944082535949069 0.01972957229618711 0 -0.028371743134355542 0.017797503469024159 0 -0.027855932760074947 0.019286855734327889 0 -0.025481781318621208 0.017660897116677874 0 -0.024986182000710132 0.01527802496497813 0 -0.022862737129714476 0.015101307053903225 0 -0.025481781318621208 0.017660897116677874 0 -0.026576405467843157 0.016377119617773439 0 -0.024986182000710132 0.01527802496497813 0 -0.02614645522012287 0.019173019763086156 0 -0.025380151731633879 0.018480610698600998 0 -0.026428973234162722 0.017598600889924685 0 -0.024533407672000369 0.01862517638978187 0 -0.02431478480119326 0.019297444741833827 0 -0.025181615387153938 0.019259841464045545 0 -0.024533407672000369 0.01862517638978187 0 -0.025181615387153938 0.019259841464045545 0 -0.025380151731633879 0.018480610698600998 0 -0.02614645522012287 0.019173019763086156 0 -0.025181615387153938 0.019259841464045545 0 -0.025380151731633879 0.018480610698600998 0 -0.025380151731633879 0.018480610698600998 0 -0.024692349535649274 0.017792337988974873 0 -0.026428973234162722 0.017598600889924685 0 -0.024757042862636153 0.016934790086542029 0 -0.024692349535649274 0.017792337988974873 0 -0.026428973234162722 0.017598600889924685 0 -0.024533407672000369 0.01862517638978187 0 -0.025380151731633879 0.018480610698600998 0 -0.024692349535649274 0.017792337988974873 0 -0.026753875602625692 0.017243533827012526 0 -0.025481781318621208 0.017660897116677874 0 -0.026428973234162722 0.017598600889924685 0 -0.026450448516395855 0.018556038295976723 0 -0.026399928505850281 0.017276402496176714 0 -0.025481781318621208 0.017660897116677874 0 -0.026576405467843157 0.016377119617773439 0 -0.026428973234162722 0.017598600889924685 0 -0.040789224900208629 0.019245261321832602 0 -0.040502520345188767 0.017508610288045928 0 -0.037580921711505705 0.018647029271904196 0 -0.040502520345188767 0.017508610288045928 0 -0.039248679079273777 0.016442018370739993 0 -0.037580921711505705 0.018647029271904196 0 -0.039248679079273777 0.016442018370739993 0 -0.03726306766295899 0.017258605415848682 0 -0.038092063520315911 0.015256404429805045 0 -0.03726306766295899 0.017258605415848682 0 -0.036323340065407897 0.0162055817567981 0 -0.038092063520315911 0.015256404429805045 0 -0.039248679079273777 0.016442018370739993 0 -0.03726306766295899 0.017258605415848682 0 -0.037580921711505705 0.018647029271904196 0 -0.03726306766295899 0.017258605415848682 0 -0.036131291499952589 0.018512179189296065 0 -0.037580921711505705 0.018647029271904196 0 -0.03726306766295899 0.017258605415848682 0 -0.034874635010748431 0.017657612774284459 0 -0.036131291499952589 0.018512179189296065 0 -0.036323340065407897 0.0162055817567981 0 -0.034607561385142115 0.016395582692499914 0 -0.034874635010748431 0.017657612774284459 0 -0.03726306766295899 0.017258605415848682 0 -0.036323340065407897 0.0162055817567981 0 -0.034874635010748431 0.017657612774284459 0 -0.036323340065407897 0.0162055817567981 0 -0.034607561385142115 0.016395582692499914 0 -0.034685029576294012 0.015151569978780272 0 -0.032819413721032732 0.016843186282749657 0 -0.034607561385142115 0.016395582692499914 0 -0.034874635010748431 0.017657612774284459 0 -0.032819413721032732 0.016843186282749657 0 -0.033331817167013889 0.018471912450308606 0 -0.034874635010748431 0.017657612774284459 0 -0.033331817167013889 0.018471912450308606 0 -0.034874635010748431 0.017657612774284459 0 -0.034726656518938415 0.019199158018650651 0 -0.033331817167013889 0.018471912450308606 0 -0.033299502473102024 0.019452034412998327 0 -0.034726656518938415 0.019199158018650651 0 -0.033299502473102024 0.019452034412998327 0 -0.034726656518938415 0.019199158018650651 0 -0.034102421798026167 0.019890046494849645 0 -0.034726656518938415 0.019199158018650651 0 -0.035338756892283378 0.020025011048639196 0 -0.034102421798026167 0.019890046494849645 0 -0.034726656518938415 0.019199158018650651 0 -0.036342111360934334 0.019391825128359932 0 -0.035338756892283378 0.020025011048639196 0 -0.034726656518938415 0.019199158018650651 0 -0.036131291499952589 0.018512179189296065 0 -0.036342111360934334 0.019391825128359932 0 -0.034874635010748431 0.017657612774284459 0 -0.034726656518938415 0.019199158018650651 0 -0.036131291499952589 0.018512179189296065 0 -0.037580921711505705 0.018647029271904196 0 -0.036342111360934334 0.019391825128359932 0 -0.037705476892474693 0.019251102865802457 0 -0.036131291499952589 0.018512179189296065 0 -0.037580921711505705 0.018647029271904196 0 -0.036342111360934334 0.019391825128359932 0 -0.036342111360934334 0.019391825128359932 0 -0.037705476892474693 0.019251102865802457 0 -0.036700117077914839 0.020563377600767766 0 -0.038373029307106551 0.01830417057144991 0 -0.037580921711505705 0.018647029271904196 0 -0.037705476892474693 0.019251102865802457 0 -0.039603145352396382 0.018716757791849156 0 -0.037781365481738147 0.018689605358692105 0 -0.03526962167095931 -0.0074507816659575843 0 -0.036105421224719478 -0.008354496857961944 0 -0.035266094429729972 -0.0089536731267018752 0 -0.03526962167095931 -0.0074507816659575843 0 -0.036105421224719478 -0.008354496857961944 0 -0.036583964351637646 -0.0071383595045961127 0 -0.037089390319663358 0.0072580223493832119 0 -0.036261551531847035 0.006711604245207438 0 -0.03522614983124505 -0.0067563035823757214 0 -0.03526962167095931 -0.0074507816659575843 0 -0.036583964351637646 -0.0071383595045961127 0 -0.038318920904619351 0.020001507152801586 0 -0.037705476892474693 0.019251102865802457 0 -0.036700117077914839 0.020563377600767766 0 -0.036342111360934334 0.019391825128359932 0 -0.036700117077914839 0.020563377600767766 0 -0.035338756892283378 0.020025011048639196 0 -0.036105421224719478 -0.008354496857961944 0 -0.036583964351637646 -0.0071383595045961127 0 -0.037172433039833155 -0.0085022882470102441 0 -0.036583964351637646 -0.0071383595045961127 0 -0.038544751136289246 -0.0077319582630303437 0 -0.037172433039833155 -0.0085022882470102441 0 -0.036261551531847035 0.006711604245207438 0 -0.03839768083883837 0.0061066882767927318 0 -0.034745546103131499 0.020708047190608127 0 -0.035338756892283378 0.020025011048639196 0 -0.034102421798026167 0.019890046494849645 0 -0.036700117077914839 0.020563377600767766 0 -0.034745546103131499 0.020708047190608127 0 -0.035338756892283378 0.020025011048639196 0 -0.034745546103131499 0.020708047190608127 0 -0.034102421798026167 0.019890046494849645 0 -0.033743996393090753 0.020094367438947231 0 -0.034745546103131499 0.020708047190608127 0 -0.033743996393090753 0.020094367438947231 0 -0.033362637639699586 0.020057950148668062 0 -0.03839768083883837 0.0061066882767927318 0 -0.029014036436139042 0.0063715694939339585 0 -0.038544751136289246 -0.0077319582630303437 0 -0.038972670825251382 -0.0092540141234685389 0 -0.040641012676782308 -0.0083920990028679681 0 -0.038972670825251382 -0.0092540141234685389 0 -0.040077006030627298 -0.010918347985910692 0 -0.040641012676782308 -0.0083920990028679681 0 -0.038972670825251382 -0.0092540141234685389 0 -0.040077006030627298 -0.010918347985910692 0 -0.037915767016146691 -0.010556921475244226 0 -0.038972670825251382 -0.0092540141234685389 0 -0.037915767016146691 -0.010556921475244226 0 -0.037172433039833155 -0.0085022882470102441 0 -0.038544751136289246 -0.0077319582630303437 0 -0.038972670825251382 -0.0092540141234685389 0 -0.037172433039833155 -0.0085022882470102441 0 -0.036105421224719478 -0.008354496857961944 0 -0.037172433039833155 -0.0085022882470102441 0 -0.036247571346847467 -0.0098367755966311254 0 -0.037915767016146691 -0.010556921475244226 0 -0.037172433039833155 -0.0085022882470102441 0 -0.036247571346847467 -0.0098367755966311254 0 -0.036247571346847467 -0.0098367755966311254 0 -0.035748414797690774 -0.01127280629290774 0 -0.03689281123851449 -0.011590711045122413 0 -0.037915767016146691 -0.010556921475244226 0 -0.036247571346847467 -0.0098367755966311254 0 -0.03689281123851449 -0.011590711045122413 0 -0.034688898519791483 -0.01051205521218285 0 -0.036247571346847467 -0.0098367755966311254 0 -0.035748414797690774 -0.01127280629290774 0 -0.034688898519791483 -0.01051205521218285 0 -0.036247571346847467 -0.0098367755966311254 0 -0.035266094429729972 -0.0089536731267018752 0 -0.036105421224719478 -0.008354496857961944 0 -0.036247571346847467 -0.0098367755966311254 0 -0.035266094429729972 -0.0089536731267018752 0 -0.02596562595161752 0.012851687823551377 0 -0.026163664050089915 0.0099446155432506619 0 -0.024415927330525496 0.010374505168428232 0 -0.025541556003632379 0.012986146923891074 0 -0.026025134030852957 0.0074288494823000623 0 -0.025541556003632379 0.012986146923891074 0 -0.023920979341548951 0.011981992867103742 0 -0.02596562595161752 0.012851687823551377 0 -0.023388040655516903 0.011768806316040659 0 -0.024415927330525496 0.010374505168428232 0 -0.02689356299808127 0.0053636085971270932 0 -0.026035066276520909 0.0072021031342688769 0 -0.025993429058871788 0.0069781991172127838 0 -0.026035066276520909 0.0072021031342688769 0 -0.023905045709724765 0.0072502219647797017 0 -0.024548555070011316 0.0054685979087418825 0 -0.02689356299808127 0.0053636085971270932 0 -0.026035066276520909 0.0072021031342688769 0 -0.024548555070011316 0.0054685979087418825 0 -0.024049874509145811 0.011718071310367242 0 -0.025541556003632379 0.012986146923891074 0 -0.023308580138391734 0.0031837435795478769 0 -0.02689356299808127 0.0053636085971270932 0 -0.024548555070011316 0.0054685979087418825 0 -0.02614645522012287 0.019173019763086156 0 -0.025181615387153938 0.019259841464045545 0 -0.026115754574542654 0.020665028739926775 0 -0.02463836954559857 0.02006845886586035 0 -0.025181615387153938 0.019259841464045545 0 -0.026115754574542654 0.020665028739926775 0 -0.023308580138391734 0.0031837435795478769 0 -0.022899491045134349 0.0045494864383883666 0 -0.024548555070011316 0.0054685979087418825 0 -0.02463836954559857 0.02006845886586035 0 -0.02431478480119326 0.019297444741833827 0 -0.025181615387153938 0.019259841464045545 0 -0.026576405467843157 0.016377119617773439 0 -0.026883628529516521 0.013492435739594525 0 -0.024986182000710132 0.01527802496497813 0 -0.026883628529516521 0.013492435739594525 0 -0.024986182000710132 0.01527802496497813 0 -0.023388040655516903 0.011768806316040659 0 -0.026450448516395855 0.018556038295976723 0 -0.025541556003632379 0.012986146923891074 0 -0.024986182000710132 0.01527802496497813 0 -0.022862737129714476 0.015101307053903225 0 -0.023388040655516903 0.011768806316040659 0 -0.033299502473102024 0.019452034412998327 0 -0.034102421798026167 0.019890046494849645 0 -0.032944082535949069 0.01972957229618711 0 -0.034102421798026167 0.019890046494849645 0 -0.033743996393090753 0.020094367438947231 0 -0.032944082535949069 0.01972957229618711 0 -0.027855932760074947 0.019286855734327889 0 -0.029014036436139042 0.0063715694939339585 0 -0.022862737129714476 0.015101307053903225 0 -0.023388040655516903 0.011768806316040659 0 -0.020840297695071692 0.010885530703712631 0 -0.033743996393090753 0.020094367438947231 0 -0.032944082535949069 0.01972957229618711 0 -0.033362637639699586 0.020057950148668062 0 -0.023388040655516903 0.011768806316040659 0 -0.022698268868041684 0.0093390797277407324 0 -0.020840297695071692 0.010885530703712631 0 -0.023388040655516903 0.011768806316040659 0 -0.022698268868041684 0.0093390797277407324 0 -0.024415927330525496 0.010374505168428232 0 -0.022698268868041684 0.0093390797277407324 0 -0.02403415545080876 0.0066501771619694068 0 -0.024415927330525496 0.010374505168428232 0 -0.019109442784007429 0.0091995458568280893 0 -0.024446419708176945 0.0067600529941712851 0 -0.01880823271197157 0.0079167185301047514 0 -0.020284962631099194 0.0046980007408201846 0 -0.02403415545080876 0.0066501771619694068 0 -0.025586700611296996 -0.0061513343761202422 0 -0.029014036436139042 0.0063715694939339585 0 -0.01880823271197157 0.0079167185301047514 0 -0.014314586582454608 0.0095058531303271396 0 -0.016976775673199423 0.0037724822498214259 0 -0.019109442784007429 0.0091995458568280893 0 -0.029014036436139042 0.0063715694939339585 0 -0.01186292717229257 0.0013166500956984552 0 -0.016976775673199423 0.0037724822498214259 0 -0.015589973363416157 -0.0021800479307932273 0 -0.01186292717229257 0.0013166500956984552 0 -0.014314586582454608 0.0095058531303271396 0 -0.016976775673199423 0.0037724822498214259 0 -0.016976775673199423 0.0037724822498214259 0 -0.020638925738432571 0.00036343853274679129 0 -0.015589973363416157 -0.0021800479307932273 0 -0.01880823271197157 0.0079167185301047514 0 -0.020284962631099194 0.0046980007408201846 0 -0.016976775673199423 0.0037724822498214259 0 -0.020284962631099194 0.0046980007408201846 0 -0.022857590957423169 0.003438935921766295 0 -0.020638925738432571 0.00036343853274679129 0 -0.020284962631099194 0.0046980007408201846 0 -0.016976775673199423 0.0037724822498214259 0 -0.020638925738432571 0.00036343853274679129 0 -0.023988977614653809 0.0014581578344335935 0 -0.022857590957423169 0.003438935921766295 0 -0.020638925738432571 0.00036343853274679129 0 -0.023988977614653809 0.0014581578344335935 0 -0.025382458049902943 0.0042429747773186826 0 -0.022857590957423169 0.003438935921766295 0 -0.023988977614653809 0.0014581578344335935 0 -0.025382458049902943 0.0042429747773186826 0 -0.026407818170377736 0.0004548703014040911 0 -0.025382458049902943 0.0042429747773186826 0 -0.022857590957423169 0.003438935921766295 0 -0.02403415545080876 0.0066501771619694068 0 -0.020284962631099194 0.0046980007408201846 0 -0.022857590957423169 0.003438935921766295 0 -0.02403415545080876 0.0066501771619694068 0 -0.025606725773020055 0.0050599845009921271 0 -0.026025134030852957 0.0074288494823000623 0 -0.025382458049902943 0.0042429747773186826 0 -0.02403415545080876 0.0066501771619694068 0 -0.026163664050089915 0.0099446155432506619 0 -0.025382458049902943 0.0042429747773186826 0 -0.025993429058871788 0.0069781991172127838 0 -0.026400595189340723 0.0063346954456177567 0 -0.02403415545080876 0.0066501771619694068 0 -0.026163664050089915 0.0099446155432506619 0 -0.024415927330525496 0.010374505168428232 0 -0.024422394507852042 0.0053442987680928991 0 -0.026168715283472099 0.0071015459813863705 0 -0.023104745015476782 0.0090518336862556743 0 -0.026035066276520909 0.0072021031342688769 0 -0.023905045709724765 0.0072502219647797017 0 -0.029286880691960046 0.0063747587988165098 0 -0.026035066276520909 0.0072021031342688769 0 -0.026400595189340723 0.0063346954456177567 0 -0.026035066276520909 0.0072021031342688769 0 -0.025993429058871788 0.0069781991172127838 0 -0.026400595189340723 0.0063346954456177567 0 -0.025382458049902943 0.0042429747773186826 0 -0.026400595189340723 0.0063346954456177567 0 -0.027187577548622308 0.0051989265586315087 0 -0.029286880691960046 0.0063747587988165098 0 -0.026400595189340723 0.0063346954456177567 0 -0.027187577548622308 0.0051989265586315087 0 -0.029286880691960046 0.0063747587988165098 0 -0.027187577548622308 0.0051989265586315087 0 -0.029492992759204362 0.0021008261641910341 0 -0.027187577548622308 0.0051989265586315087 0 -0.027107914029431839 0.0031109490031111923 0 -0.029492992759204362 0.0021008261641910341 0 -0.025382458049902943 0.0042429747773186826 0 -0.027187577548622308 0.0051989265586315087 0 -0.027107914029431839 0.0031109490031111923 0 -0.025382458049902943 0.0042429747773186826 0 -0.027107914029431839 0.0031109490031111923 0 -0.026407818170377736 0.0004548703014040911 0 -0.027107914029431839 0.0031109490031111923 0 -0.029492992759204362 0.0021008261641910341 0 -0.026407818170377736 0.0004548703014040911 0 -0.025191006394933262 -0.0034214573011394616 0 -0.024392053357110238 -0.0029407902805628702 0 -0.023413774247720228 -0.0086962341653471931 0 -0.024521385085044714 -0.0080919801595240679 0 -0.025296623522565866 -0.0088226291975824732 0 -0.027164748291877074 -0.00011266705965371503 0 -0.025296623522565866 -0.0088226291975824732 0 -0.029492992759204362 0.0021008261641910341 0 -0.026407818170377736 0.0004548703014040911 0 -0.028805844532137078 -0.0042038863414071348 0 -0.026407818170377736 0.0004548703014040911 0 -0.025388233912973745 -0.0032968592574808943 0 -0.028805844532137078 -0.0042038863414071348 0 -0.025296623522565866 -0.0088226291975824732 0 -0.025392086533261402 -0.010923314757408284 0 -0.028805844532137078 -0.0042038863414071348 0 -0.024062257998362622 -0.0068240035188552274 0 -0.024800807369674455 -0.011361355153241302 0 -0.024732196781867374 -0.012802764472286909 0 -0.024668160621049373 -0.011930365957957335 0 -0.024800807369674455 -0.011361355153241302 0 -0.025296623522565866 -0.0088226291975824732 0 -0.024480391677978879 -0.012783235349812688 0 -0.024271390749568949 -0.011795846164823893 0 -0.024668160621049373 -0.011930365957957335 0 -0.024563458218019519 -0.012030164774451712 0 -0.025388233912973745 -0.0032968592574808943 0 -0.028805844532137078 -0.0042038863414071348 0 -0.024062257998362622 -0.0068240035188552274 0 -0.024668160621049373 -0.011930365957957335 0 -0.024750274271294413 -0.01218341362816569 0 -0.024563458218019519 -0.012030164774451712 0 -0.024062257998362622 -0.0068240035188552274 0 -0.022259226338833361 -0.004051645501612528 0 -0.0204762581478827 -0.0086520620600204195 0 -0.024062257998362622 -0.0068240035188552274 0 -0.0204762581478827 -0.0086520620600204195 0 -0.023190827683715068 -0.010026989213753924 0 -0.025388233912973745 -0.0032968592574808943 0 -0.024062257998362622 -0.0068240035188552274 0 -0.022259226338833361 -0.004051645501612528 0 -0.025388233912973745 -0.0032968592574808943 0 -0.022259226338833361 -0.004051645501612528 0 -0.024448103946341511 -0.0011694438212853256 0 -0.023988977614653809 0.0014581578344335935 0 -0.026407818170377736 0.0004548703014040911 0 -0.024448103946341511 -0.0011694438212853256 0 -0.026407818170377736 0.0004548703014040911 0 -0.025388233912973745 -0.0032968592574808943 0 -0.024448103946341511 -0.0011694438212853256 0 -0.023988977614653809 0.0014581578344335935 0 -0.024448103946341511 -0.0011694438212853256 0 -0.020638925738432571 0.00036343853274679129 0 -0.022259226338833361 -0.004051645501612528 0 -0.024448103946341511 -0.0011694438212853256 0 -0.020638925738432571 0.00036343853274679129 0 -0.020638925738432571 0.00036343853274679129 0 -0.015589973363416157 -0.0021800479307932273 0 -0.018915759943354274 -0.0042436893641132232 0 -0.022259226338833361 -0.004051645501612528 0 -0.020638925738432571 0.00036343853274679129 0 -0.018915759943354274 -0.0042436893641132232 0 -0.015589973363416157 -0.0021800479307932273 0 -0.01570589407558028 -0.0073307947227847607 0 -0.018915759943354274 -0.0042436893641132232 0 -0.015589973363416157 -0.0021800479307932273 0 -0.01570589407558028 -0.0073307947227847607 0 -0.0098143047868226741 -0.0064592916207541345 0 -0.022259226338833361 -0.004051645501612528 0 -0.018915759943354274 -0.0042436893641132232 0 -0.0204762581478827 -0.0086520620600204195 0 -0.01570589407558028 -0.0073307947227847607 0 -0.018915759943354274 -0.0042436893641132232 0 -0.0204762581478827 -0.0086520620600204195 0 -0.01570589407558028 -0.0073307947227847607 0 -0.0204762581478827 -0.0086520620600204195 0 -0.015427448783542918 -0.013260761525145392 0 -0.0204762581478827 -0.0086520620600204195 0 -0.015427448783542918 -0.013260761525145392 0 -0.02331993979736513 -0.012573548094844197 0 -0.01570589407558028 -0.0073307947227847607 0 -0.015427448783542918 -0.013260761525145392 0 -0.0098143047868226741 -0.0064592916207541345 0 -0.012913060061968415 -0.019332357886354418 0 -0.01344209908971406 -0.020316269781516315 0 -0.012698668159219434 -0.020589359087914733 0 -0.012913060061968415 -0.019332357886354418 0 -0.014413535655720545 -0.020007719176385042 0 -0.015063302586514421 -0.018507340609804138 0 -0.012913060061968415 -0.019332357886354418 0 -0.014413535655720545 -0.020007719176385042 0 -0.01344209908971406 -0.020316269781516315 0 -0.011289427963824046 -0.016385745294328409 0 -0.019812657374302427 -0.015483300098777224 0 -0.014413535655720545 -0.020007719176385042 0 -0.015063302586514421 -0.018507340609804138 0 -0.016210947156289329 -0.019915154107041297 0 -0.016210947156289329 -0.019915154107041297 0 -0.018422287807416834 -0.020555436033728398 0 -0.018498333797414272 -0.016898752001962059 0 -0.015063302586514421 -0.018507340609804138 0 -0.016210947156289329 -0.019915154107041297 0 -0.018498333797414272 -0.016898752001962059 0 -0.02331993979736513 -0.012573548094844197 0 -0.024800807369674455 -0.011361355153241302 0 -0.025064018820628531 -0.012372148870260837 0 -0.024800807369674455 -0.011361355153241302 0 -0.025064018820628531 -0.012372148870260837 0 -0.024750274271294413 -0.01218341362816569 0 -0.019812657374302427 -0.015483300098777224 0 -0.02181149896915174 -0.014726606226783557 0 -0.024668160621049373 -0.011930365957957335 0 -0.024800807369674455 -0.011361355153241302 0 -0.024750274271294413 -0.01218341362816569 0 -0.0204762581478827 -0.0086520620600204195 0 -0.02331993979736513 -0.012573548094844197 0 -0.023190827683715068 -0.010026989213753924 0 -0.024062257998362622 -0.0068240035188552274 0 -0.024800807369674455 -0.011361355153241302 0 -0.023190827683715068 -0.010026989213753924 0 -0.02331993979736513 -0.012573548094844197 0 -0.024800807369674455 -0.011361355153241302 0 -0.023190827683715068 -0.010026989213753924 0 -0.035031682651771749 -0.01365086986680019 0 -0.036111147206987007 -0.013448094073329989 0 -0.035864834844306415 -0.014328517560630059 0 -0.035581797735854633 -0.015751564024872877 0 -0.035041809091424042 -0.015589782605894819 0 -0.034742313487506747 -0.015148675727912715 0 -0.035864834844306415 -0.014328517560630059 0 -0.035041809091424042 -0.015589782605894819 0 -0.034600049987675352 -0.012239584674043558 0 -0.035748414797690774 -0.01127280629290774 0 -0.03624257394963986 -0.012559179367295892 0 -0.035748414797690774 -0.01127280629290774 0 -0.03689281123851449 -0.011590711045122413 0 -0.03624257394963986 -0.012559179367295892 0 -0.03689281123851449 -0.011590711045122413 0 -0.03624257394963986 -0.012559179367295892 0 -0.038161808694141611 -0.013227552229872229 0 -0.035864834844306415 -0.014328517560630059 0 -0.0362392324925572 -0.015866256572945662 0 -0.035581797735854633 -0.015751564024872877 0 -0.036111147206987007 -0.013448094073329989 0 -0.038140620264027057 -0.013256646339995855 0 -0.035864834844306415 -0.014328517560630059 0 -0.037205852234125647 -0.015385921008442828 0 -0.0362392324925572 -0.015866256572945662 0 -0.035864834844306415 -0.014328517560630059 0 -0.038161808694141611 -0.013227552229872229 0 -0.037205852234125647 -0.015385921008442828 0 -0.038161808694141611 -0.013227552229872229 0 -0.037205852234125647 -0.015385921008442828 0 -0.038272189631115325 -0.014905766203113719 0 -0.038161808694141611 -0.013227552229872229 0 -0.03934960213075054 -0.013932177329929765 0 -0.038272189631115325 -0.014905766203113719 0 -0.040077006030627298 -0.010918347985910692 0 -0.037915767016146691 -0.010556921475244226 0 -0.038161808694141611 -0.013227552229872229 0 -0.037915767016146691 -0.010556921475244226 0 -0.03689281123851449 -0.011590711045122413 0 -0.038161808694141611 -0.013227552229872229 0 -0.025586700611296996 -0.0061513343761202422 0 -0.02477483199128239 -0.0097011169386356753 0 -0.01186292717229257 0.0013166500956984552 0 -0.015589973363416157 -0.0021800479307932273 0 -0.0098143047868226741 -0.0064592916207541345 0 -0.040077006030627298 -0.010918347985910692 0 -0.038161808694141611 -0.013227552229872229 0 -0.03934960213075054 -0.013932177329929765 0 -0.02477483199128239 -0.0097011169386356753 0 -0.022299368495808578 -0.0160871069704136 0 -0.015427448783542918 -0.013260761525145392 0 -0.0098143047868226741 -0.0064592916207541345 0 -0.0077404673106028698 -0.013644883267074928 0 -0.011289427963824046 -0.016385745294328409 0 -0.022299368495808578 -0.0160871069704136 0 -0.012913060061968415 -0.019332357886354418 0 -0.01139070360445657 -0.01946851257813198 0 -0.012698668159219434 -0.020589359087914733 0 -0.022299368495808578 -0.0160871069704136 0 -0.042219538436865107 -0.016972903815517436 0 -0.03934960213075054 -0.013932177329929765 0 -0.038327619385052712 -0.016962567861233444 0 -0.038272189631115325 -0.014905766203113719 0 -0.038327619385052712 -0.016962567861233444 0 -0.037205852234125647 -0.015385921008442828 0 -0.038272189631115325 -0.014905766203113719 0 -0.038327619385052712 -0.016962567861233444 0 -0.037205852234125647 -0.015385921008442828 0 -0.036209059958410707 -0.017003488895389086 0 -0.037205852234125647 -0.015385921008442828 0 -0.0362392324925572 -0.015866256572945662 0 -0.036209059958410707 -0.017003488895389086 0 -0.0362392324925572 -0.015866256572945662 0 -0.036209059958410707 -0.017003488895389086 0 -0.035674803601807352 -0.016384875740919527 0 -0.037013636927013281 -0.017234484564195407 0 -0.036209059958410707 -0.017003488895389086 0 -0.036142756925605764 -0.017848379488695058 0 -0.036209059958410707 -0.017003488895389086 0 -0.035495241929347818 -0.016982369206264617 0 -0.036142756925605764 -0.017848379488695058 0 -0.036209059958410707 -0.017003488895389086 0 -0.035495241929347818 -0.016982369206264617 0 -0.035674803601807352 -0.016384875740919527 0 -0.035495241929347818 -0.016982369206264617 0 -0.035109727163356967 -0.016305550123268758 0 -0.035674803601807352 -0.016384875740919527 0 -0.035084673117115973 -0.017267681987020164 0 -0.035006700684348496 -0.016836269294007777 0 -0.035495241929347818 -0.016982369206264617 0 -0.035006700684348496 -0.016836269294007777 0 -0.035495241929347818 -0.016982369206264617 0 -0.035109727163356967 -0.016305550123268758 0 -0.0362392324925572 -0.015866256572945662 0 -0.035674803601807352 -0.016384875740919527 0 -0.035581797735854633 -0.015751564024872877 0 -0.035109727163356967 -0.016305550123268758 0 -0.035674803601807352 -0.016384875740919527 0 -0.035581797735854633 -0.015751564024872877 0 -0.035109727163356967 -0.016305550123268758 0 -0.035581797735854633 -0.015751564024872877 0 -0.035041809091424042 -0.015589782605894819 0 -0.026985245752017106 -0.031259470378901845 0 -0.027763948002317834 -0.030795335786085898 0 -0.027298428620125121 -0.030174926965878812 0 -0.027763948002317834 -0.030795335786085898 0 -0.027298428620125121 -0.030174926965878812 0 -0.028100579022466592 -0.03007028952187633 0 -0.032585777935452719 -0.037236023660450236 0 -0.034738581715433793 -0.02780158322903924 0 -0.034738581715433793 -0.02780158322903924 0 -0.033027101679044199 -0.024318702448565353 0 -0.035495241929347818 -0.016982369206264617 0 -0.03486721233809506 -0.018879143076407506 0 -0.036142756925605764 -0.017848379488695058 0 -0.03486721233809506 -0.018879143076407506 0 -0.036142756925605764 -0.017848379488695058 0 -0.035889612002872544 -0.018719412192259741 0 -0.035084673117115973 -0.017267681987020164 0 -0.035495241929347818 -0.016982369206264617 0 -0.035259744103465045 -0.01784890057342222 0 -0.035994769190866797 -0.01311112673976458 0 -0.034738581715433793 -0.02780158322903924 0 -0.036142756925605764 -0.017848379488695058 0 -0.035889612002872544 -0.018719412192259741 0 -0.036659118305204283 -0.018608264617628156 0 -0.028100579022466592 -0.03007028952187633 0 -0.028885713474099576 -0.029945740709654351 0 -0.028602011122442993 -0.030938039495857942 0 -0.027763948002317834 -0.030795335786085898 0 -0.028100579022466592 -0.03007028952187633 0 -0.028602011122442993 -0.030938039495857942 0 -0.033027101679044199 -0.024318702448565353 0 -0.022471791926081286 -0.022501786843641437 0 -0.011389923945638097 -0.022236046444945808 0 -0.010846081675820449 -0.021477297620757976 0 -0.0120021347038641 -0.021189525033547735 0 -0.022471791926081286 -0.022501786843641437 0 -0.019529049392205761 -0.026810358855939354 0 -0.011389923945638097 -0.022236046444945808 0 -0.010846081675820449 -0.021477297620757976 0 -0.010542278014237082 -0.022609275169943061 0 -0.01139070360445657 -0.01946851257813198 0 -0.011012509523159773 -0.021062253770148025 0 -0.0120021347038641 -0.021189525033547735 0 -0.022299368495808578 -0.0160871069704136 0 -0.022471791926081286 -0.022501786843641437 0 -0.022471791926081286 -0.022501786843641437 0 -0.0076271839517993937 -0.021342208700479409 0 -0.037013636927013281 -0.017234484564195407 0 -0.036142756925605764 -0.017848379488695058 0 -0.036659118305204283 -0.018608264617628156 0 -0.01139070360445657 -0.01946851257813198 0 -0.0120021347038641 -0.021189525033547735 0 -0.012698668159219434 -0.020589359087914733 0 -0.011389923945638097 -0.022236046444945808 0 -0.0120021347038641 -0.021189525033547735 0 -0.01221471452146205 -0.022434880142359497 0 -0.011389923945638097 -0.022236046444945808 0 -0.01221471452146205 -0.022434880142359497 0 -0.011684737543117786 -0.023362308348265678 0 -0.01221471452146205 -0.022434880142359497 0 -0.011684737543117786 -0.023362308348265678 0 -0.013149836450053519 -0.023111726193062093 0 -0.013619619200896556 -0.031170931134032433 0 -0.014478062166397753 -0.032628432911810168 0 -0.015950806824874351 -0.030710330362706883 0 -0.013619619200896556 -0.031170931134032433 0 -0.014478062166397753 -0.032628432911810168 0 -0.012608765852791812 -0.033370035906519928 0 -0.013619619200896556 -0.031170931134032433 0 -0.011257651814879858 -0.031667341306158302 0 -0.012608765852791812 -0.033370035906519928 0 -0.011138983767015397 -0.026993114850593743 0 -0.017844558100557982 -0.031082456615675536 0 -0.011389923945638097 -0.022236046444945808 0 -0.011684737543117786 -0.023362308348265678 0 -0.010542278014237082 -0.022609275169943061 0 -0.011684737543117786 -0.023362308348265678 0 -0.010542278014237082 -0.022609275169943061 0 -0.010264743220747564 -0.023701070980540046 0 -0.028602011122442993 -0.030938039495857942 0 -0.028284887087203558 -0.03192606002384718 0 -0.027825641325257982 -0.031474964526460196 0 -0.019529049392205761 -0.026810358855939354 0 -0.017844558100557982 -0.031082456615675536 0 -0.027763948002317834 -0.030795335786085898 0 -0.028602011122442993 -0.030938039495857942 0 -0.027825641325257982 -0.031474964526460196 0 -0.024477472665782107 -0.03874589933781071 0 -0.025330522108908807 -0.038636710006972795 0 -0.02479921412004378 -0.037899166838069508 0 -0.017844558100557982 -0.031082456615675536 0 -0.017638271856583301 -0.035575835805519714 0 -0.028284887087203558 -0.03192606002384718 0 -0.027509216740522303 -0.032120940844322675 0 -0.027825641325257982 -0.031474964526460196 0 -0.017844558100557982 -0.031082456615675536 0 -0.026775094823501461 -0.035282995835722246 0 -0.026212581160236469 -0.038491045817404063 0 -0.025330522108908807 -0.038636710006972795 0 -0.025623667110243716 -0.037755818365884687 0 -0.032497587360890916 -0.039412808689544256 0 -0.026775094823501461 -0.035282995835722246 0 -0.026985245752017106 -0.031259470378901845 0 -0.027763948002317834 -0.030795335786085898 0 -0.027825641325257982 -0.031474964526460196 0 -0.026985245752017106 -0.031259470378901845 0 -0.027509216740522303 -0.032120940844322675 0 -0.027825641325257982 -0.031474964526460196 0 -0.014746478747718053 -0.022510256516611503 0 -0.01594078597213516 -0.023003549571537277 0 -0.015309730247558384 -0.021346344024975081 0 -0.014746478747718053 -0.022510256516611503 0 -0.013880720854776818 -0.023069369662875271 0 -0.015184736336932798 -0.024112555027116175 0 -0.014746478747718053 -0.022510256516611503 0 -0.01594078597213516 -0.023003549571537277 0 -0.015184736336932798 -0.024112555027116175 0 -0.01594078597213516 -0.023003549571537277 0 -0.017233710752853407 -0.024373144859423004 0 -0.017994610161149744 -0.023069592160940532 0 -0.01594078597213516 -0.023003549571537277 0 -0.016704665077609572 -0.021692058488310486 0 -0.017994610161149744 -0.023069592160940532 0 -0.01594078597213516 -0.023003549571537277 0 -0.015184736336932798 -0.024112555027116175 0 -0.017233710752853407 -0.024373144859423004 0 -0.01594078597213516 -0.023003549571537277 0 -0.016704665077609572 -0.021692058488310486 0 -0.015309730247558384 -0.021346344024975081 0 -0.016210947156289329 -0.019915154107041297 0 -0.016704665077609572 -0.021692058488310486 0 -0.018422287807416834 -0.020555436033728398 0 -0.016704665077609572 -0.021692058488310486 0 -0.017994610161149744 -0.023069592160940532 0 -0.018422287807416834 -0.020555436033728398 0 -0.016210947156289329 -0.019915154107041297 0 -0.016704665077609572 -0.021692058488310486 0 -0.015309730247558384 -0.021346344024975081 0 -0.014746478747718053 -0.022510256516611503 0 -0.015309730247558384 -0.021346344024975081 0 -0.013833078333772893 -0.021464460780778873 0 -0.014413535655720545 -0.020007719176385042 0 -0.016210947156289329 -0.019915154107041297 0 -0.015309730247558384 -0.021346344024975081 0 -0.014413535655720545 -0.020007719176385042 0 -0.015309730247558384 -0.021346344024975081 0 -0.013833078333772893 -0.021464460780778873 0 -0.014413535655720545 -0.020007719176385042 0 -0.01344209908971406 -0.020316269781516315 0 -0.013833078333772893 -0.021464460780778873 0 -0.01344209908971406 -0.020316269781516315 0 -0.013833078333772893 -0.021464460780778873 0 -0.012698668159219434 -0.020589359087914733 0 -0.0120021347038641 -0.021189525033547735 0 -0.012698668159219434 -0.020589359087914733 0 -0.012924951400945961 -0.022121510601319349 0 -0.013833078333772893 -0.021464460780778873 0 -0.012698668159219434 -0.020589359087914733 0 -0.012924951400945961 -0.022121510601319349 0 -0.0120021347038641 -0.021189525033547735 0 -0.01221471452146205 -0.022434880142359497 0 -0.012924951400945961 -0.022121510601319349 0 -0.013833078333772893 -0.021464460780778873 0 -0.012924951400945961 -0.022121510601319349 0 -0.013880720854776818 -0.023069369662875271 0 -0.014746478747718053 -0.022510256516611503 0 -0.013833078333772893 -0.021464460780778873 0 -0.013880720854776818 -0.023069369662875271 0 -0.013127997307370342 -0.022311519831559757 0 -0.01363393227554493 -0.022761685354026794 0 -0.013820455952080616 -0.022480657669464194 0 -0.013149836450053519 -0.023111726193062093 0 -0.014708844451246185 -0.022886526951193885 0 -0.012924951400945961 -0.022121510601319349 0 -0.013820455952080616 -0.022480657669464194 0 -0.013149836450053519 -0.023111726193062093 0 -0.015950806824874351 -0.030710330362706883 0 -0.017422200833886726 -0.031799414198845702 0 -0.018115941229327616 -0.030298187323821408 0 -0.01504476901298302 -0.026966457116782298 0 -0.01549435727234621 -0.026059819134829236 0 -0.011138983767015397 -0.026993114850593743 0 -0.01504476901298302 -0.026966457116782298 0 -0.01221471452146205 -0.022434880142359497 0 -0.012924951400945961 -0.022121510601319349 0 -0.013149836450053519 -0.023111726193062093 0 -0.014478062166397753 -0.032628432911810168 0 -0.015950806824874351 -0.030710330362706883 0 -0.016063723504973936 -0.032418214773486803 0 -0.015950806824874351 -0.030710330362706883 0 -0.016063723504973936 -0.032418214773486803 0 -0.017422200833886726 -0.031799414198845702 0 -0.016063723504973936 -0.032418214773486803 0 -0.017422200833886726 -0.031799414198845702 0 -0.016967585851624011 -0.033318738585153863 0 -0.017422200833886726 -0.031799414198845702 0 -0.018943409198545452 -0.031650521032199626 0 -0.018468406944772957 -0.032822087425220463 0 -0.017422200833886726 -0.031799414198845702 0 -0.018115941229327616 -0.030298187323821408 0 -0.018943409198545452 -0.031650521032199626 0 -0.01363393227554493 -0.022761685354026794 0 -0.01549435727234621 -0.026059819134829236 0 -0.01549435727234621 -0.026059819134829236 0 -0.019181930763869367 -0.030362281822914432 0 -0.012581594036540954 -0.026552059454994895 0 -0.016131252616916097 -0.025879409408801554 0 -0.017834308698324395 -0.02885034592623548 0 -0.018115941229327616 -0.030298187323821408 0 -0.018943409198545452 -0.031650521032199626 0 -0.020315405126228366 -0.03109397999777961 0 -0.01549435727234621 -0.026059819134829236 0 -0.016546275290896334 -0.025159679055854534 0 -0.018943409198545452 -0.031650521032199626 0 -0.020315405126228366 -0.03109397999777961 0 -0.020251780694423346 -0.032765175880808045 0 -0.018943409198545452 -0.031650521032199626 0 -0.020251780694423346 -0.032765175880808045 0 -0.018468406944772957 -0.032822087425220463 0 -0.020315405126228366 -0.03109397999777961 0 -0.022661075209235097 -0.03127957556477369 0 -0.020251780694423346 -0.032765175880808045 0 -0.017834308698324395 -0.02885034592623548 0 -0.020804887162621081 -0.027931410596373909 0 -0.022661075209235097 -0.03127957556477369 0 -0.019181930763869367 -0.030362281822914432 0 -0.022507409763240099 -0.031142971061135408 0 -0.020804887162621081 -0.027931410596373909 0 -0.022808093415335812 -0.026460497453520682 0 -0.019817105355196356 -0.025097346167492974 0 -0.020804887162621081 -0.027931410596373909 0 -0.022661075209235097 -0.03127957556477369 0 -0.022808093415335812 -0.026460497453520682 0 -0.017834308698324395 -0.02885034592623548 0 -0.020804887162621081 -0.027931410596373909 0 -0.019817105355196356 -0.025097346167492974 0 -0.016131252616916097 -0.025879409408801554 0 -0.017834308698324395 -0.02885034592623548 0 -0.019817105355196356 -0.025097346167492974 0 -0.02618118857525167 -0.030100217051927322 0 -0.025123672812011746 -0.027858056721131043 0 -0.024617363268821968 -0.03171232098182207 0 -0.02618118857525167 -0.030100217051927322 0 -0.02659662030809079 -0.031625774625518931 0 -0.024617363268821968 -0.03171232098182207 0 -0.022661075209235097 -0.03127957556477369 0 -0.025123672812011746 -0.027858056721131043 0 -0.024617363268821968 -0.03171232098182207 0 -0.022661075209235097 -0.03127957556477369 0 -0.022808093415335812 -0.026460497453520682 0 -0.025123672812011746 -0.027858056721131043 0 -0.025123672812011746 -0.027858056721131043 0 -0.026341810571938337 -0.025346520148299606 0 -0.026841074491526142 -0.02766313802079888 0 -0.02618118857525167 -0.030100217051927322 0 -0.025123672812011746 -0.027858056721131043 0 -0.026841074491526142 -0.02766313802079888 0 -0.026341810571938337 -0.025346520148299606 0 -0.024745088440721257 -0.024361647405116964 0 -0.026416928485769261 -0.022885921105084462 0 -0.025123672812011746 -0.027858056721131043 0 -0.026341810571938337 -0.025346520148299606 0 -0.024745088440721257 -0.024361647405116964 0 -0.022808093415335812 -0.026460497453520682 0 -0.025123672812011746 -0.027858056721131043 0 -0.024745088440721257 -0.024361647405116964 0 -0.022808093415335812 -0.026460497453520682 0 -0.024745088440721257 -0.024361647405116964 0 -0.023198565194364393 -0.02325696753883277 0 -0.023198565194364393 -0.02325696753883277 0 -0.021787393581644651 -0.019486291062995525 0 -0.026687371567711875 -0.018743173652580949 0 -0.023473969018120586 -0.022947358958101242 0 -0.025404432788801123 -0.020178365997633823 0 -0.024745088440721257 -0.024361647405116964 0 -0.023198565194364393 -0.02325696753883277 0 -0.024451879113799056 -0.021457760877589625 0 -0.024745088440721257 -0.024361647405116964 0 -0.026416928485769261 -0.022885921105084462 0 -0.024451879113799056 -0.021457760877589625 0 -0.026416928485769261 -0.022885921105084462 0 -0.024451879113799056 -0.021457760877589625 0 -0.026243552426661154 -0.021020951228856402 0 -0.016546275290896334 -0.025159679055854534 0 -0.019665279818757892 -0.024959026491132769 0 -0.017233710752853407 -0.024373144859423004 0 -0.017994610161149744 -0.023069592160940532 0 -0.019817105355196356 -0.025097346167492974 0 -0.017994610161149744 -0.023069592160940532 0 -0.019817105355196356 -0.025097346167492974 0 -0.020443955083216805 -0.022412022658365519 0 -0.022808093415335812 -0.026460497453520682 0 -0.023198565194364393 -0.02325696753883277 0 -0.019817105355196356 -0.025097346167492974 0 -0.023198565194364393 -0.02325696753883277 0 -0.019817105355196356 -0.025097346167492974 0 -0.020443955083216805 -0.022412022658365519 0 -0.023198565194364393 -0.02325696753883277 0 -0.020443955083216805 -0.022412022658365519 0 -0.021787393581644651 -0.019486291062995525 0 -0.017994610161149744 -0.023069592160940532 0 -0.020443955083216805 -0.022412022658365519 0 -0.018422287807416834 -0.020555436033728398 0 -0.020443955083216805 -0.022412022658365519 0 -0.018422287807416834 -0.020555436033728398 0 -0.021787393581644651 -0.019486291062995525 0 -0.018422287807416834 -0.020555436033728398 0 -0.018498333797414272 -0.016898752001962059 0 -0.021787393581644651 -0.019486291062995525 0 -0.025064018820628531 -0.012372148870260837 0 -0.024750274271294413 -0.01218341362816569 0 -0.024921305476783191 -0.013002944219336303 0 -0.025064018820628531 -0.012372148870260837 0 -0.024921305476783191 -0.013002944219336303 0 -0.025033444273190007 -0.014742463474541423 0 -0.02181149896915174 -0.014726606226783557 0 -0.025139412284162825 -0.014670439780514228 0 -0.018498333797414272 -0.016898752001962059 0 -0.021787393581644651 -0.019486291062995525 0 -0.025033444273190007 -0.014742463474541423 0 -0.021787393581644651 -0.019486291062995525 0 -0.026687371567711875 -0.018743173652580949 0 -0.025033444273190007 -0.014742463474541423 0 -0.026687371567711875 -0.018743173652580949 0 -0.028348843109252921 -0.014941015173197597 0 -0.025033444273190007 -0.014742463474541423 0 -0.024451879113799056 -0.021457760877589625 0 -0.026243552426661154 -0.021020951228856402 0 -0.026019080139249924 -0.019020820434907309 0 -0.025404432788801123 -0.020178365997633823 0 -0.027467035900975437 -0.016887899400002439 0 -0.026416928485769261 -0.022885921105084462 0 -0.026243552426661154 -0.021020951228856402 0 -0.02813170793271447 -0.020704863410518966 0 -0.026243552426661154 -0.021020951228856402 0 -0.026019080139249924 -0.019020820434907309 0 -0.02813170793271447 -0.020704863410518966 0 -0.028348843109252921 -0.014941015173197597 0 -0.028031216748711375 -0.012855860432870958 0 -0.029230719346652598 -0.012713962139982111 0 -0.028348843109252921 -0.014941015173197597 0 -0.026168122810085792 -0.013237604307822689 0 -0.028031216748711375 -0.012855860432870958 0 -0.027467035900975437 -0.016887899400002439 0 -0.025458999151997928 -0.014328335667076862 0 -0.024921305476783191 -0.013002944219336303 0 -0.025033444273190007 -0.014742463474541423 0 -0.026168122810085792 -0.013237604307822689 0 -0.028348843109252921 -0.014941015173197597 0 -0.025033444273190007 -0.014742463474541423 0 -0.026168122810085792 -0.013237604307822689 0 -0.026168122810085792 -0.013237604307822689 0 -0.026249722275617945 -0.012000184644340661 0 -0.025629122122788669 -0.012549745244803862 0 -0.026168122810085792 -0.013237604307822689 0 -0.026249722275617945 -0.012000184644340661 0 -0.027054656874190851 -0.012164012766794609 0 -0.026249722275617945 -0.012000184644340661 0 -0.027054656874190851 -0.012164012766794609 0 -0.026766760263128894 -0.011453341937980645 0 -0.026168122810085792 -0.013237604307822689 0 -0.028031216748711375 -0.012855860432870958 0 -0.027054656874190851 -0.012164012766794609 0 -0.028031216748711375 -0.012855860432870958 0 -0.027054656874190851 -0.012164012766794609 0 -0.027818875113883056 -0.011601709990509261 0 -0.027054656874190851 -0.012164012766794609 0 -0.027818875113883056 -0.011601709990509261 0 -0.026766760263128894 -0.011453341937980645 0 -0.027818875113883056 -0.011601709990509261 0 -0.028450901322924733 -0.011570440262901898 0 -0.028508702476898386 -0.012352502522899687 0 -0.028031216748711375 -0.012855860432870958 0 -0.027818875113883056 -0.011601709990509261 0 -0.029230719346652598 -0.012713962139982111 0 -0.027994068708577756 -0.012161716062446246 0 -0.025458999151997928 -0.014328335667076862 0 -0.027818875113883056 -0.011601709990509261 0 -0.02683670979014131 -0.010556718099743871 0 -0.028359697867679542 -0.011284706218816687 0 -0.022295358855688018 -0.0016837859137103243 0 -0.020374382193971891 -0.0044469915858807258 0 -0.016041888003616681 0.0032104499621148789 0 -0.020374382193971891 -0.0044469915858807258 0 -0.015988810676681883 -0.0024558958573463394 0 -0.017169443879535191 -0.0044424783689548959 0 -0.017061407051106453 -0.0059227647965427151 0 -0.017030492933723551 0.0069046431930435024 0 -0.017180871855292393 0.0070235089944457882 0 -0.017194608500313999 0.0067554864729880565 0 -0.027818875113883056 -0.011601709990509261 0 -0.028450901322924733 -0.011570440262901898 0 -0.028359697867679542 -0.011284706218816687 0 -0.027818875113883056 -0.011601709990509261 0 -0.026766760263128894 -0.011453341937980645 0 -0.02683670979014131 -0.010556718099743871 0 -0.026249722275617945 -0.012000184644340661 0 -0.025912235299670346 -0.011101239069237922 0 -0.025253111400131215 -0.011953809015484488 0 -0.026249722275617945 -0.012000184644340661 0 -0.026766760263128894 -0.011453341937980645 0 -0.025912235299670346 -0.011101239069237922 0 -0.026766760263128894 -0.011453341937980645 0 -0.02683670979014131 -0.010556718099743871 0 -0.025912235299670346 -0.011101239069237922 0 -0.025912235299670346 -0.011101239069237922 0 -0.025062571339068512 -0.010942008323569907 0 -0.025253111400131215 -0.011953809015484488 0 -0.025062571339068512 -0.010942008323569907 0 -0.024641211622409582 -0.011660348625297405 0 -0.025253111400131215 -0.011953809015484488 0 -0.024204231152718553 -0.01065918518115209 0 -0.025062571339068512 -0.010942008323569907 0 -0.024641211622409582 -0.011660348625297405 0 -0.024204231152718553 -0.01065918518115209 0 -0.024271390749568949 -0.011795846164823893 0 -0.024641211622409582 -0.011660348625297405 0 -0.024641211622409582 -0.011660348625297405 0 -0.024563458218019519 -0.012030164774451712 0 -0.024735985631357295 -0.012234816768864114 0 -0.024641211622409582 -0.011660348625297405 0 -0.024735985631357295 -0.012234816768864114 0 -0.025253111400131215 -0.011953809015484488 0 -0.024750274271294413 -0.01218341362816569 0 -0.024921305476783191 -0.013002944219336303 0 -0.024735985631357295 -0.012234816768864114 0 -0.024271390749568949 -0.011795846164823893 0 -0.024641211622409582 -0.011660348625297405 0 -0.024563458218019519 -0.012030164774451712 0 -0.024750274271294413 -0.01218341362816569 0 -0.024563458218019519 -0.012030164774451712 0 -0.024735985631357295 -0.012234816768864114 0 -0.024921305476783191 -0.013002944219336303 0 -0.024735985631357295 -0.012234816768864114 0 -0.025253111400131215 -0.011953809015484488 0 -0.024921305476783191 -0.013002944219336303 0 -0.026168122810085792 -0.013237604307822689 0 -0.025629122122788669 -0.012549745244803862 0 -0.024921305476783191 -0.013002944219336303 0 -0.025629122122788669 -0.012549745244803862 0 -0.025253111400131215 -0.011953809015484488 0 -0.026249722275617945 -0.012000184644340661 0 -0.025629122122788669 -0.012549745244803862 0 -0.025253111400131215 -0.011953809015484488 0 -0.020476058572728054 -0.013435507794230852 0 -0.021291007698477901 -0.013155325207760611 0 -0.020147638514934004 -0.01121386888970514 0 -0.020626668188843778 -0.013082813585294251 0 -0.021810015688372739 -0.0080464922128588856 0 -0.021291007698477901 -0.013155325207760611 0 -0.022491267371305218 -0.012702239386696446 0 -0.022225213110514883 -0.015085690084314655 0 -0.021291007698477901 -0.013155325207760611 0 -0.022491267371305218 -0.012702239386696446 0 -0.021622615186041982 -0.011620104795796199 0 -0.022491267371305218 -0.012702239386696446 0 -0.022596712728824412 -0.010882548530072757 0 -0.021622615186041982 -0.011620104795796199 0 -0.021536992804089383 -0.0098773227329887799 0 -0.022596712728824412 -0.010882548530072757 0 -0.021622615186041982 -0.011620104795796199 0 -0.021536992804089383 -0.0098773227329887799 0 -0.021622615186041982 -0.011620104795796199 0 -0.020147638514934004 -0.01121386888970514 0 -0.021291007698477901 -0.013155325207760611 0 -0.021622615186041982 -0.011620104795796199 0 -0.020147638514934004 -0.01121386888970514 0 -0.020476058572728054 -0.013435507794230852 0 -0.023606215255887256 -0.0049280664200115707 0 -0.020688869831491426 -0.0075074741254686772 0 -0.020896435230029035 -0.0042418201264467614 0 -0.023606215255887256 -0.0049280664200115707 0 -0.020688869831491426 -0.0075074741254686772 0 -0.020896435230029035 -0.0042418201264467614 0 -0.019113659763093115 -0.0051786836844343693 0 -0.020688869831491426 -0.0075074741254686772 0 -0.018763991380078358 -0.0056011520485833022 0 -0.019143003602025373 -0.0088287536716760394 0 -0.019113659763093115 -0.0051786836844343693 0 -0.015635214252680399 -0.0095991776552595241 0 -0.019195865067030644 -0.0098643635293394587 0 -0.019113659763093115 -0.0051786836844343693 0 -0.020688869831491426 -0.0075074741254686772 0 -0.019195865067030644 -0.0098643635293394587 0 -0.018225155640710013 -0.0040677365982566037 0 -0.017169443879535191 -0.0044424783689548959 0 -0.017764678304901815 -0.0048643459907682695 0 -0.018751177914210031 -0.004885125993618033 0 -0.020374382193971891 -0.0044469915858807258 0 -0.017169443879535191 -0.0044424783689548959 0 -0.017764678304901815 -0.0048643459907682695 0 -0.017256578789809664 -0.0055456453621178488 0 -0.018225155640710013 -0.0040677365982566037 0 -0.017764678304901815 -0.0048643459907682695 0 -0.018313789053968885 -0.005191105972589748 0 -0.018225155640710013 -0.0040677365982566037 0 -0.019113659763093115 -0.0051786836844343693 0 -0.018313789053968885 -0.005191105972589748 0 -0.019113659763093115 -0.0051786836844343693 0 -0.018313789053968885 -0.005191105972589748 0 -0.018282619594876273 -0.0060403945656531738 0 -0.017764678304901815 -0.0048643459907682695 0 -0.018313789053968885 -0.005191105972589748 0 -0.017256578789809664 -0.0055456453621178488 0 -0.020483587455987707 -0.0085140370699848724 0 -0.020138126407663739 -0.0076439707745461225 0 -0.022358377884289411 -0.008989827881522602 0 -0.018313789053968885 -0.005191105972589748 0 -0.017256578789809664 -0.0055456453621178488 0 -0.018282619594876273 -0.0060403945656531738 0 -0.020374382193971891 -0.0044469915858807258 0 -0.019143003602025373 -0.0088287536716760394 0 -0.022944052794444877 -0.0096431971548866478 0 -0.020374382193971891 -0.0044469915858807258 0 -0.020483587455987707 -0.0085140370699848724 0 -0.022358377884289411 -0.008989827881522602 0 -0.021293214208676539 -0.010545519978566564 0 -0.023528746004566892 -0.0098748093829867413 0 -0.024797505665737251 -0.013016926912775765 0 -0.023960845188750312 -0.013838882179956855 0 -0.022944052794444877 -0.0096431971548866478 0 -0.025458999151997928 -0.014328335667076862 0 -0.022944052794444877 -0.0096431971548866478 0 -0.021979131475833674 -0.012625663227060331 0 -0.015648499865466965 -0.01068597617512973 0 -0.015635214252680399 -0.0095991776552595241 0 -0.016539210144700351 -0.011918524230040301 0 -0.019143003602025373 -0.0088287536716760394 0 -0.021979131475833674 -0.012625663227060331 0 -0.015648499865466965 -0.01068597617512973 0 -0.015635214252680399 -0.0095991776552595241 0 -0.014546917899987829 -0.011471737857919337 0 -0.016539210144700351 -0.011918524230040301 0 -0.014546917899987829 -0.011471737857919337 0 -0.015614603743038408 -0.013547521126013443 0 -0.015648499865466965 -0.01068597617512973 0 -0.016539210144700351 -0.011918524230040301 0 -0.014546917899987829 -0.011471737857919337 0 -0.021979131475833674 -0.012625663227060331 0 -0.020589315497534254 -0.015572372200626494 0 -0.016539210144700351 -0.011918524230040301 0 -0.017191498755386357 -0.013025003457736873 0 -0.015614603743038408 -0.013547521126013443 0 -0.02163342601483844 -0.014136907105914552 0 -0.021397478629710715 -0.014370080043146128 0 -0.021961949017880063 -0.014985178588394148 0 -0.021979131475833674 -0.012625663227060331 0 -0.025458999151997928 -0.014328335667076862 0 -0.025458999151997928 -0.014328335667076862 0 -0.020589315497534254 -0.015572372200626494 0 -0.020476058572728054 -0.013435507794230852 0 -0.020688869831491426 -0.0075074741254686772 0 -0.019195865067030644 -0.0098643635293394587 0 -0.015635214252680399 -0.0095991776552595241 0 -0.016539210144700351 -0.011918524230040301 0 -0.019195865067030644 -0.0098643635293394587 0 -0.016539210144700351 -0.011918524230040301 0 -0.019195865067030644 -0.0098643635293394587 0 -0.018491497813768281 -0.012440430320179675 0 -0.016539210144700351 -0.011918524230040301 0 -0.018491497813768281 -0.012440430320179675 0 -0.017191498755386357 -0.013025003457736873 0 -0.020476058572728054 -0.013435507794230852 0 -0.019195865067030644 -0.0098643635293394587 0 -0.018491497813768281 -0.012440430320179675 0 -0.020476058572728054 -0.013435507794230852 0 -0.018491497813768281 -0.012440430320179675 0 -0.018118809434809272 -0.014113337915056959 0 -0.017273786012921215 -0.016746715601739182 0 -0.018215955328944888 -0.017853917850677865 0 -0.017812026377988906 -0.018404101179568824 0 -0.020476058572728054 -0.013435507794230852 0 -0.018118809434809272 -0.014113337915056959 0 -0.019647843052775553 -0.014950018660201974 0 -0.018118809434809272 -0.014113337915056959 0 -0.015614603743038408 -0.013547521126013443 0 -0.018651354347363404 -0.016123957788691721 0 -0.020589315497534254 -0.015572372200626494 0 -0.017794393859762812 -0.01664179764440777 0 -0.018491497813768281 -0.012440430320179675 0 -0.017191498755386357 -0.013025003457736873 0 -0.018118809434809272 -0.014113337915056959 0 -0.017191498755386357 -0.013025003457736873 0 -0.018118809434809272 -0.014113337915056959 0 -0.015614603743038408 -0.013547521126013443 0 -0.018118809434809272 -0.014113337915056959 0 -0.018651354347363404 -0.016123957788691721 0 -0.019647843052775553 -0.014950018660201974 0 -0.025458999151997928 -0.014328335667076862 0 -0.027028931635017239 -0.022263649383934828 0 -0.020589315497534254 -0.015572372200626494 0 -0.022852481196089756 -0.020820607863941482 0 -0.024892147244942108 -0.016867361043065011 0 -0.026075317413679716 -0.01811436707803294 0 -0.025607587929285403 -0.022766351248227269 0 -0.026019080139249924 -0.019020820434907309 0 -0.027656775982642469 -0.01643189659861715 0 -0.02813170793271447 -0.020704863410518966 0 -0.026075317413679716 -0.01811436707803294 0 -0.025607587929285403 -0.022766351248227269 0 -0.027871708290053667 -0.02278147228307496 0 -0.025607587929285403 -0.022766351248227269 0 -0.027871708290053667 -0.02278147228307496 0 -0.026920387042318285 -0.024678275786215398 0 -0.018215955328944888 -0.017853917850677865 0 -0.019430130780488459 -0.019049842749768606 0 -0.018568715352569241 -0.019082277949989634 0 -0.018215955328944888 -0.017853917850677865 0 -0.017812026377988906 -0.018404101179568824 0 -0.018568715352569241 -0.019082277949989634 0 -0.018651354347363404 -0.016123957788691721 0 -0.020615704182203442 -0.015733931038301757 0 -0.019927404441901993 -0.018020843091521768 0 -0.020615704182203442 -0.015733931038301757 0 -0.021555367061418768 -0.018100373198586386 0 -0.019927404441901993 -0.018020843091521768 0 -0.017794393859762812 -0.01664179764440777 0 -0.019851947633492364 -0.018711144055043458 0 -0.020476058572728054 -0.013435507794230852 0 -0.021291007698477901 -0.013155325207760611 0 -0.020615704182203442 -0.015733931038301757 0 -0.018651354347363404 -0.016123957788691721 0 -0.020615704182203442 -0.015733931038301757 0 -0.019647843052775553 -0.014950018660201974 0 -0.020476058572728054 -0.013435507794230852 0 -0.020615704182203442 -0.015733931038301757 0 -0.019647843052775553 -0.014950018660201974 0 -0.021291007698477901 -0.013155325207760611 0 -0.020615704182203442 -0.015733931038301757 0 -0.022225213110514883 -0.015085690084314655 0 -0.020615704182203442 -0.015733931038301757 0 -0.022225213110514883 -0.015085690084314655 0 -0.021555367061418768 -0.018100373198586386 0 -0.021555367061418768 -0.018100373198586386 0 -0.021561306442752035 -0.020422963345251646 0 -0.021168302089989901 -0.020422245063915309 0 -0.021555367061418768 -0.018100373198586386 0 -0.019927404441901993 -0.018020843091521768 0 -0.021168302089989901 -0.020422245063915309 0 -0.019430130780488459 -0.019049842749768606 0 -0.019660017853809747 -0.020232599434474158 0 -0.021168302089989901 -0.020422245063915309 0 -0.019851947633492364 -0.018711144055043458 0 -0.021076614046830457 -0.020250315768211558 0 -0.019430130780488459 -0.019049842749768606 0 -0.019006966053474943 -0.019804278140523358 0 -0.018568715352569241 -0.019082277949989634 0 -0.019430130780488459 -0.019049842749768606 0 -0.019006966053474943 -0.019804278140523358 0 -0.019660017853809747 -0.020232599434474158 0 -0.019006966053474943 -0.019804278140523358 0 -0.019660017853809747 -0.020232599434474158 0 -0.01913645439603795 -0.020462652954656831 0 -0.019006966053474943 -0.019804278140523358 0 -0.01913645439603795 -0.020462652954656831 0 -0.018349148954698725 -0.020464124239355931 0 -0.019620093248711383 -0.021471258575300103 0 -0.018349148954698725 -0.020464124239355931 0 -0.019134933748294523 -0.023343414767775111 0 -0.019620093248711383 -0.021471258575300103 0 -0.021561306442752035 -0.020422963345251646 0 -0.019134933748294523 -0.023343414767775111 0 -0.019660017853809747 -0.020232599434474158 0 -0.01913645439603795 -0.020462652954656831 0 -0.019620093248711383 -0.021471258575300103 0 -0.019660017853809747 -0.020232599434474158 0 -0.019620093248711383 -0.021471258575300103 0 -0.021168302089989901 -0.020422245063915309 0 -0.025057715865876382 -0.024151138164332349 0 -0.01457024593664342 -0.026136063868620798 0 -0.01913645439603795 -0.020462652954656831 0 -0.019620093248711383 -0.021471258575300103 0 -0.018349148954698725 -0.020464124239355931 0 -0.019620093248711383 -0.021471258575300103 0 -0.021561306442752035 -0.020422963345251646 0 -0.021168302089989901 -0.020422245063915309 0 -0.013265701617037991 -0.019772026605142656 0 -0.01457024593664342 -0.026136063868620798 0 -0.026416928485769261 -0.022885921105084462 0 -0.02813170793271447 -0.020704863410518966 0 -0.028556985796207308 -0.024974011119731986 0 -0.025607587929285403 -0.022766351248227269 0 -0.026920387042318285 -0.024678275786215398 0 -0.026744192936213166 -0.027593391635418199 0 -0.026920387042318285 -0.024678275786215398 0 -0.02763292719883767 -0.025501302800717076 0 -0.026744192936213166 -0.027593391635418199 0 -0.027028931635017239 -0.022263649383934828 0 -0.027605536617913977 -0.026107727419740913 0 -0.022852481196089756 -0.020820607863941482 0 -0.025057715865876382 -0.024151138164332349 0 -0.027871708290053667 -0.02278147228307496 0 -0.026920387042318285 -0.024678275786215398 0 -0.02763292719883767 -0.025501302800717076 0 -0.017812026377988906 -0.018404101179568824 0 -0.018568715352569241 -0.019082277949989634 0 -0.018349148954698725 -0.020464124239355931 0 -0.027871708290053667 -0.02278147228307496 0 -0.02763292719883767 -0.025501302800717076 0 -0.029233081279285044 -0.026534045714348007 0 -0.02763292719883767 -0.025501302800717076 0 -0.029233081279285044 -0.026534045714348007 0 -0.027867323078921154 -0.026841423452984254 0 -0.019006966053474943 -0.019804278140523358 0 -0.018568715352569241 -0.019082277949989634 0 -0.018349148954698725 -0.020464124239355931 0 -0.029233081279285044 -0.026534045714348007 0 -0.028200631093547639 -0.027987935851555446 0 -0.030726719967722534 -0.03193826373943455 0 -0.029233081279285044 -0.026534045714348007 0 -0.028200631093547639 -0.027987935851555446 0 -0.027867323078921154 -0.026841423452984254 0 -0.02763292719883767 -0.025501302800717076 0 -0.027867323078921154 -0.026841423452984254 0 -0.026744192936213166 -0.027593391635418199 0 -0.028200631093547639 -0.027987935851555446 0 -0.027867323078921154 -0.026841423452984254 0 -0.026744192936213166 -0.027593391635418199 0 -0.026341810571938337 -0.025346520148299606 0 -0.028556985796207308 -0.024974011119731986 0 -0.026841074491526142 -0.02766313802079888 0 -0.026341810571938337 -0.025346520148299606 0 -0.026416928485769261 -0.022885921105084462 0 -0.028556985796207308 -0.024974011119731986 0 -0.028556985796207308 -0.024974011119731986 0 -0.026841074491526142 -0.02766313802079888 0 -0.028146998126076926 -0.029846514727819261 0 -0.027605536617913977 -0.026107727419740913 0 -0.028114057304300923 -0.029638683238821326 0 -0.028200631093547639 -0.027987935851555446 0 -0.026744192936213166 -0.027593391635418199 0 -0.028146998126076926 -0.029846514727819261 0 -0.028200631093547639 -0.027987935851555446 0 -0.029326275644931073 -0.029931018304976562 0 -0.028146998126076926 -0.029846514727819261 0 -0.028200631093547639 -0.027987935851555446 0 -0.028051125673676101 -0.034825544122283822 0 -0.030726719967722534 -0.03193826373943455 0 -0.030983936604263306 -0.030288051517683295 0 -0.018165300420679049 -0.028471250097939629 0 -0.029326275644931073 -0.029931018304976562 0 -0.028146998126076926 -0.029846514727819261 0 -0.028041384313036165 -0.032273578206264648 0 -0.018165300420679049 -0.028471250097939629 0 -0.018534301474283633 -0.030423921373562757 0 -0.028146998126076926 -0.029846514727819261 0 -0.028041384313036165 -0.032273578206264648 0 -0.02659662030809079 -0.031625774625518931 0 -0.02618118857525167 -0.030100217051927322 0 -0.028146998126076926 -0.029846514727819261 0 -0.02659662030809079 -0.031625774625518931 0 -0.02618118857525167 -0.030100217051927322 0 -0.026841074491526142 -0.02766313802079888 0 -0.028146998126076926 -0.029846514727819261 0 -0.0051101713643261484 -0.022695083344482305 0 -0.0037366478474791104 -0.023585228506200581 0 -0.0048797792317048887 -0.024805235274941648 0 -0.0059033952062948897 -0.020006631889768256 0 -0.0051101713643261484 -0.022695083344482305 0 -0.0034563281319986631 -0.022878684482747751 0 -0.0059033952062948897 -0.020006631889768256 0 -0.0051101713643261484 -0.022695083344482305 0 -0.0071530474616899303 -0.022860008684049679 0 -0.0051101713643261484 -0.022695083344482305 0 -0.0048797792317048887 -0.024805235274941648 0 -0.0071530474616899303 -0.022860008684049679 0 -0.018165300420679049 -0.028471250097939629 0 -0.01457024593664342 -0.026136063868620798 0 -0.0021475557155746514 -0.024219613293434611 0 -0.003562301252443899 -0.022603836884497592 0 -0.0037366478474791104 -0.023585228506200581 0 -0.01457024593664342 -0.026136063868620798 0 -0.0098076567162758959 -0.022286943978620567 0 -0.0051101713643261484 -0.022695083344482305 0 -0.0034563281319986631 -0.022878684482747751 0 -0.0037366478474791104 -0.023585228506200581 0 -0.0037366478474791104 -0.023585228506200581 0 -0.0035910166660774695 -0.024627220412665751 0 -0.0048797792317048887 -0.024805235274941648 0 -0.0021475557155746514 -0.024219613293434611 0 -0.0037366478474791104 -0.023585228506200581 0 -0.0035910166660774695 -0.024627220412665751 0 -0.0021475557155746514 -0.024219613293434611 0 -0.0035910166660774695 -0.024627220412665751 0 -0.0035380944798735171 -0.02589598989466849 0 -0.0035910166660774695 -0.024627220412665751 0 -0.0048797792317048887 -0.024805235274941648 0 -0.0035380944798735171 -0.02589598989466849 0 -0.0048797792317048887 -0.024805235274941648 0 -0.005431085674321082 -0.026530844724898712 0 -0.0035380944798735171 -0.02589598989466849 0 -0.0048797792317048887 -0.024805235274941648 0 -0.005431085674321082 -0.026530844724898712 0 -0.00697636897660402 -0.025630297639334467 0 -0.005431085674321082 -0.026530844724898712 0 -0.0041057481274379094 -0.027441452063072441 0 -0.0048386424443695401 -0.029202754749732142 0 -0.005431085674321082 -0.026530844724898712 0 -0.0035380944798735171 -0.02589598989466849 0 -0.0041057481274379094 -0.027441452063072441 0 -0.005431085674321082 -0.026530844724898712 0 -0.0048386424443695401 -0.029202754749732142 0 -0.0068067421927572435 -0.02810343573176639 0 -0.0021475557155746514 -0.024219613293434611 0 -0.0035380944798735171 -0.02589598989466849 0 -0.0023796480238319254 -0.027991901951210221 0 -0.0035380944798735171 -0.02589598989466849 0 -0.0041057481274379094 -0.027441452063072441 0 -0.0023796480238319254 -0.027991901951210221 0 -0.0054124207971000702 -0.028260269394141689 0 -0.007492690076881873 -0.033287827980599996 0 -0.0023796480238319254 -0.027991901951210221 0 -0.0048386424443695401 -0.029202754749732142 0 -0.0029616228101057591 -0.031593182464725575 0 -0.0041057481274379094 -0.027441452063072441 0 -0.0023796480238319254 -0.027991901951210221 0 -0.0048386424443695401 -0.029202754749732142 0 -0.0048386424443695401 -0.029202754749732142 0 -0.0051912312055011987 -0.032078088813585426 0 -0.0066664185998986129 -0.030494276829738459 0 -0.0048386424443695401 -0.029202754749732142 0 -0.0051912312055011987 -0.032078088813585426 0 -0.0029616228101057591 -0.031593182464725575 0 -0.007492690076881873 -0.033287827980599996 0 -0.0074648183073999785 -0.036643355670828208 0 -0.0051912312055011987 -0.032078088813585426 0 -0.0029616228101057591 -0.031593182464725575 0 -0.0039048225297700612 -0.035082846229419228 0 -0.01164632647130316 -0.034639976299061896 0 -0.0093758359137945772 -0.036855656668382294 0 -0.011139630646915146 -0.038509510772719774 0 -0.0051912312055011987 -0.032078088813585426 0 -0.0039048225297700612 -0.035082846229419228 0 -0.0070791103868762762 -0.033655714510717437 0 -0.0075694005220625846 -0.035692676511616742 0 -0.0088642289376925729 -0.03894689610046808 0 -0.0068229474521178416 -0.035390436630536384 0 -0.0093758359137945772 -0.036855656668382294 0 -0.0077299843151724156 -0.038720342671213569 0 -0.01164632647130316 -0.034639976299061896 0 -0.0093758359137945772 -0.036855656668382294 0 -0.0090924776815667924 -0.032957760853704561 0 -0.0068229474521178416 -0.035390436630536384 0 -0.0093758359137945772 -0.036855656668382294 0 -0.0090924776815667924 -0.032957760853704561 0 -0.0068229474521178416 -0.035390436630536384 0 -0.0090924776815667924 -0.032957760853704561 0 -0.0063240878385433319 -0.031500911298766282 0 -0.0090924776815667924 -0.032957760853704561 0 -0.0086895063518491761 -0.028812330822868777 0 -0.0063240878385433319 -0.031500911298766282 0 -0.011471925512278216 -0.030310444492618001 0 -0.0090924776815667924 -0.032957760853704561 0 -0.0086895063518491761 -0.028812330822868777 0 -0.011471925512278216 -0.030310444492618001 0 -0.01164632647130316 -0.034639976299061896 0 -0.0090924776815667924 -0.032957760853704561 0 -0.018165300420679049 -0.028471250097939629 0 -0.0054124207971000702 -0.028260269394141689 0 -0.010976782509391152 -0.026303735586663626 0 -0.011471925512278216 -0.030310444492618001 0 -0.0086895063518491761 -0.028812330822868777 0 -0.028041384313036165 -0.032273578206264648 0 -0.025495706283665136 -0.033136028941783288 0 -0.025620038723114621 -0.035333025066484766 0 -0.028041384313036165 -0.032273578206264648 0 -0.02659662030809079 -0.031625774625518931 0 -0.025495706283665136 -0.033136028941783288 0 -0.018534301474283633 -0.030423921373562757 0 -0.016542855105671127 -0.033520125436166857 0 -0.02659662030809079 -0.031625774625518931 0 -0.025495706283665136 -0.033136028941783288 0 -0.024617363268821968 -0.03171232098182207 0 -0.025495706283665136 -0.033136028941783288 0 -0.024617363268821968 -0.03171232098182207 0 -0.023645059029165309 -0.034151430134709886 0 -0.022661075209235097 -0.03127957556477369 0 -0.023645059029165309 -0.034151430134709886 0 -0.021943649720968239 -0.034048139713572949 0 -0.022661075209235097 -0.03127957556477369 0 -0.024617363268821968 -0.03171232098182207 0 -0.023645059029165309 -0.034151430134709886 0 -0.023645059029165309 -0.034151430134709886 0 -0.022775108600072168 -0.035473033417343716 0 -0.023919613867073492 -0.036239070114532097 0 -0.023645059029165309 -0.034151430134709886 0 -0.021943649720968239 -0.034048139713572949 0 -0.022775108600072168 -0.035473033417343716 0 -0.025495706283665136 -0.033136028941783288 0 -0.023645059029165309 -0.034151430134709886 0 -0.025607621061802435 -0.034546684690974258 0 -0.023645059029165309 -0.034151430134709886 0 -0.025607621061802435 -0.034546684690974258 0 -0.023919613867073492 -0.036239070114532097 0 -0.023581246799955834 -0.034558402362472054 0 -0.016542855105671127 -0.033520125436166857 0 -0.022661075209235097 -0.03127957556477369 0 -0.020251780694423346 -0.032765175880808045 0 -0.021943649720968239 -0.034048139713572949 0 -0.021943649720968239 -0.034048139713572949 0 -0.021645377187884403 -0.035862252576877106 0 -0.022775108600072168 -0.035473033417343716 0 -0.021943649720968239 -0.034048139713572949 0 -0.020647610585199771 -0.034493863335700065 0 -0.021645377187884403 -0.035862252576877106 0 -0.020647610585199771 -0.034493863335700065 0 -0.020275996729520882 -0.035897830014907137 0 -0.019164305662114328 -0.034458115886865877 0 -0.020251780694423346 -0.032765175880808045 0 -0.020647610585199771 -0.034493863335700065 0 -0.019164305662114328 -0.034458115886865877 0 -0.020251780694423346 -0.032765175880808045 0 -0.021943649720968239 -0.034048139713572949 0 -0.020647610585199771 -0.034493863335700065 0 -0.020647610585199771 -0.034493863335700065 0 -0.020275996729520882 -0.035897830014907137 0 -0.021645377187884403 -0.035862252576877106 0 -0.020275996729520882 -0.035897830014907137 0 -0.021645377187884403 -0.035862252576877106 0 -0.021171487282939334 -0.036732128771588199 0 -0.021645377187884403 -0.035862252576877106 0 -0.021884679013832578 -0.036934833714343945 0 -0.021171487282939334 -0.036732128771588199 0 -0.021645377187884403 -0.035862252576877106 0 -0.022775108600072168 -0.035473033417343716 0 -0.022613697148821714 -0.036934979535727754 0 -0.021645377187884403 -0.035862252576877106 0 -0.021884679013832578 -0.036934833714343945 0 -0.022613697148821714 -0.036934979535727754 0 -0.021884679013832578 -0.036934833714343945 0 -0.022451278571706465 -0.037477911273704402 0 -0.021479073072966072 -0.037557312425506542 0 -0.021884679013832578 -0.036934833714343945 0 -0.022451278571706465 -0.037477911273704402 0 -0.022613697148821714 -0.036934979535727754 0 -0.022451278571706465 -0.037477911273704402 0 -0.021479073072966072 -0.037557312425506542 0 -0.021407375374050797 -0.038666096294159395 0 -0.021884679013832578 -0.036934833714343945 0 -0.021479073072966072 -0.037557312425506542 0 -0.021171487282939334 -0.036732128771588199 0 -0.021479073072966072 -0.037557312425506542 0 -0.021171487282939334 -0.036732128771588199 0 -0.020175143843603156 -0.037533862661927611 0 -0.020275996729520882 -0.035897830014907137 0 -0.021171487282939334 -0.036732128771588199 0 -0.020175143843603156 -0.037533862661927611 0 -0.021479073072966072 -0.037557312425506542 0 -0.020175143843603156 -0.037533862661927611 0 -0.021407375374050797 -0.038666096294159395 0 -0.0075694005220625846 -0.035692676511616742 0 -0.016542855105671127 -0.033520125436166857 0 -0.016542855105671127 -0.033520125436166857 0 -0.016001338306826266 -0.036167948973104005 0 -0.010074716768074149 -0.036754204007644731 0 -0.0099126214142649521 -0.034037888392165046 0 -0.0083063979009553261 -0.035891640541028912 0 -0.022775108600072168 -0.035473033417343716 0 -0.023919613867073492 -0.036239070114532097 0 -0.022613697148821714 -0.036934979535727754 0 -0.022338003799365892 -0.037782878211665517 0 -0.023919613867073492 -0.036239070114532097 0 -0.022613697148821714 -0.036934979535727754 0 -0.0070348613562522316 -0.037617715080976895 0 -0.0083063979009553261 -0.035891640541028912 0 -0.0087040967056754934 -0.037722394377452742 0 -0.016791470680085369 -0.038016451433761762 0 -0.016001338306826266 -0.036167948973104005 0 -0.0070348613562522316 -0.037617715080976895 0 -0.0087040967056754934 -0.037722394377452742 0 -0.0081765120807434262 -0.039130500128057556 0 -0.016791470680085369 -0.038016451433761762 0 -0.019786833223561371 -0.03658856160910548 0 -0.010074716768074149 -0.036754204007644731 0 -0.0087040967056754934 -0.037722394377452742 0 -0.0098205723697507939 -0.0391544707795922 0 -0.010074716768074149 -0.036754204007644731 0 -0.0083063979009553261 -0.035891640541028912 0 -0.0087040967056754934 -0.037722394377452742 0 -0.0087040967056754934 -0.037722394377452742 0 -0.0081765120807434262 -0.039130500128057556 0 -0.0098205723697507939 -0.0391544707795922 0 -0.0081765120807434262 -0.039130500128057556 0 -0.0087435097677129609 -0.040232422516570179 0 -0.0098205723697507939 -0.0391544707795922 0 -0.0070348613562522316 -0.037617715080976895 0 -0.0081765120807434262 -0.039130500128057556 0 -0.006701808530394056 -0.039577372046577214 0 -0.0081765120807434262 -0.039130500128057556 0 -0.0077990764756019001 -0.040421519129307935 0 -0.0087435097677129609 -0.040232422516570179 0 -0.0081765120807434262 -0.039130500128057556 0 -0.0077990764756019001 -0.040421519129307935 0 -0.006701808530394056 -0.039577372046577214 0 -0.0065601743286125202 -0.039264881490449634 0 -0.012015374995946746 -0.041562792501939061 0 -0.0077990764756019001 -0.040421519129307935 0 -0.0087435097677129609 -0.040232422516570179 0 -0.0086005318938375454 -0.041129787313586234 0 -0.021763507426109815 -0.038502296234070497 0 -0.021694461338539955 -0.040295775065259547 0 -0.023410812421828828 -0.039989522408986872 0 -0.021168229870693892 -0.038003435459972042 0 -0.020042530445963793 -0.040997313462176069 0 -0.016791470680085369 -0.038016451433761762 0 -0.012015374995946746 -0.041562792501939061 0 -0.016558620152209061 -0.038787422177724636 0 -0.015155899903636139 -0.040400100702297694 0 -0.016008049033557181 -0.041158347494141101 0 -0.020042530445963793 -0.040997313462176069 0 -0.012015374995946746 -0.041562792501939061 0 -0.016791470680085369 -0.038016451433761762 0 -0.020042530445963793 -0.040997313462176069 0 -0.0077990764756019001 -0.040421519129307935 0 -0.0073295836501524577 -0.04000509207118056 0 -0.0070861630897832593 -0.041126502814433981 0 -0.012015374995946746 -0.041562792501939061 0 -0.013026273998374716 -0.04371592973776843 0 -0.01885754187875114 -0.045416558548585659 0 -0.018535416310242924 -0.045664072898405933 0 -0.018759598944884395 -0.0458576198875148 0 -0.020042530445963793 -0.040997313462176069 0 -0.020160515035750642 -0.044085171065837786 0 -0.021694461338539955 -0.040295775065259547 0 -0.023410812421828828 -0.039989522408986872 0 -0.021621870820403042 -0.042067421688191033 0 -0.018745661201892316 -0.045297085059973291 0 -0.01885754187875114 -0.045416558548585659 0 -0.018535416310242924 -0.045664072898405933 0 -0.018535416310242924 -0.045664072898405933 0 -0.018759598944884395 -0.0458576198875148 0 -0.018563785151604586 -0.046036350247304451 0 -0.013026273998374716 -0.04371592973776843 0 -0.012698068180779599 -0.044365985525073058 0 -0.0070861630897832593 -0.041126502814433981 0 -0.0078874895272979927 -0.041673467429607633 0 -0.0068159028794914228 -0.042663506507823343 0 -0.018759598944884395 -0.0458576198875148 0 -0.018563785151604586 -0.046036350247304451 0 -0.018584276488708334 -0.046184293267946937 0 -0.0087435097677129609 -0.040232422516570179 0 -0.0086005318938375454 -0.041129787313586234 0 -0.0089895798623061893 -0.040736427607491091 0 -0.0077990764756019001 -0.040421519129307935 0 -0.0086005318938375454 -0.041129787313586234 0 -0.0078874895272979927 -0.041673467429607633 0 -0.0077990764756019001 -0.040421519129307935 0 -0.0070861630897832593 -0.041126502814433981 0 -0.0078874895272979927 -0.041673467429607633 0 -0.0078874895272979927 -0.041673467429607633 0 -0.0085662316685757803 -0.042014877604255416 0 -0.0081021542261881137 -0.043115231051854289 0 -0.0086005318938375454 -0.041129787313586234 0 -0.0085662316685757803 -0.042014877604255416 0 -0.0089152946417700024 -0.041687232079918424 0 -0.0086005318938375454 -0.041129787313586234 0 -0.0078874895272979927 -0.041673467429607633 0 -0.0085662316685757803 -0.042014877604255416 0 -0.0089895798623061893 -0.040736427607491091 0 -0.0089093098416316765 -0.041376711619786927 0 -0.0098018743608395027 -0.04084031111713371 0 -0.0086005318938375454 -0.041129787313586234 0 -0.0089152946417700024 -0.041687232079918424 0 -0.0089895798623061893 -0.040736427607491091 0 -0.0089152946417700024 -0.041687232079918424 0 -0.0089895798623061893 -0.040736427607491091 0 -0.0089093098416316765 -0.041376711619786927 0 -0.0089093098416316765 -0.041376711619786927 0 -0.0078430051209160637 -0.040924954464693075 0 -0.0098018743608395027 -0.04084031111713371 0 -0.0077702059175332331 -0.040668149692917897 0 -0.0075601576554382563 -0.039478385606649347 0 -0.0052632470557531742 -0.038458321470769205 0 -0.0070031018459613646 -0.037297470753338474 0 -0.0075698416685585522 -0.039925924484015413 0 -0.0078430051209160637 -0.040924954464693075 0 -0.0052632470557531742 -0.038458321470769205 0 -0.0075698416685585522 -0.039925924484015413 0 -0.0075601576554382563 -0.039478385606649347 0 -0.0074648183073999785 -0.036643355670828208 0 -0.0098018743608395027 -0.04084031111713371 0 -0.011139630646915146 -0.038509510772719774 0 -0.0095283277146431082 -0.03951111895132893 0 -0.0052632470557531742 -0.038458321470769205 0 -0.0039048225297700612 -0.035082846229419228 0 -0.0070031018459613646 -0.037297470753338474 0 -0.0039048225297700612 -0.035082846229419228 0 -0.0070791103868762762 -0.033655714510717437 0 -0.0070031018459613646 -0.037297470753338474 0 -0.0093758359137945772 -0.036855656668382294 0 -0.011139630646915146 -0.038509510772719774 0 -0.0095283277146431082 -0.03951111895132893 0 -0.0093758359137945772 -0.036855656668382294 0 -0.0095283277146431082 -0.03951111895132893 0 -0.0077299843151724156 -0.038720342671213569 0 -0.0089895798623061893 -0.040736427607491091 0 -0.0098018743608395027 -0.04084031111713371 0 -0.0095283277146431082 -0.03951111895132893 0 -0.0087435097677129609 -0.040232422516570179 0 -0.0089895798623061893 -0.040736427607491091 0 -0.0098205723697507939 -0.0391544707795922 0 -0.0089501133343258613 -0.040476491807662149 0 -0.0088642289376925729 -0.03894689610046808 0 -0.0089895798623061893 -0.040736427607491091 0 -0.0095283277146431082 -0.03951111895132893 0 -0.0077299843151724156 -0.038720342671213569 0 -0.029835892927449929 -0.047986558278094463 0 -0.030174520160545996 -0.049669893845538521 0 -0.025184496224020077 -0.052212210453900607 0 -0.024449480120170588 -0.052302448754314446 0 -0.024800539369288558 -0.051585306620566901 0 -0.017113676409252997 -0.044930508849786756 0 -0.023432969947689099 -0.042161593609704083 0 -0.025184496224020077 -0.052212210453900607 0 -0.024449480120170588 -0.052302448754314446 0 -0.024924292300975114 -0.05247576162747631 0 -0.033866883260714957 -0.044598783029940893 0 -0.033935816832683742 -0.044783650383304272 0 -0.033969696769994444 -0.044575548027622133 0 -0.030174520160545996 -0.049669893845538521 0 -0.023432969947689099 -0.042161593609704083 0 -0.033886250178739127 -0.044482421078966737 0 -0.033969696769994444 -0.044575548027622133 0 -0.033940020265425842 -0.044374886235441086 0 -0.033886250178739127 -0.044482421078966737 0 -0.033866883260714957 -0.044598783029940893 0 -0.033969696769994444 -0.044575548027622133 0 -0.023432969947689099 -0.042161593609704083 0 -0.030046724606998535 -0.041415037811312824 0 -0.025330522108908807 -0.038636710006972795 0 -0.025623667110243716 -0.037755818365884687 0 -0.02479921412004378 -0.037899166838069508 0 -0.02508677761184723 -0.037095545387057387 0 -0.025623667110243716 -0.037755818365884687 0 -0.02479921412004378 -0.037899166838069508 0 -0.023432969947689099 -0.042161593609704083 0 -0.017638271856583301 -0.035575835805519714 0 -0.010715278083616747 -0.033358199674963222 0 -0.011489743064258907 -0.034714124115929057 0 -0.012608765852791812 -0.033370035906519928 0 -0.011257651814879858 -0.031667341306158302 0 -0.010715278083616747 -0.033358199674963222 0 -0.012608765852791812 -0.033370035906519928 0 -0.01168456093145861 -0.037411315301101027 0 -0.010199030740456971 -0.035089021770056454 0 -0.011489743064258907 -0.034714124115929057 0 -0.010199030740456971 -0.035089021770056454 0 -0.010715278083616747 -0.033358199674963222 0 -0.011489743064258907 -0.034714124115929057 0 -0.011489743064258907 -0.034714124115929057 0 -0.012611015763072442 -0.035298800274432281 0 -0.012608765852791812 -0.033370035906519928 0 -0.01168456093145861 -0.037411315301101027 0 -0.011489743064258907 -0.034714124115929057 0 -0.012611015763072442 -0.035298800274432281 0 -0.012611015763072442 -0.035298800274432281 0 -0.012608765852791812 -0.033370035906519928 0 -0.014260026605024907 -0.034944424361678779 0 -0.014478062166397753 -0.032628432911810168 0 -0.012608765852791812 -0.033370035906519928 0 -0.014260026605024907 -0.034944424361678779 0 -0.012611015763072442 -0.035298800274432281 0 -0.014260026605024907 -0.034944424361678779 0 -0.013592476966353328 -0.037116434369771648 0 -0.014260026605024907 -0.034944424361678779 0 -0.013592476966353328 -0.037116434369771648 0 -0.014927894920601778 -0.036597517185158038 0 -0.01168456093145861 -0.037411315301101027 0 -0.012611015763072442 -0.035298800274432281 0 -0.013592476966353328 -0.037116434369771648 0 -0.017113676409252997 -0.044930508849786756 0 -0.018488464028215527 -0.045859186374627568 0 -0.01168456093145861 -0.037411315301101027 0 -0.013592476966353328 -0.037116434369771648 0 -0.013213687991456328 -0.039928556801664225 0 -0.013592476966353328 -0.037116434369771648 0 -0.014901231752069286 -0.038718080711848409 0 -0.014927894920601778 -0.036597517185158038 0 -0.013592476966353328 -0.037116434369771648 0 -0.014901231752069286 -0.038718080711848409 0 -0.013213687991456328 -0.039928556801664225 0 -0.014901231752069286 -0.038718080711848409 0 -0.016367236285870595 -0.037087878319514316 0 -0.014927894920601778 -0.036597517185158038 0 -0.014901231752069286 -0.038718080711848409 0 -0.016367236285870595 -0.037087878319514316 0 -0.01688582055767595 -0.039799406672275141 0 -0.016367236285870595 -0.037087878319514316 0 -0.018124017344611915 -0.037846770295297052 0 -0.01688582055767595 -0.039799406672275141 0 -0.016367236285870595 -0.037087878319514316 0 -0.018043006401077394 -0.035413658681017875 0 -0.018124017344611915 -0.037846770295297052 0 -0.016367236285870595 -0.037087878319514316 0 -0.016352693723759641 -0.034990567746962957 0 -0.018043006401077394 -0.035413658681017875 0 -0.016367236285870595 -0.037087878319514316 0 -0.014927894920601778 -0.036597517185158038 0 -0.016352693723759641 -0.034990567746962957 0 -0.014260026605024907 -0.034944424361678779 0 -0.014927894920601778 -0.036597517185158038 0 -0.016352693723759641 -0.034990567746962957 0 -0.014260026605024907 -0.034944424361678779 0 -0.015564248353856129 -0.033717383162927335 0 -0.016352693723759641 -0.034990567746962957 0 -0.014478062166397753 -0.032628432911810168 0 -0.016063723504973936 -0.032418214773486803 0 -0.015564248353856129 -0.033717383162927335 0 -0.014478062166397753 -0.032628432911810168 0 -0.014260026605024907 -0.034944424361678779 0 -0.015564248353856129 -0.033717383162927335 0 -0.015564248353856129 -0.033717383162927335 0 -0.016967585851624011 -0.033318738585153863 0 -0.016352693723759641 -0.034990567746962957 0 -0.016063723504973936 -0.032418214773486803 0 -0.015564248353856129 -0.033717383162927335 0 -0.016967585851624011 -0.033318738585153863 0 -0.016967585851624011 -0.033318738585153863 0 -0.016352693723759641 -0.034990567746962957 0 -0.018088553829042533 -0.034034869177341866 0 -0.016352693723759641 -0.034990567746962957 0 -0.018088553829042533 -0.034034869177341866 0 -0.018043006401077394 -0.035413658681017875 0 -0.018088553829042533 -0.034034869177341866 0 -0.018043006401077394 -0.035413658681017875 0 -0.019164305662114328 -0.034458115886865877 0 -0.017422200833886726 -0.031799414198845702 0 -0.016967585851624011 -0.033318738585153863 0 -0.018468406944772957 -0.032822087425220463 0 -0.018088553829042533 -0.034034869177341866 0 -0.018468406944772957 -0.032822087425220463 0 -0.019164305662114328 -0.034458115886865877 0 -0.016967585851624011 -0.033318738585153863 0 -0.018088553829042533 -0.034034869177341866 0 -0.018468406944772957 -0.032822087425220463 0 -0.020251780694423346 -0.032765175880808045 0 -0.018468406944772957 -0.032822087425220463 0 -0.019164305662114328 -0.034458115886865877 0 -0.020275996729520882 -0.035897830014907137 0 -0.019164305662114328 -0.034458115886865877 0 -0.018997825150910464 -0.036340977570134027 0 -0.018043006401077394 -0.035413658681017875 0 -0.020041883959721944 -0.036979861413750495 0 -0.018124017344611915 -0.037846770295297052 0 -0.018198910414415053 -0.035535639264643051 0 -0.019470160987337212 -0.036644977120115441 0 -0.018043006401077394 -0.035413658681017875 0 -0.019164305662114328 -0.034458115886865877 0 -0.018997825150910464 -0.036340977570134027 0 -0.020041883959721944 -0.036979861413750495 0 -0.018124017344611915 -0.037846770295297052 0 -0.019396031003450477 -0.039864139495913664 0 -0.021763507426109815 -0.038502296234070497 0 -0.020041883959721944 -0.036979861413750495 0 -0.019396031003450477 -0.039864139495913664 0 -0.020275996729520882 -0.035897830014907137 0 -0.020175143843603156 -0.037533862661927611 0 -0.018997825150910464 -0.036340977570134027 0 -0.021168229870693892 -0.038003435459972042 0 -0.019470160987337212 -0.036644977120115441 0 -0.021763507426109815 -0.038502296234070497 0 -0.021694461338539955 -0.040295775065259547 0 -0.019396031003450477 -0.039864139495913664 0 -0.021694461338539955 -0.040295775065259547 0 -0.019396031003450477 -0.039864139495913664 0 -0.019781381056156504 -0.042081218311946077 0 -0.018124017344611915 -0.037846770295297052 0 -0.019396031003450477 -0.039864139495913664 0 -0.01688582055767595 -0.039799406672275141 0 -0.019396031003450477 -0.039864139495913664 0 -0.019781381056156504 -0.042081218311946077 0 -0.017670364931014756 -0.042659507520947451 0 -0.021694461338539955 -0.040295775065259547 0 -0.021621870820403042 -0.042067421688191033 0 -0.019781381056156504 -0.042081218311946077 0 -0.018535416310242924 -0.045664072898405933 0 -0.018563785151604586 -0.046036350247304451 0 -0.018460553540328023 -0.045932017954802319 0 -0.020160515035750642 -0.044085171065837786 0 -0.019134847949874391 -0.045001710570117565 0 -0.021621870820403042 -0.042067421688191033 0 -0.019781381056156504 -0.042081218311946077 0 -0.0198574167350338 -0.044148283615451298 0 -0.018563785151604586 -0.046036350247304451 0 -0.018460553540328023 -0.045932017954802319 0 -0.018579655940222786 -0.046208227042492798 0 -0.019134847949874391 -0.045001710570117565 0 -0.018257850254688297 -0.045948636350758264 0 -0.018460553540328023 -0.045932017954802319 0 -0.018195516279968002 -0.045974203051761114 0 -0.018579655940222786 -0.046208227042492798 0 -0.0198574167350338 -0.044148283615451298 0 -0.018295903395725066 -0.044547924070819082 0 -0.018195516279968002 -0.045974203051761114 0 -0.019781381056156504 -0.042081218311946077 0 -0.0198574167350338 -0.044148283615451298 0 -0.017670364931014756 -0.042659507520947451 0 -0.0198574167350338 -0.044148283615451298 0 -0.018295903395725066 -0.044547924070819082 0 -0.017670364931014756 -0.042659507520947451 0 -0.018295903395725066 -0.044547924070819082 0 -0.017670364931014756 -0.042659507520947451 0 -0.016995230175301156 -0.045332854945866329 0 -0.018295903395725066 -0.044547924070819082 0 -0.016995230175301156 -0.045332854945866329 0 -0.018195516279968002 -0.045974203051761114 0 -0.020324371012667642 -0.049104481472841403 0 -0.021558925061493209 -0.049322400216614978 0 -0.022058889265711989 -0.05076241245379895 0 -0.021558925061493209 -0.049322400216614978 0 -0.021894341913789903 -0.048577083577601828 0 -0.021034058794212825 -0.048097849466126372 0 -0.020324371012667642 -0.049104481472841403 0 -0.021558925061493209 -0.049322400216614978 0 -0.021034058794212825 -0.048097849466126372 0 -0.017670364931014756 -0.042659507520947451 0 -0.016995230175301156 -0.045332854945866329 0 -0.014961367940103814 -0.042603737482751342 0 -0.018680780957519745 -0.04715650772300959 0 -0.018473461923521371 -0.046651955094829632 0 -0.014901231752069286 -0.038718080711848409 0 -0.014961367940103814 -0.042603737482751342 0 -0.01688582055767595 -0.039799406672275141 0 -0.017670364931014756 -0.042659507520947451 0 -0.014961367940103814 -0.042603737482751342 0 -0.01688582055767595 -0.039799406672275141 0 -0.019396031003450477 -0.039864139495913664 0 -0.017670364931014756 -0.042659507520947451 0 -0.01688582055767595 -0.039799406672275141 0 -0.014901231752069286 -0.038718080711848409 0 -0.014961367940103814 -0.042603737482751342 0 -0.013213687991456328 -0.039928556801664225 0 -0.024449480120170588 -0.052302448754314446 0 -0.023468123786837537 -0.051774693256614338 0 -0.024800539369288558 -0.051585306620566901 0 -0.023468123786837537 -0.051774693256614338 0 -0.023706140217846963 -0.050558488998667418 0 -0.024800539369288558 -0.051585306620566901 0 -0.018473461923521371 -0.046651955094829632 0 -0.018488464028215527 -0.045859186374627568 0 -0.022058889265711989 -0.05076241245379895 0 -0.023468123786837537 -0.051774693256614338 0 -0.023706140217846963 -0.050558488998667418 0 -0.021558925061493209 -0.049322400216614978 0 -0.022058889265711989 -0.05076241245379895 0 -0.022566255817619622 -0.049656322826151206 0 -0.022058889265711989 -0.05076241245379895 0 -0.022566255817619622 -0.049656322826151206 0 -0.023706140217846963 -0.050558488998667418 0 -0.022566255817619622 -0.049656322826151206 0 -0.023846718343541042 -0.04912964976828741 0 -0.0226651442748418 -0.048263208895018485 0 -0.022566255817619622 -0.049656322826151206 0 -0.021894341913789903 -0.048577083577601828 0 -0.0226651442748418 -0.048263208895018485 0 -0.021558925061493209 -0.049322400216614978 0 -0.022566255817619622 -0.049656322826151206 0 -0.021894341913789903 -0.048577083577601828 0 -0.023846718343541042 -0.04912964976828741 0 -0.023706140217846963 -0.050558488998667418 0 -0.024808779293357237 -0.049895053424423567 0 -0.022566255817619622 -0.049656322826151206 0 -0.023846718343541042 -0.04912964976828741 0 -0.023706140217846963 -0.050558488998667418 0 -0.023706140217846963 -0.050558488998667418 0 -0.02489788590538082 -0.050771906558890093 0 -0.024808779293357237 -0.049895053424423567 0 -0.023846718343541042 -0.04912964976828741 0 -0.024808779293357237 -0.049895053424423567 0 -0.025312935611055121 -0.048981523327514639 0 -0.024808779293357237 -0.049895053424423567 0 -0.025739557367252374 -0.050559212330230412 0 -0.025312935611055121 -0.048981523327514639 0 -0.026674665553685677 -0.050881410537813254 0 -0.025739557367252374 -0.050559212330230412 0 -0.025312935611055121 -0.048981523327514639 0 -0.026631714915564614 -0.050838358480813264 0 -0.0260197673480024 -0.050389391737165182 0 -0.02489788590538082 -0.050771906558890093 0 -0.024808779293357237 -0.049895053424423567 0 -0.025739557367252374 -0.050559212330230412 0 -0.02489788590538082 -0.050771906558890093 0 -0.025739557367252374 -0.050559212330230412 0 -0.025523373104298485 -0.05103611946296481 0 -0.02489788590538082 -0.050771906558890093 0 -0.025523373104298485 -0.05103611946296481 0 -0.024800539369288558 -0.051585306620566901 0 -0.02573351606042969 -0.051577070249784585 0 -0.025523373104298485 -0.05103611946296481 0 -0.024800539369288558 -0.051585306620566901 0 -0.023706140217846963 -0.050558488998667418 0 -0.02489788590538082 -0.050771906558890093 0 -0.024800539369288558 -0.051585306620566901 0 -0.02573351606042969 -0.051577070249784585 0 -0.025184496224020077 -0.052212210453900607 0 -0.024800539369288558 -0.051585306620566901 0 -0.026690078049472547 -0.051107182361546974 0 -0.025857992426023803 -0.05130553748391644 0 -0.026732976837364589 -0.051573233881767044 0 -0.025857992426023803 -0.05130553748391644 0 -0.026280646766535722 -0.051580406657667451 0 -0.025911296982744046 -0.051432316890820229 0 -0.025857992426023803 -0.05130553748391644 0 -0.026280646766535722 -0.051580406657667451 0 -0.026732976837364589 -0.051573233881767044 0 -0.027148629182284251 -0.051857489191752371 0 -0.026732976837364589 -0.051573233881767044 0 -0.02694227683155884 -0.051907154005600621 0 -0.026280646766535722 -0.051580406657667451 0 -0.026732976837364589 -0.051573233881767044 0 -0.02694227683155884 -0.051907154005600621 0 -0.0260197673480024 -0.050389391737165182 0 -0.025282261444769385 -0.050062054332733481 0 -0.023846718343541042 -0.04912964976828741 0 -0.025312935611055121 -0.048981523327514639 0 -0.024020971407900247 -0.047985259138940826 0 -0.026280646766535722 -0.051580406657667451 0 -0.02694227683155884 -0.051907154005600621 0 -0.026041034386661433 -0.051800639801513428 0 -0.024020971407900247 -0.047985259138940826 0 -0.023437233259592488 -0.048132356318659329 0 -0.022996956841475024 -0.047261709872648716 0 -0.025282261444769385 -0.050062054332733481 0 -0.023142593860544881 -0.048633917245239168 0 -0.023889517673131876 -0.049192184880205228 0 -0.023013978165039809 -0.047278082546136684 0 -0.023846718343541042 -0.04912964976828741 0 -0.0226651442748418 -0.048263208895018485 0 -0.022967314488774329 -0.047228978035863504 0 -0.023846718343541042 -0.04912964976828741 0 -0.024020971407900247 -0.047985259138940826 0 -0.023437233259592488 -0.048132356318659329 0 -0.021894341913789903 -0.048577083577601828 0 -0.0226651442748418 -0.048263208895018485 0 -0.021752174514639788 -0.047262334846187581 0 -0.0226651442748418 -0.048263208895018485 0 -0.021752174514639788 -0.047262334846187581 0 -0.022967314488774329 -0.047228978035863504 0 -0.021752174514639788 -0.047262334846187581 0 -0.022967314488774329 -0.047228978035863504 0 -0.021951015200304951 -0.045707909327427576 0 -0.023013978165039809 -0.047278082546136684 0 -0.023142593860544881 -0.048633917245239168 0 -0.025448462397106256 -0.051543376522976754 0 -0.025911296982744046 -0.051432316890820229 0 -0.025600345014035516 -0.051292609156679762 0 -0.026041034386661433 -0.051800639801513428 0 -0.025448462397106256 -0.051543376522976754 0 -0.025911296982744046 -0.051432316890820229 0 -0.026280646766535722 -0.051580406657667451 0 -0.026041034386661433 -0.051800639801513428 0 -0.025911296982744046 -0.051432316890820229 0 -0.025857992426023803 -0.05130553748391644 0 -0.025911296982744046 -0.051432316890820229 0 -0.025783975218615841 -0.051239376499998941 0 -0.025911296982744046 -0.051432316890820229 0 -0.025783975218615841 -0.051239376499998941 0 -0.025600345014035516 -0.051292609156679762 0 -0.025783975218615841 -0.051239376499998941 0 -0.025600345014035516 -0.051292609156679762 0 -0.025609342072168938 -0.051116102549857302 0 -0.025600345014035516 -0.051292609156679762 0 -0.02510469517999114 -0.051129858370833649 0 -0.025609342072168938 -0.051116102549857302 0 -0.025448462397106256 -0.051543376522976754 0 -0.025600345014035516 -0.051292609156679762 0 -0.02510469517999114 -0.051129858370833649 0 -0.022235226425740481 -0.049689589800838978 0 -0.020984262850273782 -0.048761280306211539 0 -0.021549172859257785 -0.048353945311068534 0 -0.023142593860544881 -0.048633917245239168 0 -0.023817868669742386 -0.050262745165768861 0 -0.020984262850273782 -0.048761280306211539 0 -0.021549172859257785 -0.048353945311068534 0 -0.020760522002427374 -0.047888860521688198 0 -0.020356745256367784 -0.044930004463321703 0 -0.019160653518052424 -0.0454238220582956 0 -0.019246758718276961 -0.044371077265881777 0 -0.020627877006594332 -0.046652642456776167 0 -0.018447223143004846 -0.04654288247462364 0 -0.020356745256367784 -0.044930004463321703 0 -0.01989156121738014 -0.045970409628371144 0 -0.019160653518052424 -0.0454238220582956 0 -0.020356745256367784 -0.044930004463321703 0 -0.01989156121738014 -0.045970409628371144 0 -0.020946272915218476 -0.046133689695284773 0 -0.021951015200304951 -0.045707909327427576 0 -0.020356745256367784 -0.044930004463321703 0 -0.020946272915218476 -0.046133689695284773 0 -0.023142593860544881 -0.048633917245239168 0 -0.020627877006594332 -0.046652642456776167 0 -0.021752174514639788 -0.047262334846187581 0 -0.021951015200304951 -0.045707909327427576 0 -0.020946272915218476 -0.046133689695284773 0 -0.01989156121738014 -0.045970409628371144 0 -0.020946272915218476 -0.046133689695284773 0 -0.020890481857750467 -0.047122602602391719 0 -0.021752174514639788 -0.047262334846187581 0 -0.020946272915218476 -0.046133689695284773 0 -0.020890481857750467 -0.047122602602391719 0 -0.021752174514639788 -0.047262334846187581 0 -0.020890481857750467 -0.047122602602391719 0 -0.021034058794212825 -0.048097849466126372 0 -0.021894341913789903 -0.048577083577601828 0 -0.021752174514639788 -0.047262334846187581 0 -0.021034058794212825 -0.048097849466126372 0 -0.020890481857750467 -0.047122602602391719 0 -0.021034058794212825 -0.048097849466126372 0 -0.020106425407478732 -0.047362365740354968 0 -0.016995230175301156 -0.045332854945866329 0 -0.018195516279968002 -0.045974203051761114 0 -0.018797248794512167 -0.046767265194906163 0 -0.018680780957519745 -0.04715650772300959 0 -0.018737940486428729 -0.046805016945731186 0 -0.020324371012667642 -0.049104481472841403 0 -0.021034058794212825 -0.048097849466126372 0 -0.020106425407478732 -0.047362365740354968 0 -0.020324371012667642 -0.049104481472841403 0 -0.020106425407478732 -0.047362365740354968 0 -0.018797248794512167 -0.046767265194906163 0 -0.01989156121738014 -0.045970409628371144 0 -0.020890481857750467 -0.047122602602391719 0 -0.020106425407478732 -0.047362365740354968 0 -0.01989156121738014 -0.045970409628371144 0 -0.020106425407478732 -0.047362365740354968 0 -0.018797248794512167 -0.046767265194906163 0 -0.018797248794512167 -0.046767265194906163 0 -0.019026421847276306 -0.046162385439334153 0 -0.018552130977029086 -0.046326716971924205 0 -0.01989156121738014 -0.045970409628371144 0 -0.018797248794512167 -0.046767265194906163 0 -0.019026421847276306 -0.046162385439334153 0 -0.019026421847276306 -0.046162385439334153 0 -0.018552130977029086 -0.046326716971924205 0 -0.018745094935287566 -0.045915931344010251 0 -0.018195516279968002 -0.045974203051761114 0 -0.018797248794512167 -0.046767265194906163 0 -0.018579655940222786 -0.046208227042492798 0 -0.018797248794512167 -0.046767265194906163 0 -0.018579655940222786 -0.046208227042492798 0 -0.018552130977029086 -0.046326716971924205 0 -0.018537621071941322 -0.046224688415867209 0 -0.018579655940222786 -0.046208227042492798 0 -0.018552130977029086 -0.046326716971924205 0 -0.018563785151604586 -0.046036350247304451 0 -0.018537621071941322 -0.046224688415867209 0 -0.018579655940222786 -0.046208227042492798 0 -0.018537621071941322 -0.046224688415867209 0 -0.018552130977029086 -0.046326716971924205 0 -0.018286212915415264 -0.046073974790453512 0 -0.018552130977029086 -0.046326716971924205 0 -0.018402425484723383 -0.045975026924471751 0 -0.018286212915415264 -0.046073974790453512 0 -0.018402425484723383 -0.045975026924471751 0 -0.018548613320391604 -0.045608934526186265 0 -0.01818447067841017 -0.045740911948202304 0 -0.018402425484723383 -0.045975026924471751 0 -0.018548613320391604 -0.045608934526186265 0 -0.018745094935287566 -0.045915931344010251 0 -0.018552130977029086 -0.046326716971924205 0 -0.018402425484723383 -0.045975026924471751 0 -0.018745094935287566 -0.045915931344010251 0 -0.01989156121738014 -0.045970409628371144 0 -0.019026421847276306 -0.046162385439334153 0 -0.019160653518052424 -0.0454238220582956 0 -0.019026421847276306 -0.046162385439334153 0 -0.018745094935287566 -0.045915931344010251 0 -0.019160653518052424 -0.0454238220582956 0 -0.018548613320391604 -0.045608934526186265 0 -0.018745094935287566 -0.045915931344010251 0 -0.019160653518052424 -0.0454238220582956 0 -0.019160653518052424 -0.0454238220582956 0 -0.018601488392054 -0.045002634640462079 0 -0.019246758718276961 -0.044371077265881777 0 -0.018548613320391604 -0.045608934526186265 0 -0.019160653518052424 -0.0454238220582956 0 -0.018601488392054 -0.045002634640462079 0 -0.017600015262817938 -0.04587925746784554 0 -0.017573951891246574 -0.046374491536513913 0 -0.018139367355462059 -0.045707460403834499 0 -0.018178743778935955 -0.04541271415791158 0 -0.018124841006919114 -0.04566948086116767 0 -0.017600015262817938 -0.04587925746784554 0 -0.018139367355462059 -0.045707460403834499 0 -0.01818447067841017 -0.045740911948202304 0 -0.018548613320391604 -0.045608934526186265 0 -0.018601488392054 -0.045002634640462079 0 -0.01818447067841017 -0.045740911948202304 0 -0.017573951891246574 -0.046374491536513913 0 -0.017963233296635031 -0.046845949920681362 0 -0.018139367355462059 -0.045707460403834499 0 -0.013221806458145954 -0.047503928372393645 0 -0.012793584498328256 -0.046475429374927525 0 -0.017573951891246574 -0.046374491536513913 0 -0.017418612255883734 -0.046851421001363143 0 -0.017963233296635031 -0.046845949920681362 0 -0.017600015262817938 -0.04587925746784554 0 -0.016943728958576935 -0.046366858417739673 0 -0.017046041940635921 -0.046447208451840569 0 -0.017600015262817938 -0.04587925746784554 0 -0.017573951891246574 -0.046374491536513913 0 -0.017046041940635921 -0.046447208451840569 0 -0.018178743778935955 -0.04541271415791158 0 -0.018447223143004846 -0.04654288247462364 0 -0.018447223143004846 -0.04654288247462364 0 -0.018147741291353752 -0.046389573020977973 0 -0.016951502132875242 -0.04637629991837694 0 -0.017046041940635921 -0.046447208451840569 0 -0.016968336979234024 -0.046747228892084186 0 -0.017046041940635921 -0.046447208451840569 0 -0.016968336979234024 -0.046747228892084186 0 -0.017290254597787165 -0.046591507520091439 0 -0.017573951891246574 -0.046374491536513913 0 -0.017290254597787165 -0.046591507520091439 0 -0.017418612255883734 -0.046851421001363143 0 -0.017573951891246574 -0.046374491536513913 0 -0.017046041940635921 -0.046447208451840569 0 -0.017290254597787165 -0.046591507520091439 0 -0.016968336979234024 -0.046747228892084186 0 -0.017290254597787165 -0.046591507520091439 0 -0.017418612255883734 -0.046851421001363143 0 -0.016968336979234024 -0.046747228892084186 0 -0.017418612255883734 -0.046851421001363143 0 -0.016931372499553777 -0.047231158123917899 0 -0.017418612255883734 -0.046851421001363143 0 -0.016931372499553777 -0.047231158123917899 0 -0.017360755751615775 -0.047362039389546237 0 -0.013221806458145954 -0.047503928372393645 0 -0.013802369611120599 -0.050108322574031736 0 -0.017360755751615775 -0.047362039389546237 0 -0.017963233296635031 -0.046845949920681362 0 -0.017691709397764262 -0.047973040282390772 0 -0.017418612255883734 -0.046851421001363143 0 -0.017360755751615775 -0.047362039389546237 0 -0.017963233296635031 -0.046845949920681362 0 -0.0084996935967276074 -0.048598143445830792 0 -0.0093791877066241279 -0.050779829832830456 0 -0.010384370712277999 -0.050566808059768535 0 -0.0093791877066241279 -0.050779829832830456 0 -0.011011499779353482 -0.05106571619058653 0 -0.010384370712277999 -0.050566808059768535 0 -0.013802369611120599 -0.050108322574031736 0 -0.010674779273188609 -0.050571534807235557 0 -0.013417661933849656 -0.051839325436172361 0 -0.013806412325585507 -0.049999971864463769 0 -0.014954034447452295 -0.051166442744760891 0 -0.012676436906049563 -0.051694217071230272 0 -0.013804815268734064 -0.049999117069365127 0 -0.011011499779353482 -0.05106571619058653 0 -0.013802369611120599 -0.050108322574031736 0 -0.013805623994218384 -0.050002040035949137 0 -0.013806412325585507 -0.049999971864463769 0 -0.014954034447452295 -0.051166442744760891 0 -0.015690351613706785 -0.049999977685355995 0 -0.014954034447452295 -0.051166442744760891 0 -0.015634270535932599 -0.051751303828658855 0 -0.016306768506775055 -0.051143749343599859 0 -0.014954034447452295 -0.051166442744760891 0 -0.015634270535932599 -0.051751303828658855 0 -0.014881443593440272 -0.052251684531940921 0 -0.013417661933849656 -0.051839325436172361 0 -0.014954034447452295 -0.051166442744760891 0 -0.014881443593440272 -0.052251684531940921 0 -0.015634270535932599 -0.051751303828658855 0 -0.014881443593440272 -0.052251684531940921 0 -0.016214172728532421 -0.052365983435411517 0 -0.013802369611120599 -0.050108322574031736 0 -0.016149002649259551 -0.05008098113431704 0 -0.016931372499553777 -0.047231158123917899 0 -0.017360755751615775 -0.047362039389546237 0 -0.017080001065615968 -0.04777840331538679 0 -0.017360755751615775 -0.047362039389546237 0 -0.017691709397764262 -0.047973040282390772 0 -0.017080001065615968 -0.04777840331538679 0 -0.016149002649259551 -0.05008098113431704 0 -0.016885839355094839 -0.050028724098134296 0 -0.016931372499553777 -0.047231158123917899 0 -0.017080001065615968 -0.04777840331538679 0 -0.016477976513157137 -0.047601262482935343 0 -0.014881443593440272 -0.052251684531940921 0 -0.016356784102622521 -0.052650519114845203 0 -0.016214172728532421 -0.052365983435411517 0 -0.016357766356549831 -0.05264395512111051 0 -0.016446900259657761 -0.052011257353225517 0 -0.018020440372533718 -0.05307574625532651 0 -0.016357766356549831 -0.05264395512111051 0 -0.016214172728532421 -0.052365983435411517 0 -0.016446900259657761 -0.052011257353225517 0 -0.016885839355094839 -0.050028724098134296 0 -0.017017902013738723 -0.050667521460643419 0 -0.016879762313135031 -0.051668202799879569 0 -0.016446900259657761 -0.052011257353225517 0 -0.016306768506775055 -0.051143749343599859 0 -0.016879762313135031 -0.051668202799879569 0 -0.016446900259657761 -0.052011257353225517 0 -0.017507399008255303 -0.052196813051077914 0 -0.015634270535932599 -0.051751303828658855 0 -0.016214172728532421 -0.052365983435411517 0 -0.016446900259657761 -0.052011257353225517 0 -0.015634270535932599 -0.051751303828658855 0 -0.016446900259657761 -0.052011257353225517 0 -0.016306768506775055 -0.051143749343599859 0 -0.016306768506775055 -0.051143749343599859 0 -0.015690351613706785 -0.049999977685355995 0 -0.017574321623420177 -0.04999997676717062 0 -0.014954034447452295 -0.051166442744760891 0 -0.016306768506775055 -0.051143749343599859 0 -0.015690351613706785 -0.049999977685355995 0 -0.016879762313135031 -0.051668202799879569 0 -0.016306768506775055 -0.051143749343599859 0 -0.017257589923268805 -0.05132080426627695 0 -0.016306768506775055 -0.051143749343599859 0 -0.017574321623420177 -0.04999997676717062 0 -0.017257589923268805 -0.05132080426627695 0 -0.017571870100003502 -0.050001573486790928 0 -0.018282243261306879 -0.051245617633272879 0 -0.020334313405674525 -0.049996322461140136 0 -0.017574560452193348 -0.050000315904629729 0 -0.018280889815181087 -0.051382067766701324 0 -0.017574321623420177 -0.04999997676717062 0 -0.017257589923268805 -0.05132080426627695 0 -0.018138797581727758 -0.051431136400021546 0 -0.018138797581727758 -0.051431136400021546 0 -0.017507399008255303 -0.052196813051077914 0 -0.018729637800283028 -0.052865114811070861 0 -0.016885839355094839 -0.050028724098134296 0 -0.019355110101922018 -0.05152559233950519 0 -0.018280889815181087 -0.051382067766701324 0 -0.020744917709096231 -0.051906315177572625 0 -0.016446900259657761 -0.052011257353225517 0 -0.017507399008255303 -0.052196813051077914 0 -0.01803595051673897 -0.053117439397816081 0 -0.01644775130124386 -0.05220036366184911 0 -0.019355110101922018 -0.05152559233950519 0 -0.017257589923268805 -0.05132080426627695 0 -0.018138797581727758 -0.051431136400021546 0 -0.017507399008255303 -0.052196813051077914 0 -0.016879762313135031 -0.051668202799879569 0 -0.017257589923268805 -0.05132080426627695 0 -0.017507399008255303 -0.052196813051077914 0 -0.017507399008255303 -0.052196813051077914 0 -0.018729637800283028 -0.052865114811070861 0 -0.01803595051673897 -0.053117439397816081 0 -0.020744917709096231 -0.051906315177572625 0 -0.021571208351050159 -0.051179943021715017 0 -0.021571208351050159 -0.051179943021715017 0 -0.024333248092118703 -0.05125291118933608 0 -0.021571208351050159 -0.051179943021715017 0 -0.022664962248801077 -0.051358065592628482 0 -0.021661750145532656 -0.051085441391253268 0 -0.021466429640777145 -0.051228828414000067 0 -0.021753362056365914 -0.051310373874567806 0 -0.018729637800283028 -0.052865114811070861 0 -0.01803595051673897 -0.053117439397816081 0 -0.018293175381332676 -0.053187739829935118 0 -0.019355110101922018 -0.05152559233950519 0 -0.021571208351050159 -0.051179943021715017 0 -0.02506713830902934 -0.05017881332328087 0 -0.025072974259003213 -0.050606455716974322 0 -0.025356397999929257 -0.050415033921215054 0 -0.02506713830902934 -0.05017881332328087 0 -0.025072974259003213 -0.050606455716974322 0 -0.024673327779686314 -0.050465426051852127 0 -0.021571208351050159 -0.051179943021715017 0 -0.020191076025845349 -0.048595599492542357 0 -0.019749376139366805 -0.049924137540548884 0 -0.019943949278791839 -0.049979801711680372 0 -0.019023511334826479 -0.050648674906659669 0 -0.018480783406019958 -0.049565688815712661 0 -0.019749376139366805 -0.049924137540548884 0 -0.019023511334826479 -0.050648674906659669 0 -0.016931372499553777 -0.047231158123917899 0 -0.016477976513157137 -0.047601262482935343 0 -0.016191268100545757 -0.046984645828706616 0 -0.016968336979234024 -0.046747228892084186 0 -0.016931372499553777 -0.047231158123917899 0 -0.016191268100545757 -0.046984645828706616 0 -0.016885839355094839 -0.050028724098134296 0 -0.020191076025845349 -0.048595599492542357 0 -0.016951502132875242 -0.04637629991837694 0 -0.016968336979234024 -0.046747228892084186 0 -0.016191268100545757 -0.046984645828706616 0 -0.019739419636196857 -0.047812805023309209 0 -0.020868695517025689 -0.047001090581127662 0 -0.020760522002427374 -0.047888860521688198 0 -0.018447223143004846 -0.04654288247462364 0 -0.020191076025845349 -0.048595599492542357 0 -0.020984262850273782 -0.048761280306211539 0 -0.019739419636196857 -0.047812805023309209 0 -0.020760522002427374 -0.047888860521688198 0 -0.02510469517999114 -0.051129858370833649 0 -0.025072974259003213 -0.050606455716974322 0 -0.025275867648852254 -0.050818214694668649 0 -0.02510469517999114 -0.051129858370833649 0 -0.025072974259003213 -0.050606455716974322 0 -0.024673327779686314 -0.050465426051852127 0 -0.023817868669742386 -0.050262745165768861 0 -0.020191076025845349 -0.048595599492542357 0 -0.021549172859257785 -0.048353945311068534 0 -0.020868695517025689 -0.047001090581127662 0 -0.020760522002427374 -0.047888860521688198 0 -0.027410543251294224 -0.049997419157811911 0 -0.020329030633666836 -0.050000292641845343 0 -0.023191913035805409 -0.050736204333813179 0 -0.02510469517999114 -0.051129858370833649 0 -0.025275867648852254 -0.050818214694668649 0 -0.025609342072168938 -0.051116102549857302 0 -0.025275867648852254 -0.050818214694668649 0 -0.025609342072168938 -0.051116102549857302 0 -0.025356397999929257 -0.050415033921215054 0 -0.025794036055841841 -0.050937088944678612 0 -0.024333248092118703 -0.05125291118933608 0 -0.025609342072168938 -0.051116102549857302 0 -0.025735338788690599 -0.051035191790619688 0 -0.025502765161555599 -0.050878850055494959 0 -0.025783975218615841 -0.051239376499998941 0 -0.025609342072168938 -0.051116102549857302 0 -0.025735338788690599 -0.051035191790619688 0 -0.025857992426023803 -0.05130553748391644 0 -0.025783975218615841 -0.051239376499998941 0 -0.025735338788690599 -0.051035191790619688 0 -0.024395663460002062 -0.051426653258989125 0 -0.022664962248801077 -0.051358065592628482 0 -0.024331338942272778 -0.051451747601070137 0 -0.02431273415462849 -0.051372110416855264 0 -0.024228782408033656 -0.051382010517139101 0 -0.02431273415462849 -0.051372110416855264 0 -0.023097509024392164 -0.051203120003866995 0 -0.021959779810118527 -0.051425125033094009 0 -0.02431273415462849 -0.051372110416855264 0 -0.023097509024392164 -0.051203120003866995 0 -0.023538602228376612 -0.051013084063828686 0 -0.025148472376871751 -0.051216481888448018 0 -0.024333248092118703 -0.05125291118933608 0 -0.02431273415462849 -0.051372110416855264 0 -0.024228782408033656 -0.051382010517139101 0 -0.024219283537986355 -0.051366758370841176 0 -0.023097509024392164 -0.051203120003866995 0 -0.021959779810118527 -0.051425125033094009 0 -0.022424451136077647 -0.051071844704814601 0 -0.025072974259003213 -0.050606455716974322 0 -0.025275867648852254 -0.050818214694668649 0 -0.025356397999929257 -0.050415033921215054 0 -0.022238980707201136 -0.050750389846262324 0 -0.02341473484983007 -0.051731642362586761 0 -0.023119304401112761 -0.050996527453212377 0 -0.024333248092118703 -0.05125291118933608 0 -0.022664962248801077 -0.051358065592628482 0 -0.020744917709096231 -0.051906315177572625 0 -0.022664962248801077 -0.051358065592628482 0 -0.018282243261306879 -0.051245617633272879 0 -0.019089425650811877 -0.053182170720038294 0 -0.021923890375476925 -0.050823131930374403 0 -0.02211768002435997 -0.051179211807146179 0 -0.021959779810118527 -0.051425125033094009 0 -0.022424451136077647 -0.051071844704814601 0 -0.02211768002435997 -0.051179211807146179 0 -0.022424451136077647 -0.051071844704814601 0 -0.021923890375476925 -0.050823131930374403 0 -0.020744917709096231 -0.051906315177572625 0 -0.0218127534820469 -0.051013482944038527 0 -0.018282243261306879 -0.051245617633272879 0 -0.020334313405674525 -0.049996322461140136 0 -0.021923890375476925 -0.050823131930374403 0 -0.020329426084076577 -0.049999982443833406 0 -0.023952048702709686 -0.05034507387358881 0 -0.020334313405674525 -0.049996322461140136 0 -0.021923890375476925 -0.050823131930374403 0 -0.024694256368463664 -0.04989942543309802 0 -0.021923890375476925 -0.050823131930374403 0 -0.023538602228376612 -0.051013084063828686 0 -0.024694256368463664 -0.04989942543309802 0 -0.021923890375476925 -0.050823131930374403 0 -0.022744586768392739 -0.051036872315187706 0 -0.023538602228376612 -0.051013084063828686 0 -0.022424451136077647 -0.051071844704814601 0 -0.021923890375476925 -0.050823131930374403 0 -0.022744586768392739 -0.051036872315187706 0 -0.023097509024392164 -0.051203120003866995 0 -0.022744586768392739 -0.051036872315187706 0 -0.023538602228376612 -0.051013084063828686 0 -0.023097509024392164 -0.051203120003866995 0 -0.022424451136077647 -0.051071844704814601 0 -0.022744586768392739 -0.051036872315187706 0 -0.024694256368463664 -0.04989942543309802 0 -0.025802050875538336 -0.050809357956860909 0 -0.024733977621563052 -0.051032861336301194 0 -0.023538602228376612 -0.051013084063828686 0 -0.024694256368463664 -0.04989942543309802 0 -0.024733977621563052 -0.051032861336301194 0 -0.026151242253514707 -0.050638730933693622 0 -0.023952048702709686 -0.05034507387358881 0 -0.026371508299677372 -0.050627382479830042 0 -0.024694256368463664 -0.04989942543309802 0 -0.025802050875538336 -0.050809357956860909 0 -0.027247166130781365 -0.050582131752934155 0 -0.025802050875538336 -0.050809357956860909 0 -0.025556311160739649 -0.051167490595934388 0 -0.025802050875538336 -0.050809357956860909 0 -0.024733977621563052 -0.051032861336301194 0 -0.025556311160739649 -0.051167490595934388 0 -0.02431273415462849 -0.051372110416855264 0 -0.024733977621563052 -0.051032861336301194 0 -0.025556311160739649 -0.051167490595934388 0 -0.02431273415462849 -0.051372110416855264 0 -0.023538602228376612 -0.051013084063828686 0 -0.024733977621563052 -0.051032861336301194 0 -0.025857992426023803 -0.05130553748391644 0 -0.024331338942272778 -0.051451747601070137 0 -0.025556311160739649 -0.051167490595934388 0 -0.02565375824718728 -0.051298277512775277 0 -0.025148472376871751 -0.051216481888448018 0 -0.024331338942272778 -0.051451747601070137 0 -0.02431273415462849 -0.051372110416855264 0 -0.025556311160739649 -0.051167490595934388 0 -0.027247166130781365 -0.050582131752934155 0 -0.026690078049472547 -0.051107182361546974 0 -0.025556311160739649 -0.051167490595934388 0 -0.026690078049472547 -0.051107182361546974 0 -0.025857992426023803 -0.05130553748391644 0 -0.025556311160739649 -0.051167490595934388 0 -0.0088242068581691809 -0.04200003813894581 0 -0.0086448209044300405 -0.041243485027958084 0 -0.0084606683017419988 -0.041368398849598476 0 -0.0082243280945772986 -0.045797129097821666 0 -0.0073222607083577229 -0.04580534758068959 0 -0.0088242068581691809 -0.04200003813894581 0 -0.0089606353801804563 -0.042704146305128546 0 -0.0086448209044300405 -0.041243485027958084 0 -0.0083215401250648167 -0.048986950816413806 0 -0.0057223223045447377 -0.050803772597120038 0 -0.0051754598855230788 -0.051398108825589976 0 -0.0083215401250648167 -0.048986950816413806 0 -0.0057223223045447377 -0.050803772597120038 0 -0.0084404283464529078 -0.047752646449929187 0 -0.0059655269114122032 -0.050692247743552979 0 -0.0071329257562243453 -0.050246746582419788 0 -0.0057223223045447377 -0.050803772597120038 0 -0.0056910209516958538 -0.05268507135652549 0 -0.0054005067292511779 -0.05225346557453172 0 -0.0057223223045447377 -0.050803772597120038 0 -0.0052634579558836492 -0.051891510182298983 0 -0.0054005067292511779 -0.05225346557453172 0 -0.0057223223045447377 -0.050803772597120038 0 -0.0051754598855230788 -0.051398108825589976 0 -0.0052634579558836492 -0.051891510182298983 0 -0.0051754598855230788 -0.051398108825589976 0 -0.0052634579558836492 -0.051891510182298983 0 -0.0070315635295401368 -0.051989163567278528 0 -0.0086448209044300405 -0.041243485027958084 0 -0.0080682739712532921 -0.040527342761405287 0 -0.0084606683017419988 -0.041368398849598476 0 -0.0052634579558836492 -0.051891510182298983 0 -0.0028023187875742626 -0.053497322991254218 0 -0.0038656527243739074 -0.052349811516285906 0 -0.0051067873471353593 -0.05257559735139547 0 -0.0050159406173341378 -0.049978828949566477 0 -0.0073222607083577229 -0.04580534758068959 0 -0.0050159406173341378 -0.049978828949566477 0 -0.0050159406173341378 -0.049978828949566477 0 -0.0039841391555844319 -0.046630900129669944 0 -0.0080682739712532921 -0.040527342761405287 0 -0.0077683383958249107 -0.040413700483512886 0 -0.0078186396792246631 -0.040614321675570643 0 -0.0050159406173341378 -0.049978828949566477 0 2.1488789347363303e-06 -0.053698410149240705 0 -0.0080682739712532921 -0.040527342761405287 0 -0.0081071283488825807 -0.040975013356669247 0 -0.0078186396792246631 -0.040614321675570643 0 -0.0081071283488825807 -0.040975013356669247 0 -0.0078492307593150644 -0.040824047417373284 0 -0.0078186396792246631 -0.040614321675570643 0 -0.0080682739712532921 -0.040527342761405287 0 -0.0081071283488825807 -0.040975013356669247 0 -0.0084606683017419988 -0.041368398849598476 0 -0.0081071283488825807 -0.040975013356669247 0 -0.0084606683017419988 -0.041368398849598476 0 -0.0082921421483788203 -0.04119535283574495 0 -0.0084606683017419988 -0.041368398849598476 0 -0.0082921421483788203 -0.04119535283574495 0 -0.008804302915497152 -0.041768364775438813 0 -0.0081071283488825807 -0.040975013356669247 0 -0.0078492307593150644 -0.040824047417373284 0 -0.0082921421483788203 -0.04119535283574495 0 -0.0078430051209160637 -0.040924954464693075 0 -0.0078492307593150644 -0.040824047417373284 0 -0.0076120264222475668 -0.040593273731649206 0 -0.0078430051209160637 -0.040924954464693075 0 -0.0078492307593150644 -0.040824047417373284 0 -0.0082921421483788203 -0.04119535283574495 0 -0.0089093098416316765 -0.041376711619786927 0 -0.0078430051209160637 -0.040924954464693075 0 -0.0082921421483788203 -0.04119535283574495 0 -0.0089093098416316765 -0.041376711619786927 0 -0.0082921421483788203 -0.04119535283574495 0 -0.008804302915497152 -0.041768364775438813 0 -0.0089152946417700024 -0.041687232079918424 0 -0.0089093098416316765 -0.041376711619786927 0 -0.008804302915497152 -0.041768364775438813 0 -0.0088242068581691809 -0.04200003813894581 0 -0.0084606683017419988 -0.041368398849598476 0 -0.008804302915497152 -0.041768364775438813 0 -0.0088242068581691809 -0.04200003813894581 0 -0.0089606353801804563 -0.042704146305128546 0 -0.008999462407895677 -0.042645337019968706 0 -0.0088242068581691809 -0.04200003813894581 0 -0.008804302915497152 -0.041768364775438813 0 -0.008999462407895677 -0.042645337019968706 0 -0.0089152946417700024 -0.041687232079918424 0 -0.008804302915497152 -0.041768364775438813 0 -0.008999462407895677 -0.042645337019968706 0 -0.0085662316685757803 -0.042014877604255416 0 -0.0089152946417700024 -0.041687232079918424 0 -0.008999462407895677 -0.042645337019968706 0 -0.0085662316685757803 -0.042014877604255416 0 -0.0081021542261881137 -0.043115231051854289 0 -0.008999462407895677 -0.042645337019968706 0 -0.0081021542261881137 -0.043115231051854289 0 -0.008999462407895677 -0.042645337019968706 0 -0.0086057509314717093 -0.045098116250966408 0 -0.0089606353801804563 -0.042704146305128546 0 -0.008999462407895677 -0.042645337019968706 0 -0.0086057509314717093 -0.045098116250966408 0 -0.018537621071941322 -0.046224688415867209 0 -0.018584276488708334 -0.046184293267946937 0 -0.018286212915415264 -0.046073974790453512 0 -0.018563785151604586 -0.046036350247304451 0 -0.018537621071941322 -0.046224688415867209 0 -0.018584276488708334 -0.046184293267946937 0 -0.0081021542261881137 -0.043115231051854289 0 -0.0068159028794914228 -0.042663506507823343 0 -0.006737839299204307 -0.044977547452352995 0 -0.0078874895272979927 -0.041673467429607633 0 -0.0081021542261881137 -0.043115231051854289 0 -0.0068159028794914228 -0.042663506507823343 0 -0.0081021542261881137 -0.043115231051854289 0 -0.006737839299204307 -0.044977547452352995 0 -0.0086057509314717093 -0.045098116250966408 0 -0.012698068180779599 -0.044365985525073058 0 -0.012558751995633015 -0.045474850416152957 0 -0.018286212915415264 -0.046073974790453512 0 -0.018139367355462059 -0.045707460403834499 0 -0.01818447067841017 -0.045740911948202304 0 -0.006737839299204307 -0.044977547452352995 0 -0.0084321365073291975 -0.047438286419617365 0 -0.0073820703117856244 -0.047286542370488294 0 -0.018402425484723383 -0.045975026924471751 0 -0.018286212915415264 -0.046073974790453512 0 -0.01818447067841017 -0.045740911948202304 0 -0.012558751995633015 -0.045474850416152957 0 -0.012793584498328256 -0.046475429374927525 0 -0.006737839299204307 -0.044977547452352995 0 -0.0084321365073291975 -0.047438286419617365 0 -0.0086057509314717093 -0.045098116250966408 0 -0.0084321365073291975 -0.047438286419617365 0 -0.0073820703117856244 -0.047286542370488294 0 -0.0086283013312819044 -0.048249824726172466 0 -0.0083215401250648167 -0.048986950816413806 0 -0.0086057509314717093 -0.045098116250966408 0 -0.0088889392355769557 -0.047625797054426496 0 -0.0082243280945772986 -0.045797129097821666 0 -0.0083512914830576584 -0.045125588772815299 0 -0.0084321365073291975 -0.047438286419617365 0 -0.0088889392355769557 -0.047625797054426496 0 -0.0089740419205074032 -0.04808918588322203 0 -0.0084321365073291975 -0.047438286419617365 0 -0.0086057509314717093 -0.045098116250966408 0 -0.0088889392355769557 -0.047625797054426496 0 -0.0083215401250648167 -0.048986950816413806 0 -0.0088889392355769557 -0.047625797054426496 0 -0.0084404283464529078 -0.047752646449929187 0 -0.0071329257562243453 -0.050246746582419788 0 -0.0082999473390191793 -0.050379163185886665 0 -0.0088889392355769557 -0.047625797054426496 0 -0.0084404283464529078 -0.047752646449929187 0 -0.0089740419205074032 -0.04808918588322203 0 -0.0056910209516958538 -0.05268507135652549 0 -0.0076172855744336288 -0.052741206975727234 0 -0.0057096546670610459 -0.052142513887568 0 -0.0076172855744336288 -0.052741206975727234 0 -0.0097863495270661058 -0.052003634749508927 0 -0.0086945940972894178 -0.051158394520496545 0 -0.0082999473390191793 -0.050379163185886665 0 -0.0093779230422410421 -0.050487316600473252 0 -0.0076172855744336288 -0.052741206975727234 0 -0.0066097913646769738 -0.051334881061943304 0 -0.0057096546670610459 -0.052142513887568 0 -0.0084996935967276074 -0.048598143445830792 0 -0.0073820703117856244 -0.047286542370488294 0 -0.0086283013312819044 -0.048249824726172466 0 -0.0084321365073291975 -0.047438286419617365 0 -0.0089740419205074032 -0.04808918588322203 0 -0.0086283013312819044 -0.048249824726172466 0 -0.0089740419205074032 -0.04808918588322203 0 -0.0086283013312819044 -0.048249824726172466 0 -0.009086961910882263 -0.048858885791491155 0 -0.0086283013312819044 -0.048249824726172466 0 -0.009086961910882263 -0.048858885791491155 0 -0.0094225222490814647 -0.04932104117612271 0 -0.0084996935967276074 -0.048598143445830792 0 -0.0094225222490814647 -0.04932104117612271 0 -0.010384370712277999 -0.050566808059768535 0 -0.0084996935967276074 -0.048598143445830792 0 -0.0086283013312819044 -0.048249824726172466 0 -0.0094225222490814647 -0.04932104117612271 0 -0.009086961910882263 -0.048858885791491155 0 -0.0094225222490814647 -0.04932104117612271 0 -0.010384370712277999 -0.050566808059768535 0 -0.0097863495270661058 -0.052003634749508927 0 -0.010384370712277999 -0.050566808059768535 0 -0.010343196316293815 -0.051084887969561558 0 -0.0093779230422410421 -0.050487316600473252 0 -0.010115662061479557 -0.050582511382180208 0 -0.011011499779353482 -0.05106571619058653 0 -0.010384370712277999 -0.050566808059768535 0 -0.010343196316293815 -0.051084887969561558 0 -0.0097863495270661058 -0.052003634749508927 0 -0.010343196316293815 -0.051084887969561558 0 -0.0086945940972894178 -0.051158394520496545 0 -0.010343196316293815 -0.051084887969561558 0 -0.011029482947345726 -0.049999989876993202 0 -0.0086945940972894178 -0.051158394520496545 0 -0.011029482947345726 -0.049999989876993202 0 -0.0086945940972894178 -0.051158394520496545 0 -0.0082557515004870775 -0.049999275224525769 0 -0.013804815268734064 -0.049999117069365127 0 -0.011011499779353482 -0.05106571619058653 0 -0.011029482947345726 -0.049999989876993202 0 -0.011011499779353482 -0.05106571619058653 0 -0.010343196316293815 -0.051084887969561558 0 -0.011029482947345726 -0.049999989876993202 0 -0.0076172855744336288 -0.052741206975727234 0 -0.0066097913646769738 -0.051334881061943304 0 -0.0086945940972894178 -0.051158394520496545 0 -0.0066097913646769738 -0.051334881061943304 0 -0.0086945940972894178 -0.051158394520496545 0 -0.0082557515004870775 -0.049999275224525769 0 -0.0066097913646769738 -0.051334881061943304 0 -0.0082557515004870775 -0.049999275224525769 0 -0.0054797668676020801 -0.049999660742780172 0 -0.0054797668676020801 -0.049999660742780172 0 -0.00369808489620325 -0.050885840536131002 0 -0.0051893818139747139 -0.051325239203905165 0 -0.0054797668676020801 -0.049999660742780172 0 -0.00369808489620325 -0.050885840536131002 0 -0.002708199099734185 -0.049999109169194228 0 -0.00369808489620325 -0.050885840536131002 0 -0.0051893818139747139 -0.051325239203905165 0 -0.004577006224002836 -0.051896104279058698 0 -0.0066097913646769738 -0.051334881061943304 0 -0.0054797668676020801 -0.049999660742780172 0 -0.0051893818139747139 -0.051325239203905165 0 -0.0066097913646769738 -0.051334881061943304 0 -0.0051893818139747139 -0.051325239203905165 0 -0.0057096546670610459 -0.052142513887568 0 -0.0051893818139747139 -0.051325239203905165 0 -0.0057096546670610459 -0.052142513887568 0 -0.004577006224002836 -0.051896104279058698 0 -0.004577006224002836 -0.051896104279058698 0 -0.0047827325728490022 -0.052193542598994502 0 -0.0054005067292511779 -0.05225346557453172 0 -0.004577006224002836 -0.051896104279058698 0 -0.0047827325728490022 -0.052193542598994502 0 -0.0038656527243739074 -0.052349811516285906 0 -0.0052634579558836492 -0.051891510182298983 0 -0.0047827325728490022 -0.052193542598994502 0 -0.0038656527243739074 -0.052349811516285906 0 -0.0052634579558836492 -0.051891510182298983 0 -0.0047827325728490022 -0.052193542598994502 0 -0.0054005067292511779 -0.05225346557453172 0 -0.0057096546670610459 -0.052142513887568 0 -0.004577006224002836 -0.051896104279058698 0 -0.0054005067292511779 -0.05225346557453172 0 -0.0056910209516958538 -0.05268507135652549 0 -0.0057096546670610459 -0.052142513887568 0 -0.0054005067292511779 -0.05225346557453172 0 -0.0028023187875742626 -0.053497322991254218 0 -0.0017813154404754841 -0.052584801643351692 0 -0.00046968494710039306 -0.053236261017258452 0 -0.0017813154404754841 -0.052584801643351692 0 -0.0038656527243739074 -0.052349811516285906 0 -0.0028109513437035568 -0.051629959564165009 0 -0.0028023187875742626 -0.053497322991254218 0 -0.0017813154404754841 -0.052584801643351692 0 -0.0038656527243739074 -0.052349811516285906 0 -0.004577006224002836 -0.051896104279058698 0 -0.0038656527243739074 -0.052349811516285906 0 -0.0028109513437035568 -0.051629959564165009 0 -0.00369808489620325 -0.050885840536131002 0 -0.004577006224002836 -0.051896104279058698 0 -0.0028109513437035568 -0.051629959564165009 0 -0.0017813154404754841 -0.052584801643351692 0 -0.0028109513437035568 -0.051629959564165009 0 -0.00084879884807971984 -0.051974067125334769 0 -0.0018654235692779203 -0.051011947250496764 0 -0.00091095895405783568 -0.052001949823669076 0 -0.0028109513437035568 -0.051629959564165009 0 -0.0026576680975714077 -0.050719165748629121 0 -0.00084879884807971984 -0.051974067125334769 0 -0.00369808489620325 -0.050885840536131002 0 -0.0028109513437035568 -0.051629959564165009 0 -0.0026576680975714077 -0.050719165748629121 0 -0.00369808489620325 -0.050885840536131002 0 -0.0026576680975714077 -0.050719165748629121 0 -0.002708199099734185 -0.049999109169194228 0 -0.0018654235692779203 -0.051011947250496764 0 -0.0027051527008388285 -0.049999998405007004 0 -0.0011253527627952107 -0.051330363957250866 0 -0.00039991749465578808 -0.049999734076822872 0 0.00062237088452065097 -0.051202560516106943 0 -0.0011253527627952107 -0.051330363957250866 0 -0.0027048936223840348 -0.049999889357338123 0 -0.00039991749465578808 -0.049999734076822872 0 -0.00039991749465578808 -0.049999734076822872 0 0.0018999361194833686 -0.049999718370403831 0 0.00062237088452065097 -0.051202560516106943 0 0.0018999361194833686 -0.049999718370403831 0 0.00062237088452065097 -0.051202560516106943 0 0.0019316424001872439 -0.051016974378577169 0 0.0019041257969349891 -0.050000498946359738 0 0.00278821416218776 -0.051247832912165864 0 0.00062237088452065097 -0.051202560516106943 0 0.0019316424001872439 -0.051016974378577169 0 0.00088214091908808863 -0.05209694810884289 0 -0.0011253527627952107 -0.051330363957250866 0 0.00062237088452065097 -0.051202560516106943 0 -0.00084879884807971984 -0.051974067125334769 0 0.0047173831699519348 -0.05000002165752962 0 0.0040048847681175836 -0.051894428670692834 0 0.0061202985480180204 -0.051688679295796104 0 0.0047173831699519348 -0.05000002165752962 0 0.0061202985480180204 -0.051688679295796104 0 0.0075306097162880512 -0.050000031762230494 0 0.0019038374579279161 -0.049999971590407775 0 0.0047173831699519348 -0.05000002165752962 0 0.0040048847681175836 -0.051894428670692834 0 0.0040048847681175836 -0.051894428670692834 0 0.0059185999624542691 -0.053628272257463333 0 0.0061202985480180204 -0.051688679295796104 0 0.00278821416218776 -0.051247832912165864 0 0.0051443663244897814 -0.053622437280149399 0 0.0019316424001872439 -0.051016974378577169 0 0.0027757632391636877 -0.051982498393570276 0 0.0019359250749705745 -0.052256676651518251 0 0.0019316424001872439 -0.051016974378577169 0 0.0019359250749705745 -0.052256676651518251 0 0.00088214091908808863 -0.05209694810884289 0 0.0019359250749705745 -0.052256676651518251 0 0.0014679976771009981 -0.053234325925967468 0 0.0026289079553617088 -0.052951824811366517 0 -0.0027788648931998069 -0.046610347640248892 0 -0.0026676939071802121 -0.045928762208233984 0 0.0019359250749705745 -0.052256676651518251 0 0.0014679976771009981 -0.053234325925967468 0 0.00088214091908808863 -0.05209694810884289 0 0.0027757632391636877 -0.051982498393570276 0 0.0019359250749705745 -0.052256676651518251 0 0.0026289079553617088 -0.052951824811366517 0 -0.00084879884807971984 -0.051974067125334769 0 0.00088214091908808863 -0.05209694810884289 0 -2.6097169772305956e-05 -0.052440400191628003 0 0.00062237088452065097 -0.051202560516106943 0 -0.00084879884807971984 -0.051974067125334769 0 0.00088214091908808863 -0.05209694810884289 0 0.00088214091908808863 -0.05209694810884289 0 0.00035289455086787489 -0.052916126252458347 0 -2.6097169772305956e-05 -0.052440400191628003 0 0.0014679976771009981 -0.053234325925967468 0 0.00088214091908808863 -0.05209694810884289 0 0.00035289455086787489 -0.052916126252458347 0 0.0014679976771009981 -0.053234325925967468 0 0.00035289455086787489 -0.052916126252458347 0 -0.00025059395218382779 -0.053647665032420098 0 -0.0017813154404754841 -0.052584801643351692 0 -0.00046968494710039306 -0.053236261017258452 0 -2.6097169772305956e-05 -0.052440400191628003 0 0.00035289455086787489 -0.052916126252458347 0 -0.00046968494710039306 -0.053236261017258452 0 -0.00025059395218382779 -0.053647665032420098 0 0.00035289455086787489 -0.052916126252458347 0 -0.00046968494710039306 -0.053236261017258452 0 -2.6097169772305956e-05 -0.052440400191628003 0 -0.0017813154404754841 -0.052584801643351692 0 -0.00084879884807971984 -0.051974067125334769 0 -2.6097169772305956e-05 -0.052440400191628003 0 -0.0080682739712532921 -0.040527342761405287 0 -0.0076257017569654811 -0.040178995308900504 0 -0.0077683383958249107 -0.040413700483512886 0 -0.00252433084333652 -0.053762398926545753 0 -0.00046968494710039306 -0.053236261017258452 0 -0.00025059395218382779 -0.053647665032420098 0 -0.0076257017569654811 -0.040178995308900504 0 -0.0075844552262625403 -0.040322344669045627 0 -0.0077683383958249107 -0.040413700483512886 0 -0.0075844552262625403 -0.040322344669045627 0 -0.0077683383958249107 -0.040413700483512886 0 -0.0078186396792246631 -0.040614321675570643 0 -0.0078492307593150644 -0.040824047417373284 0 -0.0078186396792246631 -0.040614321675570643 0 -0.0074536654445695252 -0.040320020785838552 0 -0.0075844552262625403 -0.040322344669045627 0 -0.0078186396792246631 -0.040614321675570643 0 -0.0074536654445695252 -0.040320020785838552 0 -0.0072587977910904301 -0.039874404478987123 0 -0.0075844552262625403 -0.040322344669045627 0 -0.0074536654445695252 -0.040320020785838552 0 -0.0072587977910904301 -0.039874404478987123 0 -0.0076257017569654811 -0.040178995308900504 0 -0.0075844552262625403 -0.040322344669045627 0 -0.0027788648931998069 -0.046610347640248892 0 -0.0039841391555844319 -0.046630900129669944 0 -0.0072587977910904301 -0.039874404478987123 0 -0.0074536654445695252 -0.040320020785838552 0 -0.0069960383676529233 -0.039974145415997191 0 -0.0068088258215293976 -0.039571991738887528 0 -0.0069960383676529233 -0.039974145415997191 0 -0.006498449267330334 -0.039798970022454909 0 -0.0072587977910904301 -0.039874404478987123 0 -0.0068088258215293976 -0.039571991738887528 0 -0.0069960383676529233 -0.039974145415997191 0 -0.0074536654445695252 -0.040320020785838552 0 -0.0069960383676529233 -0.039974145415997191 0 -0.0072561961387819524 -0.040105104704945813 0 -0.0072561961387819524 -0.040105104704945813 0 -0.0073365480758607066 -0.039976166792687895 0 -0.0074496611993142853 -0.040251441199608114 0 -0.0074536654445695252 -0.040320020785838552 0 -0.0072561961387819524 -0.040105104704945813 0 -0.0074496611993142853 -0.040251441199608114 0 -0.0069960383676529233 -0.039974145415997191 0 -0.0072561961387819524 -0.040105104704945813 0 -0.0070028949515105864 -0.039906621763933683 0 -0.0072561961387819524 -0.040105104704945813 0 -0.0073365480758607066 -0.039976166792687895 0 -0.0070028949515105864 -0.039906621763933683 0 -0.0073365480758607066 -0.039976166792687895 0 -0.0070028949515105864 -0.039906621763933683 0 -0.0074400737220536575 -0.03964791187024351 0 -0.0073365480758607066 -0.039976166792687895 0 -0.0075943402238907234 -0.039815636588654585 0 -0.0074400737220536575 -0.03964791187024351 0 -0.0073365480758607066 -0.039976166792687895 0 -0.0074496611993142853 -0.040251441199608114 0 -0.0075943402238907234 -0.039815636588654585 0 -0.0074496611993142853 -0.040251441199608114 0 -0.0076120264222475668 -0.040593273731649206 0 -0.0075943402238907234 -0.039815636588654585 0 -0.0078492307593150644 -0.040824047417373284 0 -0.0074536654445695252 -0.040320020785838552 0 -0.0076120264222475668 -0.040593273731649206 0 -0.0074536654445695252 -0.040320020785838552 0 -0.0074496611993142853 -0.040251441199608114 0 -0.0076120264222475668 -0.040593273731649206 0 -0.0062697900129204173 -0.039729025410216709 0 -0.0065509631582778864 -0.03957573337009198 0 -0.0066157103293393972 -0.039647532672114322 0 -0.0062697900129204173 -0.039729025410216709 0 -0.0066157103293393972 -0.039647532672114322 0 -0.006473515370182808 -0.039802929013679378 0 -0.0062697900129204173 -0.039729025410216709 0 -0.0065509631582778864 -0.03957573337009198 0 -0.0062235270642835554 -0.039710106709057634 0 -0.0065509631582778864 -0.03957573337009198 0 -0.0067143306564508834 -0.039448662690235288 0 -0.0069298023880664077 -0.03940337262731599 0 -0.0065509631582778864 -0.03957573337009198 0 -0.0066157103293393972 -0.039647532672114322 0 -0.0068555420530798513 -0.039500849033270044 0 -0.0065509631582778864 -0.03957573337009198 0 -0.0068555420530798513 -0.039500849033270044 0 -0.0069298023880664077 -0.03940337262731599 0 -0.0066157103293393972 -0.039647532672114322 0 -0.0069242946337926686 -0.0396582531388531 0 -0.0068555420530798513 -0.039500849033270044 0 -0.0069242946337926686 -0.0396582531388531 0 -0.0070028949515105864 -0.039906621763933683 0 -0.0074400737220536575 -0.03964791187024351 0 -0.0069242946337926686 -0.0396582531388531 0 -0.0070028949515105864 -0.039906621763933683 0 -0.006473515370182808 -0.039802929013679378 0 -0.0070028949515105864 -0.039906621763933683 0 -0.006473515370182808 -0.039802929013679378 0 -0.0066011766042912987 -0.039866623059959902 0 -0.0066157103293393972 -0.039647532672114322 0 -0.0069242946337926686 -0.0396582531388531 0 -0.006473515370182808 -0.039802929013679378 0 -0.006473515370182808 -0.039802929013679378 0 -0.0060726045267923802 -0.039764786956737498 0 -0.005988695800496365 -0.039785913383611447 0 -0.006473515370182808 -0.039802929013679378 0 -0.0066011766042912987 -0.039866623059959902 0 -0.0060726045267923802 -0.039764786956737498 0 -0.0069960383676529233 -0.039974145415997191 0 -0.0070028949515105864 -0.039906621763933683 0 -0.0066011766042912987 -0.039866623059959902 0 -0.0069960383676529233 -0.039974145415997191 0 -0.0066011766042912987 -0.039866623059959902 0 -0.006498449267330334 -0.039798970022454909 0 -0.0068088258215293976 -0.039571991738887528 0 -0.006498449267330334 -0.039798970022454909 0 -0.0060978515213580223 -0.039640725951447214 0 -0.006498449267330334 -0.039798970022454909 0 -0.0060978515213580223 -0.039640725951447214 0 -0.0060726045267923802 -0.039764786956737498 0 -0.0066011766042912987 -0.039866623059959902 0 -0.006498449267330334 -0.039798970022454909 0 -0.0060726045267923802 -0.039764786956737498 0 -0.0060726045267923802 -0.039764786956737498 0 -0.0057091418491724694 -0.039696907953957701 0 -0.005988695800496365 -0.039785913383611447 0 -0.0060978515213580223 -0.039640725951447214 0 -0.0058789822669112271 -0.039656789359900087 0 -0.0057494780368865335 -0.039442324235910833 0 -0.0060978515213580223 -0.039640725951447214 0 -0.0060726045267923802 -0.039764786956737498 0 -0.0058789822669112271 -0.039656789359900087 0 -0.0060726045267923802 -0.039764786956737498 0 -0.0058789822669112271 -0.039656789359900087 0 -0.0057091418491724694 -0.039696907953957701 0 -0.0058789822669112271 -0.039656789359900087 0 -0.0057091418491724694 -0.039696907953957701 0 -0.0057494780368865335 -0.039442324235910833 0 -0.0057091418491724694 -0.039696907953957701 0 -0.005689118538269664 -0.039801283029425746 0 -0.0053836298982631132 -0.039682780822204673 0 -0.005689118538269664 -0.039801283029425746 0 -0.005988695800496365 -0.039785913383611447 0 -0.0059327949760258963 -0.039809694884966974 0 -0.0057091418491724694 -0.039696907953957701 0 -0.005689118538269664 -0.039801283029425746 0 -0.005988695800496365 -0.039785913383611447 0 -0.0062697900129204173 -0.039729025410216709 0 -0.006473515370182808 -0.039802929013679378 0 -0.005988695800496365 -0.039785913383611447 0 -0.0062697900129204173 -0.039729025410216709 0 -0.005988695800496365 -0.039785913383611447 0 -0.0059327949760258963 -0.039809694884966974 0 -0.0062697900129204173 -0.039729025410216709 0 -0.0062235270642835554 -0.039710106709057634 0 -0.0059327949760258963 -0.039809694884966974 0 -0.0062235270642835554 -0.039710106709057634 0 -0.0059327949760258963 -0.039809694884966974 0 -0.0059817794081264255 -0.039894301691262381 0 -0.005689118538269664 -0.039801283029425746 0 -0.0059327949760258963 -0.039809694884966974 0 -0.005628192554815334 -0.040027386719385785 0 -0.0059327949760258963 -0.039809694884966974 0 -0.005628192554815334 -0.040027386719385785 0 -0.0059817794081264255 -0.039894301691262381 0 0.0011959066298660823 -0.055246629255020469 0 0.0010821142467130887 -0.055228533491129328 0 0.0018098522813225603 -0.054863888223283273 0 0.011899086763519686 -0.055002324452846856 0 0.010946439744652293 -0.054536747134631323 0 0.0090719470910867045 -0.055558814561958991 0 0.0074115250050310368 -0.054974271054148663 0 0.0015487910965579432 -0.051314263636756417 0 0.0011959066298660823 -0.055246629255020469 0 0.0018098522813225603 -0.054863888223283273 0 0.0014559392532270893 -0.05392050430383695 0 0.0011959066298660823 -0.055246629255020469 0 0.0014559392532270893 -0.05392050430383695 0 -0.00076140681121070392 -0.054614783059190465 0 0.011899086763519686 -0.055002324452846856 0 0.011663560166986497 -0.054432202772049965 0 0.012148076620601297 -0.054308514189979062 0 0.011899086763519686 -0.055002324452846856 0 0.011663560166986497 -0.054432202772049965 0 0.010946439744652293 -0.054536747134631323 0 -0.005689118538269664 -0.039801283029425746 0 -0.005628192554815334 -0.040027386719385785 0 -0.0053836298982631132 -0.039682780822204673 0 -0.0032177868180819236 -0.047090758074442671 0 0.0015487910965579432 -0.051314263636756417 0 0.010946439744652293 -0.054536747134631323 0 0.0090719470910867045 -0.055558814561958991 0 0.010296614128447394 -0.053798018986993525 0 0.0090719470910867045 -0.055558814561958991 0 0.0087168214465893085 -0.05392880702840027 0 0.0071019630117666686 -0.054902278090982817 0 0.010296614128447394 -0.053798018986993525 0 0.011268085824764159 -0.052726513086889484 0 0.0096824994116704328 -0.052384080355751803 0 0.0090719470910867045 -0.055558814561958991 0 0.010296614128447394 -0.053798018986993525 0 0.0087168214465893085 -0.05392880702840027 0 0.010296614128447394 -0.053798018986993525 0 0.0087168214465893085 -0.05392880702840027 0 0.0096824994116704328 -0.052384080355751803 0 0.010296614128447394 -0.053798018986993525 0 0.011605809052019632 -0.053885569016134303 0 0.011268085824764159 -0.052726513086889484 0 0.011605809052019632 -0.053885569016134303 0 0.011268085824764159 -0.052726513086889484 0 0.01264311506748958 -0.053156681621970084 0 0.011663560166986497 -0.054432202772049965 0 0.011605809052019632 -0.053885569016134303 0 0.012148076620601297 -0.054308514189979062 0 0.011663560166986497 -0.054432202772049965 0 0.010946439744652293 -0.054536747134631323 0 0.011605809052019632 -0.053885569016134303 0 0.010946439744652293 -0.054536747134631323 0 0.010296614128447394 -0.053798018986993525 0 0.011605809052019632 -0.053885569016134303 0 -0.0026676939071802121 -0.045928762208233984 0 0.0019439756327527201 -0.050173513589005556 0 -0.0068088258215293976 -0.039571991738887528 0 -0.0060978515213580223 -0.039640725951447214 0 -0.0057494780368865335 -0.039442324235910833 0 0.0027757632391636877 -0.051982498393570276 0 0.0026289079553617088 -0.052951824811366517 0 0.003633623118363074 -0.052809010147281857 0 0.0051443663244897814 -0.053622437280149399 0 0.0019439756327527201 -0.050173513589005556 0 0.0046486731072070842 -0.05427378213540119 0 0.007117896223028523 -0.054943729562760744 0 0.0071019630117666686 -0.054902278090982817 0 0.0015487910965579432 -0.051314263636756417 0 0.0019439756327527201 -0.050173513589005556 0 -0.0057091418491724694 -0.039696907953957701 0 -0.0053836298982631132 -0.039682780822204673 0 -0.0057494780368865335 -0.039442324235910833 0 0.007117896223028523 -0.054943729562760744 0 0.0071019630117666686 -0.054902278090982817 0 0.0072804793521869379 -0.053377947017661673 0 0.0015487910965579432 -0.051314263636756417 0 0.0085861587004771728 -0.055081333446003376 0 0.0087168214465893085 -0.05392880702840027 0 0.0072804793521869379 -0.053377947017661673 0 0.0096824994116704328 -0.052384080355751803 0 0.0087168214465893085 -0.05392880702840027 0 0.0071019630117666686 -0.054902278090982817 0 0.0072804793521869379 -0.053377947017661673 0 0.0059185999624542691 -0.053628272257463333 0 0.007117896223028523 -0.054943729562760744 0 0.0072804793521869379 -0.053377947017661673 0 0.0072804793521869379 -0.053377947017661673 0 0.0061202985480180204 -0.051688679295796104 0 0.0082731787490268049 -0.051580780561693192 0 0.0059185999624542691 -0.053628272257463333 0 0.0072804793521869379 -0.053377947017661673 0 0.0061202985480180204 -0.051688679295796104 0 0.0072804793521869379 -0.053377947017661673 0 0.0082731787490268049 -0.051580780561693192 0 0.0096824994116704328 -0.052384080355751803 0 0.0082731787490268049 -0.051580780561693192 0 0.0075306097162880512 -0.050000031762230494 0 0.010344162143919082 -0.049999890876824625 0 0.0061202985480180204 -0.051688679295796104 0 0.0082731787490268049 -0.051580780561693192 0 0.0075306097162880512 -0.050000031762230494 0 0.011268085824764159 -0.052726513086889484 0 0.0096824994116704328 -0.052384080355751803 0 0.0115515191399965 -0.051257197209635813 0 0.011268085824764159 -0.052726513086889484 0 0.0115515191399965 -0.051257197209635813 0 0.013238757598101374 -0.05158204955892353 0 0.0096824994116704328 -0.052384080355751803 0 0.010344162143919082 -0.049999890876824625 0 0.0115515191399965 -0.051257197209635813 0 0.0082731787490268049 -0.051580780561693192 0 0.0096824994116704328 -0.052384080355751803 0 0.010344162143919082 -0.049999890876824625 0 0.010344162143919082 -0.049999890876824625 0 0.0115515191399965 -0.051257197209635813 0 0.013157760225565336 -0.049999930264598647 0 0.0115515191399965 -0.051257197209635813 0 0.013157760225565336 -0.049999930264598647 0 0.013238757598101374 -0.05158204955892353 0 0.011268085824764159 -0.052726513086889484 0 0.013238757598101374 -0.05158204955892353 0 0.01264311506748958 -0.053156681621970084 0 0.013238757598101374 -0.05158204955892353 0 0.014925277061040881 -0.05219323245572334 0 0.01264311506748958 -0.053156681621970084 0 0.0145981668485355 -0.052040490634523234 0 0.012836603390846532 -0.053047409925277261 0 0.013238757598101374 -0.05158204955892353 0 0.014925277061040881 -0.05219323245572334 0 0.015971794327210832 -0.049999919680506051 0 0.013157760225565336 -0.049999930264598647 0 0.013238757598101374 -0.05158204955892353 0 0.015971794327210832 -0.049999919680506051 0 0.014925277061040881 -0.05219323245572334 0 0.016915590512230114 -0.051109051508455031 0 0.015971794327210832 -0.049999919680506051 0 0.016915590512230114 -0.051109051508455031 0 0.015971794327210832 -0.049999919680506051 0 0.018785466893860889 -0.050000036334380646 0 0.016567282949875795 -0.050732694983297438 0 0.01833043427670222 -0.051308710139567844 0 0.018784921550366884 -0.049999349653630204 0 0.016722697586055824 -0.050945909234280828 0 0.018784875389718216 -0.050000204269015358 0 0.017176817622217604 -0.051790317071974949 0 0.018039936008019168 -0.052497861263950681 0 0.016118783324788631 -0.052553332666493223 0 0.016567282949875795 -0.050732694983297438 0 0.01833043427670222 -0.051308710139567844 0 0.017176817622217604 -0.051790317071974949 0 0.01833043427670222 -0.051308710139567844 0 0.018039936008019168 -0.052497861263950681 0 0.019228109754135907 -0.052060557947809852 0 0.01833043427670222 -0.051308710139567844 0 0.017176817622217604 -0.051790317071974949 0 0.018039936008019168 -0.052497861263950681 0 0.014278611438047616 -0.051852103957968569 0 0.016567282949875795 -0.050732694983297438 0 0.016118783324788631 -0.052553332666493223 0 0.0145981668485355 -0.052040490634523234 0 0.016722697586055824 -0.050945909234280828 0 0.014278611438047616 -0.051852103957968569 0 0.016118783324788631 -0.052553332666493223 0 0.014470147973330115 -0.053513570038389829 0 0.016567282949875795 -0.050732694983297438 0 0.017176817622217604 -0.051790317071974949 0 0.016118783324788631 -0.052553332666493223 0 0.016118783324788631 -0.052553332666493223 0 0.015888653637255008 -0.053922397609602546 0 0.014470147973330115 -0.053513570038389829 0 0.016118783324788631 -0.052553332666493223 0 0.015888653637255008 -0.053922397609602546 0 0.017426672988013574 -0.053623244177636517 0 0.015888653637255008 -0.053922397609602546 0 0.014700915141990182 -0.055184600489699726 0 0.014470147973330115 -0.053513570038389829 0 0.018039936008019168 -0.052497861263950681 0 0.017426672988013574 -0.053623244177636517 0 0.019216370487686069 -0.05319882758193728 0 0.017426672988013574 -0.053623244177636517 0 0.016903747009624957 -0.054966267109233802 0 0.018908775414183458 -0.054735859867646494 0 0.018039936008019168 -0.052497861263950681 0 0.016118783324788631 -0.052553332666493223 0 0.017426672988013574 -0.053623244177636517 0 0.015888653637255008 -0.053922397609602546 0 0.017426672988013574 -0.053623244177636517 0 0.016903747009624957 -0.054966267109233802 0 0.01553342935655572 -0.050917841793639597 0 0.016245348506575389 -0.04865569095127497 0 0.013993444611890666 -0.047266515754416288 0 0.016245348506575389 -0.04865569095127497 0 0.013709904796962566 -0.046892017339435543 0 0.013796737879509103 -0.04747725418306676 0 0.01560374088702109 -0.046752761286492181 0 0.013796737879509103 -0.04747725418306676 0 0.015639003115155335 -0.046666435813584324 0 0.014141043400307208 -0.048230702144914379 0 0.013796737879509103 -0.04747725418306676 0 0.012910768152514213 -0.047532993386042985 0 0.014141043400307208 -0.048230702144914379 0 0.01553342935655572 -0.050917841793639597 0 0.012875248464968719 -0.052943426547661827 0 0.013709904796962566 -0.046892017339435543 0 0.012910768152514213 -0.047532993386042985 0 0.011785337450555013 -0.047096846482803816 0 0.012910768152514213 -0.047532993386042985 0 0.011914173343398927 -0.04815193514523796 0 0.014141043400307208 -0.048230702144914379 0 0.015888653637255008 -0.053922397609602546 0 0.016903747009624957 -0.054966267109233802 0 0.014700915141990182 -0.055184600489699726 0 0.013709904796962566 -0.046892017339435543 0 0.013796737879509103 -0.04747725418306676 0 0.012910768152514213 -0.047532993386042985 0 0.012910768152514213 -0.047532993386042985 0 0.011785337450555013 -0.047096846482803816 0 0.011914173343398927 -0.04815193514523796 0 0.0097037223457429895 -0.054064296529692697 0 0.0071993742394027968 -0.055436025471218814 0 0.010011247171731262 -0.05653197976536406 0 0.012875248464968719 -0.052943426547661827 0 0.0036953249256949676 -0.055313487899452653 0 0.012875248464968719 -0.052943426547661827 0 0.0075889207085688233 -0.048314183893019468 0 0.013403503213271982 -0.054723738097965144 0 0.015877350142909776 -0.055625559508096736 0 0.0031360123370557116 -0.0547277859351923 0 0.0097037223457429895 -0.054064296529692697 0 0.0071993742394027968 -0.055436025471218814 0 0.0031360123370557116 -0.0547277859351923 0 0.0071993742394027968 -0.055436025471218814 0 0.0059272258064225454 -0.05638574602716466 0 0.010011247171731262 -0.05653197976536406 0 0.013403503213271982 -0.054723738097965144 0 0.015877350142909776 -0.055625559508096736 0 0.014470147973330115 -0.053513570038389829 0 0.0071993742394027968 -0.055436025471218814 0 0.0031360123370557116 -0.0547277859351923 0 0.0059272258064225454 -0.05638574602716466 0 0.0014559392532270893 -0.05392050430383695 0 0.013403503213271982 -0.054723738097965144 0 0.0031360123370557116 -0.0547277859351923 0 0.0074115250050310368 -0.054974271054148663 0 0.01257858455829463 -0.054506516560992056 0 0.011899086763519686 -0.055002324452846856 0 0.013403503213271982 -0.054723738097965144 0 0.012720016203619119 -0.054335206249241291 0 0.0010821142467130887 -0.055228533491129328 0 0.0018098522813225603 -0.054863888223283273 0 0.0059272258064225454 -0.05638574602716466 0 0.0015793751696618829 -0.055303893243889977 0 0.0018513285238120807 -0.055289130504545328 0 0.0018098522813225603 -0.054863888223283273 0 0.0031360123370557116 -0.0547277859351923 0 0.0059272258064225454 -0.05638574602716466 0 0.0018098522813225603 -0.054863888223283273 0 0.0014559392532270893 -0.05392050430383695 0 0.0031360123370557116 -0.0547277859351923 0 0.011899086763519686 -0.055002324452846856 0 0.012720016203619119 -0.054335206249241291 0 0.012148076620601297 -0.054308514189979062 0 0.012720016203619119 -0.054335206249241291 0 0.01264311506748958 -0.053156681621970084 0 0.013520183687504616 -0.053512405367646683 0 0.012720016203619119 -0.054335206249241291 0 0.012148076620601297 -0.054308514189979062 0 0.01264311506748958 -0.053156681621970084 0 0.011605809052019632 -0.053885569016134303 0 0.012148076620601297 -0.054308514189979062 0 0.01264311506748958 -0.053156681621970084 0 0.014278611438047616 -0.051852103957968569 0 0.01264311506748958 -0.053156681621970084 0 0.013520183687504616 -0.053512405367646683 0 0.014278611438047616 -0.051852103957968569 0 0.013520183687504616 -0.053512405367646683 0 0.014470147973330115 -0.053513570038389829 0 0.012875248464968719 -0.052943426547661827 0 0.014474835909870136 -0.054647540039928555 0 0.013403503213271982 -0.054723738097965144 0 0.013520183687504616 -0.053512405367646683 0 0.014470147973330115 -0.053513570038389829 0 0.013403503213271982 -0.054723738097965144 0 0.012720016203619119 -0.054335206249241291 0 0.013520183687504616 -0.053512405367646683 0 0.024781844161398104 -0.049572340173114494 0 0.025227526811627501 -0.050686041010523958 0 0.023603902643642677 -0.052876645776301176 0 0.024723278584198097 -0.050918151339240277 0 0.023530543023442204 -0.051319274973451144 0 0.023603902643642677 -0.052876645776301176 0 0.024723278584198097 -0.050918151339240277 0 0.025990035258145704 -0.051826868668309406 0 0.024823932486812219 -0.050953566574334148 0 0.023482515984224229 -0.049999990534987562 0 0.025678094453335569 -0.049999994905304698 0 0.024952455566342169 -0.051054538384697278 0 0.023482712992566327 -0.050000177621606495 0 0.024723278584198097 -0.050918151339240277 0 0.023482290239236796 -0.04999992481061865 0 0.023530543023442204 -0.051319274973451144 0 0.023482290239236796 -0.04999992481061865 0 0.022300155183863874 -0.051484906576164509 0 0.0211340339234256 -0.050000038632824179 0 0.023482290239236796 -0.04999992481061865 0 0.023530543023442204 -0.051319274973451144 0 0.022300155183863874 -0.051484906576164509 0 0.023603902643642677 -0.052876645776301176 0 0.023530543023442204 -0.051319274973451144 0 0.022300155183863874 -0.051484906576164509 0 0.023603902643642677 -0.052876645776301176 0 0.022300155183863874 -0.051484906576164509 0 0.021155496992409553 -0.053928997860935357 0 0.022300155183863874 -0.051484906576164509 0 0.020619503617044031 -0.052380891872695297 0 0.021067798704413238 -0.051144527289409436 0 0.020701446323429056 -0.052904771283674677 0 0.019976860727162624 -0.050714106220530193 0 0.022300155183863874 -0.051484906576164509 0 0.020619503617044031 -0.052380891872695297 0 0.021155496992409553 -0.053928997860935357 0 0.020619503617044031 -0.052380891872695297 0 0.021067798704413238 -0.051144527289409436 0 0.019992279393972929 -0.050758615041863915 0 0.022300155183863874 -0.051484906576164509 0 0.0211340339234256 -0.050000038632824179 0 0.021067798704413238 -0.051144527289409436 0 0.0211340339234256 -0.050000038632824179 0 0.021067798704413238 -0.051144527289409436 0 0.019992279393972929 -0.050758615041863915 0 0.0211340339234256 -0.050000038632824179 0 0.019992279393972929 -0.050758615041863915 0 0.018784921550366884 -0.049999349653630204 0 0.01833043427670222 -0.051308710139567844 0 0.019992279393972929 -0.050758615041863915 0 0.019228109754135907 -0.052060557947809852 0 0.01833043427670222 -0.051308710139567844 0 0.019992279393972929 -0.050758615041863915 0 0.018784921550366884 -0.049999349653630204 0 0.020372458386869977 -0.052223354158941915 0 0.019992279393972929 -0.050758615041863915 0 0.019228109754135907 -0.052060557947809852 0 0.020372458386869977 -0.052223354158941915 0 0.019228109754135907 -0.052060557947809852 0 0.019216370487686069 -0.05319882758193728 0 0.018039936008019168 -0.052497861263950681 0 0.019228109754135907 -0.052060557947809852 0 0.019216370487686069 -0.05319882758193728 0 0.017426672988013574 -0.053623244177636517 0 0.019216370487686069 -0.05319882758193728 0 0.018908775414183458 -0.054735859867646494 0 0.019216370487686069 -0.05319882758193728 0 0.018908775414183458 -0.054735859867646494 0 0.020918896166358836 -0.053822422433406424 0 0.016245348506575389 -0.04865569095127497 0 0.021493164135495204 -0.0496923785625734 0 0.016818284069658018 -0.04725652534316991 0 0.015639003115155335 -0.046666435813584324 0 0.016361387363623064 -0.048300942943815324 0 0.016818284069658018 -0.04725652534316991 0 0.015639003115155335 -0.046666435813584324 0 0.017700868777050561 -0.04651139782237021 0 0.015639003115155335 -0.046666435813584324 0 0.016361387363623064 -0.048300942943815324 0 0.014141043400307208 -0.048230702144914379 0 0.016245348506575389 -0.04865569095127497 0 0.017395377443388184 -0.046355567461567389 0 0.021493164135495204 -0.0496923785625734 0 0.020278618743685421 -0.043228337339787766 0 0.017700868777050561 -0.04651139782237021 0 0.017674060790197253 -0.045884211699872467 0 0.018492929612411734 -0.048353081097073092 0 0.016818284069658018 -0.04725652534316991 0 0.017700868777050561 -0.04651139782237021 0 0.018492929612411734 -0.048353081097073092 0 0.020701446323429056 -0.052904771283674677 0 0.021493164135495204 -0.0496923785625734 0 0.015861416892593985 -0.046747671246085816 0 0.017700868777050561 -0.04651139782237021 0 0.017674060790197253 -0.045884211699872467 0 0.020372458386869977 -0.052223354158941915 0 0.019216370487686069 -0.05319882758193728 0 0.020918896166358836 -0.053822422433406424 0 0.025135739578942912 -0.046625746805849244 0 0.026434672808392654 -0.046012672281174775 0 0.02524860484718482 -0.04544130882327984 0 0.024781844161398104 -0.049572340173114494 0 0.021493164135495204 -0.0496923785625734 0 0.02524860484718482 -0.04544130882327984 0 0.025057680308060229 -0.044503859336149434 0 0.025990230766420291 -0.044588567506532423 0 0.026434672808392654 -0.046012672281174775 0 0.02524860484718482 -0.04544130882327984 0 0.025990230766420291 -0.044588567506532423 0 0.02524860484718482 -0.04544130882327984 0 0.024477213111791001 -0.045048564059880385 0 0.025057680308060229 -0.044503859336149434 0 0.02524860484718482 -0.04544130882327984 0 0.024477213111791001 -0.045048564059880385 0 0.024272788064976257 -0.045824364395356677 0 0.025135739578942912 -0.046625746805849244 0 0.023870506952615392 -0.046530904560022887 0 0.024272788064976257 -0.045824364395356677 0 0.025135739578942912 -0.046625746805849244 0 0.02524860484718482 -0.04544130882327984 0 0.024272788064976257 -0.045824364395356677 0 0.024940327042454139 -0.043217278101718076 0 0.02583653715719806 -0.042604530624961195 0 0.024954543158926697 -0.042059461309629238 0 0.024940327042454139 -0.043217278101718076 0 0.024954543158926697 -0.042059461309629238 0 0.024501366110171167 -0.042778564240592218 0 0.024940327042454139 -0.043217278101718076 0 0.024205023522260911 -0.043174732683980074 0 0.024501366110171167 -0.042778564240592218 0 0.024940327042454139 -0.043217278101718076 0 0.025588545672853815 -0.043594575459936405 0 0.02583653715719806 -0.042604530624961195 0 0.026219800571706829 -0.044456071442971735 0 0.023789965950074661 -0.044299602115987269 0 0.024940327042454139 -0.043217278101718076 0 0.02524206803737248 -0.044257605130859912 0 0.024079864091156825 -0.044313895771876922 0 0.024940327042454139 -0.043217278101718076 0 0.02524206803737248 -0.044257605130859912 0 0.025588545672853815 -0.043594575459936405 0 0.024477213111791001 -0.045048564059880385 0 0.025057680308060229 -0.044503859336149434 0 0.024079864091156825 -0.044313895771876922 0 0.02524206803737248 -0.044257605130859912 0 0.025588545672853815 -0.043594575459936405 0 0.02634788938800035 -0.04429960704501644 0 0.026219800571706829 -0.044456071442971735 0 0.020278618743685421 -0.043228337339787766 0 0.020278618743685421 -0.043228337339787766 0 0.019498592714218166 -0.041557606968321961 0 0.013232079433055901 -0.038313087582057655 0 0.013480380787411213 -0.039430057868022755 0 0.012763756088627119 -0.038886056901301556 0 0.025588545672853815 -0.043594575459936405 0 0.02634788938800035 -0.04429960704501644 0 0.02583653715719806 -0.042604530624961195 0 0.013480380787411213 -0.039430057868022755 0 0.012720872518221182 -0.039444493666258212 0 0.012763756088627119 -0.038886056901301556 0 0.012720872518221182 -0.039444493666258212 0 0.012763756088627119 -0.038886056901301556 0 0.012030753737827122 -0.038892510304161611 0 0.020278618743685421 -0.043228337339787766 0 0.013233916170723801 -0.043193594208404455 0 0.016818284069658018 -0.04725652534316991 0 0.018492929612411734 -0.048353081097073092 0 0.016361387363623064 -0.048300942943815324 0 0.013232079433055901 -0.038313087582057655 0 0.012763756088627119 -0.038886056901301556 0 0.012106939825344054 -0.038105940989735777 0 0.012763756088627119 -0.038886056901301556 0 0.012106939825344054 -0.038105940989735777 0 0.012030753737827122 -0.038892510304161611 0 0.013233916170723801 -0.043193594208404455 0 0.012982662299037539 -0.042790026490743191 0 0.012106939825344054 -0.038105940989735777 0 0.012030753737827122 -0.038892510304161611 0 0.011141269759835551 -0.038674719143451483 0 0.012030753737827122 -0.038892510304161611 0 0.011141269759835551 -0.038674719143451483 0 0.01075829748764858 -0.039613487449687429 0 0.012720872518221182 -0.039444493666258212 0 0.012030753737827122 -0.038892510304161611 0 0.012308197770134447 -0.039883093838189783 0 0.012030753737827122 -0.038892510304161611 0 0.011633038454080605 -0.040914134691768252 0 0.01075829748764858 -0.039613487449687429 0 0.012074826932909857 -0.038685824831765706 0 0.011853589680781946 -0.040949253113853959 0 0.011633038454080605 -0.040914134691768252 0 0.010573580509580557 -0.041842356287871321 0 0.011390637287816719 -0.042772895220304655 0 0.012308197770134447 -0.039883093838189783 0 0.012592338711466849 -0.04022455005870372 0 0.012363844909700817 -0.040595279675785356 0 0.011853589680781946 -0.040949253113853959 0 0.012587727185535233 -0.039209324086629638 0 0.012592338711466849 -0.04022455005870372 0 0.012954676240375485 -0.039961146151425542 0 0.012961150138024197 -0.040490489535643749 0 0.012308197770134447 -0.039883093838189783 0 0.012592338711466849 -0.04022455005870372 0 0.012954676240375485 -0.039961146151425542 0 0.012720872518221182 -0.039444493666258212 0 0.012308197770134447 -0.039883093838189783 0 0.012954676240375485 -0.039961146151425542 0 0.013480380787411213 -0.039430057868022755 0 0.012720872518221182 -0.039444493666258212 0 0.012954676240375485 -0.039961146151425542 0 0.013480380787411213 -0.039430057868022755 0 0.012954676240375485 -0.039961146151425542 0 0.013737818471324501 -0.040209873553854879 0 0.019498592714218166 -0.041557606968321961 0 0.020801753510457682 -0.03591528490494126 0 0.012954676240375485 -0.039961146151425542 0 0.013737818471324501 -0.040209873553854879 0 0.012961150138024197 -0.040490489535643749 0 0.020801753510457682 -0.03591528490494126 0 0.012706582108559466 -0.034131916188204742 0 0.020801753510457682 -0.03591528490494126 0 0.029133700189873202 -0.036340632296588384 0 0.025289198473761005 -0.041218385947399599 0 0.024954543158926697 -0.042059461309629238 0 0.024686347704089954 -0.04172173236107423 0 0.02974444493336199 -0.033172382802946508 0 0.029583607143603377 -0.033102631422229425 0 0.029233045417468701 -0.0335094962790786 0 0.030152979709528033 -0.03272905699521951 0 0.029133700189873202 -0.036340632296588384 0 0.02583653715719806 -0.042604530624961195 0 0.025289198473761005 -0.041218385947399599 0 0.024954543158926697 -0.042059461309629238 0 -0.0062828897427631945 -0.039783455846566798 0 -0.0065304771081128882 -0.040020318215686745 0 -0.0066428289622239194 -0.039597500809428164 0 -0.0062235270642835554 -0.039710106709057634 0 -0.0062828897427631945 -0.039783455846566798 0 -0.0059817794081264255 -0.039894301691262381 0 -0.0062235270642835554 -0.039710106709057634 0 -0.0062828897427631945 -0.039783455846566798 0 -0.0064784407383648998 -0.03957709217535367 0 -0.0032177868180819236 -0.047090758074442671 0 -0.0040573783187209684 -0.047105444090132273 0 -0.005628192554815334 -0.040027386719385785 0 -0.0059603176533577365 -0.040148602358020473 0 -0.0059817794081264255 -0.039894301691262381 0 0.0011959066298660823 -0.055246629255020469 0 0.0010821142467130887 -0.055228533491129328 0 -0.0009145876484781951 -0.053740491988144484 0 -0.0062828897427631945 -0.039783455846566798 0 -0.0059603176533577365 -0.040148602358020473 0 -0.0059817794081264255 -0.039894301691262381 0 0.0010821142467130887 -0.055228533491129328 0 -0.0009145876484781951 -0.053740491988144484 0 -0.0010467420240849923 -0.05451273824798139 0 -0.0009145876484781951 -0.053740491988144484 0 -0.0028150507193090073 -0.054244432466911768 0 -0.002973096302985887 -0.052952360173002408 0 -0.0040573783187209684 -0.047105444090132273 0 0.00050050232384339134 -0.042238730490460417 0 0.0018513285238120807 -0.055289130504545328 0 0.0075889207085688233 -0.048314183893019468 0 -0.0009145876484781951 -0.053740491988144484 0 -0.0010467420240849923 -0.05451273824798139 0 -0.0028150507193090073 -0.054244432466911768 0 -0.0062828897427631945 -0.039783455846566798 0 -0.0059603176533577365 -0.040148602358020473 0 -0.0065304771081128882 -0.040020318215686745 0 0.0075889207085688233 -0.048314183893019468 0 0.00050050232384339134 -0.042238730490460417 0 0.0088176108984133177 -0.03791192573426691 0 0.0092982868037271901 -0.03883874977552973 0 0.010461406921189015 -0.037936476744902227 0 0.0075889207085688233 -0.048314183893019468 0 0.012982662299037539 -0.042790026490743191 0 0.0051018574852881582 -0.042336594869491782 0 0.00050050232384339134 -0.042238730490460417 0 0.0088176108984133177 -0.03791192573426691 0 0.0092982868037271901 -0.03883874977552973 0 0.0089275725115887279 -0.038741511079102765 0 0.012106939825344054 -0.038105940989735777 0 0.010461406921189015 -0.037936476744902227 0 0.011141269759835551 -0.038674719143451483 0 0.0092982868037271901 -0.03883874977552973 0 0.010461406921189015 -0.037936476744902227 0 0.010285385959909393 -0.038886401271876654 0 0.010461406921189015 -0.037936476744902227 0 0.010285385959909393 -0.038886401271876654 0 0.011141269759835551 -0.038674719143451483 0 0.01075829748764858 -0.039613487449687429 0 0.009890207936149923 -0.039637374654736865 0 0.010228769097360042 -0.04071182055487288 0 0.010285385959909393 -0.038886401271876654 0 0.011141269759835551 -0.038674719143451483 0 0.01075829748764858 -0.039613487449687429 0 0.010285385959909393 -0.038886401271876654 0 0.01075829748764858 -0.039613487449687429 0 0.009890207936149923 -0.039637374654736865 0 0.00050050232384339134 -0.042238730490460417 0 0.0012594170300620859 -0.039314715200717824 0 0.0092982868037271901 -0.03883874977552973 0 0.009890207936149923 -0.039637374654736865 0 0.0091724429514977741 -0.040324681095213505 0 0.0092982868037271901 -0.03883874977552973 0 0.0089376987168161542 -0.038736114209080005 0 0.0091724429514977741 -0.040324681095213505 0 0.0092982868037271901 -0.03883874977552973 0 0.010285385959909393 -0.038886401271876654 0 0.009890207936149923 -0.039637374654736865 0 0.0091724429514977741 -0.040324681095213505 0 0.010228769097360042 -0.04071182055487288 0 0.0093537554447169127 -0.041875883819388109 0 0.0012594170300620859 -0.039314715200717824 0 0.0014913100978136268 -0.041063985087726657 0 0.009890207936149923 -0.039637374654736865 0 0.0091724429514977741 -0.040324681095213505 0 0.010228769097360042 -0.04071182055487288 0 0.011633038454080605 -0.040914134691768252 0 0.01075829748764858 -0.039613487449687429 0 0.010228769097360042 -0.04071182055487288 0 0.010228769097360042 -0.04071182055487288 0 0.010573580509580557 -0.041842356287871321 0 0.0093537554447169127 -0.041875883819388109 0 0.011633038454080605 -0.040914134691768252 0 0.010228769097360042 -0.04071182055487288 0 0.010573580509580557 -0.041842356287871321 0 -0.0066428289622239194 -0.039597500809428164 0 -0.0067251620301021385 -0.039405273457588944 0 -0.006677140636055217 -0.039425843154852515 0 -0.0067251620301021385 -0.039405273457588944 0 -0.006677140636055217 -0.039425843154852515 0 -0.0067781994438978511 -0.039358943308082768 0 -0.0066428289622239194 -0.039597500809428164 0 -0.006677140636055217 -0.039425843154852515 0 -0.0064784407383648998 -0.03957709217535367 0 -0.0062828897427631945 -0.039783455846566798 0 -0.0066428289622239194 -0.039597500809428164 0 -0.0064784407383648998 -0.03957709217535367 0 -0.0065509631582778864 -0.03957573337009198 0 -0.0062235270642835554 -0.039710106709057634 0 -0.0064784407383648998 -0.03957709217535367 0 -0.006677140636055217 -0.039425843154852515 0 -0.0064784407383648998 -0.03957709217535367 0 -0.0067143306564508834 -0.039448662690235288 0 -0.006677140636055217 -0.039425843154852515 0 -0.0067143306564508834 -0.039448662690235288 0 -0.006919814226170589 -0.039333171328884094 0 -0.0065509631582778864 -0.03957573337009198 0 -0.0064784407383648998 -0.03957709217535367 0 -0.0067143306564508834 -0.039448662690235288 0 -0.006919814226170589 -0.039333171328884094 0 -0.0071047439585218194 -0.039258204662108248 0 -0.0071852432204668037 -0.039223927396731147 0 -0.0071047439585218194 -0.039258204662108248 0 -0.0069125980251776532 -0.039406607244590705 0 -0.0075556069674412758 -0.038928666986068443 0 -0.0071047439585218194 -0.039258204662108248 0 -0.0069125980251776532 -0.039406607244590705 0 -0.0068881661745837678 -0.039338366942471441 0 -0.006919814226170589 -0.039333171328884094 0 -0.0071047439585218194 -0.039258204662108248 0 -0.0068881661745837678 -0.039338366942471441 0 -0.009757192123765605 -0.039502878729311568 0 -0.00022664029962142599 -0.040071738367919316 0 -0.0092710753878723542 -0.039263969702767694 0 -0.0098254450908603942 -0.039304792822975151 0 -0.0095544271938266118 -0.039027705665015067 0 -0.0069125980251776532 -0.039406607244590705 0 -0.0068881661745837678 -0.039338366942471441 0 -0.0066875469635163517 -0.039395794525634513 0 -0.006919814226170589 -0.039333171328884094 0 -0.0068881661745837678 -0.039338366942471441 0 -0.0067781994438978511 -0.039358943308082768 0 -0.006677140636055217 -0.039425843154852515 0 -0.006919814226170589 -0.039333171328884094 0 -0.0067781994438978511 -0.039358943308082768 0 -0.0068881661745837678 -0.039338366942471441 0 -0.0067781994438978511 -0.039358943308082768 0 -0.0066875469635163517 -0.039395794525634513 0 -0.0067251620301021385 -0.039405273457588944 0 -0.0067781994438978511 -0.039358943308082768 0 -0.0066875469635163517 -0.039395794525634513 0 0.0014913100978136268 -0.041063985087726657 0 -0.00022664029962142599 -0.040071738367919316 0 0.010573580509580557 -0.041842356287871321 0 0.0093537554447169127 -0.041875883819388109 0 0.0095018396627590818 -0.043421079794932781 0 0.010573580509580557 -0.041842356287871321 0 0.0095018396627590818 -0.043421079794932781 0 0.011390637287816719 -0.042772895220304655 0 0.00068393607732065455 -0.03753757414816674 0 0.012152060002948696 -0.033408226236945601 0 0.012005445879180395 -0.035273650359679096 0 -0.00022664029962142599 -0.040071738367919316 0 0.012587727185535233 -0.039209324086629638 0 -0.00034250390501750378 -0.035334325529433004 0 0.013734513519090146 -0.032220322811692181 0 0.00068393607732065455 -0.03753757414816674 0 0.0010242603282011914 -0.040147301735211249 0 0.012005445879180395 -0.035273650359679096 0 0.011416922486541085 -0.02928817275691209 0 0.012834296256400151 -0.028695448495321223 0 0.012822636871770677 -0.030231825369378986 0 -0.00034250390501750378 -0.035334325529433004 0 -0.013093915367676373 -0.040594499627519862 0 -0.0098254450908603942 -0.039304792822975151 0 -0.0098307729993667003 -0.039184857590907111 0 -0.0095544271938266118 -0.039027705665015067 0 -0.00022664029962142599 -0.040071738367919316 0 -0.00034250390501750378 -0.035334325529433004 0 -0.010601698547902369 -0.039467536156592604 0 -0.0098570931707981941 -0.037991475115025049 0 -0.0095544271938266118 -0.039027705665015067 0 -0.010601698547902369 -0.039467536156592604 0 -0.010980391636327445 -0.037662459738044676 0 -0.0098570931707981941 -0.037991475115025049 0 -0.00034250390501750378 -0.035334325529433004 0 0.00053734550612067515 -0.033940762331756941 0 0.011416922486541085 -0.02928817275691209 0 0.0116585981388474 -0.030865163514904551 0 0.012822636871770677 -0.030231825369378986 0 0.0116585981388474 -0.030865163514904551 0 0.012822636871770677 -0.030231825369378986 0 0.01281502676785044 -0.031537055810825658 0 -0.010980391636327445 -0.037662459738044676 0 -0.0098570931707981941 -0.037991475115025049 0 -0.0099523295293423904 -0.036863253089619449 0 -0.0098570931707981941 -0.037991475115025049 0 -0.0088964346726413401 -0.037763275410292729 0 -0.0099523295293423904 -0.036863253089619449 0 -0.0098570931707981941 -0.037991475115025049 0 -0.0088964346726413401 -0.037763275410292729 0 -0.0090769831339731731 -0.038602252480802089 0 -0.0088964346726413401 -0.037763275410292729 0 -0.0088632518953403582 -0.036599233695729969 0 -0.0080117991201748076 -0.037447013466725569 0 -0.0088964346726413401 -0.037763275410292729 0 -0.0075556069674412758 -0.038928666986068443 0 -0.0080117991201748076 -0.037447013466725569 0 -0.009757192123765605 -0.039502878729311568 0 -0.0068453975681761975 -0.038805519223252802 0 -0.0092710753878723542 -0.039263969702767694 0 -0.0090769831339731731 -0.038602252480802089 0 -0.0075556069674412758 -0.038928666986068443 0 -0.0088964346726413401 -0.037763275410292729 0 -0.0090769831339731731 -0.038602252480802089 0 -0.0075556069674412758 -0.038928666986068443 0 -0.0098570931707981941 -0.037991475115025049 0 -0.0090769831339731731 -0.038602252480802089 0 -0.0095544271938266118 -0.039027705665015067 0 -0.0092710753878723542 -0.039263969702767694 0 -0.0090769831339731731 -0.038602252480802089 0 -0.0095544271938266118 -0.039027705665015067 0 0.041045648960859583 -0.028541591051965458 0 0.041501466377629019 -0.029760238772992182 0 0.040462650092395698 -0.029551582690684402 0 0.038514616166870776 -0.025441488424817242 0 0.031283930346939048 -0.027714577226315717 0 0.035349108178736002 -0.021402447057720885 0 0.035660721039315411 -0.022607690019584101 0 0.036605660259915282 -0.020871136687682076 0 0.031283930346939048 -0.027714577226315717 0 0.022401489121315517 -0.025303628522843319 0 0.029583607143603377 -0.033102631422229425 0 0.029601136850381436 -0.032771265552188455 0 0.029528629431867379 -0.033082063936153483 0 0.017266881370187281 -0.02634659135235963 0 0.017935190600672182 -0.028339307940370751 0 0.016544652161799893 -0.027855272760402495 0 0.02974444493336199 -0.033172382802946508 0 0.029583607143603377 -0.033102631422229425 0 0.029601136850381436 -0.032771265552188455 0 0.020801753510457682 -0.03591528490494126 0 0.031283930346939048 -0.027714577226315717 0 0.031283930346939048 -0.027714577226315717 0 0.035188174368390855 -0.032084824437200572 0 0.017266881370187281 -0.02634659135235963 0 0.016544652161799893 -0.027855272760402495 0 0.015144087351862666 -0.027314036318285117 0 0.017266881370187281 -0.02634659135235963 0 0.015144087351862666 -0.027314036318285117 0 0.014744175047525064 -0.027371695705206232 0 0.017935190600672182 -0.028339307940370751 0 0.016544652161799893 -0.027855272760402495 0 0.015828419309809556 -0.029144978709438146 0 0.01558213395507748 -0.029415419368092145 0 0.015126703022217518 -0.027262028435769834 0 0.016544652161799893 -0.027855272760402495 0 0.015828419309809556 -0.029144978709438146 0 0.015144087351862666 -0.027314036318285117 0 0.015242813116034452 -0.028617677773172579 0 0.014113503137361717 -0.02952895918349447 0 0.015483117108776442 -0.029775790161265112 0 0.017935190600672182 -0.028339307940370751 0 0.015828419309809556 -0.029144978709438146 0 0.016359491394257956 -0.030861744422114153 0 0.01558213395507748 -0.029415419368092145 0 0.022401489121315517 -0.025303628522843319 0 0.015242813116034452 -0.028617677773172579 0 0.014286607244189554 -0.028415747539057842 0 0.014113503137361717 -0.02952895918349447 0 0.014286607244189554 -0.028415747539057842 0 0.013035411362934381 -0.028112601822233827 0 0.014113503137361717 -0.02952895918349447 0 0.012592338711466849 -0.04022455005870372 0 0.012961150138024197 -0.040490489535643749 0 0.012449023209201049 -0.040558594444130312 0 0.012706582108559466 -0.034131916188204742 0 0.013734513519090146 -0.032220322811692181 0 0.015242813116034452 -0.028617677773172579 0 0.015144087351862666 -0.027314036318285117 0 0.014744175047525064 -0.027371695705206232 0 0.015242813116034452 -0.028617677773172579 0 0.014286607244189554 -0.028415747539057842 0 0.014744175047525064 -0.027371695705206232 0 0.014286607244189554 -0.028415747539057842 0 0.014744175047525064 -0.027371695705206232 0 0.013035411362934381 -0.028112601822233827 0 0.012961150138024197 -0.040490489535643749 0 0.012449023209201049 -0.040558594444130312 0 0.012340248641220068 -0.040676613805585918 0 0.012592338711466849 -0.04022455005870372 0 0.012449023209201049 -0.040558594444130312 0 0.012363844909700817 -0.040595279675785356 0 0.012449023209201049 -0.040558594444130312 0 0.01235372808880374 -0.04057857323711405 0 0.012340248641220068 -0.040676613805585918 0 0.012587727185535233 -0.039209324086629638 0 0.013734513519090146 -0.032220322811692181 0 0.012397233515498337 -0.03944777445224356 0 0.012587727185535233 -0.039209324086629638 0 0.013734513519090146 -0.032220322811692181 0 0.012639512716951601 -0.028501739109326806 0 0.013035411362934381 -0.028112601822233827 0 0.012822636871770677 -0.030231825369378986 0 0.014113503137361717 -0.02952895918349447 0 0.012822636871770677 -0.030231825369378986 0 0.014352870324812082 -0.031333583922992875 0 0.01281502676785044 -0.031537055810825658 0 0.012822636871770677 -0.030231825369378986 0 0.014352870324812082 -0.031333583922992875 0 0.014113503137361717 -0.02952895918349447 0 0.014352870324812082 -0.031333583922992875 0 0.014113503137361717 -0.02952895918349447 0 0.015483117108776442 -0.029775790161265112 0 0.022417349967563192 -0.023151749073221532 0 0.023011094607418528 -0.022270108156834383 0 0.023342948586126209 -0.023311816057844194 0 0.017895926048834613 -0.027442552005709463 0 0.022401489121315517 -0.025303628522843319 0 0.022401489121315517 -0.025303628522843319 0 0.030721031509118615 -0.020687218389576854 0 0.035820043821260777 -0.02003422042235483 0 0.03608644629446385 -0.019358948825802039 0 0.035396847399161414 -0.019270312338222319 0 0.036605660259915282 -0.020871136687682076 0 0.035820043821260777 -0.02003422042235483 0 0.03608644629446385 -0.019358948825802039 0 0.035820043821260777 -0.02003422042235483 0 0.035714266873983665 -0.020850930281363755 0 0.035356117466952428 -0.020230618047447878 0 0.035349108178736002 -0.021402447057720885 0 0.036605660259915282 -0.020871136687682076 0 0.035714266873983665 -0.020850930281363755 0 0.036605660259915282 -0.020871136687682076 0 0.035820043821260777 -0.02003422042235483 0 0.035714266873983665 -0.020850930281363755 0 0.035349108178736002 -0.021402447057720885 0 0.035714266873983665 -0.020850930281363755 0 0.035033437638902529 -0.020272684177694802 0 0.035154498451610477 -0.020305986681306034 0 0.037127283201793593 -0.021812798101710825 0 0.03608644629446385 -0.019358948825802039 0 0.035575619070240774 -0.01892394929856895 0 0.035679548742029561 -0.018996716732328309 0 0.030721031509118615 -0.020687218389576854 0 0.029587130412069767 -0.021829169824918501 0 0.03608644629446385 -0.019358948825802039 0 0.035396847399161414 -0.019270312338222319 0 0.035679548742029561 -0.018996716732328309 0 0.022417349967563192 -0.023151749073221532 0 0.023342948586126209 -0.023311816057844194 0 0.02274681099912066 -0.023873683799412609 0 0.02274681099912066 -0.023873683799412609 0 0.022491856599999447 -0.024654222972380249 0 0.023754140480602957 -0.024458372584152482 0 0.023342948586126209 -0.023311816057844194 0 0.02274681099912066 -0.023873683799412609 0 0.023754140480602957 -0.024458372584152482 0 0.02274681099912066 -0.023873683799412609 0 0.021719818385142479 -0.024109444420251595 0 0.022491856599999447 -0.024654222972380249 0 0.017895926048834613 -0.027442552005709463 0 0.017468711322154631 -0.028644457740701155 0 0.022417349967563192 -0.023151749073221532 0 0.02274681099912066 -0.023873683799412609 0 0.021719818385142479 -0.024109444420251595 0 0.014352870324812082 -0.031333583922992875 0 0.01281502676785044 -0.031537055810825658 0 0.013315005775461203 -0.032664805496347697 0 0.01281502676785044 -0.031537055810825658 0 0.013315005775461203 -0.032664805496347697 0 0.011938606884302167 -0.032498527426665771 0 0.017468711322154631 -0.028644457740701155 0 0.017216547137556173 -0.027972088303651339 0 0.021719818385142479 -0.024109444420251595 0 0.021612594337112299 -0.024954621938188089 0 0.020970834101733147 -0.025177349728967263 0 0.022628582315842267 -0.024844907802512913 0 0.017216547137556173 -0.027972088303651339 0 0.021460075271646669 -0.025579602289949429 0 0.020954113330487533 -0.025156533587725932 0 0.021050703731895631 -0.025642241479359965 0 0.021612594337112299 -0.024954621938188089 0 0.021460075271646669 -0.025579602289949429 0 0.020954113330487533 -0.025156533587725932 0 0.021460075271646669 -0.025579602289949429 0 0.021050703731895631 -0.025642241479359965 0 0.021241743288331127 -0.026144005658385795 0 0.021460075271646669 -0.025579602289949429 0 0.022144808950348042 -0.025440338772686841 0 0.021756812018792791 -0.026090463326349327 0 0.021612594337112299 -0.024954621938188089 0 0.021460075271646669 -0.025579602289949429 0 0.022144808950348042 -0.025440338772686841 0 0.022144808950348042 -0.025440338772686841 0 0.023014398636914637 -0.025418552491167784 0 0.022353203299014537 -0.026015187230205995 0 0.022144808950348042 -0.025440338772686841 0 0.022491856599999447 -0.024654222972380249 0 0.023014398636914637 -0.025418552491167784 0 0.021719818385142479 -0.024109444420251595 0 0.021612594337112299 -0.024954621938188089 0 0.022491856599999447 -0.024654222972380249 0 0.021612594337112299 -0.024954621938188089 0 0.022144808950348042 -0.025440338772686841 0 0.022491856599999447 -0.024654222972380249 0 0.022491856599999447 -0.024654222972380249 0 0.023014398636914637 -0.025418552491167784 0 0.023754140480602957 -0.024458372584152482 0 0.023014398636914637 -0.025418552491167784 0 0.024196181264125854 -0.02570543923715014 0 0.023754140480602957 -0.024458372584152482 0 0.029499819558605582 -0.022786947481984593 0 0.029587130412069767 -0.021829169824918501 0 -0.0089793514723041333 -0.035051446648958547 0 -0.0088632518953403582 -0.036599233695729969 0 -0.007897559814180213 -0.036332797308374569 0 -0.0098639050058247114 -0.035424227877762046 0 -0.0089793514723041333 -0.035051446648958547 0 -0.0088632518953403582 -0.036599233695729969 0 -0.0098639050058247114 -0.035424227877762046 0 -0.0088632518953403582 -0.036599233695729969 0 -0.0099523295293423904 -0.036863253089619449 0 -0.0088964346726413401 -0.037763275410292729 0 -0.0088632518953403582 -0.036599233695729969 0 -0.0099523295293423904 -0.036863253089619449 0 -0.010980391636327445 -0.037662459738044676 0 -0.0099523295293423904 -0.036863253089619449 0 -0.011318231312870472 -0.035706208987686602 0 0.00053734550612067515 -0.033940762331756941 0 -0.00047895574221913081 -0.034659874451009258 0 0.0116585981388474 -0.030865163514904551 0 0.01281502676785044 -0.031537055810825658 0 0.011938606884302167 -0.032498527426665771 0 0.013315005775461203 -0.032664805496347697 0 0.011938606884302167 -0.032498527426665771 0 0.012451251923918176 -0.03386475474685828 0 -0.0098639050058247114 -0.035424227877762046 0 -0.0099523295293423904 -0.036863253089619449 0 -0.011318231312870472 -0.035706208987686602 0 -0.0098639050058247114 -0.035424227877762046 0 -0.011318231312870472 -0.035706208987686602 0 -0.010563244737201364 -0.034470291881341743 0 -0.010563244737201364 -0.034470291881341743 0 -0.010324133904024731 -0.033341869628769574 0 -0.0097434654422704284 -0.033899871576438853 0 -0.011318231312870472 -0.035706208987686602 0 -0.010563244737201364 -0.034470291881341743 0 -0.011453792430265404 -0.033795054534013644 0 -0.00047895574221913081 -0.034659874451009258 0 0.0061492672881578031 -0.031312874626801684 0 0.011938606884302167 -0.032498527426665771 0 0.012451251923918176 -0.03386475474685828 0 0.012170908058147011 -0.033952403475222166 0 0.020793085929648195 -0.025393677997409478 0 0.020685050293982966 -0.025281905427092563 0 0.020815415816136926 -0.025906792581380959 0 0.020954113330487533 -0.025156533587725932 0 0.020793085929648195 -0.025393677997409478 0 0.021050703731895631 -0.025642241479359965 0 0.017216547137556173 -0.027972088303651339 0 0.0061492672881578031 -0.031312874626801684 0 0.020853444510118616 -0.025259027073353216 0 0.020793085929648195 -0.025393677997409478 0 0.020685050293982966 -0.025281905427092563 0 0.017216547137556173 -0.027972088303651339 0 0.019042251500997212 -0.025815646085467537 0 0.0079172166031524164 -0.028388229624476728 0 0.010281807044396546 -0.025354649714417823 0 0.0075608541747205398 -0.024895655755017961 0 0.0061492672881578031 -0.031312874626801684 0 0.013747125686072731 -0.025255183027477104 0 0.020793085929648195 -0.025393677997409478 0 0.021050703731895631 -0.025642241479359965 0 0.020815415816136926 -0.025906792581380959 0 0.0061492672881578031 -0.031312874626801684 0 0.00090897259407965339 -0.030105188670110486 0 0.0079172166031524164 -0.028388229624476728 0 0.010281807044396546 -0.025354649714417823 0 0.012501156852936571 -0.026855157095712373 0 -0.010563244737201364 -0.034470291881341743 0 -0.011453792430265404 -0.033795054534013644 0 -0.010324133904024731 -0.033341869628769574 0 0.010281807044396546 -0.025354649714417823 0 0.012501156852936571 -0.026855157095712373 0 0.01254333644976879 -0.024469566415854089 0 -0.010831414814116355 -0.035615799601822422 0 -0.0024984956320287205 -0.029356937169468685 0 0.00090897259407965339 -0.030105188670110486 0 -0.0024984956320287205 -0.029356937169468685 0 -0.0097434654422704284 -0.033899871576438853 0 -0.0091351238606853062 -0.033974453309676474 0 -0.0093037669557005445 -0.032793113357734001 0 -0.010324133904024731 -0.033341869628769574 0 -0.0097434654422704284 -0.033899871576438853 0 -0.0091303214784639528 -0.032857600087124794 0 -0.0098639050058247114 -0.035424227877762046 0 -0.010563244737201364 -0.034470291881341743 0 -0.0097434654422704284 -0.033899871576438853 0 -0.0098639050058247114 -0.035424227877762046 0 -0.0089793514723041333 -0.035051446648958547 0 -0.0097434654422704284 -0.033899871576438853 0 -0.0089793514723041333 -0.035051446648958547 0 -0.0091351238606853062 -0.033974453309676474 0 -0.0086470508161706656 -0.033214652668252874 0 -0.0089793514723041333 -0.035051446648958547 0 -0.0097434654422704284 -0.033899871576438853 0 -0.0091351238606853062 -0.033974453309676474 0 -0.0091351238606853062 -0.033974453309676474 0 -0.0093037669557005445 -0.032793113357734001 0 -0.0086470508161706656 -0.033214652668252874 0 -0.0093037669557005445 -0.032793113357734001 0 -0.0086470508161706656 -0.033214652668252874 0 -0.0089534039980250692 -0.03258813825380074 0 -0.0086470508161706656 -0.033214652668252874 0 -0.0090054299877630976 -0.032746978369176803 0 -0.0089534039980250692 -0.03258813825380074 0 -0.0090054299877630976 -0.032746978369176803 0 -0.0093705551466504652 -0.032527050530109201 0 -0.0088519909246509345 -0.032591585140651615 0 -0.0090054299877630976 -0.032746978369176803 0 -0.0090274599451454982 -0.03196095105908979 0 -0.0093705551466504652 -0.032527050530109201 0 -0.0086470508161706656 -0.033214652668252874 0 -0.0090054299877630976 -0.032746978369176803 0 -0.0090274599451454982 -0.03196095105908979 0 -0.0089793514723041333 -0.035051446648958547 0 -0.0086470508161706656 -0.033214652668252874 0 -0.0070971004739584743 -0.035184045542661933 0 -0.0086307210309373127 -0.033194319141229639 0 -0.0082058459631355503 -0.033532940095357393 0 -0.0089793514723041333 -0.035051446648958547 0 -0.0070971004739584743 -0.035184045542661933 0 -0.007897559814180213 -0.036332797308374569 0 -0.0070971004739584743 -0.035184045542661933 0 -0.007897559814180213 -0.036332797308374569 0 -0.0071295585901696929 -0.036554242045080051 0 -0.0070971004739584743 -0.035184045542661933 0 -0.0071295585901696929 -0.036554242045080051 0 -0.0064802340112374299 -0.036764063109171359 0 -0.0074600108363828636 -0.037089744766183881 0 -0.0069131820384771021 -0.037312575821863522 0 -0.0072783374132586879 -0.038061476397816207 0 -0.007897559814180213 -0.036332797308374569 0 -0.0071295585901696929 -0.036554242045080051 0 -0.0074600108363828636 -0.037089744766183881 0 -0.0071295585901696929 -0.036554242045080051 0 -0.0074600108363828636 -0.037089744766183881 0 -0.0069131820384771021 -0.037312575821863522 0 -0.0088632518953403582 -0.036599233695729969 0 -0.007897559814180213 -0.036332797308374569 0 -0.0080117991201748076 -0.037447013466725569 0 -0.007897559814180213 -0.036332797308374569 0 -0.0074600108363828636 -0.037089744766183881 0 -0.0080117991201748076 -0.037447013466725569 0 -0.0083695655000068613 -0.033869536354389447 0 -0.0095736996845071001 -0.034704246617137662 0 -0.0064720992504431508 -0.037674885130803804 0 -0.0064802340112374299 -0.036764063109171359 0 -0.0061883102368641696 -0.037822756740401489 0 -0.010620330212625755 -0.030815027981633134 0 -0.011407985706299292 -0.030859141519435005 0 -0.011050846992973663 -0.031619595798341976 0 -0.0069131820384771021 -0.037312575821863522 0 -0.0064802340112374299 -0.036764063109171359 0 -0.0066420793276396658 -0.037724941471031205 0 -0.0064720992504431508 -0.037674885130803804 0 -0.0064802340112374299 -0.036764063109171359 0 -0.0066420793276396658 -0.037724941471031205 0 -0.0071295585901696929 -0.036554242045080051 0 -0.0069131820384771021 -0.037312575821863522 0 -0.0064802340112374299 -0.036764063109171359 0 -0.0082058459631355503 -0.033532940095357393 0 -0.0083695655000068613 -0.033869536354389447 0 -0.011407985706299292 -0.030859141519435005 0 -0.011709140588206598 -0.030103813402775414 0 -0.011050846992973663 -0.031619595798341976 0 -0.010620330212625755 -0.030815027981633134 0 -0.011407985706299292 -0.030859141519435005 0 -0.010311321251314894 -0.032314124459371492 0 -0.012784737744039565 -0.02963687447527593 0 -0.0095736996845071001 -0.034704246617137662 0 -0.011709140588206598 -0.030103813402775414 0 -0.014081525617490756 -0.028597451705218043 0 -0.013366919153019073 -0.02619078485334023 0 -0.012784737744039565 -0.02963687447527593 0 -0.013170797147674261 -0.026644770770081205 0 -0.011553441257377964 -0.030808324041857175 0 -0.012182383078951704 -0.030333522457643761 0 -0.013201716793576486 -0.030126082290459769 0 -0.013366919153019073 -0.02619078485334023 0 -0.011940332852402574 -0.028434679876234617 0 -0.011407985706299292 -0.030859141519435005 0 -0.011709140588206598 -0.030103813402775414 0 -0.014081525617490756 -0.028597451705218043 0 -0.0090274599451454982 -0.03196095105908979 0 -0.010620330212625755 -0.030815027981633134 0 -0.010311321251314894 -0.032314124459371492 0 -0.0090274599451454982 -0.03196095105908979 0 -0.010311321251314894 -0.032314124459371492 0 -0.0093705551466504652 -0.032527050530109201 0 -0.014081525617490756 -0.028597451705218043 0 -0.013366919153019073 -0.02619078485334023 0 -0.015920044013516557 -0.025330953858123277 0 -0.012182383078951704 -0.030333522457643761 0 -0.012113867294691055 -0.028843219498803929 0 -0.010311321251314894 -0.032314124459371492 0 -0.0093705551466504652 -0.032527050530109201 0 -0.0088519909246509345 -0.032591585140651615 0 -0.013366919153019073 -0.02619078485334023 0 -0.011412863507994215 -0.02710013987092881 0 -0.011940332852402574 -0.028434679876234617 0 -0.013366919153019073 -0.02619078485334023 0 -0.011412863507994215 -0.02710013987092881 0 -0.011276006164648163 -0.025301386133569637 0 -0.011412863507994215 -0.02710013987092881 0 -0.0098673446042069988 -0.026946600748544096 0 -0.011276006164648163 -0.025301386133569637 0 -0.011412863507994215 -0.02710013987092881 0 -0.0098673446042069988 -0.026946600748544096 0 -0.010482801491019818 -0.028715985574551562 0 -0.0098673446042069988 -0.026946600748544096 0 -0.010482801491019818 -0.028715985574551562 0 -0.0085674191384868103 -0.029060247223842779 0 -0.010482801491019818 -0.028715985574551562 0 -0.0085674191384868103 -0.029060247223842779 0 -0.0096495904381760037 -0.030676779004201411 0 -0.010482801491019818 -0.028715985574551562 0 -0.011300292830123208 -0.030285301575854073 0 -0.0096495904381760037 -0.030676779004201411 0 -0.010482801491019818 -0.028715985574551562 0 -0.011940332852402574 -0.028434679876234617 0 -0.011300292830123208 -0.030285301575854073 0 -0.013201716793576486 -0.030126082290459769 0 -0.011940332852402574 -0.028434679876234617 0 -0.011300292830123208 -0.030285301575854073 0 -0.011412863507994215 -0.02710013987092881 0 -0.010482801491019818 -0.028715985574551562 0 -0.011940332852402574 -0.028434679876234617 0 -0.005431085674321082 -0.026530844724898712 0 -0.0068067421927572435 -0.02810343573176639 0 -0.00697636897660402 -0.025630297639334467 0 -0.0068067421927572435 -0.02810343573176639 0 -0.0082734023523040011 -0.0268920456899709 0 -0.00697636897660402 -0.025630297639334467 0 -0.0098673446042069988 -0.026946600748544096 0 -0.0082734023523040011 -0.0268920456899709 0 -0.0092332512662279213 -0.024636263420746797 0 -0.0068067421927572435 -0.02810343573176639 0 -0.0082734023523040011 -0.0268920456899709 0 -0.0085674191384868103 -0.029060247223842779 0 -0.0098673446042069988 -0.026946600748544096 0 -0.0082734023523040011 -0.0268920456899709 0 -0.0085674191384868103 -0.029060247223842779 0 -0.0068067421927572435 -0.02810343573176639 0 -0.0085674191384868103 -0.029060247223842779 0 -0.0066664185998986129 -0.030494276829738459 0 -0.0048386424443695401 -0.029202754749732142 0 -0.0068067421927572435 -0.02810343573176639 0 -0.0066664185998986129 -0.030494276829738459 0 -0.0051912312055011987 -0.032078088813585426 0 -0.0066664185998986129 -0.030494276829738459 0 -0.0070791103868762762 -0.033655714510717437 0 -0.0066664185998986129 -0.030494276829738459 0 -0.0081471882055498841 -0.031464976474096212 0 -0.0070791103868762762 -0.033655714510717437 0 -0.0081471882055498841 -0.031464976474096212 0 -0.0087791509823525599 -0.033159877000807553 0 -0.0096495904381760037 -0.030676779004201411 0 -0.0085674191384868103 -0.029060247223842779 0 -0.0066664185998986129 -0.030494276829738459 0 -0.0081471882055498841 -0.031464976474096212 0 -0.0085674191384868103 -0.029060247223842779 0 -0.0081471882055498841 -0.031464976474096212 0 -0.0096495904381760037 -0.030676779004201411 0 -0.0081471882055498841 -0.031464976474096212 0 -0.0087791509823525599 -0.033159877000807553 0 -0.0070791103868762762 -0.033655714510717437 0 -0.013201716793576486 -0.030126082290459769 0 -0.012153796975726338 -0.031859237826469128 0 -0.01211004756210925 -0.034338009909228327 0 -0.012153796975726338 -0.031859237826469128 0 -0.011300292830123208 -0.030285301575854073 0 -0.010492703090181308 -0.032089374785694513 0 -0.013201716793576486 -0.030126082290459769 0 -0.012153796975726338 -0.031859237826469128 0 -0.011300292830123208 -0.030285301575854073 0 -0.011300292830123208 -0.030285301575854073 0 -0.0096495904381760037 -0.030676779004201411 0 -0.010492703090181308 -0.032089374785694513 0 -0.0087791509823525599 -0.033159877000807553 0 -0.0096495904381760037 -0.030676779004201411 0 -0.010492703090181308 -0.032089374785694513 0 -0.0087791509823525599 -0.033159877000807553 0 -0.010492703090181308 -0.032089374785694513 0 -0.0099327557941498983 -0.03361982445557668 0 -0.0087791509823525599 -0.033159877000807553 0 -0.0099327557941498983 -0.03361982445557668 0 -0.0090937290338599392 -0.035569945872373478 0 -0.012153796975726338 -0.031859237826469128 0 -0.011681733125987265 -0.033610295453137345 0 -0.01211004756210925 -0.034338009909228327 0 -0.0099327557941498983 -0.03361982445557668 0 -0.011042523809239398 -0.033385922145584099 0 -0.010242383870068603 -0.034661465617041712 0 -0.011087747959273852 -0.034439579224047723 0 -0.011042523809239398 -0.033385922145584099 0 -0.010242383870068603 -0.034661465617041712 0 -0.012153796975726338 -0.031859237826469128 0 -0.010492703090181308 -0.032089374785694513 0 -0.011042523809239398 -0.033385922145584099 0 -0.010492703090181308 -0.032089374785694513 0 -0.0099327557941498983 -0.03361982445557668 0 -0.011042523809239398 -0.033385922145584099 0 -0.012153796975726338 -0.031859237826469128 0 -0.011042523809239398 -0.033385922145584099 0 -0.011681733125987265 -0.033610295453137345 0 -0.011087747959273852 -0.034439579224047723 0 -0.011042523809239398 -0.033385922145584099 0 -0.011681733125987265 -0.033610295453137345 0 -0.011087747959273852 -0.034439579224047723 0 -0.011681733125987265 -0.033610295453137345 0 -0.011713056508961315 -0.03420353521074037 0 -0.011087747959273852 -0.034439579224047723 0 -0.011713056508961315 -0.03420353521074037 0 -0.01211004756210925 -0.034338009909228327 0 -0.011681733125987265 -0.033610295453137345 0 -0.011713056508961315 -0.03420353521074037 0 -0.01211004756210925 -0.034338009909228327 0 -0.0095736996845071001 -0.034704246617137662 0 -0.0085182514924870608 -0.038129789220028916 0 -0.01211004756210925 -0.034338009909228327 0 -0.010112921531748481 -0.035832506476933416 0 -0.010421617562711347 -0.037269583082982165 0 -0.011087747959273852 -0.034439579224047723 0 -0.01211004756210925 -0.034338009909228327 0 -0.010112921531748481 -0.035832506476933416 0 -0.011087747959273852 -0.034439579224047723 0 -0.010112921531748481 -0.035832506476933416 0 -0.010242383870068603 -0.034661465617041712 0 -0.010112921531748481 -0.035832506476933416 0 -0.0090937290338599392 -0.035569945872373478 0 -0.0082882656887028425 -0.038250381072820569 0 -0.0099327557941498983 -0.03361982445557668 0 -0.010242383870068603 -0.034661465617041712 0 -0.0090937290338599392 -0.035569945872373478 0 -0.010112921531748481 -0.035832506476933416 0 -0.010242383870068603 -0.034661465617041712 0 -0.0090937290338599392 -0.035569945872373478 0 -0.0090937290338599392 -0.035569945872373478 0 -0.0082882656887028425 -0.038250381072820569 0 -0.0070412323364358511 -0.037010701669720592 0 -0.0082882656887028425 -0.038250381072820569 0 -0.010421617562711347 -0.037269583082982165 0 -0.0079425387660138572 -0.039207066545654978 0 -0.010112921531748481 -0.035832506476933416 0 -0.0082882656887028425 -0.038250381072820569 0 -0.010421617562711347 -0.037269583082982165 0 -0.0070791103868762762 -0.033655714510717437 0 -0.0091191948582851033 -0.036488018713477961 0 -0.0070031018459613646 -0.037297470753338474 0 -0.0087791509823525599 -0.033159877000807553 0 -0.0090937290338599392 -0.035569945872373478 0 -0.0070412323364358511 -0.037010701669720592 0 -0.0087132039273095357 -0.033456880208028589 0 -0.0081066033242120552 -0.036738176369774424 0 -0.0087791509823525599 -0.033159877000807553 0 -0.0070791103868762762 -0.033655714510717437 0 -0.0091191948582851033 -0.036488018713477961 0 -0.0082882656887028425 -0.038250381072820569 0 -0.0070412323364358511 -0.037010701669720592 0 -0.0069539973858030804 -0.039343420850504553 0 -0.0091191948582851033 -0.036488018713477961 0 -0.0070031018459613646 -0.037297470753338474 0 -0.0086187885858375751 -0.039685861331466239 0 -0.0070031018459613646 -0.037297470753338474 0 -0.0075698416685585522 -0.039925924484015413 0 -0.0086187885858375751 -0.039685861331466239 0 -0.0081066033242120552 -0.036738176369774424 0 -0.0077807872596561568 -0.039441538814326764 0 -0.0076120264222475668 -0.040593273731649206 0 -0.0069539973858030804 -0.039343420850504553 0 -0.0075943402238907234 -0.039815636588654585 0 -0.0076364054759157857 -0.040464842721395146 0 -0.0077807872596561568 -0.039441538814326764 0 -0.0076120264222475668 -0.040593273731649206 0 -0.0075698416685585522 -0.039925924484015413 0 -0.0086187885858375751 -0.039685861331466239 0 -0.0078430051209160637 -0.040924954464693075 0 -0.0076120264222475668 -0.040593273731649206 0 -0.0075698416685585522 -0.039925924484015413 0 -0.0085182514924870608 -0.038129789220028916 0 -0.0081127425786428516 -0.038812303563717572 0 -0.0082882656887028425 -0.038250381072820569 0 -0.0079425387660138572 -0.039207066545654978 0 -0.0075943402238907234 -0.039815636588654585 0 -0.0082882656887028425 -0.038250381072820569 0 -0.0069539973858030804 -0.039343420850504553 0 -0.0075943402238907234 -0.039815636588654585 0 -0.0079425387660138572 -0.039207066545654978 0 -0.0075943402238907234 -0.039815636588654585 0 -0.0074400737220536575 -0.03964791187024351 0 -0.0069242946337926686 -0.0396582531388531 0 -0.0074400737220536575 -0.03964791187024351 0 -0.0071577743906432369 -0.039343812397468786 0 -0.0079425387660138572 -0.039207066545654978 0 -0.0074400737220536575 -0.03964791187024351 0 -0.0071577743906432369 -0.039343812397468786 0 -0.0079425387660138572 -0.039207066545654978 0 -0.0071577743906432369 -0.039343812397468786 0 -0.00693558021126898 -0.039033242655594748 0 -0.0071577743906432369 -0.039343812397468786 0 -0.0069966060581563572 -0.03928435048154965 0 -0.00693558021126898 -0.039033242655594748 0 -0.0069966060581563572 -0.03928435048154965 0 -0.0071138215225429761 -0.039026062512232923 0 -0.00693558021126898 -0.039033242655594748 0 -0.0069242946337926686 -0.0396582531388531 0 -0.0071577743906432369 -0.039343812397468786 0 -0.0068555420530798513 -0.039500849033270044 0 -0.0071577743906432369 -0.039343812397468786 0 -0.0069966060581563572 -0.03928435048154965 0 -0.0068555420530798513 -0.039500849033270044 0 -0.0069966060581563572 -0.03928435048154965 0 -0.0068555420530798513 -0.039500849033270044 0 -0.0069298023880664077 -0.03940337262731599 0 -0.006919814226170589 -0.039333171328884094 0 -0.0069298023880664077 -0.03940337262731599 0 -0.0071852432204668037 -0.039223927396731147 0 -0.0067143306564508834 -0.039448662690235288 0 -0.006919814226170589 -0.039333171328884094 0 -0.0069298023880664077 -0.03940337262731599 0 -0.0071852432204668037 -0.039223927396731147 0 -0.0071138215225429761 -0.039026062512232923 0 -0.0075556069674412758 -0.038928666986068443 0 -0.0069298023880664077 -0.03940337262731599 0 -0.0071852432204668037 -0.039223927396731147 0 -0.0071138215225429761 -0.039026062512232923 0 -0.0071047439585218194 -0.039258204662108248 0 -0.0071852432204668037 -0.039223927396731147 0 -0.0075556069674412758 -0.038928666986068443 0 -0.0069966060581563572 -0.03928435048154965 0 -0.0069298023880664077 -0.03940337262731599 0 -0.0071138215225429761 -0.039026062512232923 0 -0.0071138215225429761 -0.039026062512232923 0 -0.0075556069674412758 -0.038928666986068443 0 -0.0072783374132586879 -0.038061476397816207 0 -0.0071138215225429761 -0.039026062512232923 0 -0.0072783374132586879 -0.038061476397816207 0 -0.0068888593464363724 -0.038281058948479739 0 -0.0075556069674412758 -0.038928666986068443 0 -0.0080117991201748076 -0.037447013466725569 0 -0.0072783374132586879 -0.038061476397816207 0 -0.0074600108363828636 -0.037089744766183881 0 -0.0080117991201748076 -0.037447013466725569 0 -0.0072783374132586879 -0.038061476397816207 0 -0.0069131820384771021 -0.037312575821863522 0 -0.0072783374132586879 -0.038061476397816207 0 -0.0068888593464363724 -0.038281058948479739 0 -0.0069131820384771021 -0.037312575821863522 0 -0.0068888593464363724 -0.038281058948479739 0 -0.0066420793276396658 -0.037724941471031205 0 -0.0068888593464363724 -0.038281058948479739 0 -0.0066420793276396658 -0.037724941471031205 0 -0.0066055038385098349 -0.038319100643347273 0 -0.0061883102368641696 -0.037822756740401489 0 -0.0067311527657317044 -0.038774513805439545 0 -0.0066055038385098349 -0.038319100643347273 0 -0.0064720992504431508 -0.037674885130803804 0 -0.0066420793276396658 -0.037724941471031205 0 -0.0066055038385098349 -0.038319100643347273 0 -0.0064720992504431508 -0.037674885130803804 0 -0.0061883102368641696 -0.037822756740401489 0 -0.0066055038385098349 -0.038319100643347273 0 -0.0067311527657317044 -0.038774513805439545 0 -0.0079425387660138572 -0.039207066545654978 0 -0.00693558021126898 -0.039033242655594748 0 -0.0067311527657317044 -0.038774513805439545 0 -0.0066055038385098349 -0.038319100643347273 0 -0.00693558021126898 -0.039033242655594748 0 -0.0068888593464363724 -0.038281058948479739 0 -0.0066055038385098349 -0.038319100643347273 0 -0.00693558021126898 -0.039033242655594748 0 -0.0071138215225429761 -0.039026062512232923 0 -0.0068888593464363724 -0.038281058948479739 0 -0.00693558021126898 -0.039033242655594748 0 0.049999980291361872 -0.040241574048947536 0 0.051001141081609615 -0.039084821555926096 0 0.049999984392948053 -0.037931800278381556 0 0.049999980291361872 -0.040241574048947536 0 0.051001141081609615 -0.039084821555926096 0 0.05125313601441786 -0.041101329424847545 0 0.052269407236057761 -0.039991383994805216 0 0.051001141081609615 -0.039084821555926096 0 0.05125313601441786 -0.041101329424847545 0 0.051001141081609615 -0.039084821555926096 0 0.049999984392948053 -0.037931800278381556 0 0.051611168464439083 -0.037674188936517534 0 0.050047974723440032 -0.038424124426885559 0 0.049613881353931952 -0.037110536110696091 0 0.052269407236057761 -0.039991383994805216 0 0.051001141081609615 -0.039084821555926096 0 0.051611168464439083 -0.037674188936517534 0 0.048263670059930069 -0.036589283003352832 0 0.047671443231145638 -0.036224856274067053 0 0.048537708494394004 -0.035979685506698889 0 0.047957844047425285 -0.037240686199106129 0 0.048263670059930069 -0.036589283003352832 0 0.047671443231145638 -0.036224856274067053 0 0.048263670059930069 -0.036589283003352832 0 0.048863004187273421 -0.036869350601185999 0 0.048537708494394004 -0.035979685506698889 0 0.049466888576865743 -0.036155723236775954 0 0.048863004187273421 -0.036869350601185999 0 0.048537708494394004 -0.035979685506698889 0 0.049466888576865743 -0.036155723236775954 0 0.049502770632724784 -0.037132158301304431 0 0.048863004187273421 -0.036869350601185999 0 0.049502770632724784 -0.037132158301304431 0 0.048808052545894869 -0.037506756599622354 0 0.049390791083919888 -0.037777563910571021 0 0.049502770632724784 -0.037132158301304431 0 0.048863004187273421 -0.036869350601185999 0 0.048808052545894869 -0.037506756599622354 0 0.047957844047425285 -0.037240686199106129 0 0.048263670059930069 -0.036589283003352832 0 0.048863004187273421 -0.036869350601185999 0 0.047957844047425285 -0.037240686199106129 0 0.048863004187273421 -0.036869350601185999 0 0.048808052545894869 -0.037506756599622354 0 0.047957844047425285 -0.037240686199106129 0 0.048425161559265087 -0.037799967684853983 0 0.048808052545894869 -0.037506756599622354 0 0.048425161559265087 -0.037799967684853983 0 0.048808052545894869 -0.037506756599622354 0 0.04867729459977934 -0.038202596677498792 0 0.048425161559265087 -0.037799967684853983 0 0.04867729459977934 -0.038202596677498792 0 0.048253800248900393 -0.038246931829780437 0 0.048527558505123802 -0.040410262385750753 0 0.048851972176869991 -0.040916737360527922 0 0.048808052545894869 -0.037506756599622354 0 0.049390791083919888 -0.037777563910571021 0 0.04867729459977934 -0.038202596677498792 0 0.049396196385108379 -0.037692229824024329 0 0.048527558505123802 -0.040410262385750753 0 0.0491334702349846 -0.037926907199890565 0 0.048174761420526714 -0.038494160002476477 0 0.049581789004369346 -0.038336218039348523 0 0.04793002525607732 -0.043298926582913899 0 0.048003689027930889 -0.043311949268512694 0 0.047858622021293276 -0.043331895495388968 0 0.048003689027930889 -0.043311949268512694 0 0.048066920587839027 -0.04335335843867269 0 0.047858622021293276 -0.043331895495388968 0 0.04793002525607732 -0.043298926582913899 0 0.047880057447531772 -0.043279465051805008 0 0.047858622021293276 -0.043331895495388968 0 0.047993103187147446 -0.043250243018917257 0 0.047880057447531772 -0.043279465051805008 0 0.047996218552003173 -0.0432192998292832 0 0.04793002525607732 -0.043298926582913899 0 0.047993103187147446 -0.043250243018917257 0 0.047880057447531772 -0.043279465051805008 0 0.04789622696462003 -0.043368911152119168 0 0.048146044126602984 -0.043616348694740299 0 0.04793002525607732 -0.043298926582913899 0 0.048003689027930889 -0.043311949268512694 0 0.047993103187147446 -0.043250243018917257 0 0.047993103187147446 -0.043250243018917257 0 0.04803385138036928 -0.043240448739258239 0 0.047997358894774383 -0.043216141477388156 0 0.048139430719995276 -0.043500268170403852 0 0.048146044126602984 -0.043616348694740299 0 0.049127010496399712 -0.041238345099754804 0 0.050385981288255763 -0.040554289042114063 0 0.050556813363436919 -0.041134841811989037 0 0.048066920587839027 -0.04335335843867269 0 0.048117523594532176 -0.043287410668943684 0 0.048172718907662893 -0.043309575218276546 0 0.048527558505123802 -0.040410262385750753 0 0.050988700699136677 -0.041013025831822168 0 0.048066920587839027 -0.04335335843867269 0 0.048069337734512413 -0.043268890947721725 0 0.048117523594532176 -0.043287410668943684 0 0.048527558505123802 -0.040410262385750753 0 0.05042685644566685 -0.042440363803403651 0 0.048003689027930889 -0.043311949268512694 0 0.048066920587839027 -0.04335335843867269 0 0.048069337734512413 -0.043268890947721725 0 0.048069337734512413 -0.043268890947721725 0 0.04803385138036928 -0.043240448739258239 0 0.048082829477277322 -0.043191522853330347 0 0.048003689027930889 -0.043311949268512694 0 0.048069337734512413 -0.043268890947721725 0 0.048024870887739407 -0.043270050480371552 0 0.048069337734512413 -0.043268890947721725 0 0.048024870887739407 -0.043270050480371552 0 0.04803385138036928 -0.043240448739258239 0 0.048003689027930889 -0.043311949268512694 0 0.047993103187147446 -0.043250243018917257 0 0.048024870887739407 -0.043270050480371552 0 0.047993103187147446 -0.043250243018917257 0 0.048024870887739407 -0.043270050480371552 0 0.04803385138036928 -0.043240448739258239 0 0.048069337734512413 -0.043268890947721725 0 0.0481493420759634 -0.043243812234509439 0 0.048082829477277322 -0.043191522853330347 0 0.050505248839921586 -0.043444825191465912 0 0.049075909397932493 -0.044109696116648306 0 0.048069337734512413 -0.043268890947721725 0 0.048117523594532176 -0.043287410668943684 0 0.0481493420759634 -0.043243812234509439 0 0.050505248839921586 -0.043444825191465912 0 0.05042685644566685 -0.042440363803403651 0 0.048117523594532176 -0.043287410668943684 0 0.0481493420759634 -0.043243812234509439 0 0.048172718907662893 -0.043309575218276546 0 0.052244287095215565 -0.042631430364378269 0 0.052819769812877441 -0.042368879708280648 0 0.049999994108627009 -0.042551470685506236 0 0.052599811613689408 -0.043705670775508999 0 0.052190620757881938 -0.043335561368299517 0 0.051994757300405092 -0.043995895282735502 0 0.050505248839921586 -0.043444825191465912 0 0.051663091382836139 -0.042911068456741593 0 0.050727956222343655 -0.043156219331644555 0 0.050632084993905084 -0.042822765904625366 0 0.050462415737907787 -0.042917082453414981 0 0.052594731123850595 -0.042942982969150049 0 0.052244287095215565 -0.042631430364378269 0 0.051315172997889201 -0.043673643454193264 0 0.051663091382836139 -0.042911068456741593 0 0.051289225972979378 -0.043728732185280041 0 0.052190620757881938 -0.043335561368299517 0 0.051166744022575858 -0.043881417538206423 0 0.051994757300405092 -0.043995895282735502 0 0.052926902109050919 -0.042755777222312677 0 0.052592319039620923 -0.042941278636380399 0 0.052819769812877441 -0.042368879708280648 0 0.05042685644566685 -0.042440363803403651 0 0.051663091382836139 -0.042911068456741593 0 0.051663091382836139 -0.042911068456741593 0 0.051930171844309113 -0.042977111905644072 0 0.052592319039620923 -0.042941278636380399 0 0.052244287095215565 -0.042631430364378269 0 0.052819769812877441 -0.042368879708280648 0 0.05042685644566685 -0.042440363803403651 0 0.050988700699136677 -0.041013025831822168 0 0.047957844047425285 -0.037240686199106129 0 0.048425161559265087 -0.037799967684853983 0 0.048253800248900393 -0.038246931829780437 0 0.050047974723440032 -0.038424124426885559 0 0.050988700699136677 -0.041013025831822168 0 0.052269407236057761 -0.039991383994805216 0 0.05292214221301627 -0.042274779665451727 0 0.05125313601441786 -0.041101329424847545 0 0.05292214221301627 -0.042274779665451727 0 0.05125313601441786 -0.041101329424847545 0 0.049999982199121024 -0.042551236754250502 0 0.049999980291361872 -0.040241574048947536 0 0.05125313601441786 -0.041101329424847545 0 0.049999982199121024 -0.042551236754250502 0 0.052244287095215565 -0.042631430364378269 0 0.049999994108627009 -0.042551470685506236 0 0.051315172997889201 -0.043673643454193264 0 0.050988700699136677 -0.041013025831822168 0 0.050003768655098056 -0.042552006311840834 0 0.049999994108627009 -0.042551470685506236 0 0.051315172997889201 -0.043673643454193264 0 0.049999962673514857 -0.044457222094461527 0 0.050667893416853654 -0.04452122012881117 0 0.050000064220372932 -0.045173772160708801 0 0.051476047031376974 -0.044625996041220174 0 0.050000079461508619 -0.04517493794398432 0 0.051299576230911907 -0.044881218522378023 0 0.0514483331423915 -0.045554949964461189 0 0.0500001065692613 -0.045174048519647965 0 0.051624046569134524 -0.044698088482025285 0 0.051289225972979378 -0.043728732185280041 0 0.050000326482596502 -0.044457193089800444 0 0.051166744022575858 -0.043881417538206423 0 0.049999911760829713 -0.044457687019947865 0 0.050667893416853654 -0.04452122012881117 0 0.051166744022575858 -0.043881417538206423 0 0.050667893416853654 -0.04452122012881117 0 0.051476047031376974 -0.044625996041220174 0 0.049999911760829713 -0.044457687019947865 0 0.050667893416853654 -0.04452122012881117 0 0.050000064220372932 -0.045173772160708801 0 0.051624046569134524 -0.044698088482025285 0 0.050987722168830296 -0.044396385896460312 0 0.051299576230911907 -0.044881218522378023 0 0.051957836614884748 -0.045102179537735668 0 0.05239804648173773 -0.044609490000953551 0 0.051994757300405092 -0.043995895282735502 0 0.051476047031376974 -0.044625996041220174 0 0.052749685215627035 -0.044221522118583628 0 0.052599811613689408 -0.043705670775508999 0 0.051994757300405092 -0.043995895282735502 0 0.052749685215627035 -0.044221522118583628 0 0.051166744022575858 -0.043881417538206423 0 0.051994757300405092 -0.043995895282735502 0 0.051476047031376974 -0.044625996041220174 0 0.051299576230911907 -0.044881218522378023 0 0.051957836614884748 -0.045102179537735668 0 0.0514483331423915 -0.045554949964461189 0 0.050632712760113704 -0.046359201619047156 0 0.050019302369735577 -0.046330037257643973 0 0.051957836614884748 -0.045102179537735668 0 0.0514483331423915 -0.045554949964461189 0 0.052629077892906363 -0.045434009001239305 0 0.049553645381218786 -0.047350617891357985 0 0.049340599900593161 -0.047933867352611133 0 0.049699115472577715 -0.047476921371169573 0 0.049553645381218786 -0.047350617891357985 0 0.049615170209219246 -0.04768055577701167 0 0.049340599900593161 -0.047933867352611133 0 0.050000079461508619 -0.04517493794398432 0 0.0514483331423915 -0.045554949964461189 0 0.049999867625574054 -0.045768914595227403 0 0.049553645381218786 -0.047350617891357985 0 0.049998269909009102 -0.045776013738046427 0 0.049615170209219246 -0.04768055577701167 0 0.050632712760113704 -0.046359201619047156 0 0.049999576475714472 -0.045770157434672651 0 0.049998269909009102 -0.045776013738046427 0 0.049615170209219246 -0.04768055577701167 0 0.049996109250691978 -0.04999784116475639 0 0.049615170209219246 -0.04768055577701167 0 0.049340599900593161 -0.047933867352611133 0 0.048947271404735496 -0.048768713799189074 0 0.049340599900593161 -0.047933867352611133 0 0.048947271404735496 -0.048768713799189074 0 0.048975847550664101 -0.048672843883229705 0 0.048947271404735496 -0.048768713799189074 0 0.047119672897864791 -0.049998052433399748 0 0.049996109250691978 -0.04999784116475639 0 0.048947271404735496 -0.048768713799189074 0 0.047119672897864791 -0.049998052433399748 0 0.048975847550664101 -0.048672843883229705 0 0.049615170209219246 -0.04768055577701167 0 0.048947271404735496 -0.048768713799189074 0 0.049996109250691978 -0.04999784116475639 0 0.045081464665093579 -0.051202727513671206 0 0.043807568722874814 -0.0500000593248408 0 0.043294987652455222 -0.051350441666967062 0 0.045081464665093579 -0.051202727513671206 0 0.043807568722874814 -0.0500000593248408 0 0.044755401635336284 -0.049999898454983066 0 0.044755767366193994 -0.049999995715485357 0 0.045801995651599349 -0.04999998767988497 0 0.045353139610454361 -0.050540136636892517 0 0.045146262975635169 -0.051262924314433689 0 0.044755767366193994 -0.049999995715485357 0 0.045353139610454361 -0.050540136636892517 0 0.045748038892951766 -0.050187447452383314 0 0.044756227093825707 -0.050000789147402226 0 0.045801995651599349 -0.04999998767988497 0 0.045353139610454361 -0.050540136636892517 0 0.04570911257916651 -0.050893081717709683 0 0.047119672897864791 -0.049998052433399748 0 0.049616469291296192 -0.049258555985160844 0 0.048975847550664101 -0.048672843883229705 0 0.045802839550223004 -0.050000652954830055 0 0.046943063453071684 -0.049805916349782819 0 0.047110878386551251 -0.049999785539958007 0 0.046943063453071684 -0.049805916349782819 0 0.047110169119476651 -0.050000005711865213 0 0.045802058203023646 -0.049999983276050375 0 0.04571832312173834 -0.050905441573989831 0 0.045146262975635169 -0.051262924314433689 0 0.045353139610454361 -0.050540136636892517 0 0.04570911257916651 -0.050893081717709683 0 0.045748038892951766 -0.050187447452383314 0 0.046943063453071684 -0.049805916349782819 0 0.045748038892951766 -0.050187447452383314 0 0.047666272863395885 -0.048685974012890078 0 0.047186743239817808 -0.049826841197672091 0 0.046813975514068809 -0.050071699493381749 0 0.046928508226628071 -0.048926587182655516 0 0.046943063453071684 -0.049805916349782819 0 0.047666272863395885 -0.048685974012890078 0 0.049340599900593161 -0.047933867352611133 0 0.048975847550664101 -0.048672843883229705 0 0.049776975806346685 -0.048027099888686434 0 0.049616469291296192 -0.049258555985160844 0 0.048975847550664101 -0.048672843883229705 0 0.049776975806346685 -0.048027099888686434 0 0.045653779375281277 -0.049132178669095396 0 0.045666061355425669 -0.049150484795490827 0 0.045591827212752074 -0.049165057948739162 0 0.045748038892951766 -0.050187447452383314 0 0.043386794037118426 -0.050922086110529508 0 0.045666061355425669 -0.049150484795490827 0 0.045642831561853406 -0.049168541397079178 0 0.045591827212752074 -0.049165057948739162 0 0.045641591733339433 -0.049174614535216661 0 0.045642831561853406 -0.049168541397079178 0 0.045591827212752074 -0.049165057948739162 0 0.045666061355425669 -0.049150484795490827 0 0.045642831561853406 -0.049168541397079178 0 0.045666301567369137 -0.049169663931157286 0 0.045646602953757352 -0.049175097143542158 0 0.045642831561853406 -0.049168541397079178 0 0.045666301567369137 -0.049169663931157286 0 0.046789965121711866 -0.046402794032852288 0 0.047482368302087748 -0.047017492018359711 0 0.045646602953757352 -0.049175097143542158 0 0.045641591733339433 -0.049174614535216661 0 0.045642831561853406 -0.049168541397079178 0 0.046789965121711866 -0.046402794032852288 0 0.046257598332665302 -0.047433414828457379 0 0.049340599900593161 -0.047933867352611133 0 0.049776975806346685 -0.048027099888686434 0 0.049699115472577715 -0.047476921371169573 0 0.048429384041867377 -0.048340519304383794 0 0.048594213612637084 -0.046691264853352968 0 0.047969524269482526 -0.046732624950718844 0 0.047666272863395885 -0.048685974012890078 0 0.050019302369735577 -0.046330037257643973 0 0.047666272863395885 -0.048685974012890078 0 0.047482368302087748 -0.047017492018359711 0 0.047482368302087748 -0.047017492018359711 0 0.050019302369735577 -0.046330037257643973 0 0.048959027667051798 -0.045703418921279798 0 0.049061444142102395 -0.045366718757048702 0 0.04878700212083302 -0.045089062081970943 0 0.050019302369735577 -0.046330037257643973 0 0.050987722168830296 -0.044396385896460312 0 0.051957836614884748 -0.045102179537735668 0 0.052629077892906363 -0.045434009001239305 0 0.05239804648173773 -0.044609490000953551 0 0.049271007768859273 -0.045682864357976471 0 0.049061444142102395 -0.045366718757048702 0 0.049306234110653727 -0.045327073753983836 0 0.047482368302087748 -0.047017492018359711 0 0.047934165100102274 -0.044754668750478843 0 0.049271007768859273 -0.045682864357976471 0 0.048959027667051798 -0.045703418921279798 0 0.049061444142102395 -0.045366718757048702 0 0.049075909397932493 -0.044109696116648306 0 0.048146044126602984 -0.043616348694740299 0 0.04803385138036928 -0.043240448739258239 0 0.048082829477277322 -0.043191522853330347 0 0.047997358894774383 -0.043216141477388156 0 0.048304200234676464 -0.044150573205504771 0 0.048287633101592252 -0.044139991308373545 0 0.048286719673347016 -0.044154292946986036 0 0.049075909397932493 -0.044109696116648306 0 0.047934165100102274 -0.044754668750478843 0 0.049061444142102395 -0.045366718757048702 0 0.048983721991737471 -0.045031641565121183 0 0.049306234110653727 -0.045327073753983836 0 0.049061444142102395 -0.045366718757048702 0 0.048983721991737471 -0.045031641565121183 0 0.04878700212083302 -0.045089062081970943 0 0.049075909397932493 -0.044109696116648306 0 0.050987722168830296 -0.044396385896460312 0 0.050265413293753447 -0.043871511806917465 0 0.050521919009462977 -0.044105118495785162 0 0.050346525001267288 -0.04415630563126597 0 0.050505248839921586 -0.043444825191465912 0 0.050987722168830296 -0.044396385896460312 0 0.047859697935981167 -0.043296686724669166 0 0.047864874043566805 -0.043293513095761904 0 0.04784988204184655 -0.04328943497392107 0 0.047516495280403338 -0.046062303904967627 0 0.04751848092039259 -0.046062055888520921 0 0.047519778627060291 -0.046057503797779314 0 0.046789965121711866 -0.046402794032852288 0 0.047934165100102274 -0.044754668750478843 0 0.047859697935981167 -0.043296686724669166 0 0.04785950848979241 -0.043299846883078801 0 0.047864874043566805 -0.043293513095761904 0 0.047934165100102274 -0.044754668750478843 0 0.048146044126602984 -0.043616348694740299 0 0.047880057447531772 -0.043279465051805008 0 0.047857941036440352 -0.043289496566505645 0 0.047864874043566805 -0.043293513095761904 0 0.04785950848979241 -0.043299846883078801 0 0.047857941036440352 -0.043289496566505645 0 0.047864874043566805 -0.043293513095761904 0 0.047880057447531772 -0.043279465051805008 0 0.047864874043566805 -0.043293513095761904 0 0.04784988204184655 -0.04328943497392107 0 0.04784988204184655 -0.04328943497392107 0 0.047818725047260362 -0.043286918729533427 0 0.047832791132630816 -0.043298972401288632 0 0.047859697935981167 -0.043296686724669166 0 0.04784988204184655 -0.04328943497392107 0 0.047818725047260362 -0.043286918729533427 0 0.046789965121711866 -0.046402794032852288 0 0.04571744645239726 -0.044971353829754257 0 0.04571744645239726 -0.044971353829754257 0 0.045288573600795884 -0.04355028543308706 0 0.043050824567136603 -0.045393510713761014 0 0.045288573600795884 -0.04355028543308706 0 0.041949304103055432 -0.045206335869631492 0 0.042712599504413057 -0.044614712344215504 0 0.042089890845711159 -0.043967036109261268 0 0.044340905405009165 -0.045345756409815065 0 0.044838103912936036 -0.045312123520801627 0 0.045038063037987935 -0.043622666049118471 0 0.047818725047260362 -0.043286918729533427 0 0.047805782510508356 -0.043299298345745293 0 0.047832791132630816 -0.043298972401288632 0 0.04571744645239726 -0.044971353829754257 0 0.043050824567136603 -0.045393510713761014 0 0.041936563259596368 -0.045275212441372538 0 0.041884993170772739 -0.045724216837086953 0 0.042971540716484846 -0.045851511485379692 0 0.043050824567136603 -0.045393510713761014 0 0.04242709612686997 -0.047628446788651919 0 0.04242709612686997 -0.047628446788651919 0 0.043743472261221501 -0.048251869820744697 0 0.043775103374083878 -0.046459893942980383 0 0.043921169550229601 -0.046448163252218275 0 0.043897699532130588 -0.046639664833911187 0 0.043775103374083878 -0.046459893942980383 0 0.043897699532130588 -0.046639664833911187 0 0.043712454096535881 -0.046617304548722878 0 0.04571744645239726 -0.044971353829754257 0 0.043743472261221501 -0.048251869820744697 0 0.041836734370253988 -0.051870181900847738 0 0.042070930752619529 -0.051892628362015657 0 0.041717105370979113 -0.051561469386771946 0 0.042070930752619529 -0.051892628362015657 0 0.042033578811219045 -0.051656037973926788 0 0.041717105370979113 -0.051561469386771946 0 0.04492292730781338 -0.048965657145928758 0 0.044253182875672453 -0.048892345620902146 0 0.044400875466614385 -0.048533425108756426 0 0.046257598332665302 -0.047433414828457379 0 0.043386794037118426 -0.050922086110529508 0 0.046373112152830347 -0.046579384054277938 0 0.044593593696078446 -0.046806918031141405 0 0.04477166806883115 -0.046370109461544524 0 0.046498525927941868 -0.046689915899853593 0 0.046373112152830347 -0.046579384054277938 0 0.044593593696078446 -0.046806918031141405 0 0.046257598332665302 -0.047433414828457379 0 0.043743472261221501 -0.048251869820744697 0 0.043743472261221501 -0.048251869820744697 0 0.043386794037118426 -0.050922086110529508 0 0.042070930752619529 -0.051892628362015657 0 0.042033578811219045 -0.051656037973926788 0 0.042230376856853442 -0.051530518126002615 0 0.042275967826377388 -0.05158953590525258 0 0.043386794037118426 -0.050922086110529508 0 0.045081464665093579 -0.051202727513671206 0 0.042744995711796623 -0.052676236303884225 0 0.043294987652455222 -0.051350441666967062 0 0.043386794037118426 -0.050922086110529508 0 0.0431047331444573 -0.05148682699365667 0 0.042360673655578648 -0.051323043732713423 0 0.042557142685046463 -0.05207939648998413 0 0.043062738590320254 -0.051218300962842786 0 0.04220791941365646 -0.051542142368690952 0 0.041911185483220571 -0.051470116788671062 0 0.041815926517989883 -0.051198029595998999 0 0.041815926517989883 -0.051198029595998999 0 0.042107167980542856 -0.050782929681279017 0 0.04124635519580961 -0.051360447826317941 0 0.043386794037118426 -0.050922086110529508 0 0.041798572060823658 -0.051281586382567496 0 0.042033578811219045 -0.051656037973926788 0 0.041911185483220571 -0.051470116788671062 0 0.041717105370979113 -0.051561469386771946 0 0.042033578811219045 -0.051656037973926788 0 0.04220791941365646 -0.051542142368690952 0 0.041911185483220571 -0.051470116788671062 0 0.041911185483220571 -0.051470116788671062 0 0.041717105370979113 -0.051561469386771946 0 0.041815926517989883 -0.051198029595998999 0 0.042360673655578648 -0.051323043732713423 0 0.042557142685046463 -0.05207939648998413 0 0.041815926517989883 -0.051198029595998999 0 0.041095734545388708 -0.05055842227827944 0 0.041616431564457781 -0.04999989802789441 0 0.039425470422811755 -0.050000044807614476 0 0.042107167980542856 -0.050782929681279017 0 0.040535933044772959 -0.050973425269189319 0 0.03953502904904279 -0.052018796853875733 0 0.042360673655578648 -0.051323043732713423 0 0.041815926517989883 -0.051198029595998999 0 0.042107167980542856 -0.050782929681279017 0 0.042266089645689661 -0.050613359230173162 0 0.039932809027200415 -0.052246694072845996 0 0.042107167980542856 -0.050782929681279017 0 0.041095734545388708 -0.05055842227827944 0 0.040535933044772959 -0.050973425269189319 0 0.042107167980542856 -0.050782929681279017 0 0.041095734545388708 -0.05055842227827944 0 0.041616431564457781 -0.04999989802789441 0 0.043806864394187003 -0.05000000903538368 0 0.042107167980542856 -0.050782929681279017 0 0.043062738590320254 -0.051218300962842786 0 0.043806864394187003 -0.05000000903538368 0 0.042107167980542856 -0.050782929681279017 0 0.041616431564457781 -0.04999989802789441 0 0.043807083782324056 -0.050000180019291088 0 0.0431047331444573 -0.05148682699365667 0 0.042360673655578648 -0.051323043732713423 0 0.042107167980542856 -0.050782929681279017 0 0.043062738590320254 -0.051218300962842786 0 0.038002517641875448 -0.051388572848783599 0 0.039425393044577192 -0.050000031165537986 0 0.036417892436617527 -0.049999785277625074 0 0.038262800019656644 -0.051393544673637326 0 0.039425470422811755 -0.050000044807614476 0 0.03953502904904279 -0.052018796853875733 0 0.037979614963425674 -0.051551881403021936 0 0.039425208626507918 -0.050000130563035407 0 0.041095734545388708 -0.05055842227827944 0 0.039425470422811755 -0.050000044807614476 0 0.040535933044772959 -0.050973425269189319 0 0.039425470422811755 -0.050000044807614476 0 0.040535933044772959 -0.050973425269189319 0 0.03953502904904279 -0.052018796853875733 0 0.041717105370979113 -0.051561469386771946 0 0.04124635519580961 -0.051360447826317941 0 0.04127329919796071 -0.05179344600042398 0 0.041717105370979113 -0.051561469386771946 0 0.041815926517989883 -0.051198029595998999 0 0.04124635519580961 -0.051360447826317941 0 0.038262800019656644 -0.051393544673637326 0 0.03953502904904279 -0.052018796853875733 0 0.037354471011533663 -0.053069667718531666 0 0.039932809027200415 -0.052246694072845996 0 0.040604167170660607 -0.049251393625376338 0 0.042531735190377326 -0.048815486371121555 0 0.040604167170660607 -0.049251393625376338 0 0.04124635519580961 -0.051360447826317941 0 0.04127329919796071 -0.05179344600042398 0 0.040598446604529818 -0.051668235248083581 0 0.042971540716484846 -0.045851511485379692 0 0.043489666088283516 -0.04513509986922884 0 0.044532196547565121 -0.046074190889860304 0 0.041936563259596368 -0.045275212441372538 0 0.042971540716484846 -0.045851511485379692 0 0.043489666088283516 -0.04513509986922884 0 0.041836734370253988 -0.051870181900847738 0 0.041717105370979113 -0.051561469386771946 0 0.04127329919796071 -0.05179344600042398 0 0.04242709612686997 -0.047628446788651919 0 0.042531735190377326 -0.048815486371121555 0 0.043050824567136603 -0.045393510713761014 0 0.042949502851523068 -0.045120772850594293 0 0.041949304103055432 -0.045206335869631492 0 0.042712599504413057 -0.044614712344215504 0 0.043489666088283516 -0.04513509986922884 0 0.042712599504413057 -0.044614712344215504 0 0.043300331512807183 -0.044596764555594151 0 0.043160819639380663 -0.04410732540631384 0 0.042712599504413057 -0.044614712344215504 0 0.043489666088283516 -0.04513509986922884 0 0.043300331512807183 -0.044596764555594151 0 0.043489666088283516 -0.04513509986922884 0 0.043903670697152418 -0.044560929720121122 0 0.044532196547565121 -0.046074190889860304 0 0.043300331512807183 -0.044596764555594151 0 0.043903670697152418 -0.044560929720121122 0 0.043160819639380663 -0.04410732540631384 0 0.043489666088283516 -0.04513509986922884 0 0.043300331512807183 -0.044596764555594151 0 0.043903670697152418 -0.044560929720121122 0 0.041742800555565 -0.043113847759713969 0 0.040591390262724611 -0.04047259928259745 0 0.042365187245401205 -0.040329743176863338 0 0.042908777372990939 -0.043515820824636169 0 0.043930334979202901 -0.040311332104745343 0 0.043903670697152418 -0.044560929720121122 0 0.043265019030565878 -0.043056686082934691 0 0.043160819639380663 -0.04410732540631384 0 0.043930334979202901 -0.040311332104745343 0 0.044388612213146383 -0.038393286049250207 0 0.04647613743972985 -0.036517407555232646 0 0.046767253892256562 -0.036027256282587974 0 0.047153122935547492 -0.036445991923555854 0 0.046767253892256562 -0.036027256282587974 0 0.047236451253469008 -0.035690441293750395 0 0.047153122935547492 -0.036445991923555854 0 0.047445737569630365 -0.040001176612902721 0 0.047184101489394843 -0.037944034583727429 0 0.04832462247475651 -0.037825389793738597 0 0.045934597352590145 -0.039787553695254711 0 0.044482546443652612 -0.039900657728158796 0 0.045194741335062419 -0.038146297394671611 0 0.045240965474219887 -0.040987686844046016 0 0.046278066373690335 -0.03661332989526634 0 0.04647613743972985 -0.036517407555232646 0 0.046767253892256562 -0.036027256282587974 0 0.046196642368805156 -0.03586621602462195 0 0.043930334979202901 -0.040311332104745343 0 0.046278066373690335 -0.03661332989526634 0 0.043930334979202901 -0.040311332104745343 0 0.045240965474219887 -0.040987686844046016 0 0.043265019030565878 -0.043056686082934691 0 0.042426575998934443 -0.043124146175188775 0 0.042667644987640162 -0.043719586223388791 0 0.042426575998934443 -0.043124146175188775 0 0.042667644987640162 -0.043719586223388791 0 0.042089890845711159 -0.043967036109261268 0 0.043265019030565878 -0.043056686082934691 0 0.042667644987640162 -0.043719586223388791 0 0.043160819639380663 -0.04410732540631384 0 0.042712599504413057 -0.044614712344215504 0 0.042667644987640162 -0.043719586223388791 0 0.043160819639380663 -0.04410732540631384 0 0.042712599504413057 -0.044614712344215504 0 0.042667644987640162 -0.043719586223388791 0 0.042089890845711159 -0.043967036109261268 0 0.047805782510508356 -0.043299298345745293 0 0.047832791132630816 -0.043298972401288632 0 0.047803723317103947 -0.043307281065667336 0 0.045240965474219887 -0.040987686844046016 0 0.045288573600795884 -0.04355028543308706 0 0.04693530081921693 -0.040334624729103832 0 0.045673402933960383 -0.043447320741269092 0 0.046032907764491288 -0.040403806579113452 0 0.045288573600795884 -0.04355028543308706 0 0.048273172136509696 -0.040486775577150941 0 0.047832791132630816 -0.043298972401288632 0 0.047858622021293276 -0.043331895495388968 0 0.047803723317103947 -0.043307281065667336 0 0.047880057447531772 -0.043279465051805008 0 0.04784988204184655 -0.04328943497392107 0 0.047832791132630816 -0.043298972401288632 0 0.047880057447531772 -0.043279465051805008 0 0.047832791132630816 -0.043298972401288632 0 0.047858622021293276 -0.043331895495388968 0 0.049581789004369346 -0.038336218039348523 0 0.050875500673052944 -0.038197200161784892 0 0.050083863561266019 -0.037402499475227377 0 0.049396196385108379 -0.037692229824024329 0 0.049952809871640642 -0.037481319705826223 0 0.0491334702349846 -0.037926907199890565 0 0.049581789004369346 -0.038336218039348523 0 0.050083863561266019 -0.037402499475227377 0 0.048851972176869991 -0.040916737360527922 0 0.048273172136509696 -0.040486775577150941 0 0.048273172136509696 -0.040486775577150941 0 0.049063725868484086 -0.037430764715342478 0 0.050875500673052944 -0.038197200161784892 0 0.050949392360103651 -0.037399233436595895 0 0.050083863561266019 -0.037402499475227377 0 0.047445737569630365 -0.040001176612902721 0 0.046930878807695878 -0.040041422206805656 0 0.047184101489394843 -0.037944034583727429 0 0.045240965474219887 -0.040987686844046016 0 0.048273172136509696 -0.040486775577150941 0 0.050949392360103651 -0.037399233436595895 0 0.050083863561266019 -0.037402499475227377 0 0.050551387376047752 -0.036721140229634713 0 0.050949392360103651 -0.037399233436595895 0 0.050551387376047752 -0.036721140229634713 0 0.051009708639099538 -0.036661686441596723 0 0.049502770632724784 -0.037132158301304431 0 0.049390791083919888 -0.037777563910571021 0 0.050083863561266019 -0.037402499475227377 0 0.049502770632724784 -0.037132158301304431 0 0.050083863561266019 -0.037402499475227377 0 0.050041491684456013 -0.036592933116299145 0 0.050083863561266019 -0.037402499475227377 0 0.050041491684456013 -0.036592933116299145 0 0.050551387376047752 -0.036721140229634713 0 0.050041491684456013 -0.036592933116299145 0 0.050471660990345425 -0.036293892765729543 0 0.050190547113490511 -0.035866591973305557 0 0.049466888576865743 -0.036155723236775954 0 0.050041491684456013 -0.036592933116299145 0 0.050190547113490511 -0.035866591973305557 0 0.049466888576865743 -0.036155723236775954 0 0.049502770632724784 -0.037132158301304431 0 0.050041491684456013 -0.036592933116299145 0 0.050551387376047752 -0.036721140229634713 0 0.050881542777473428 -0.036405445643053286 0 0.051009708639099538 -0.036661686441596723 0 0.050551387376047752 -0.036721140229634713 0 0.050471660990345425 -0.036293892765729543 0 0.050881542777473428 -0.036405445643053286 0 0.049541136729350739 -0.036838716658369193 0 0.048676136276268642 -0.036385450881596372 0 0.050041491684456013 -0.036592933116299145 0 0.050551387376047752 -0.036721140229634713 0 0.050471660990345425 -0.036293892765729543 0 0.050471660990345425 -0.036293892765729543 0 0.050881542777473428 -0.036405445643053286 0 0.050689285478671429 -0.035897251829958253 0 0.048676136276268642 -0.036385450881596372 0 0.048301589262324453 -0.03291166200151846 0 0.046593098029197581 -0.035007988514400734 0 0.046667209200079662 -0.03499340519948501 0 0.04620724995955848 -0.034423818535271773 0 0.046104726736177368 -0.035199930719447728 0 0.046593098029197581 -0.035007988514400734 0 0.046330814445890538 -0.035702919780302121 0 0.050881542777473428 -0.036405445643053286 0 0.050989360853404872 -0.036647073344837508 0 0.051095179219171609 -0.035645759413016669 0 0.046104726736177368 -0.035199930719447728 0 0.046593098029197581 -0.035007988514400734 0 0.04620724995955848 -0.034423818535271773 0 0.047639397453418011 -0.032932681437328554 0 0.048488551052178447 -0.033727472260919954 0 0.048956183751295616 -0.031140425665352505 0 0.049510669413894336 -0.031812470086336656 0 0.049867122095347244 -0.031340906480948207 0 0.046593098029197581 -0.035007988514400734 0 0.046667209200079662 -0.03499340519948501 0 0.04669872703149329 -0.035524380798303772 0 0.046667209200079662 -0.03499340519948501 0 0.04669872703149329 -0.035524380798303772 0 0.047236451253469008 -0.035690441293750395 0 0.04669872703149329 -0.035524380798303772 0 0.046767253892256562 -0.036027256282587974 0 0.047236451253469008 -0.035690441293750395 0 0.04669872703149329 -0.035524380798303772 0 0.046767253892256562 -0.036027256282587974 0 0.046196642368805156 -0.03586621602462195 0 0.049063725868484086 -0.037430764715342478 0 0.048676136276268642 -0.036385450881596372 0 0.046634533173559319 -0.034772776346503879 0 0.046278066373690335 -0.03661332989526634 0 0.046593098029197581 -0.035007988514400734 0 0.04669872703149329 -0.035524380798303772 0 0.046196642368805156 -0.03586621602462195 0 0.047184101489394843 -0.037944034583727429 0 0.047440774279799328 -0.035876783033836034 0 0.04832462247475651 -0.037825389793738597 0 0.048676136276268642 -0.036385450881596372 0 0.046278066373690335 -0.03661332989526634 0 0.050107079851171049 -0.031744592329029944 0 0.050478438511841195 -0.031932359354488467 0 0.050407184882837353 -0.031412490266833445 0 0.050107079851171049 -0.031744592329029944 0 0.050478438511841195 -0.031932359354488467 0 0.050085831595751695 -0.032065282911787632 0 0.050107079851171049 -0.031744592329029944 0 0.050085831595751695 -0.032065282911787632 0 0.049510669413894336 -0.031812470086336656 0 0.050107079851171049 -0.031744592329029944 0 0.049510669413894336 -0.031812470086336656 0 0.049867122095347244 -0.031340906480948207 0 0.050085831595751695 -0.032065282911787632 0 0.049510669413894336 -0.031812470086336656 0 0.049999883932853935 -0.032419384704838024 0 0.048956183751295616 -0.031140425665352505 0 0.049867122095347244 -0.031340906480948207 0 0.049786242079328767 -0.030724654146234133 0 0.049867122095347244 -0.031340906480948207 0 0.050293449305902897 -0.03099106134283177 0 0.049786242079328767 -0.030724654146234133 0 0.050107079851171049 -0.031744592329029944 0 0.049867122095347244 -0.031340906480948207 0 0.050407184882837353 -0.031412490266833445 0 0.049867122095347244 -0.031340906480948207 0 0.050293449305902897 -0.03099106134283177 0 0.050407184882837353 -0.031412490266833445 0 0.050293449305902897 -0.03099106134283177 0 0.050407184882837353 -0.031412490266833445 0 0.050647469488188011 -0.030889660478895624 0 0.050884021375570493 -0.031350100008173905 0 0.050982336703558978 -0.030841312411239007 0 0.050855990414664667 -0.031465552784781962 0 0.051144083960684927 -0.030666181860486648 0 0.050647469488188011 -0.030889660478895624 0 0.050855990414664667 -0.031465552784781962 0 0.051107288713412795 -0.031272276583394119 0 0.050797283709740668 -0.030914900790827458 0 0.050407184882837353 -0.031412490266833445 0 0.050855990414664667 -0.031465552784781962 0 0.050647469488188011 -0.030889660478895624 0 0.037974747474596685 -0.029680426314380753 0 0.037964495706107215 -0.029957992668605448 0 0.037766004773057887 -0.029266285655507179 0 0.051107288713412795 -0.031272276583394119 0 0.051449691341695414 -0.031367671545768104 0 0.051248549463473979 -0.031826737297433856 0 0.050855990414664667 -0.031465552784781962 0 0.051107288713412795 -0.031272276583394119 0 0.051248549463473979 -0.031826737297433856 0 0.051107288713412795 -0.031272276583394119 0 0.051449691341695414 -0.031367671545768104 0 0.051163540927837939 -0.030755628622265881 0 0.050478438511841195 -0.031932359354488467 0 0.050855990414664667 -0.031465552784781962 0 0.050863650414398463 -0.032107383570733734 0 0.050855990414664667 -0.031465552784781962 0 0.051248549463473979 -0.031826737297433856 0 0.050863650414398463 -0.032107383570733734 0 0.050478438511841195 -0.031932359354488467 0 0.050407184882837353 -0.031412490266833445 0 0.050855990414664667 -0.031465552784781962 0 0.050478438511841195 -0.031932359354488467 0 0.050863650414398463 -0.032107383570733734 0 0.050291585071818815 -0.032402805121458877 0 0.050863650414398463 -0.032107383570733734 0 0.051234262915229922 -0.03264172681569618 0 0.050766989291790139 -0.032796571531210857 0 0.050863650414398463 -0.032107383570733734 0 0.050766989291790139 -0.032796571531210857 0 0.050291585071818815 -0.032402805121458877 0 0.051248549463473979 -0.031826737297433856 0 0.051234262915229922 -0.03264172681569618 0 0.051719698607442771 -0.031998271280276991 0 0.051248549463473979 -0.031826737297433856 0 0.050863650414398463 -0.032107383570733734 0 0.051234262915229922 -0.03264172681569618 0 0.040068557559537601 -0.040554961165761433 0 0.040627061391851522 -0.042048855200313651 0 0.038376047366199165 -0.042313179255406029 0 0.040068557559537601 -0.040554961165761433 0 0.040627061391851522 -0.042048855200313651 0 0.041474439928338803 -0.040610088424923099 0 0.051234262915229922 -0.03264172681569618 0 0.050766989291790139 -0.032796571531210857 0 0.050603049280059272 -0.033343938737244706 0 0.046232088878145727 -0.036221984733406452 0 0.045261816716609574 -0.040350178081918882 0 0.050766989291790139 -0.032796571531210857 0 0.050573333941990449 -0.033097918899258491 0 0.050273056977804417 -0.032888744970188344 0 0.050766989291790139 -0.032796571531210857 0 0.050573333941990449 -0.033097918899258491 0 0.050603049280059272 -0.033343938737244706 0 0.047755219519058513 -0.037327092776420739 0 0.045261816716609574 -0.040350178081918882 0 0.050573333941990449 -0.033097918899258491 0 0.050273056977804417 -0.032888744970188344 0 0.050603049280059272 -0.033343938737244706 0 0.04526590152408045 -0.041471196686572322 0 0.044162106354878584 -0.040175693441499294 0 0.043834382435416645 -0.042090951527561468 0 0.045442574053717696 -0.042455067673866358 0 0.04526590152408045 -0.041471196686572322 0 0.046380474162131667 -0.042773341502052066 0 0.045442574053717696 -0.042455067673866358 0 0.04526590152408045 -0.041471196686572322 0 0.043834382435416645 -0.042090951527561468 0 0.045442574053717696 -0.042455067673866358 0 0.043834382435416645 -0.042090951527561468 0 0.044685522000711519 -0.043118758870115487 0 0.050766989291790139 -0.032796571531210857 0 0.050273056977804417 -0.032888744970188344 0 0.050291585071818815 -0.032402805121458877 0 0.04786212002591364 -0.035203591343916804 0 0.050425537569751329 -0.033524849862576769 0 0.047755219519058513 -0.037327092776420739 0 0.04786212002591364 -0.035203591343916804 0 0.050273056977804417 -0.032888744970188344 0 0.049904208714248548 -0.032446034503970468 0 0.050291585071818815 -0.032402805121458877 0 0.050085831595751695 -0.032065282911787632 0 0.049999883932853935 -0.032419384704838024 0 0.050291585071818815 -0.032402805121458877 0 0.050478438511841195 -0.031932359354488467 0 0.050085831595751695 -0.032065282911787632 0 0.050291585071818815 -0.032402805121458877 0 0.048488551052178447 -0.033727472260919954 0 0.04786212002591364 -0.035203591343916804 0 0.04786212002591364 -0.035203591343916804 0 0.044388612213146383 -0.038393286049250207 0 0.044162106354878584 -0.040175693441499294 0 0.042365187245401205 -0.040329743176863338 0 0.043834382435416645 -0.042090951527561468 0 0.047236451253469008 -0.035690441293750395 0 0.047824092100745084 -0.036382428829223865 0 0.047153122935547492 -0.036445991923555854 0 0.041742800555565 -0.043113847759713969 0 0.042365187245401205 -0.040329743176863338 0 0.043834382435416645 -0.042090951527561468 0 0.042908777372990939 -0.043515820824636169 0 0.040604167170660607 -0.049251393625376338 0 0.041742800555565 -0.043113847759713969 0 0.043564366687141177 -0.043798891989074634 0 0.042914057204912377 -0.045830487002970696 0 0.041742800555565 -0.043113847759713969 0 0.043834382435416645 -0.042090951527561468 0 0.043564366687141177 -0.043798891989074634 0 0.043834382435416645 -0.042090951527561468 0 0.043564366687141177 -0.043798891989074634 0 0.044685522000711519 -0.043118758870115487 0 0.038774330310020616 -0.047488967678976902 0 0.035687608143595416 -0.04854271196654121 0 0.044685522000711519 -0.043118758870115487 0 0.04465461971623709 -0.044873982339380301 0 0.046380474162131667 -0.042773341502052066 0 0.038774330310020616 -0.047488967678976902 0 0.045261816716609574 -0.040350178081918882 0 0.045442574053717696 -0.042455067673866358 0 0.044685522000711519 -0.043118758870115487 0 0.046380474162131667 -0.042773341502052066 0 0.043564366687141177 -0.043798891989074634 0 0.044685522000711519 -0.043118758870115487 0 0.04465461971623709 -0.044873982339380301 0 0.035125105482303069 -0.053048608010425241 0 0.034587091617910765 -0.052656729741220175 0 0.034159223505450996 -0.053091015345748366 0 0.035125105482303069 -0.053048608010425241 0 0.035234850542919666 -0.052500959812340472 0 0.035677577656009082 -0.052546430249785878 0 0.038774330310020616 -0.047488967678976902 0 0.037232633132324437 -0.051102540749561505 0 0.035642569579749657 -0.051620819948481944 0 0.037232633132324437 -0.051102540749561505 0 0.035234850542919666 -0.052500959812340472 0 0.035845291471416699 -0.052597447566223719 0 0.035627803963671392 -0.052141121515835109 0 0.035125105482303069 -0.053048608010425241 0 0.035234850542919666 -0.052500959812340472 0 0.034587091617910765 -0.052656729741220175 0 0.035234850542919666 -0.052500959812340472 0 0.034587091617910765 -0.052656729741220175 0 0.034688226662554923 -0.05222167274957077 0 0.043564366687141177 -0.043798891989074634 0 0.04465461971623709 -0.044873982339380301 0 0.042914057204912377 -0.045830487002970696 0 0.038774330310020616 -0.047488967678976902 0 0.040604167170660607 -0.049251393625376338 0 0.038954899008643018 -0.048868006083532915 0 0.03879226003965832 -0.049069589536557469 0 0.038662796238953932 -0.049058080691044031 0 0.037232633132324437 -0.051102540749561505 0 0.040604167170660607 -0.049251393625376338 0 0.038393650202455533 -0.050362166317943387 0 0.038832129416534786 -0.050415037465350782 0 0.038668306477999494 -0.050070532327620348 0 0.037232633132324437 -0.051102540749561505 0 0.037701353868433679 -0.051807306531951404 0 0.040604167170660607 -0.049251393625376338 0 0.037701353868433679 -0.051807306531951404 0 0.038002517641875448 -0.051388572848783599 0 0.035936859308561768 -0.051503559224451635 0 0.036561759539561971 -0.052858225511908857 0 0.038262800019656644 -0.051393544673637326 0 0.037354471011533663 -0.053069667718531666 0 0.037144033125718984 -0.05261168870239212 0 0.037979614963425674 -0.051551881403021936 0 0.037701353868433679 -0.051807306531951404 0 0.036190960235833548 -0.051604804839389826 0 0.037701353868433679 -0.051807306531951404 0 0.035936859308561768 -0.051503559224451635 0 0.036127493436776639 -0.052295500264696766 0 0.035627803963671392 -0.052141121515835109 0 0.035845291471416699 -0.052597447566223719 0 0.036127493436776639 -0.052295500264696766 0 0.035627803963671392 -0.052141121515835109 0 0.035234850542919666 -0.052500959812340472 0 0.035627803963671392 -0.052141121515835109 0 0.034936584819840855 -0.05180907259649653 0 0.034688226662554923 -0.05222167274957077 0 0.034936584819840855 -0.05180907259649653 0 0.034014518748408516 -0.051918120131247913 0 0.035234850542919666 -0.052500959812340472 0 0.034688226662554923 -0.05222167274957077 0 0.034936584819840855 -0.05180907259649653 0 0.034936584819840855 -0.05180907259649653 0 0.034911113127951483 -0.051098169064995008 0 0.034014518748408516 -0.051918120131247913 0 0.035936859308561768 -0.051503559224451635 0 0.035627803963671392 -0.052141121515835109 0 0.034936584819840855 -0.05180907259649653 0 0.035936859308561768 -0.051503559224451635 0 0.034936584819840855 -0.05180907259649653 0 0.034911113127951483 -0.051098169064995008 0 0.035936859308561768 -0.051503559224451635 0 0.034911113127951483 -0.051098169064995008 0 0.036417892436617527 -0.049999785277625074 0 0.034911113127951483 -0.051098169064995008 0 0.036417892436617527 -0.049999785277625074 0 0.033411904443357079 -0.050000022301503348 0 0.038002517641875448 -0.051388572848783599 0 0.035936859308561768 -0.051503559224451635 0 0.036417892436617527 -0.049999785277625074 0 0.032666476456979489 -0.049999971038048457 0 0.031142950777943042 -0.052400704446726898 0 0.029974647200289466 -0.049999991297916144 0 0.032666471812315405 -0.050000322306473485 0 0.031764321821027362 -0.052076330006093713 0 0.034911113127951483 -0.051098169064995008 0 0.033411904443357079 -0.050000022301503348 0 0.034014518748408516 -0.051918120131247913 0 0.032668528753572394 -0.050000475367610875 0 0.033409876200650397 -0.049999540765861716 0 0.033740031964122702 -0.051632398735814621 0 0.033411451762906698 -0.050000317049900031 0 0.033865707813794686 -0.051775008760848923 0 0.034587091617910765 -0.052656729741220175 0 0.034688226662554923 -0.05222167274957077 0 0.034014518748408516 -0.051918120131247913 0 0.033740031964122702 -0.051632398735814621 0 0.033188189052475683 -0.052699350583917219 0 0.032188061063977168 -0.051772873615517259 0 0.032668528753572394 -0.050000475367610875 0 0.033740031964122702 -0.051632398735814621 0 0.032188061063977168 -0.051772873615517259 0 0.033188189052475683 -0.052699350583917219 0 0.032488144591373093 -0.052881168174754682 0 0.032188061063977168 -0.051772873615517259 0 0.033188189052475683 -0.052699350583917219 0 0.032488144591373093 -0.052881168174754682 0 0.032839008273785719 -0.053257472899999721 0 0.034587091617910765 -0.052656729741220175 0 0.034014518748408516 -0.051918120131247913 0 0.034159223505450996 -0.053091015345748366 0 0.033740031964122702 -0.051632398735814621 0 0.033188189052475683 -0.052699350583917219 0 0.034159223505450996 -0.053091015345748366 0 0.033865707813794686 -0.051775008760848923 0 0.034129793162210813 -0.053025649922788576 0 0.040627061391851522 -0.042048855200313651 0 0.038789403109546171 -0.043106152076363487 0 0.038376047366199165 -0.042313179255406029 0 0.036931265153679983 -0.044199713454024542 0 0.038789403109546171 -0.043106152076363487 0 0.038376047366199165 -0.042313179255406029 0 0.035125105482303069 -0.053048608010425241 0 0.034159223505450996 -0.053091015345748366 0 0.033687060118340405 -0.053489800176661453 0 0.033188189052475683 -0.052699350583917219 0 0.034159223505450996 -0.053091015345748366 0 0.033687060118340405 -0.053489800176661453 0 0.036852741305476971 -0.048022713532350506 0 0.035687608143595416 -0.04854271196654121 0 0.032496861494764391 -0.053750918529353479 0 0.033687060118340405 -0.053489800176661453 0 0.032839008273785719 -0.053257472899999721 0 0.032488144591373093 -0.052881168174754682 0 0.032839008273785719 -0.053257472899999721 0 0.032336102282867818 -0.053341691791368467 0 0.033188189052475683 -0.052699350583917219 0 0.033687060118340405 -0.053489800176661453 0 0.032839008273785719 -0.053257472899999721 0 0.032496861494764391 -0.053750918529353479 0 0.032839008273785719 -0.053257472899999721 0 0.032336102282867818 -0.053341691791368467 0 0.032496861494764391 -0.053750918529353479 0 0.032176974957245516 -0.053621343742121352 0 0.032336102282867818 -0.053341691791368467 0 0.032488144591373093 -0.052881168174754682 0 0.032336102282867818 -0.053341691791368467 0 0.031713765078966234 -0.053123157376360447 0 0.032176974957245516 -0.053621343742121352 0 0.031713765078966234 -0.053123157376360447 0 0.031757399083938882 -0.054006210074146847 0 0.032176974957245516 -0.053621343742121352 0 0.032336102282867818 -0.053341691791368467 0 0.031713765078966234 -0.053123157376360447 0 0.030114686377202035 -0.053683508396787739 0 0.033188137962797508 -0.049056586526901619 0 0.030408918734408735 -0.052787991828418056 0 0.032372041788086454 -0.049566453768291191 0 0.030763927616002024 -0.047810577567793056 0 0.029045454137039056 -0.053382180165666732 0 0.028048367524224262 -0.053103086846888109 0 0.028576582012221304 -0.054026223016553042 0 0.025149354405842868 -0.049491975760594747 0 0.028407704353954521 -0.047847860808912991 0 0.030114686377202035 -0.053683508396787739 0 0.028407704353954521 -0.047847860808912991 0 0.029045454137039056 -0.053382180165666732 0 0.028613960140351769 -0.052564180685864902 0 0.028048367524224262 -0.053103086846888109 0 0.029045454137039056 -0.053382180165666732 0 0.028613960140351769 -0.052564180685864902 0 0.02936809094364639 -0.052027267010331509 0 0.028613960140351769 -0.052564180685864902 0 0.02809096982784445 -0.052305198547404674 0 0.028048367524224262 -0.053103086846888109 0 0.032488144591373093 -0.052881168174754682 0 0.031713765078966234 -0.053123157376360447 0 0.032188061063977168 -0.051772873615517259 0 0.030114686377202035 -0.053683508396787739 0 0.029549818426147959 -0.052249388627121598 0 0.029718515013173404 -0.054684087157837673 0 0.031142950777943042 -0.052400704446726898 0 0.029865141886965426 -0.052391821701714261 0 0.030114686377202035 -0.053683508396787739 0 0.031764321821027362 -0.052076330006093713 0 0.031142950777943042 -0.052400704446726898 0 0.029865141886965426 -0.052391821701714261 0 0.029974647200289466 -0.049999991297916144 0 0.028613960140351769 -0.052564180685864902 0 0.02936809094364639 -0.052027267010331509 0 0.028509728610709033 -0.051871752073004221 0 0.028613960140351769 -0.052564180685864902 0 0.028509728610709033 -0.051871752073004221 0 0.02809096982784445 -0.052305198547404674 0 0.028308037298651424 -0.051370819213148886 0 0.028509728610709033 -0.051871752073004221 0 0.028895543411241804 -0.050915697049350193 0 0.028308037298651424 -0.051370819213148886 0 0.028509728610709033 -0.051871752073004221 0 0.027718157480410933 -0.051743741764558454 0 0.02936809094364639 -0.052027267010331509 0 0.028509728610709033 -0.051871752073004221 0 0.028895543411241804 -0.050915697049350193 0 0.028308037298651424 -0.051370819213148886 0 0.028895543411241804 -0.050915697049350193 0 0.027826555187040553 -0.049999901445263735 0 0.028895543411241804 -0.050915697049350193 0 0.029973830844699772 -0.050000035614895827 0 0.027826555187040553 -0.049999901445263735 0 0.02936809094364639 -0.052027267010331509 0 0.028895543411241804 -0.050915697049350193 0 0.029973830844699772 -0.050000035614895827 0 0.029549818426147959 -0.052249388627121598 0 0.029974403317994041 -0.050000247876946839 0 0.024823932486812219 -0.050953566574334148 0 0.025678094453335569 -0.049999994905304698 0 0.026128211870675089 -0.05188912953583788 0 0.025678094453335569 -0.049999994905304698 0 0.026128211870675089 -0.05188912953583788 0 0.026495700229928788 -0.05172884648815762 0 0.025678680670448512 -0.0500010106413981 0 0.026197703991426319 -0.051145266022164827 0 0.024952455566342169 -0.051054538384697278 0 0.025227526811627501 -0.050686041010523958 0 0.028308037298651424 -0.051370819213148886 0 0.027826555187040553 -0.049999901445263735 0 0.02764070676434956 -0.051199774112903579 0 0.025678226865326469 -0.04999993974362784 0 0.027826555187040553 -0.049999901445263735 0 0.02764070676434956 -0.051199774112903579 0 0.025678226865326469 -0.04999993974362784 0 0.02764070676434956 -0.051199774112903579 0 0.026607397387779883 -0.051667378630743388 0 0.027423612790937978 -0.051076343736868396 0 0.026197703991426319 -0.051145266022164827 0 0.027718157480410933 -0.051743741764558454 0 0.027289848618766606 -0.05193787025242242 0 0.027053196753224758 -0.051496568494437692 0 0.02764070676434956 -0.051199774112903579 0 0.027718157480410933 -0.051743741764558454 0 0.027053196753224758 -0.051496568494437692 0 0.025469111375308683 -0.0500041593104322 0 0.026197703991426319 -0.051145266022164827 0 0.028308037298651424 -0.051370819213148886 0 0.02764070676434956 -0.051199774112903579 0 0.027718157480410933 -0.051743741764558454 0 0.028509728610709033 -0.051871752073004221 0 0.027718157480410933 -0.051743741764558454 0 0.02809096982784445 -0.052305198547404674 0 0.027718157480410933 -0.051743741764558454 0 0.02809096982784445 -0.052305198547404674 0 0.02743554426605286 -0.05203456516604326 0 0.025469111375308683 -0.0500041593104322 0 0.02591806626179045 -0.050365459886510311 0 0.027718157480410933 -0.051743741764558454 0 0.027289848618766606 -0.05193787025242242 0 0.02743554426605286 -0.05203456516604326 0 0.023352494084465006 -0.047011612007182083 0 0.023755814695079442 -0.047296544628330141 0 0.023870506952615392 -0.046530904560022887 0 0.025135739578942912 -0.046625746805849244 0 0.023755814695079442 -0.047296544628330141 0 0.023870506952615392 -0.046530904560022887 0 0.025563151008884594 -0.0503252635811045 0 0.026002510921067434 -0.050647466932279069 0 0.025766662596005491 -0.05074985412491663 0 0.025469111375308683 -0.0500041593104322 0 0.025227526811627501 -0.050686041010523958 0 0.025227526811627501 -0.050686041010523958 0 0.026197703991426319 -0.051145266022164827 0 0.023870506952615392 -0.046530904560022887 0 0.024272788064976257 -0.045824364395356677 0 0.022786623225073528 -0.045880586300170015 0 0.023352494084465006 -0.047011612007182083 0 0.023870506952615392 -0.046530904560022887 0 0.022786623225073528 -0.045880586300170015 0 0.02809096982784445 -0.052305198547404674 0 0.02743554426605286 -0.05203456516604326 0 0.028048367524224262 -0.053103086846888109 0 0.027294487486531235 -0.051950016159119171 0 0.02743554426605286 -0.05203456516604326 0 0.028048367524224262 -0.053103086846888109 0 0.025469111375308683 -0.0500041593104322 0 0.025149354405842868 -0.049491975760594747 0 0.022786623225073528 -0.045880586300170015 0 0.023636914255673051 -0.04515940415744988 0 0.023109198277433785 -0.044384745181174287 0 0.022786623225073528 -0.045880586300170015 0 0.023109198277433785 -0.044384745181174287 0 0.022187971521469094 -0.044664232081553713 0 0.024272788064976257 -0.045824364395356677 0 0.022786623225073528 -0.045880586300170015 0 0.023636914255673051 -0.04515940415744988 0 0.024477213111791001 -0.045048564059880385 0 0.024272788064976257 -0.045824364395356677 0 0.023636914255673051 -0.04515940415744988 0 0.024477213111791001 -0.045048564059880385 0 0.023636914255673051 -0.04515940415744988 0 0.024079864091156825 -0.044313895771876922 0 0.024079864091156825 -0.044313895771876922 0 0.023641002485011258 -0.0435585979720024 0 0.023109198277433785 -0.044384745181174287 0 0.023636914255673051 -0.04515940415744988 0 0.024079864091156825 -0.044313895771876922 0 0.023109198277433785 -0.044384745181174287 0 0.024079864091156825 -0.044313895771876922 0 0.024205023522260911 -0.043174732683980074 0 0.023641002485011258 -0.0435585979720024 0 0.024940327042454139 -0.043217278101718076 0 0.024079864091156825 -0.044313895771876922 0 0.024205023522260911 -0.043174732683980074 0 0.024205023522260911 -0.043174732683980074 0 0.023641002485011258 -0.0435585979720024 0 0.023894443098904868 -0.042651513975642479 0 0.024205023522260911 -0.043174732683980074 0 0.023894443098904868 -0.042651513975642479 0 0.024501366110171167 -0.042778564240592218 0 0.023858067471321756 -0.042558892259138309 0 0.027185364895624415 -0.042186697666153086 0 0.024700251017070754 -0.041951691189098979 0 0.024823653467633364 -0.041886630155855864 0 0.024718898212883811 -0.04194810931536605 0 0.023641002485011258 -0.0435585979720024 0 0.023894443098904868 -0.042651513975642479 0 0.022940270486425742 -0.04324538064243641 0 0.032364143790291962 -0.039039135542099444 0 0.032387698548959863 -0.03908660207521579 0 0.032462004395345918 -0.038864380439916066 0 0.027185364895624415 -0.042186697666153086 0 0.031901908314094229 -0.037631434830887558 0 0.032364143790291962 -0.039039135542099444 0 0.032387698548959863 -0.03908660207521579 0 0.032293714396809677 -0.039200557273478952 0 0.027185364895624415 -0.042186697666153086 0 0.028407704353954521 -0.047847860808912991 0 0.023641002485011258 -0.0435585979720024 0 0.022940270486425742 -0.04324538064243641 0 0.023109198277433785 -0.044384745181174287 0 0.022940270486425742 -0.04324538064243641 0 0.023109198277433785 -0.044384745181174287 0 0.022187971521469094 -0.044664232081553713 0 0.03044697976406395 -0.043478310047514762 0 0.029776258361930472 -0.044668162920234462 0 0.029720880033203674 -0.043895287500031875 0 0.028407704353954521 -0.047847860808912991 0 0.034567068857629279 -0.044432991548433533 0 0.032372041788086454 -0.049566453768291191 0 0.031294286344466814 -0.047297685913751296 0 0.030763927616002024 -0.047810577567793056 0 0.029776258361930472 -0.044668162920234462 0 0.029516173276033675 -0.044104929180426654 0 0.029720880033203674 -0.043895287500031875 0 0.034567068857629279 -0.044432991548433533 0 0.033188137962797508 -0.049056586526901619 0 0.033188137962797508 -0.049056586526901619 0 0.035522626968097042 -0.044814323228052323 0 0.034500945908738347 -0.045300112032481833 0 0.035033415270551801 -0.044792170117968884 0 0.03499307745578948 -0.04542555201081204 0 0.036504986710404592 -0.04381764666619576 0 0.036080171561802613 -0.04370832502888039 0 0.036129587314751778 -0.043019188100001646 0 0.034567068857629279 -0.044432991548433533 0 0.036885614408961598 -0.040569517283066507 0 0.034567068857629279 -0.044432991548433533 0 0.035522626968097042 -0.044814323228052323 0 0.035522626968097042 -0.044814323228052323 0 0.036885614408961598 -0.040569517283066507 0 0.037468906220063658 -0.035705846305224921 0 0.037899205644995652 -0.035263658804727122 0 0.037263027160094664 -0.035237401969953931 0 0.034567068857629279 -0.044432991548433533 0 0.034117489187201401 -0.040299612081567071 0 0.032496861494764391 -0.053750918529353479 0 0.031915202324626343 -0.053764019217585481 0 0.031909647482335983 -0.05381575375182826 0 0.032496861494764391 -0.053750918529353479 0 0.032176974957245516 -0.053621343742121352 0 0.031915202324626343 -0.053764019217585481 0 0.036852741305476971 -0.048022713532350506 0 0.035522626968097042 -0.044814323228052323 0 0.040627061391851522 -0.042048855200313651 0 0.042494671915590948 -0.041012200149381589 0 0.041474439928338803 -0.040610088424923099 0 0.031040423763126407 -0.054216540500646636 0 0.033188137962797508 -0.049056586526901619 0 0.042494671915590948 -0.041012200149381589 0 0.041474439928338803 -0.040610088424923099 0 0.042524360232722429 -0.0406691938569822 0 0.046232088878145727 -0.036221984733406452 0 0.042321636945642775 -0.033750805293671006 0 0.036885614408961598 -0.040569517283066507 0 0.042321636945642775 -0.033750805293671006 0 0.040068557559537601 -0.040554961165761433 0 0.041474439928338803 -0.040610088424923099 0 0.041658816212368603 -0.038754083827981942 0 0.039446384587651442 -0.038494434565477555 0 0.039694345383771153 -0.03504374140964487 0 0.037457512938829145 -0.03428050147977723 0 0.041474439928338803 -0.040610088424923099 0 0.042524360232722429 -0.0406691938569822 0 0.041658816212368603 -0.038754083827981942 0 0.036885614408961598 -0.040569517283066507 0 0.03855947037194412 -0.033760102118277992 0 0.037263027160094664 -0.035237401969953931 0 0.038028623236435036 -0.034283765180416328 0 0.037447712521999639 -0.033547882723141541 0 0.027185364895624415 -0.042186697666153086 0 0.034117489187201401 -0.040299612081567071 0 0.039048218193459959 -0.034005816489732048 0 0.037899205644995652 -0.035263658804727122 0 0.038028623236435036 -0.034283765180416328 0 0.036478570760837263 -0.035764364127559352 0 0.034117489187201401 -0.040299612081567071 0 0.037899205644995652 -0.035263658804727122 0 0.037263027160094664 -0.035237401969953931 0 0.038028623236435036 -0.034283765180416328 0 0.039048218193459959 -0.034005816489732048 0 0.038028623236435036 -0.034283765180416328 0 0.038434327556400076 -0.033410103572497678 0 0.038028623236435036 -0.034283765180416328 0 0.038434327556400076 -0.033410103572497678 0 0.037447712521999639 -0.033547882723141541 0 0.038434327556400076 -0.033410103572497678 0 0.037447712521999639 -0.033547882723141541 0 0.038284039429277078 -0.032513624265880212 0 0.037447712521999639 -0.033547882723141541 0 0.038284039429277078 -0.032513624265880212 0 0.037667262083654438 -0.032035049609602163 0 0.03855947037194412 -0.033760102118277992 0 0.038561660729039854 -0.031662833395955436 0 0.038434327556400076 -0.033410103572497678 0 0.038284039429277078 -0.032513624265880212 0 0.039200033315730395 -0.032809571637170215 0 0.039694345383771153 -0.03504374140964487 0 0.037457512938829145 -0.03428050147977723 0 0.039920606853587573 -0.031620396007603011 0 0.038284039429277078 -0.032513624265880212 0 0.037667262083654438 -0.032035049609602163 0 0.038040359966490668 -0.03169622659821323 0 0.051449691341695414 -0.031367671545768104 0 0.051248549463473979 -0.031826737297433856 0 0.051719698607442771 -0.031998271280276991 0 0.038365057811447369 -0.030809985808672793 0 0.038317356140497846 -0.029955528256304192 0 0.038828997669777023 -0.030259329845902395 0 0.04498339620326984 -0.030589444632549534 0 0.042321636945642775 -0.033750805293671006 0 0.042321636945642775 -0.033750805293671006 0 0.038561660729039854 -0.031662833395955436 0 0.037964495706107215 -0.029957992668605448 0 0.038365057811447369 -0.030809985808672793 0 0.038317356140497846 -0.029955528256304192 0 0.038317356140497846 -0.029955528256304192 0 0.038527344705273837 -0.029661040933516486 0 0.038828997669777023 -0.030259329845902395 0 0.038317356140497846 -0.029955528256304192 0 0.038527344705273837 -0.029661040933516486 0 0.038282705088882395 -0.029452010323305969 0 0.037974747474596685 -0.029680426314380753 0 0.038317356140497846 -0.029955528256304192 0 0.038282705088882395 -0.029452010323305969 0 0.037974747474596685 -0.029680426314380753 0 0.037964495706107215 -0.029957992668605448 0 0.038317356140497846 -0.029955528256304192 0 0.038561660729039854 -0.031662833395955436 0 0.038471953987969494 -0.029400517677002181 0 0.037736979421783737 -0.031984542951508793 0 0.038040359966490668 -0.03169622659821323 0 0.038178254816115038 -0.029883883889909143 0 0.038527344705273837 -0.029661040933516486 0 0.038828997669777023 -0.030259329845902395 0 0.038814092417386814 -0.029132891099590347 0 0.038040359966490668 -0.03169622659821323 0 0.038844564330182844 -0.030737740018217965 0 0.038178254816115038 -0.029883883889909143 0 0.038040359966490668 -0.03169622659821323 0 0.038844564330182844 -0.030737740018217965 0 0.038794772187658741 -0.031785601220190599 0 0.038284039429277078 -0.032513624265880212 0 0.038040359966490668 -0.03169622659821323 0 0.038794772187658741 -0.031785601220190599 0 0.038561660729039854 -0.031662833395955436 0 0.038290895438930855 -0.031841126357860398 0 0.03935971627635737 -0.031282800262882021 0 0.038844564330182844 -0.030737740018217965 0 0.039896522884322203 -0.030488652462864922 0 0.03935971627635737 -0.031282800262882021 0 0.038844564330182844 -0.030737740018217965 0 0.038794772187658741 -0.031785601220190599 0 0.03935971627635737 -0.031282800262882021 0 0.038794772187658741 -0.031785601220190599 0 0.039559578786719771 -0.031878575979709584 0 0.03935971627635737 -0.031282800262882021 0 0.039559578786719771 -0.031878575979709584 0 0.040007360302836796 -0.031330294909177769 0 0.039559578786719771 -0.031878575979709584 0 0.040007360302836796 -0.031330294909177769 0 0.040346497729412831 -0.032135552399152056 0 0.03935971627635737 -0.031282800262882021 0 0.040007360302836796 -0.031330294909177769 0 0.039896522884322203 -0.030488652462864922 0 0.040007360302836796 -0.031330294909177769 0 0.040943889284483531 -0.030887654318234481 0 0.039896522884322203 -0.030488652462864922 0 0.029583607143603377 -0.033102631422229425 0 0.029528629431867379 -0.033082063936153483 0 0.029564637248129716 -0.033128386908211023 0 0.029528629431867379 -0.033082063936153483 0 0.029564637248129716 -0.033128386908211023 0 0.029592945072208696 -0.033141827632817596 0 0.035188174368390855 -0.032084824437200572 0 0.035540703570637912 -0.033157352060218567 0 0.040007360302836796 -0.031330294909177769 0 0.040943889284483531 -0.030887654318234481 0 0.040346497729412831 -0.032135552399152056 0 0.03189942394020516 -0.035867385653078149 0 0.031993348815366578 -0.035849975429976283 0 0.032072377912974563 -0.035783190896491977 0 0.024686347704089954 -0.04172173236107423 0 0.024723882265196156 -0.041910493834878264 0 0.024718898212883811 -0.04194810931536605 0 0.029133700189873202 -0.036340632296588384 0 0.031901908314094229 -0.037631434830887558 0 0.029133700189873202 -0.036340632296588384 0 0.035540703570637912 -0.033157352060218567 0 0.035540703570637912 -0.033157352060218567 0 0.031901908314094229 -0.037631434830887558 0 0.024954543158926697 -0.042059461309629238 0 0.024686347704089954 -0.04172173236107423 0 0.024723882265196156 -0.041910493834878264 0 0.024954543158926697 -0.042059461309629238 0 0.023894443098904868 -0.042651513975642479 0 0.024501366110171167 -0.042778564240592218 0 0.024954543158926697 -0.042059461309629238 0 0.024700251017070754 -0.041951691189098979 0 0.024723882265196156 -0.041910493834878264 0 0.025042284308912231 -0.041978078871853862 0 0.023858067471321756 -0.042558892259138309 0 0.024700251017070754 -0.041951691189098979 0 0.024723882265196156 -0.041910493834878264 0 0.024718898212883811 -0.04194810931536605 0 0.036478570760837263 -0.035764364127559352 0 0.031901908314094229 -0.037631434830887558 0 0.039048218193459959 -0.034005816489732048 0 0.039940311411635981 -0.032939914203971792 0 0.039200033315730395 -0.032809571637170215 0 0.039048218193459959 -0.034005816489732048 0 0.038434327556400076 -0.033410103572497678 0 0.039200033315730395 -0.032809571637170215 0 0.038794772187658741 -0.031785601220190599 0 0.039559578786719771 -0.031878575979709584 0 0.039200033315730395 -0.032809571637170215 0 0.038284039429277078 -0.032513624265880212 0 0.038794772187658741 -0.031785601220190599 0 0.039200033315730395 -0.032809571637170215 0 0.035540703570637912 -0.033157352060218567 0 0.040572217515173148 -0.032075126532680014 0 0.039559578786719771 -0.031878575979709584 0 0.040346497729412831 -0.032135552399152056 0 0.039200033315730395 -0.032809571637170215 0 0.040270387731980807 -0.03236890646360592 0 0.039940311411635981 -0.032939914203971792 0 0.039200033315730395 -0.032809571637170215 0 0.039448935226456983 -0.029465799007755075 0 0.038728862736344551 -0.02807166681250247 0 0.039959453883850346 -0.028361705236209924 0 0.039448935226456983 -0.029465799007755075 0 0.040462650092395698 -0.029551582690684402 0 0.039959453883850346 -0.028361705236209924 0 0.041045648960859583 -0.028541591051965458 0 0.040462650092395698 -0.029551582690684402 0 0.039959453883850346 -0.028361705236209924 0 0.041501466377629019 -0.029760238772992182 0 0.040943889284483531 -0.030887654318234481 0 0.040462650092395698 -0.029551582690684402 0 0.040943889284483531 -0.030887654318234481 0 0.040462650092395698 -0.029551582690684402 0 0.039896522884322203 -0.030488652462864922 0 0.038844564330182844 -0.030737740018217965 0 0.039448935226456983 -0.029465799007755075 0 0.039896522884322203 -0.030488652462864922 0 0.039448935226456983 -0.029465799007755075 0 0.040462650092395698 -0.029551582690684402 0 0.039896522884322203 -0.030488652462864922 0 0.038844564330182844 -0.030737740018217965 0 0.039448935226456983 -0.029465799007755075 0 0.038178254816115038 -0.029883883889909143 0 0.038814092417386814 -0.029132891099590347 0 0.038282705088882395 -0.029452010323305969 0 0.038194010098231944 -0.029036787264880438 0 0.037974747474596685 -0.029680426314380753 0 0.038282705088882395 -0.029452010323305969 0 0.038194010098231944 -0.029036787264880438 0 0.038527344705273837 -0.029661040933516486 0 0.038814092417386814 -0.029132891099590347 0 0.038282705088882395 -0.029452010323305969 0 0.038194010098231944 -0.029036787264880438 0 0.037963298658335871 -0.028026423596827697 0 0.037730780878021439 -0.028617335197427627 0 0.038194010098231944 -0.029036787264880438 0 0.038728862736344551 -0.02807166681250247 0 0.037963298658335871 -0.028026423596827697 0 0.039448935226456983 -0.029465799007755075 0 0.038178254816115038 -0.029883883889909143 0 0.038728862736344551 -0.02807166681250247 0 0.038471953987969494 -0.029400517677002181 0 0.038700954857417744 -0.028229911562414972 0 0.038814092417386814 -0.029132891099590347 0 0.038194010098231944 -0.029036787264880438 0 0.038728862736344551 -0.02807166681250247 0 0.038728862736344551 -0.02807166681250247 0 0.038872313325611439 -0.027175847407152079 0 0.039492256869794615 -0.027533328369280758 0 0.038728862736344551 -0.02807166681250247 0 0.037963298658335871 -0.028026423596827697 0 0.038248364922171124 -0.027136330236108609 0 0.037963298658335871 -0.028026423596827697 0 0.038248364922171124 -0.027136330236108609 0 0.037729649934268146 -0.027001435800474538 0 0.038728862736344551 -0.02807166681250247 0 0.038248364922171124 -0.027136330236108609 0 0.038872313325611439 -0.027175847407152079 0 0.038248364922171124 -0.027136330236108609 0 0.038872313325611439 -0.027175847407152079 0 0.038547622260467325 -0.026579423572080131 0 0.039492256869794615 -0.027533328369280758 0 0.040591097046902391 -0.027475530782861416 0 0.039415948407427168 -0.026663138424169792 0 0.038872313325611439 -0.027175847407152079 0 0.039492256869794615 -0.027533328369280758 0 0.039415948407427168 -0.026663138424169792 0 0.038728862736344551 -0.02807166681250247 0 0.039492256869794615 -0.027533328369280758 0 0.039959453883850346 -0.028361705236209924 0 0.039492256869794615 -0.027533328369280758 0 0.039959453883850346 -0.028361705236209924 0 0.040591097046902391 -0.027475530782861416 0 0.041045648960859583 -0.028541591051965458 0 0.039959453883850346 -0.028361705236209924 0 0.040591097046902391 -0.027475530782861416 0 0.038514616166870776 -0.025441488424817242 0 0.037127283201793593 -0.021812798101710825 0 0.037127283201793593 -0.021812798101710825 0 0.038039751836906117 -0.022453068233813343 0 0.035862523037826784 -0.017985042682237336 0 0.035942503129719527 -0.0182174968814664 0 0.036229938366230834 -0.018156760596463629 0 0.035820043821260777 -0.02003422042235483 0 0.035356117466952428 -0.020230618047447878 0 0.035396847399161414 -0.019270312338222319 0 0.037127283201793593 -0.021812798101710825 0 0.035457938847565304 -0.018199464849704392 0 0.035942503129719527 -0.0182174968814664 0 0.036229938366230834 -0.018156760596463629 0 0.036292712336999759 -0.018474308352950553 0 0.036292712336999759 -0.018474308352950553 0 0.035918910621005072 -0.018795190718450996 0 0.036543592383374575 -0.018787135603926836 0 0.035942503129719527 -0.0182174968814664 0 0.036292712336999759 -0.018474308352950553 0 0.035918910621005072 -0.018795190718450996 0 0.035457938847565304 -0.018199464849704392 0 0.035961113655529384 -0.019081712081918622 0 0.035396847399161414 -0.019270312338222319 0 0.035918910621005072 -0.018795190718450996 0 0.035679548742029561 -0.018996716732328309 0 0.035575619070240774 -0.01892394929856895 0 0.035918910621005072 -0.018795190718450996 0 0.035679548742029561 -0.018996716732328309 0 0.035421199554089296 -0.019618837330821089 0 0.035575619070240774 -0.01892394929856895 0 0.035933270748356068 -0.019191319881372498 0 0.035575619070240774 -0.01892394929856895 0 0.035918910621005072 -0.018795190718450996 0 0.035933270748356068 -0.019191319881372498 0 0.035933270748356068 -0.019191319881372498 0 0.036651915049261199 -0.019183385732316541 0 0.036543592383374575 -0.018787135603926836 0 0.035918910621005072 -0.018795190718450996 0 0.035933270748356068 -0.019191319881372498 0 0.036543592383374575 -0.018787135603926836 0 0.035933270748356068 -0.019191319881372498 0 0.03611760264056034 -0.0196535837644536 0 0.036651915049261199 -0.019183385732316541 0 0.035421199554089296 -0.019618837330821089 0 0.035933270748356068 -0.019191319881372498 0 0.03611760264056034 -0.0196535837644536 0 0.0375082679433578 -0.01943922775568839 0 0.036651915049261199 -0.019183385732316541 0 0.03768145637548561 -0.018901037790417987 0 0.03611760264056034 -0.0196535837644536 0 0.036651915049261199 -0.019183385732316541 0 0.036741181887534308 -0.019662928871975596 0 0.0375082679433578 -0.01943922775568839 0 0.036651915049261199 -0.019183385732316541 0 0.036741181887534308 -0.019662928871975596 0 0.036651915049261199 -0.019183385732316541 0 0.036543592383374575 -0.018787135603926836 0 0.03768145637548561 -0.018901037790417987 0 0.036543592383374575 -0.018787135603926836 0 0.03768145637548561 -0.018901037790417987 0 0.036980192966563526 -0.018467773169420762 0 0.037836303187124908 -0.025043937266401192 0 0.038048747299071949 -0.025285746196076143 0 0.037661357897393062 -0.025106460804101338 0 0.037126738620896972 -0.02144680558962668 0 0.037772865565186921 -0.023205782903553372 0 0.037772865565186921 -0.023205782903553372 0 0.038059768609848561 -0.026001431705742033 0 0.038542156745669187 -0.025964995624103353 0 0.037858244603697133 -0.025833896833685113 0 0.037661357897393062 -0.025106460804101338 0 0.038296843894316798 -0.026154856594690225 0 0.038542156745669187 -0.025964995624103353 0 0.037858244603697133 -0.025833896833685113 0 0.038296843894316798 -0.026154856594690225 0 0.037966347400008142 -0.026391622930898057 0 0.037858244603697133 -0.025833896833685113 0 0.036292712336999759 -0.018474308352950553 0 0.036543592383374575 -0.018787135603926836 0 0.036980192966563526 -0.018467773169420762 0 0.036229938366230834 -0.018156760596463629 0 0.036292712336999759 -0.018474308352950553 0 0.036980192966563526 -0.018467773169420762 0 0.038039751836906117 -0.022453068233813343 0 0.037772865565186921 -0.023205782903553372 0 0.038872313325611439 -0.027175847407152079 0 0.039415948407427168 -0.026663138424169792 0 0.038547622260467325 -0.026579423572080131 0 0.039415948407427168 -0.026663138424169792 0 0.038542156745669187 -0.025964995624103353 0 0.038547622260467325 -0.026579423572080131 0 0.038248364922171124 -0.027136330236108609 0 0.037966347400008142 -0.026391622930898057 0 0.037729649934268146 -0.027001435800474538 0 0.038248364922171124 -0.027136330236108609 0 0.038547622260467325 -0.026579423572080131 0 0.037966347400008142 -0.026391622930898057 0 0.038296843894316798 -0.026154856594690225 0 0.038542156745669187 -0.025964995624103353 0 0.038547622260467325 -0.026579423572080131 0 0.038296843894316798 -0.026154856594690225 0 0.038547622260467325 -0.026579423572080131 0 0.037966347400008142 -0.026391622930898057 0 0.037966347400008142 -0.026391622930898057 0 0.037277637889759609 -0.026192240316205206 0 0.037729649934268146 -0.027001435800474538 0 0.037277637889759609 -0.026192240316205206 0 0.037191208149285615 -0.027254812757982014 0 0.037729649934268146 -0.027001435800474538 0 0.050493555030803758 -0.027807053706798212 0 0.050308169915264711 -0.027992164630781288 0 0.050347869974322425 -0.028056524148893713 0 0.043897966022987525 -0.02686211411841909 0 0.043552388730063271 -0.027688510955497837 0 0.050493555030803758 -0.027807053706798212 0 0.050295632409552135 -0.027858038182854858 0 0.050308169915264711 -0.027992164630781288 0 0.050493555030803758 -0.027807053706798212 0 0.050616165093433765 -0.027298860005803328 0 0.050293652274076485 -0.027531699476159899 0 0.050493555030803758 -0.027807053706798212 0 0.050293652274076485 -0.027531699476159899 0 0.050295632409552135 -0.027858038182854858 0 0.043897966022987525 -0.02686211411841909 0 0.044188503168266967 -0.026815153626154956 0 0.037277637889759609 -0.026192240316205206 0 0.037858244603697133 -0.025833896833685113 0 0.037432770220973591 -0.02513293303961775 0 0.037966347400008142 -0.026391622930898057 0 0.037277637889759609 -0.026192240316205206 0 0.037858244603697133 -0.025833896833685113 0 0.037858244603697133 -0.025833896833685113 0 0.037661357897393062 -0.025106460804101338 0 0.037432770220973591 -0.02513293303961775 0 0.050616165093433765 -0.027298860005803328 0 0.050213801969304923 -0.026961295454244534 0 0.050293652274076485 -0.027531699476159899 0 0.050616165093433765 -0.027298860005803328 0 0.050213801969304923 -0.026961295454244534 0 0.05057886950628173 -0.02647768830929453 0 0.050213801969304923 -0.026961295454244534 0 0.05057886950628173 -0.02647768830929453 0 0.05021649996772555 -0.026451036956194631 0 0.037836303187124908 -0.025043937266401192 0 0.037661357897393062 -0.025106460804101338 0 0.037593930122375836 -0.024439249410684968 0 0.044188503168266967 -0.026815153626154956 0 0.041983640155405823 -0.02259657997245312 0 0.037126738620896972 -0.02144680558962668 0 0.041983640155405823 -0.02259657997245312 0 0.037661357897393062 -0.025106460804101338 0 0.037432770220973591 -0.02513293303961775 0 0.037593930122375836 -0.024439249410684968 0 0.0375082679433578 -0.01943922775568839 0 0.03768145637548561 -0.018901037790417987 0 0.038638073184347733 -0.019499451849567005 0 0.049904620244773656 -0.027055609427634814 0 0.050213801969304923 -0.026961295454244534 0 0.049936952568519093 -0.026559404718428985 0 0.049904620244773656 -0.027055609427634814 0 0.050213801969304923 -0.026961295454244534 0 0.050084837892509809 -0.027533532243574511 0 0.050213801969304923 -0.026961295454244534 0 0.049936952568519093 -0.026559404718428985 0 0.05021649996772555 -0.026451036956194631 0 0.050213801969304923 -0.026961295454244534 0 0.050293652274076485 -0.027531699476159899 0 0.050084837892509809 -0.027533532243574511 0 0.050084837892509809 -0.027533532243574511 0 0.050094830959804784 -0.027858793197673298 0 0.049966625068960352 -0.02760932750875468 0 0.049904620244773656 -0.027055609427634814 0 0.050084837892509809 -0.027533532243574511 0 0.049966625068960352 -0.02760932750875468 0 0.050084837892509809 -0.027533532243574511 0 0.050132441744041391 -0.027872259266500023 0 0.050094830959804784 -0.027858793197673298 0 0.050084837892509809 -0.027533532243574511 0 0.050132441744041391 -0.027872259266500023 0 0.050194921858583263 -0.027746364819925526 0 0.050293652274076485 -0.027531699476159899 0 0.050194921858583263 -0.027746364819925526 0 0.050295632409552135 -0.027858038182854858 0 0.050293652274076485 -0.027531699476159899 0 0.050084837892509809 -0.027533532243574511 0 0.050194921858583263 -0.027746364819925526 0 0.050132441744041391 -0.027872259266500023 0 0.050194921858583263 -0.027746364819925526 0 0.050188706134809746 -0.027894025955025995 0 0.05023161264072968 -0.027972633928931939 0 0.050134674302065918 -0.027988054179453645 0 0.050235665932355018 -0.028029353305180575 0 0.050188706134809746 -0.027894025955025995 0 0.05023161264072968 -0.027972633928931939 0 0.050134674302065918 -0.027988054179453645 0 0.050295632409552135 -0.027858038182854858 0 0.050188706134809746 -0.027894025955025995 0 0.05023161264072968 -0.027972633928931939 0 0.050194921858583263 -0.027746364819925526 0 0.050295632409552135 -0.027858038182854858 0 0.050188706134809746 -0.027894025955025995 0 0.050295632409552135 -0.027858038182854858 0 0.05023161264072968 -0.027972633928931939 0 0.050308169915264711 -0.027992164630781288 0 0.050132441744041391 -0.027872259266500023 0 0.050149302308010339 -0.028057288058813724 0 0.050094830959804784 -0.027858793197673298 0 0.050132441744041391 -0.027872259266500023 0 0.050134674302065918 -0.027988054179453645 0 0.050149302308010339 -0.028057288058813724 0 0.050132441744041391 -0.027872259266500023 0 0.050188706134809746 -0.027894025955025995 0 0.050134674302065918 -0.027988054179453645 0 0.050134674302065918 -0.027988054179453645 0 0.049992026899364043 -0.028260495615724249 0 0.050149302308010339 -0.028057288058813724 0 0.050134674302065918 -0.027988054179453645 0 0.050204033571769828 -0.028684307361105259 0 0.050654070815522041 -0.028820947446978256 0 0.050134674302065918 -0.027988054179453645 0 0.049992026899364043 -0.028260495615724249 0 0.050204033571769828 -0.028684307361105259 0 0.049992026899364043 -0.028260495615724249 0 0.050204033571769828 -0.028684307361105259 0 0.049795570077199265 -0.028876636106904992 0 0.050204033571769828 -0.028684307361105259 0 0.049795570077199265 -0.028876636106904992 0 0.050034229496053559 -0.029233830883719888 0 0.050204033571769828 -0.028684307361105259 0 0.050034229496053559 -0.029233830883719888 0 0.050463930173884307 -0.029270661200689472 0 0.050034229496053559 -0.029233830883719888 0 0.050463930173884307 -0.029270661200689472 0 0.050188393251887099 -0.029684277861097005 0 0.049795570077199265 -0.028876636106904992 0 0.050034229496053559 -0.029233830883719888 0 0.049504070305058365 -0.029350596552696225 0 0.050034229496053559 -0.029233830883719888 0 0.049800179615747661 -0.029722955295456037 0 0.049504070305058365 -0.029350596552696225 0 0.050463930173884307 -0.029270661200689472 0 0.050654070815522041 -0.028820947446978256 0 0.050750413009195847 -0.029694117995561292 0 0.050204033571769828 -0.028684307361105259 0 0.050463930173884307 -0.029270661200689472 0 0.050654070815522041 -0.028820947446978256 0 0.050094718494422007 -0.028019050460473083 0 0.050601096860572348 -0.028396906809235106 0 0.050231012968797721 -0.02810589707427831 0 0.050235665932355018 -0.028029353305180575 0 0.050281620340524059 -0.028088267807223306 0 0.050134674302065918 -0.027988054179453645 0 0.050231012968797721 -0.02810589707427831 0 0.050235665932355018 -0.028029353305180575 0 0.05023161264072968 -0.027972633928931939 0 0.050235665932355018 -0.028029353305180575 0 0.050308169915264711 -0.027992164630781288 0 0.050235665932355018 -0.028029353305180575 0 0.050308169915264711 -0.027992164630781288 0 0.050281620340524059 -0.028088267807223306 0 0.050308169915264711 -0.027992164630781288 0 0.050347869974322425 -0.028056524148893713 0 0.050281620340524059 -0.028088267807223306 0 0.037963298658335871 -0.028026423596827697 0 0.037191208149285615 -0.027254812757982014 0 0.037729649934268146 -0.027001435800474538 0 0.037963298658335871 -0.028026423596827697 0 0.037191208149285615 -0.027254812757982014 0 0.037147243197950194 -0.028285613112237928 0 0.050347869974322425 -0.028056524148893713 0 0.050281620340524059 -0.028088267807223306 0 0.050252716313908645 -0.028164469689219596 0 0.050814439210167324 -0.028569351734236352 0 0.046026024497907846 -0.028241807461483429 0 0.050231012968797721 -0.02810589707427831 0 0.050281620340524059 -0.028088267807223306 0 0.050304773897733863 -0.028202217815273715 0 0.050601096860572348 -0.028396906809235106 0 0.049644136728832652 -0.029659035917320723 0 0.050231012968797721 -0.02810589707427831 0 0.050304773897733863 -0.028202217815273715 0 0.050295774193544633 -0.028250026518425252 0 0.043552388730063271 -0.027688510955497837 0 0.046026024497907846 -0.028241807461483429 0 0.050654070815522041 -0.028820947446978256 0 0.051294308592564952 -0.029842972209304233 0 0.050750413009195847 -0.029694117995561292 0 0.045623557635512284 -0.029775032952270599 0 0.045640386682202924 -0.029412788582765921 0 0.045066545524951027 -0.028756397886570646 0 0.046026024497907846 -0.028241807461483429 0 0.049644136728832652 -0.029659035917320723 0 0.051294308592564952 -0.029842972209304233 0 0.050790852737139514 -0.030214365800747857 0 0.050750413009195847 -0.029694117995561292 0 0.037147243197950194 -0.028285613112237928 0 0.037730780878021439 -0.028617335197427627 0 0.037563985790326167 -0.029170319416233329 0 0.046026024497907846 -0.028241807461483429 0 0.042702968751054823 -0.029562970784635375 0 0.037963298658335871 -0.028026423596827697 0 0.037147243197950194 -0.028285613112237928 0 0.037730780878021439 -0.028617335197427627 0 0.049644136728832652 -0.029659035917320723 0 0.042702968751054823 -0.029562970784635375 0 0.04498339620326984 -0.030589444632549534 0 0.042702968751054823 -0.029562970784635375 0 0.051107288713412795 -0.031272276583394119 0 0.051163540927837939 -0.030755628622265881 0 0.050797283709740668 -0.030914900790827458 0 0.038194010098231944 -0.029036787264880438 0 0.037730780878021439 -0.028617335197427627 0 0.037563985790326167 -0.029170319416233329 0 0.037974747474596685 -0.029680426314380753 0 0.038194010098231944 -0.029036787264880438 0 0.037563985790326167 -0.029170319416233329 0 0.037726408585702337 -0.028577945668207455 0 0.042702968751054823 -0.029562970784635375 0 0.049644136728832652 -0.029659035917320723 0 0.050982336703558978 -0.030841312411239007 0 0.05080622604572569 -0.03029946102376008 0 0.051163540927837939 -0.030755628622265881 0 0.050797283709740668 -0.030914900790827458 0 0.051294308592564952 -0.029842972209304233 0 0.050790852737139514 -0.030214365800747857 0 0.051144083960684927 -0.030666181860486648 0 0.050790852737139514 -0.030214365800747857 0 0.051144083960684927 -0.030666181860486648 0 0.050647469488188011 -0.030889660478895624 0 0.050293449305902897 -0.03099106134283177 0 0.050647469488188011 -0.030889660478895624 0 0.050309572949471047 -0.030473645664576061 0 0.050790852737139514 -0.030214365800747857 0 0.050309572949471047 -0.030473645664576061 0 0.050412889335281867 -0.0299844766262615 0 0.050790852737139514 -0.030214365800747857 0 0.050647469488188011 -0.030889660478895624 0 0.050309572949471047 -0.030473645664576061 0 0.050309572949471047 -0.030473645664576061 0 0.049933802105453944 -0.030157286093253195 0 0.050412889335281867 -0.0299844766262615 0 0.050293449305902897 -0.03099106134283177 0 0.050309572949471047 -0.030473645664576061 0 0.049786242079328767 -0.030724654146234133 0 0.049786242079328767 -0.030724654146234133 0 0.049933802105453944 -0.030157286093253195 0 0.049309770997496796 -0.030199074619465045 0 0.050309572949471047 -0.030473645664576061 0 0.049786242079328767 -0.030724654146234133 0 0.049933802105453944 -0.030157286093253195 0 0.049933802105453944 -0.030157286093253195 0 0.049800179615747661 -0.029722955295456037 0 0.050188393251887099 -0.029684277861097005 0 0.049933802105453944 -0.030157286093253195 0 0.049800179615747661 -0.029722955295456037 0 0.049309770997496796 -0.030199074619465045 0 0.050034229496053559 -0.029233830883719888 0 0.049800179615747661 -0.029722955295456037 0 0.050188393251887099 -0.029684277861097005 0 0.050188393251887099 -0.029684277861097005 0 0.050508873881971374 -0.029683084053485336 0 0.050412889335281867 -0.0299844766262615 0 0.050463930173884307 -0.029270661200689472 0 0.050188393251887099 -0.029684277861097005 0 0.050508873881971374 -0.029683084053485336 0 0.050463930173884307 -0.029270661200689472 0 0.050508873881971374 -0.029683084053485336 0 0.050750413009195847 -0.029694117995561292 0 0.050508873881971374 -0.029683084053485336 0 0.050750413009195847 -0.029694117995561292 0 0.050412889335281867 -0.0299844766262615 0 0.050790852737139514 -0.030214365800747857 0 0.050750413009195847 -0.029694117995561292 0 0.050412889335281867 -0.0299844766262615 0 0.049933802105453944 -0.030157286093253195 0 0.050188393251887099 -0.029684277861097005 0 0.050412889335281867 -0.0299844766262615 0 0.048301589262324453 -0.03291166200151846 0 0.048553083890041746 -0.028499059195260461 0 0.0483838462666491 -0.030531960948715332 0 0.04779850128607821 -0.029823167352085653 0 0.04848190404946285 -0.02939790051992543 0 0.048982967186190725 -0.029686024473301462 0 0.048352820015010942 -0.030427216637432856 0 0.04848190404946285 -0.02939790051992543 0 0.048982967186190725 -0.029686024473301462 0 0.049309770997496796 -0.030199074619465045 0 0.049504070305058365 -0.029350596552696225 0 0.048982967186190725 -0.029686024473301462 0 0.049309770997496796 -0.030199074619465045 0 0.048352820015010942 -0.030427216637432856 0 0.049800179615747661 -0.029722955295456037 0 0.049309770997496796 -0.030199074619465045 0 0.049504070305058365 -0.029350596552696225 0 0.048956183751295616 -0.031140425665352505 0 0.049309770997496796 -0.030199074619465045 0 0.048352820015010942 -0.030427216637432856 0 0.048956183751295616 -0.031140425665352505 0 0.049786242079328767 -0.030724654146234133 0 0.049309770997496796 -0.030199074619465045 0 0.047639397453418011 -0.032932681437328554 0 0.048301589262324453 -0.03291166200151846 0 0.050689285478671429 -0.035897251829958253 0 0.050190547113490511 -0.035866591973305557 0 0.050564692171283988 -0.035025599978843434 0 0.051095179219171609 -0.035645759413016669 0 0.050689285478671429 -0.035897251829958253 0 0.050564692171283988 -0.035025599978843434 0 0.050881542777473428 -0.036405445643053286 0 0.051095179219171609 -0.035645759413016669 0 0.050689285478671429 -0.035897251829958253 0 0.050471660990345425 -0.036293892765729543 0 0.050689285478671429 -0.035897251829958253 0 0.050190547113490511 -0.035866591973305557 0 0.049466888576865743 -0.036155723236775954 0 0.050190547113490511 -0.035866591973305557 0 0.049754106234517065 -0.035266981459293648 0 0.050190547113490511 -0.035866591973305557 0 0.049754106234517065 -0.035266981459293648 0 0.050564692171283988 -0.035025599978843434 0 0.049754106234517065 -0.035266981459293648 0 0.050041540152078373 -0.034405654769593799 0 0.049157831154202608 -0.034685209935058491 0 0.049754106234517065 -0.035266981459293648 0 0.050564692171283988 -0.035025599978843434 0 0.050041540152078373 -0.034405654769593799 0 0.048301589262324453 -0.03291166200151846 0 0.049288758706376432 -0.032600670536110349 0 0.051254392213539911 -0.028563212264622426 0 0.051135917551448321 -0.028669662263650773 0 0.050592344101807345 -0.028127042457960261 0 0.04779850128607821 -0.029823167352085653 0 0.047252708244096324 -0.029166525633647838 0 0.04848190404946285 -0.02939790051992543 0 0.047252708244096324 -0.029166525633647838 0 0.048498817508639894 -0.028742682298673484 0 0.04848190404946285 -0.02939790051992543 0 0.050198093354048706 -0.030388815863996426 0 0.049357543956393947 -0.02824974272274423 0 0.049288758706376432 -0.032600670536110349 0 0.050198093354048706 -0.030388815863996426 0 0.0520626407281208 -0.029962714528263167 0 0.051472563512852565 -0.029285328881044362 0 0.051135297697257109 -0.030588741345183336 0 0.050198093354048706 -0.030388815863996426 0 0.051296869253290321 -0.029449356823252948 0 0.051254392213539911 -0.028563212264622426 0 0.051472563512852565 -0.029285328881044362 0 0.051135917551448321 -0.028669662263650773 0 0.051135917551448321 -0.028669662263650773 0 0.051027286884061641 -0.028471477303167021 0 0.051267824426118463 -0.028794149292125953 0 0.051472563512852565 -0.029285328881044362 0 0.051135917551448321 -0.028669662263650773 0 0.051267824426118463 -0.028794149292125953 0 0.051135917551448321 -0.028669662263650773 0 0.051027286884061641 -0.028471477303167021 0 0.050592344101807345 -0.028127042457960261 0 0.051027286884061641 -0.028471477303167021 0 0.050592344101807345 -0.028127042457960261 0 0.050665663536818027 -0.028246064301595888 0 0.050592344101807345 -0.028127042457960261 0 0.050308535325212761 -0.028173779547738944 0 0.050665663536818027 -0.028246064301595888 0 0.048498817508639894 -0.028742682298673484 0 0.04848190404946285 -0.02939790051992543 0 0.049196904942853441 -0.029073393764622917 0 0.048982967186190725 -0.029686024473301462 0 0.04848190404946285 -0.02939790051992543 0 0.049196904942853441 -0.029073393764622917 0 0.048982967186190725 -0.029686024473301462 0 0.049504070305058365 -0.029350596552696225 0 0.049196904942853441 -0.029073393764622917 0 0.049795570077199265 -0.028876636106904992 0 0.049504070305058365 -0.029350596552696225 0 0.049196904942853441 -0.029073393764622917 0 0.049992026899364043 -0.028260495615724249 0 0.049795570077199265 -0.028876636106904992 0 0.049196904942853441 -0.029073393764622917 0 0.050048619824986026 -0.028318089663435828 0 0.049357543956393947 -0.02824974272274423 0 0.049992026899364043 -0.028260495615724249 0 0.050592344101807345 -0.028127042457960261 0 0.050308535325212761 -0.028173779547738944 0 0.049992026899364043 -0.028260495615724249 0 0.048498817508639894 -0.028742682298673484 0 0.049196904942853441 -0.029073393764622917 0 0.049992026899364043 -0.028260495615724249 0 0.050308535325212761 -0.028173779547738944 0 0.050149302308010339 -0.028057288058813724 0 0.050149302308010339 -0.028057288058813724 0 0.050319184156052466 -0.028127730958062366 0 0.050094830959804784 -0.027858793197673298 0 0.050308535325212761 -0.028173779547738944 0 0.050149302308010339 -0.028057288058813724 0 0.050319184156052466 -0.028127730958062366 0 0.050308535325212761 -0.028173779547738944 0 0.050319184156052466 -0.028127730958062366 0 0.050665663536818027 -0.028246064301595888 0 0.050319184156052466 -0.028127730958062366 0 0.050665663536818027 -0.028246064301595888 0 0.050542681284632435 -0.028096526564690385 0 0.050319184156052466 -0.028127730958062366 0 0.05017915373578978 -0.027942743033107412 0 0.050542681284632435 -0.028096526564690385 0 0.05017915373578978 -0.027942743033107412 0 0.050542681284632435 -0.028096526564690385 0 0.050029762529630387 -0.027867463922643897 0 0.050319184156052466 -0.028127730958062366 0 0.05017915373578978 -0.027942743033107412 0 0.050094830959804784 -0.027858793197673298 0 0.05017915373578978 -0.027942743033107412 0 0.050094830959804784 -0.027858793197673298 0 0.049966625068960352 -0.02760932750875468 0 0.05017915373578978 -0.027942743033107412 0 0.049966625068960352 -0.02760932750875468 0 0.050029762529630387 -0.027867463922643897 0 0.049966625068960352 -0.02760932750875468 0 0.050029762529630387 -0.027867463922643897 0 0.049553990418524152 -0.026936912044894932 0 0.051749777007966707 -0.026326331234836783 0 0.051355198544554365 -0.025544677324801611 0 0.051095999028859834 -0.025440516562341156 0 0.050898310368456878 -0.027100027700432676 0 0.050307725647599236 -0.026210996845440378 0 0.049904620244773656 -0.027055609427634814 0 0.049966625068960352 -0.02760932750875468 0 0.049553990418524152 -0.026936912044894932 0 0.05104741247628606 -0.026207682408669195 0 0.050884613813940681 -0.025321630849484945 0 0.051355198544554365 -0.025544677324801611 0 0.051749777007966707 -0.026326331234836783 0 0.05104741247628606 -0.026207682408669195 0 0.051355198544554365 -0.025544677324801611 0 0.051749777007966707 -0.026326331234836783 0 0.05104741247628606 -0.026207682408669195 0 0.051161963998478978 -0.027236720481752359 0 0.051161963998478978 -0.027236720481752359 0 0.051237596588105894 -0.028133768416080999 0 0.051054377670557385 -0.028407726911314251 0 0.051749777007966707 -0.026326331234836783 0 0.051161963998478978 -0.027236720481752359 0 0.051237596588105894 -0.028133768416080999 0 0.050898310368456878 -0.027100027700432676 0 0.051158644918855946 -0.0279994376580564 0 0.050542681284632435 -0.028096526564690385 0 0.050029762529630387 -0.027867463922643897 0 0.051237596588105894 -0.028133768416080999 0 0.051027286884061641 -0.028471477303167021 0 0.050665663536818027 -0.028246064301595888 0 0.051237596588105894 -0.028133768416080999 0 0.050665663536818027 -0.028246064301595888 0 0.050542681284632435 -0.028096526564690385 0 0.051237596588105894 -0.028133768416080999 0 0.051027286884061641 -0.028471477303167021 0 0.051237596588105894 -0.028133768416080999 0 0.051267824426118463 -0.028794149292125953 0 0.051237596588105894 -0.028133768416080999 0 0.051267824426118463 -0.028794149292125953 0 0.051054377670557385 -0.028407726911314251 0 0.051267824426118463 -0.028794149292125953 0 0.051054377670557385 -0.028407726911314251 0 0.051197714926521184 -0.029260215694063986 0 0.051054377670557385 -0.028407726911314251 0 0.05123505882668699 -0.029280295228857924 0 0.051197714926521184 -0.029260215694063986 0 0.05123505882668699 -0.029280295228857924 0 0.051006583708457565 -0.030137684985715427 0 0.051197714926521184 -0.029260215694063986 0 0.051054377670557385 -0.028407726911314251 0 0.05123505882668699 -0.029280295228857924 0 0.051444419399769799 -0.028928423830508542 0 0.05123505882668699 -0.029280295228857924 0 0.051444419399769799 -0.028928423830508542 0 0.050960127203882828 -0.029490736454144219 0 0.051131822747556122 -0.028375417472312765 0 0.050953252696760445 -0.027912432846613142 0 0.051161963998478978 -0.027236720481752359 0 0.051054377670557385 -0.028407726911314251 0 0.05036922933014306 -0.026916457587559815 0 0.05104741247628606 -0.026207682408669195 0 0.05036922933014306 -0.026916457587559815 0 0.050588665110987648 -0.0258253922297111 0 0.05104741247628606 -0.026207682408669195 0 0.051161963998478978 -0.027236720481752359 0 0.05036922933014306 -0.026916457587559815 0 0.05036922933014306 -0.026916457587559815 0 0.050588665110987648 -0.0258253922297111 0 0.050277279066718313 -0.026157768210372172 0 0.050588665110987648 -0.0258253922297111 0 0.050664536398717951 -0.02498201713592894 0 0.050884613813940681 -0.025321630849484945 0 0.05104741247628606 -0.026207682408669195 0 0.050588665110987648 -0.0258253922297111 0 0.050884613813940681 -0.025321630849484945 0 0.050420943270417837 -0.025322241541461458 0 0.049999536778057935 -0.026151323014490236 0 0.049999369764061517 -0.024418427245672725 0 0.050420943270417837 -0.025322241541461458 0 0.049999536778057935 -0.026151323014490236 0 0.050277279066718313 -0.026157768210372172 0 0.050588665110987648 -0.0258253922297111 0 0.050420943270417837 -0.025322241541461458 0 0.050664536398717951 -0.02498201713592894 0 0.050588665110987648 -0.0258253922297111 0 0.050420943270417837 -0.025322241541461458 0 0.050277279066718313 -0.026157768210372172 0 0.050953252696760445 -0.027912432846613142 0 0.050651495946142835 -0.027028252412976208 0 0.049999809592737476 -0.026153928928286642 0 0.051173509480665048 -0.027908461456887867 0 0.049999651231891727 -0.028520574586264075 0 0.049999971085164713 -0.026153147673081426 0 0.050651495946142835 -0.027028252412976208 0 0.051173509480665048 -0.027908461456887867 0 0.049999651231891727 -0.028520574586264075 0 0.050960127203882828 -0.029490736454144219 0 0.051444419399769799 -0.028928423830508542 0 0.051173509480665048 -0.027908461456887867 0 0.050960127203882828 -0.029490736454144219 0 0.050960127203882828 -0.029490736454144219 0 0.050707702532714109 -0.030519748997665665 0 0.051006583708457565 -0.030137684985715427 0 0.05123505882668699 -0.029280295228857924 0 0.050960127203882828 -0.029490736454144219 0 0.051006583708457565 -0.030137684985715427 0 0.049999651231891727 -0.028520574586264075 0 0.050960127203882828 -0.029490736454144219 0 0.049999529001861748 -0.030886621625471518 0 0.050960127203882828 -0.029490736454144219 0 0.050707702532714109 -0.030519748997665665 0 0.049999529001861748 -0.030886621625471518 0 0.049999529001861748 -0.030886621625471518 0 0.0502293121944992 -0.032605685105909332 0 0.050000067146620107 -0.033252483340945618 0 0.049999529001861748 -0.030886621625471518 0 0.050430427671129985 -0.031383209767668424 0 0.0502293121944992 -0.032605685105909332 0 0.050707702532714109 -0.030519748997665665 0 0.049999529001861748 -0.030886621625471518 0 0.050430427671129985 -0.031383209767668424 0 0.050707702532714109 -0.030519748997665665 0 0.050430427671129985 -0.031383209767668424 0 0.050672009412459751 -0.031069691772771916 0 0.050430427671129985 -0.031383209767668424 0 0.050454324594013111 -0.031804893761927848 0 0.050672009412459751 -0.031069691772771916 0 0.050454324594013111 -0.031804893761927848 0 0.050547389675516398 -0.031456488376234083 0 0.050672009412459751 -0.031069691772771916 0 0.050430427671129985 -0.031383209767668424 0 0.050454324594013111 -0.031804893761927848 0 0.0502293121944992 -0.032605685105909332 0 0.050407283762554787 -0.031887671239800582 0 0.050483925874103254 -0.031531888764704585 0 0.050602396226679135 -0.03132015979385791 0 0.050484906174737734 -0.032136991299300685 0 0.049741565648526984 -0.034585609298576424 0 0.050454324594013111 -0.031804893761927848 0 0.0502293121944992 -0.032605685105909332 0 0.050407283762554787 -0.031887671239800582 0 0.0502293121944992 -0.032605685105909332 0 0.050000067146620107 -0.033252483340945618 0 0.050978407677899143 -0.035421284061276405 0 0.0502293121944992 -0.032605685105909332 0 0.050407283762554787 -0.031887671239800582 0 0.050602396226679135 -0.03132015979385791 0 0.050454324594013111 -0.031804893761927848 0 0.050407283762554787 -0.031887671239800582 0 0.050547389675516398 -0.031456488376234083 0 0.050483925874103254 -0.031531888764704585 0 0.050744832468590392 -0.030877202278519519 0 0.050627072916588314 -0.031353380277938686 0 0.050483925874103254 -0.031531888764704585 0 0.050547389675516398 -0.031456488376234083 0 0.050744832468590392 -0.030877202278519519 0 0.050407283762554787 -0.031887671239800582 0 0.050483925874103254 -0.031531888764704585 0 0.050547389675516398 -0.031456488376234083 0 0.050744832468590392 -0.030877202278519519 0 0.050672009412459751 -0.031069691772771916 0 0.051006583708457565 -0.030137684985715427 0 0.050547389675516398 -0.031456488376234083 0 0.050744832468590392 -0.030877202278519519 0 0.050672009412459751 -0.031069691772771916 0 0.050707702532714109 -0.030519748997665665 0 0.050672009412459751 -0.031069691772771916 0 0.051006583708457565 -0.030137684985715427 0 0.050744832468590392 -0.030877202278519519 0 0.051006583708457565 -0.030137684985715427 0 0.051084071937122486 -0.029998703159656241 0 0.051006583708457565 -0.030137684985715427 0 0.051084071937122486 -0.029998703159656241 0 0.051197714926521184 -0.029260215694063986 0 0.051472563512852565 -0.029285328881044362 0 0.051267824426118463 -0.028794149292125953 0 0.051197714926521184 -0.029260215694063986 0 0.051472563512852565 -0.029285328881044362 0 0.051084071937122486 -0.029998703159656241 0 0.051197714926521184 -0.029260215694063986 0 0.051472563512852565 -0.029285328881044362 0 0.051084071937122486 -0.029998703159656241 0 0.051135297697257109 -0.030588741345183336 0 0.050198093354048706 -0.030388815863996426 0 0.050242986661757374 -0.032781392102699793 0 0.050744832468590392 -0.030877202278519519 0 0.051084071937122486 -0.029998703159656241 0 0.051135297697257109 -0.030588741345183336 0 0.050744832468590392 -0.030877202278519519 0 0.051135297697257109 -0.030588741345183336 0 0.050627072916588314 -0.031353380277938686 0 0.049037803757902253 -0.03540842407625832 0 0.048537708494394004 -0.035979685506698889 0 0.04827875078090664 -0.034958106482716009 0 0.050242986661757374 -0.032781392102699793 0 0.049326079049387017 -0.033030591029913403 0 0.049157831154202608 -0.034685209935058491 0 0.049037803757902253 -0.03540842407625832 0 0.04827875078090664 -0.034958106482716009 0 0.049754106234517065 -0.035266981459293648 0 0.049157831154202608 -0.034685209935058491 0 0.049037803757902253 -0.03540842407625832 0 0.049466888576865743 -0.036155723236775954 0 0.049754106234517065 -0.035266981459293648 0 0.049037803757902253 -0.03540842407625832 0 0.049466888576865743 -0.036155723236775954 0 0.049037803757902253 -0.03540842407625832 0 0.048537708494394004 -0.035979685506698889 0 0.048537708494394004 -0.035979685506698889 0 0.047971831480318021 -0.03559270411447716 0 0.04827875078090664 -0.034958106482716009 0 0.047671443231145638 -0.036224856274067053 0 0.048537708494394004 -0.035979685506698889 0 0.047971831480318021 -0.03559270411447716 0 0.047671443231145638 -0.036224856274067053 0 0.047971831480318021 -0.03559270411447716 0 0.047400650775859483 -0.035219053347907717 0 0.049999984392948053 -0.037931800278381556 0 0.051611168464439083 -0.037674188936517534 0 0.050643865944667646 -0.036728911131707738 0 0.051611168464439083 -0.037674188936517534 0 0.050643865944667646 -0.036728911131707738 0 0.050939625243169279 -0.035354325660220814 0 0.049613881353931952 -0.037110536110696091 0 0.049741565648526984 -0.034585609298576424 0 0.049999984392948053 -0.037931800278381556 0 0.050643865944667646 -0.036728911131707738 0 0.049999980378032487 -0.035622065381735207 0 0.050000067146620107 -0.033252483340945618 0 0.050978407677899143 -0.035421284061276405 0 0.050000003472367584 -0.035623440952996001 0 0.049741565648526984 -0.034585609298576424 0 0.050000444918428061 -0.035621182986762784 0 0.050643865944667646 -0.036728911131707738 0 0.050939625243169279 -0.035354325660220814 0 0.049999980378032487 -0.035622065381735207 0 0.049741565648526984 -0.034585609298576424 0 0.049326079049387017 -0.033030591029913403 0 0.050483925874103254 -0.031531888764704585 0 0.050602396226679135 -0.03132015979385791 0 0.050627072916588314 -0.031353380277938686 0 0.047971831480318021 -0.03559270411447716 0 0.047400650775859483 -0.035219053347907717 0 0.04827875078090664 -0.034958106482716009 0 0.051712376248709689 -0.015415113796693468 0 0.051938588472198705 -0.013664142494615155 0 0.053509988623108677 -0.01479362859968596 0 0.051749680414662803 -0.015518141364923681 0 0.052998877758499506 -0.012952954115578438 0 0.051712376248709689 -0.015415113796693468 0 0.049999733068964235 -0.013140354790392652 0 0.051938588472198705 -0.013664142494615155 0 0.051712376248709689 -0.015415113796693468 0 0.049999733068964235 -0.013140354790392652 0 0.050000040736515164 -0.016089977213631597 0 0.049999733068964235 -0.013140354790392652 0 0.051938588472198705 -0.013664142494615155 0 0.051428790355885864 -0.012101516864255585 0 0.051938588472198705 -0.013664142494615155 0 0.053174427935350294 -0.012824848931532894 0 0.051428790355885864 -0.012101516864255585 0 0.051938588472198705 -0.013664142494615155 0 0.053174427935350294 -0.012824848931532894 0 0.053509988623108677 -0.01479362859968596 0 0.052889560887517777 -0.011600376363758734 0 0.052998877758499506 -0.012952954115578438 0 0.052669380827389777 -0.010509671706891727 0 0.052814044035731637 -0.010431111251542819 0 0.052631562690930549 -0.010540413973614141 0 0.052814044035731637 -0.010431111251542819 0 0.052809943424544842 -0.01051979007638419 0 0.052631562690930549 -0.010540413973614141 0 0.052814044035731637 -0.010431111251542819 0 0.052809943424544842 -0.01051979007638419 0 0.05287036723550418 -0.010451126349821625 0 0.052809943424544842 -0.01051979007638419 0 0.052921092303306994 -0.010674781752643209 0 0.05287036723550418 -0.010451126349821625 0 0.052809943424544842 -0.01051979007638419 0 0.052635994307808714 -0.010765152401178328 0 0.052631562690930549 -0.010540413973614141 0 0.052809943424544842 -0.01051979007638419 0 0.052635994307808714 -0.010765152401178328 0 0.052921092303306994 -0.010674781752643209 0 0.052669380827389777 -0.010509671706891727 0 0.052631562690930549 -0.010540413973614141 0 0.052635624715269148 -0.010546562492717676 0 0.052919811428370822 -0.011545030434625004 0 0.052998877758499506 -0.012952954115578438 0 0.052635994307808714 -0.010765152401178328 0 0.052631562690930549 -0.010540413973614141 0 0.052296519698572852 -0.010595962900089356 0 0.052635994307808714 -0.010765152401178328 0 0.052296519698572852 -0.010595962900089356 0 0.052230268713857539 -0.011326706564370601 0 0.052998877758499506 -0.012952954115578438 0 0.053116822304146938 -0.013470882972085731 0 0.051778626631680744 -0.015488687083057874 0 0.053565819171917446 -0.014873817058049268 0 0.053922687655023477 -0.017030917606660121 0 0.052635994307808714 -0.010765152401178328 0 0.052921092303306994 -0.010674781752643209 0 0.052776278506526955 -0.011160654863287069 0 0.052635994307808714 -0.010765152401178328 0 0.052230268713857539 -0.011326706564370601 0 0.052776278506526955 -0.011160654863287069 0 0.051980605815980005 -0.02246997191996036 0 0.050617297147929202 -0.023818199593467468 0 0.051452328715438637 -0.023618786417746538 0 0.052230268713857539 -0.011326706564370601 0 0.052970616617330532 -0.011700697276414818 0 0.052323401121638802 -0.012310904221582358 0 0.052230268713857539 -0.011326706564370601 0 0.052776278506526955 -0.011160654863287069 0 0.052970616617330532 -0.011700697276414818 0 0.052536142612742497 -0.017137933567763979 0 0.05176301474245136 -0.019442695457315456 0 0.051980605815980005 -0.02246997191996036 0 0.051452328715438637 -0.023618786417746538 0 0.052377997865923037 -0.023519750016373214 0 0.053922687655023477 -0.017030917606660121 0 0.05193905065018032 -0.018838170251747 0 0.054275039730356453 -0.019202664866603839 0 0.053116822304146938 -0.013470882972085731 0 0.05176301474245136 -0.019442695457315456 0 0.053922687655023477 -0.017030917606660121 0 0.051527128659673557 -0.017146765211230573 0 0.05193905065018032 -0.018838170251747 0 0.051778626631680744 -0.015488687083057874 0 0.053922687655023477 -0.017030917606660121 0 0.051527128659673557 -0.017146765211230573 0 0.051778626631680744 -0.015488687083057874 0 0.051527128659673557 -0.017146765211230573 0 0.049999981533455813 -0.016090074944460554 0 0.051749680414662803 -0.015518141364923681 0 0.050000445147580799 -0.016089872650619896 0 0.051527128659673557 -0.017146765211230573 0 0.049999981533455813 -0.016090074944460554 0 0.049999985126248134 -0.01828807831164812 0 0.051527128659673557 -0.017146765211230573 0 0.049999985126248134 -0.01828807831164812 0 0.05193905065018032 -0.018838170251747 0 0.05193905065018032 -0.018838170251747 0 0.052136491698671149 -0.020945294713465751 0 0.049999979299784975 -0.020486131256479152 0 0.049999985126248134 -0.01828807831164812 0 0.05193905065018032 -0.018838170251747 0 0.049999979299784975 -0.020486131256479152 0 0.05193905065018032 -0.018838170251747 0 0.052136491698671149 -0.020945294713465751 0 0.054275039730356453 -0.019202664866603839 0 0.052136491698671149 -0.020945294713465751 0 0.049999979299784975 -0.020486131256479152 0 0.049999998201824568 -0.022684152518270377 0 0.051335771697969053 -0.022813603699613185 0 0.050000260708515265 -0.022684103914139976 0 0.050593070850595029 -0.024002099443785316 0 0.050000097755323894 -0.022688463432755483 0 0.050512937032246394 -0.024092472745280372 0 0.050593070850595029 -0.024002099443785316 0 0.050512937032246394 -0.024092472745280372 0 0.050720487535022292 -0.024567021725959804 0 0.050420943270417837 -0.025322241541461458 0 0.050512937032246394 -0.024092472745280372 0 0.050664536398717951 -0.02498201713592894 0 0.050512937032246394 -0.024092472745280372 0 0.050664536398717951 -0.02498201713592894 0 0.050720487535022292 -0.024567021725959804 0 0.050000097755323894 -0.022688463432755483 0 0.050512937032246394 -0.024092472745280372 0 0.049999369764061517 -0.024418427245672725 0 0.050420943270417837 -0.025322241541461458 0 0.050512937032246394 -0.024092472745280372 0 0.049999369764061517 -0.024418427245672725 0 0.050884613813940681 -0.025321630849484945 0 0.050720487535022292 -0.024567021725959804 0 0.051004188650029508 -0.024877926943851974 0 0.050664536398717951 -0.02498201713592894 0 0.050884613813940681 -0.025321630849484945 0 0.050720487535022292 -0.024567021725959804 0 0.050720487535022292 -0.024567021725959804 0 0.051004188650029508 -0.024877926943851974 0 0.050798332311356956 -0.02440959673012116 0 0.051004188650029508 -0.024877926943851974 0 0.05090211191216875 -0.024561164569949764 0 0.050798332311356956 -0.02440959673012116 0 0.051004188650029508 -0.024877926943851974 0 0.05090211191216875 -0.024561164569949764 0 0.050814727465787225 -0.024649606485196814 0 0.05090211191216875 -0.024561164569949764 0 0.050798332311356956 -0.02440959673012116 0 0.050950342347295549 -0.024433139936517686 0 0.05090211191216875 -0.024561164569949764 0 0.05087697153121095 -0.024671253997501023 0 0.050950342347295549 -0.024433139936517686 0 0.05090211191216875 -0.024561164569949764 0 0.05087697153121095 -0.024671253997501023 0 0.050814727465787225 -0.024649606485196814 0 0.050593070850595029 -0.024002099443785316 0 0.050798332311356956 -0.02440959673012116 0 0.050766213112768604 -0.024281884318279531 0 0.050593070850595029 -0.024002099443785316 0 0.050720487535022292 -0.024567021725959804 0 0.050798332311356956 -0.02440959673012116 0 0.050798332311356956 -0.02440959673012116 0 0.050766213112768604 -0.024281884318279531 0 0.050950342347295549 -0.024433139936517686 0 0.050593070850595029 -0.024002099443785316 0 0.050766213112768604 -0.024281884318279531 0 0.05077693308536161 -0.024285369331407399 0 0.051335771697969053 -0.022813603699613185 0 0.05176301474245136 -0.019442695457315456 0 0.050766213112768604 -0.024281884318279531 0 0.050617297147929202 -0.023818199593467468 0 0.050950342347295549 -0.024433139936517686 0 0.051820032098231765 -0.022433652443898781 0 0.05176301474245136 -0.019442695457315456 0 0.05087697153121095 -0.024671253997501023 0 0.050950342347295549 -0.024433139936517686 0 0.050868352655140815 -0.02500159665318992 0 0.050617297147929202 -0.023818199593467468 0 0.050950342347295549 -0.024433139936517686 0 0.051452328715438637 -0.023618786417746538 0 0.05098082635035097 -0.024491464265234197 0 0.051690827449281711 -0.024206443261795323 0 0.050950342347295549 -0.024433139936517686 0 0.051452328715438637 -0.023618786417746538 0 0.052377997865923037 -0.023519750016373214 0 0.050868352655140815 -0.02500159665318992 0 0.050690911340652366 -0.024899672048009681 0 0.050649735369137375 -0.025195838684501416 0 0.050690911340652366 -0.024899672048009681 0 0.050443978558928126 -0.025177869325268262 0 0.050649735369137375 -0.025195838684501416 0 0.05087697153121095 -0.024671253997501023 0 0.050868352655140815 -0.02500159665318992 0 0.050690911340652366 -0.024899672048009681 0 0.050690911340652366 -0.024899672048009681 0 0.050443978558928126 -0.025177869325268262 0 0.050444938441395699 -0.024848061250665399 0 0.050131627857175468 -0.02515024434622895 0 0.050443978558928126 -0.025177869325268262 0 0.050444938441395699 -0.024848061250665399 0 0.050131627857175468 -0.02515024434622895 0 0.050444938441395699 -0.024848061250665399 0 0.050005454119236972 -0.024831277315936203 0 0.050444938441395699 -0.024848061250665399 0 0.050457928814401566 -0.024417018830611106 0 0.050005454119236972 -0.024831277315936203 0 0.050444938441395699 -0.024848061250665399 0 0.050814727465787225 -0.024649606485196814 0 0.050457928814401566 -0.024417018830611106 0 0.05087697153121095 -0.024671253997501023 0 0.050690911340652366 -0.024899672048009681 0 0.050814727465787225 -0.024649606485196814 0 0.050690911340652366 -0.024899672048009681 0 0.050444938441395699 -0.024848061250665399 0 0.050814727465787225 -0.024649606485196814 0 0.051004188650029508 -0.024877926943851974 0 0.050814727465787225 -0.024649606485196814 0 0.050457928814401566 -0.024417018830611106 0 0.051004188650029508 -0.024877926943851974 0 0.051283313975911488 -0.025538734025340768 0 0.051355198544554365 -0.025544677324801611 0 0.050884613813940681 -0.025321630849484945 0 0.051004188650029508 -0.024877926943851974 0 0.051355198544554365 -0.025544677324801611 0 0.050947435386476198 -0.024901705555246685 0 0.050802555567654256 -0.025007327872288876 0 0.051283313975911488 -0.025538734025340768 0 0.051355198544554365 -0.025544677324801611 0 0.050926369788821979 -0.025598000924770804 0 0.049904620244773656 -0.027055609427634814 0 0.049553990418524152 -0.026936912044894932 0 0.049771671808802785 -0.026419118313925852 0 0.050307725647599236 -0.026210996845440378 0 0.049748111635825612 -0.025880590426059523 0 0.049553990418524152 -0.026936912044894932 0 0.049651703013706812 -0.025797084995064234 0 0.049771671808802785 -0.026419118313925852 0 0.051095999028859834 -0.025440516562341156 0 0.050926369788821979 -0.025598000924770804 0 0.049651703013706812 -0.025797084995064234 0 0.051355198544554365 -0.025544677324801611 0 0.051095999028859834 -0.025440516562341156 0 0.050926369788821979 -0.025598000924770804 0 0.051283313975911488 -0.025538734025340768 0 0.050926369788821979 -0.025598000924770804 0 0.050336981899544643 -0.026180066554313604 0 0.050802555567654256 -0.025007327872288876 0 0.049874486199175769 -0.02533505531615934 0 0.050336981899544643 -0.026180066554313604 0 0.049469805728530651 -0.025719012672402848 0 0.049651703013706812 -0.025797084995064234 0 0.050926369788821979 -0.025598000924770804 0 0.050336981899544643 -0.026180066554313604 0 0.049651703013706812 -0.025797084995064234 0 0.049382137406512705 -0.024595064304169592 0 0.049572857994379688 -0.025381438197828406 0 0.048785053475328674 -0.025101024288900254 0 0.049382137406512705 -0.024595064304169592 0 0.050005454119236972 -0.024831277315936203 0 0.049572857994379688 -0.025381438197828406 0 0.050457928814401566 -0.024417018830611106 0 0.049382137406512705 -0.024595064304169592 0 0.050005454119236972 -0.024831277315936203 0 0.050131627857175468 -0.02515024434622895 0 0.050005454119236972 -0.024831277315936203 0 0.049572857994379688 -0.025381438197828406 0 0.049577618991050405 -0.026010704210116947 0 0.048685739683090694 -0.024971465519690077 0 0.049243161717343539 -0.025789896280489562 0 0.048755344350471762 -0.025719316923129395 0 0.048785053475328674 -0.025101024288900254 0 0.049243161717343539 -0.025789896280489562 0 0.048974564091642636 -0.02638141500646984 0 0.048755344350471762 -0.025719316923129395 0 0.048974564091642636 -0.02638141500646984 0 0.049034893897358732 -0.026801628395355274 0 0.049465369986999512 -0.026590741104352292 0 0.043333476823637612 -0.018239746125290682 0 0.044127258022232385 -0.025033379804586767 0 0.048974564091642636 -0.02638141500646984 0 0.049034893897358732 -0.026801628395355274 0 0.04813992333693954 -0.026945113065676072 0 0.047862849580662163 -0.016066161886806773 0 0.048234598799417668 -0.017188402739950936 0 0.046538131401942504 -0.017837404296527269 0 0.045728433981411659 -0.011533958864213352 0 0.045143432353409799 -0.017827264808469318 0 0.040166972484559846 -0.010397423876956653 0 0.040231604464702392 -0.010397773059747456 0 0.040210499222472065 -0.010627164367326032 0 0.040231604464702392 -0.010397773059747456 0 0.04028467717364697 -0.010381379937344292 0 0.040210499222472065 -0.010627164367326032 0 0.04043865583248013 -0.010473868753178165 0 0.04028467717364697 -0.010381379937344292 0 0.040210499222472065 -0.010627164367326032 0 0.043333476823637612 -0.018239746125290682 0 0.045143432353409799 -0.017827264808469318 0 0.040190359386914717 -0.010303026574101025 0 0.04028467717364697 -0.010381379937344292 0 0.040189915196602734 -0.010379272746436697 0 0.043333476823637612 -0.018239746125290682 0 0.039870027041229515 -0.014601983370695137 0 0.045143432353409799 -0.017827264808469318 0 0.049890636591084128 -0.023122538633699279 0 0.049243161717343539 -0.025789896280489562 0 0.049465369986999512 -0.026590741104352292 0 0.049900505198032623 -0.026301304000675953 0 0.049243161717343539 -0.025789896280489562 0 0.048974564091642636 -0.02638141500646984 0 0.049465369986999512 -0.026590741104352292 0 0.050131627857175468 -0.02515024434622895 0 0.049572857994379688 -0.025381438197828406 0 0.05025329503678528 -0.025644045694344593 0 0.049577618991050405 -0.026010704210116947 0 0.049890636591084128 -0.023122538633699279 0 0.050131627857175468 -0.02515024434622895 0 0.050443978558928126 -0.025177869325268262 0 0.05025329503678528 -0.025644045694344593 0 0.050443978558928126 -0.025177869325268262 0 0.05051731434452781 -0.025444580184260834 0 0.050649735369137375 -0.025195838684501416 0 0.050443978558928126 -0.025177869325268262 0 0.05051731434452781 -0.025444580184260834 0 0.05025329503678528 -0.025644045694344593 0 0.05112619464810543 -0.023582901542739666 0 0.050245605445759102 -0.019790588813294888 0 0.05112619464810543 -0.023582901542739666 0 0.049890636591084128 -0.023122538633699279 0 0.050809132785385833 -0.022732426999739038 0 0.050653595030346735 -0.022916358709551488 0 0.050577736223760036 -0.022865694751187073 0 0.053827117376834162 -0.022555798656757615 0 0.054413284676822792 -0.021778061330694185 0 0.053320949946221503 -0.022113079211364715 0 0.050245605445759102 -0.019790588813294888 0 0.049890636591084128 -0.023122538633699279 0 0.052536142612742497 -0.017137933567763979 0 0.052483456515860595 -0.013847128065769808 0 0.051980605815980005 -0.02246997191996036 0 0.053320949946221503 -0.022113079211364715 0 0.053520665295776738 -0.02113977044698654 0 0.051980605815980005 -0.02246997191996036 0 0.052377997865923037 -0.023519750016373214 0 0.052864043536368942 -0.022625791603783377 0 0.050868352655140815 -0.02500159665318992 0 0.050551015658535474 -0.025413272972909535 0 0.050649735369137375 -0.025195838684501416 0 0.052377997865923037 -0.023519750016373214 0 0.053827117376834162 -0.022555798656757615 0 0.052864043536368942 -0.022625791603783377 0 0.051690827449281711 -0.024206443261795323 0 0.05112619464810543 -0.023582901542739666 0 0.05112619464810543 -0.023582901542739666 0 0.050385594003057754 -0.024998899528739026 0 0.053827117376834162 -0.022555798656757615 0 0.052864043536368942 -0.022625791603783377 0 0.053320949946221503 -0.022113079211364715 0 0.051980605815980005 -0.02246997191996036 0 0.052864043536368942 -0.022625791603783377 0 0.053320949946221503 -0.022113079211364715 0 0.052776278506526955 -0.011160654863287069 0 0.052970616617330532 -0.011700697276414818 0 0.0535895537632139 -0.011156446299426505 0 0.052921092303306994 -0.010674781752643209 0 0.052866852545657789 -0.010544700842482935 0 0.052861222209022722 -0.010494506989275711 0 0.052921092303306994 -0.010674781752643209 0 0.052776278506526955 -0.011160654863287069 0 0.0535895537632139 -0.011156446299426505 0 0.052693408358895466 -0.010383101695087108 0 0.052483456515860595 -0.013847128065769808 0 0.052483456515860595 -0.013847128065769808 0 0.046693128594874608 -0.0078221837290701427 0 0.049602360560089036 -0.012979460113109466 0 0.048524246176146334 -0.013491631464736573 0 0.049490330969344361 -0.012641161458687614 0 0.045728433981411659 -0.011533958864213352 0 0.050245605445759102 -0.019790588813294888 0 0.049602360560089036 -0.012979460113109466 0 0.048997222700706576 -0.013832915714928475 0 0.048524246176146334 -0.013491631464736573 0 0.048234598799417668 -0.017188402739950936 0 0.046538131401942504 -0.017837404296527269 0 0.046874742252758964 -0.018071957575613886 0 0.050245605445759102 -0.019790588813294888 0 0.052483456515860595 -0.013847128065769808 0 0.054413284676822792 -0.021778061330694185 0 0.053320949946221503 -0.022113079211364715 0 0.053520665295776738 -0.02113977044698654 0 0.052861222209022722 -0.010494506989275711 0 0.05283002212662509 -0.010374369401782609 0 0.05287036723550418 -0.010451126349821625 0 0.052866852545657789 -0.010544700842482935 0 0.052861222209022722 -0.010494506989275711 0 0.052840755143832296 -0.010440493758107659 0 0.052861222209022722 -0.010494506989275711 0 0.05283002212662509 -0.010374369401782609 0 0.052840755143832296 -0.010440493758107659 0 0.052921092303306994 -0.010674781752643209 0 0.052861222209022722 -0.010494506989275711 0 0.05287036723550418 -0.010451126349821625 0 0.052814044035731637 -0.010431111251542819 0 0.05287036723550418 -0.010451126349821625 0 0.05289787189273782 -0.010267303904024454 0 0.040545476803380727 0.0070525701021624202 0 0.040403531848712704 0.0062167735097394513 0 0.041283304804803307 0.005559250269517332 0 0.046071614682205421 -0.0023331752306807577 0 0.050657458862661632 -0.0072135361570216123 0 0.046071614682205421 -0.0023331752306807577 0 0.043566626454235528 0.0026618251035496004 0 0.05283002212662509 -0.010374369401782609 0 0.05287036723550418 -0.010451126349821625 0 0.05289787189273782 -0.010267303904024454 0 0.046817409114135698 -0.0022563867651782233 0 0.046705477722664653 -0.0023250393502726404 0 0.046729538903435716 -0.0023959427023121076 0 0.040403531848712704 0.0062167735097394513 0 0.039952923700403355 0.0063739482062742372 0 0.040120443878485394 0.0067166319909414823 0 0.040403531848712704 0.0062167735097394513 0 0.039952923700403355 0.0063739482062742372 0 0.039903548086037591 0.005841951989817502 0 0.040545476803380727 0.0070525701021624202 0 0.040403531848712704 0.0062167735097394513 0 0.040120443878485394 0.0067166319909414823 0 0.039952923700403355 0.0063739482062742372 0 0.040120443878485394 0.0067166319909414823 0 0.039779476261242799 0.0066330536544296744 0 0.040120443878485394 0.0067166319909414823 0 0.039883620709075182 0.0069392145038801771 0 0.039779476261242799 0.0066330536544296744 0 0.040120443878485394 0.0067166319909414823 0 0.039883620709075182 0.0069392145038801771 0 0.040198026322713305 0.0070524724576536942 0 0.040545476803380727 0.0070525701021624202 0 0.040120443878485394 0.0067166319909414823 0 0.040198026322713305 0.0070524724576536942 0 0.039480975030703969 0.0067906482450985559 0 0.038987292484085424 0.0068077308662519778 0 0.040167667938894112 0.00746941869969196 0 0.039883620709075182 0.0069392145038801771 0 0.039779476261242799 0.0066330536544296744 0 0.039480975030703969 0.0067906482450985559 0 0.039779476261242799 0.0066330536544296744 0 0.039480975030703969 0.0067906482450985559 0 0.03944739197946464 0.0063292328155544206 0 0.039952923700403355 0.0063739482062742372 0 0.03944739197946464 0.0063292328155544206 0 0.039903548086037591 0.005841951989817502 0 0.039480975030703969 0.0067906482450985559 0 0.03944739197946464 0.0063292328155544206 0 0.039109232261722124 0.0065421497146717755 0 0.039952923700403355 0.0063739482062742372 0 0.039779476261242799 0.0066330536544296744 0 0.03944739197946464 0.0063292328155544206 0 0.039109232261722124 0.0065421497146717755 0 0.038778172448805902 0.0066369363781807883 0 0.038771630899412879 0.0060374384661701806 0 0.03944739197946464 0.0063292328155544206 0 0.039109232261722124 0.0065421497146717755 0 0.038771630899412879 0.0060374384661701806 0 0.039979672235033507 -0.010651652255599013 0 0.039925092351281118 -0.010545806719036641 0 0.040064386140433561 -0.010552358564302436 0 0.038324311165138021 0.0062565674620310065 0 0.038778172448805902 0.0066369363781807883 0 0.038771630899412879 0.0060374384661701806 0 0.037689215332656525 6.3686250838152129e-05 0 0.039457377134245915 -0.001968349641141641 0 0.039925092351281118 -0.010545806719036641 0 0.040064386140433561 -0.010552358564302436 0 0.040026302596725294 -0.010474319105811475 0 0.039925092351281118 -0.010545806719036641 0 0.039954672691032547 -0.010450277192945577 0 0.040026302596725294 -0.010474319105811475 0 0.040064386140433561 -0.010552358564302436 0 0.040100522468490628 -0.010523503228922051 0 0.040208396579566423 -0.010405183855372337 0 0.040064386140433561 -0.010552358564302436 0 0.040119019788556504 -0.01044015153690751 0 0.040026302596725294 -0.010474319105811475 0 0.039480975030703969 0.0067906482450985559 0 0.039109232261722124 0.0065421497146717755 0 0.038987292484085424 0.0068077308662519778 0 0.039457377134245915 -0.001968349641141641 0 0.040392404168505584 -0.0025259115788911243 0 0.039109232261722124 0.0065421497146717755 0 0.038778172448805902 0.0066369363781807883 0 0.038987292484085424 0.0068077308662519778 0 0.040064386140433561 -0.010552358564302436 0 0.040119019788556504 -0.01044015153690751 0 0.040208396579566423 -0.010405183855372337 0 0.040119019788556504 -0.01044015153690751 0 0.040047343516198632 -0.010402093620802412 0 0.040189915196602734 -0.010379272746436697 0 0.040190359386914717 -0.010303026574101025 0 0.040047343516198632 -0.010402093620802412 0 0.039760628974592836 -0.010377772745337703 0 0.043333476823637612 -0.018239746125290682 0 0.038954299993138999 -0.016345500554443712 0 0.040119019788556504 -0.01044015153690751 0 0.040026302596725294 -0.010474319105811475 0 0.040047343516198632 -0.010402093620802412 0 0.040119019788556504 -0.01044015153690751 0 0.040189915196602734 -0.010379272746436697 0 0.040208396579566423 -0.010405183855372337 0 0.039954672691032547 -0.010450277192945577 0 0.040047343516198632 -0.010402093620802412 0 0.039760628974592836 -0.010377772745337703 0 0.039954672691032547 -0.010450277192945577 0 0.040026302596725294 -0.010474319105811475 0 0.040047343516198632 -0.010402093620802412 0 0.040190359386914717 -0.010303026574101025 0 0.040047343516198632 -0.010402093620802412 0 0.040189915196602734 -0.010379272746436697 0 0.041870287989146548 -0.0042106521250041854 0 0.041754164836864782 -0.0044309612163343755 0 0.041716084117639413 -0.0043862674079403006 0 0.040392404168505584 -0.0025259115788911243 0 0.042676090064966116 -0.0086277102073765086 0 0.04028467717364697 -0.010381379937344292 0 0.040189915196602734 -0.010379272746436697 0 0.040239784858304511 -0.010373451768326835 0 0.040100522468490628 -0.010523503228922051 0 0.040286433653330601 -0.010370868622008051 0 0.040208396579566423 -0.010405183855372337 0 0.040189915196602734 -0.010379272746436697 0 0.040239784858304511 -0.010373451768326835 0 0.040208396579566423 -0.010405183855372337 0 0.040239784858304511 -0.010373451768326835 0 0.040248067465527962 -0.01037568268531815 0 0.040208396579566423 -0.010405183855372337 0 0.040248067465527962 -0.01037568268531815 0 0.040286433653330601 -0.010370868622008051 0 0.040208396579566423 -0.010405183855372337 0 0.040248067465527962 -0.01037568268531815 0 0.040256265683834475 -0.010357654126993993 0 0.040286433653330601 -0.010370868622008051 0 0.04028467717364697 -0.010381379937344292 0 0.040239784858304511 -0.010373451768326835 0 0.040256265683834475 -0.010357654126993993 0 0.042541641756074854 -0.0086702905311770023 0 0.042676090064966116 -0.0086277102073765086 0 0.040231604464702392 -0.010397773059747456 0 0.04028467717364697 -0.010381379937344292 0 0.040256265683834475 -0.010357654126993993 0 0.040231604464702392 -0.010397773059747456 0 0.040256265683834475 -0.010357654126993993 0 0.040241070493924176 -0.010335356858752875 0 0.040239784858304511 -0.010373451768326835 0 0.040248067465527962 -0.01037568268531815 0 0.040256265683834475 -0.010357654126993993 0 0.040166972484559846 -0.010397423876956653 0 0.040231604464702392 -0.010397773059747456 0 0.040241070493924176 -0.010335356858752875 0 0.04448803453314306 -0.0091387792146957417 0 0.044947568894821301 -0.0085378720418065879 0 0.044588234039340112 -0.0085215191304954287 0 0.045728433981411659 -0.011533958864213352 0 0.042676090064966116 -0.0086277102073765086 0 0.04448803453314306 -0.0091387792146957417 0 0.044251064362079713 -0.0084222242042151802 0 0.044588234039340112 -0.0085215191304954287 0 0.045728433981411659 -0.011533958864213352 0 0.046693128594874608 -0.0078221837290701427 0 0.046693128594874608 -0.0078221837290701427 0 0.043360165312923263 -0.0037802437351951408 0 0.044251064362079713 -0.0084222242042151802 0 0.044588234039340112 -0.0085215191304954287 0 0.044587800191043192 -0.0081474944881470054 0 0.044947568894821301 -0.0085378720418065879 0 0.044588234039340112 -0.0085215191304954287 0 0.044587800191043192 -0.0081474944881470054 0 0.042676090064966116 -0.0086277102073765086 0 0.043360165312923263 -0.0037802437351951408 0 0.043806675432183993 -0.0013325957546433574 0 0.044717441413581825 -0.0040969888576586145 0 0.045661873975501019 -0.0033331309023118382 0 0.046071614682205421 -0.0023331752306807577 0 0.046693128594874608 -0.0078221837290701427 0 0.039883620709075182 0.0069392145038801771 0 0.040167667938894112 0.00746941869969196 0 0.040198026322713305 0.0070524724576536942 0 0.046071614682205421 -0.0023331752306807577 0 0.043360165312923263 -0.0037802437351951408 0 0.040545476803380727 0.0070525701021624202 0 0.040167667938894112 0.00746941869969196 0 0.040198026322713305 0.0070524724576536942 0 0.040392404168505584 -0.0025259115788911243 0 0.043360165312923263 -0.0037802437351951408 0 0.039883620709075182 0.0069392145038801771 0 0.039480975030703969 0.0067906482450985559 0 0.040167667938894112 0.00746941869969196 0 0.039029392955361328 -0.02273701336769798 0 0.03760279585836216 -0.023022375910042001 0 0.037312838167498114 -0.022524406923924507 0 0.039029392955361328 -0.02273701336769798 0 0.037312838167498114 -0.022524406923924507 0 0.037554624237629619 -0.021868984917049722 0 0.039925092351281118 -0.010545806719036641 0 0.039954672691032547 -0.010450277192945577 0 0.039760628974592836 -0.010377772745337703 0 0.039979672235033507 -0.010651652255599013 0 0.039925092351281118 -0.010545806719036641 0 0.039676313336384036 -0.010594100592113947 0 0.039979672235033507 -0.010651652255599013 0 0.039676313336384036 -0.010594100592113947 0 0.039426623256450549 -0.01083480810664846 0 0.039925092351281118 -0.010545806719036641 0 0.039760628974592836 -0.010377772745337703 0 0.039676313336384036 -0.010594100592113947 0 0.039760628974592836 -0.010377772745337703 0 0.039676313336384036 -0.010594100592113947 0 0.039264531649454343 -0.010564237070150232 0 0.038954299993138999 -0.016345500554443712 0 0.038697364492969705 -0.016993012977329771 0 0.039676313336384036 -0.010594100592113947 0 0.039264531649454343 -0.010564237070150232 0 0.039426623256450549 -0.01083480810664846 0 0.03760279585836216 -0.023022375910042001 0 0.036847507330687569 -0.022856385203890574 0 0.036549457374009151 -0.023095874669199094 0 0.03760279585836216 -0.023022375910042001 0 0.036847507330687569 -0.022856385203890574 0 0.037312838167498114 -0.022524406923924507 0 0.038697364492969705 -0.016993012977329771 0 0.036343325631584204 -0.015125879961295439 0 0.036847507330687569 -0.022856385203890574 0 0.036711505974682 -0.022536321317317115 0 0.037312838167498114 -0.022524406923924507 0 0.036412329048388509 -0.022693134534099851 0 0.036538837148643859 -0.022897216287853021 0 0.036343901130546793 -0.02293657557601295 0 0.036412329048388509 -0.022693134534099851 0 0.035911329604552109 -0.022554414145706862 0 0.036343901130546793 -0.02293657557601295 0 0.036847507330687569 -0.022856385203890574 0 0.036412329048388509 -0.022693134534099851 0 0.036538837148643859 -0.022897216287853021 0 0.036847507330687569 -0.022856385203890574 0 0.036538837148643859 -0.022897216287853021 0 0.036549457374009151 -0.023095874669199094 0 0.036847507330687569 -0.022856385203890574 0 0.036412329048388509 -0.022693134534099851 0 0.036711505974682 -0.022536321317317115 0 0.036412329048388509 -0.022693134534099851 0 0.036711505974682 -0.022536321317317115 0 0.036350201653923671 -0.022338545924652831 0 0.036412329048388509 -0.022693134534099851 0 0.036350201653923671 -0.022338545924652831 0 0.035911329604552109 -0.022554414145706862 0 0.036711505974682 -0.022536321317317115 0 0.036350201653923671 -0.022338545924652831 0 0.036775915024259788 -0.02218489633720765 0 0.036350201653923671 -0.022338545924652831 0 0.036775915024259788 -0.02218489633720765 0 0.036337345984937063 -0.021983352836673398 0 0.036775915024259788 -0.02218489633720765 0 0.037312838167498114 -0.022524406923924507 0 0.037554624237629619 -0.021868984917049722 0 0.036711505974682 -0.022536321317317115 0 0.036775915024259788 -0.02218489633720765 0 0.037312838167498114 -0.022524406923924507 0 0.037554624237629619 -0.021868984917049722 0 0.037113491991589809 -0.021532223480577532 0 0.037482327909718949 -0.021001433896268771 0 0.036775915024259788 -0.02218489633720765 0 0.037554624237629619 -0.021868984917049722 0 0.036733328938274044 -0.021782966048124328 0 0.037554624237629619 -0.021868984917049722 0 0.037113491991589809 -0.021532223480577532 0 0.036733328938274044 -0.021782966048124328 0 0.036337345984937063 -0.021983352836673398 0 0.036733328938274044 -0.021782966048124328 0 0.03632421560999384 -0.021676211593074757 0 0.036775915024259788 -0.02218489633720765 0 0.036337345984937063 -0.021983352836673398 0 0.036733328938274044 -0.021782966048124328 0 0.037113491991589809 -0.021532223480577532 0 0.036733328938274044 -0.021782966048124328 0 0.036692476703838364 -0.021432999505587694 0 0.036733328938274044 -0.021782966048124328 0 0.03632421560999384 -0.021676211593074757 0 0.036692476703838364 -0.021432999505587694 0 0.036692476703838364 -0.021432999505587694 0 0.036404651592105243 -0.021221750137840462 0 0.036332950565006641 -0.021449002915067898 0 0.03632421560999384 -0.021676211593074757 0 0.036692476703838364 -0.021432999505587694 0 0.036332950565006641 -0.021449002915067898 0 0.036692476703838364 -0.021432999505587694 0 0.037482327909718949 -0.021001433896268771 0 0.036404651592105243 -0.021221750137840462 0 0.037113491991589809 -0.021532223480577532 0 0.036692476703838364 -0.021432999505587694 0 0.037482327909718949 -0.021001433896268771 0 0.045126364098428587 -0.026759097043420943 0 0.04813992333693954 -0.026945113065676072 0 0.048059688824418995 -0.02495913113836034 0 0.037554624237629619 -0.021868984917049722 0 0.037482327909718949 -0.021001433896268771 0 0.039068770479285787 -0.021301335014501401 0 0.041122085576045152 -0.023700337703176842 0 0.044127258022232385 -0.025033379804586767 0 0.039029392955361328 -0.02273701336769798 0 0.037554624237629619 -0.021868984917049722 0 0.039068770479285787 -0.021301335014501401 0 0.040929295626613724 -0.022007871124120362 0 0.039029392955361328 -0.02273701336769798 0 0.039068770479285787 -0.021301335014501401 0 0.04813992333693954 -0.026945113065676072 0 0.048755344350471762 -0.025719316923129395 0 0.048059688824418995 -0.02495913113836034 0 0.048974564091642636 -0.02638141500646984 0 0.04813992333693954 -0.026945113065676072 0 0.048755344350471762 -0.025719316923129395 0 0.048755344350471762 -0.025719316923129395 0 0.048059688824418995 -0.02495913113836034 0 0.048785053475328674 -0.025101024288900254 0 0.045126364098428587 -0.026759097043420943 0 0.048059688824418995 -0.02495913113836034 0 0.043796243350675369 -0.023663351610513441 0 0.048059688824418995 -0.02495913113836034 0 0.045493917658964683 -0.02146936697355516 0 0.043796243350675369 -0.023663351610513441 0 0.049721968017180714 -0.025513950788465155 0 0.048832716432891103 -0.025340514964335984 0 0.049556866694621338 -0.02588609727271524 0 0.048059688824418995 -0.02495913113836034 0 0.049721968017180714 -0.025513950788465155 0 0.048832716432891103 -0.025340514964335984 0 0.048157144776679602 -0.024887734655393845 0 0.047513680026191822 -0.023556687493337308 0 0.050336981899544643 -0.026180066554313604 0 0.048832716432891103 -0.025340514964335984 0 0.049469805728530651 -0.025719012672402848 0 0.049874486199175769 -0.02533505531615934 0 0.048995748259154752 -0.025362853690479924 0 0.049382137406512705 -0.024595064304169592 0 0.048785053475328674 -0.025101024288900254 0 0.048832716432891103 -0.025340514964335984 0 0.048832716432891103 -0.025340514964335984 0 0.049469805728530651 -0.025719012672402848 0 0.049556866694621338 -0.02588609727271524 0 0.048059688824418995 -0.02495913113836034 0 0.048785053475328674 -0.025101024288900254 0 0.048832716432891103 -0.025340514964335984 0 0.049469805728530651 -0.025719012672402848 0 0.049651703013706812 -0.025797084995064234 0 0.049556866694621338 -0.02588609727271524 0 0.049651703013706812 -0.025797084995064234 0 0.049556866694621338 -0.02588609727271524 0 0.049771671808802785 -0.026419118313925852 0 0.049721968017180714 -0.025513950788465155 0 0.049556866694621338 -0.02588609727271524 0 0.049939155550887959 -0.026172987708977708 0 0.049721968017180714 -0.025513950788465155 0 0.049939155550887959 -0.026172987708977708 0 0.050243426414249559 -0.025984107676247592 0 0.049936952568519093 -0.026559404718428985 0 0.049939155550887959 -0.026172987708977708 0 0.05021649996772555 -0.026451036956194631 0 0.049556866694621338 -0.02588609727271524 0 0.049936952568519093 -0.026559404718428985 0 0.049939155550887959 -0.026172987708977708 0 0.049556866694621338 -0.02588609727271524 0 0.049936952568519093 -0.026559404718428985 0 0.049771671808802785 -0.026419118313925852 0 0.049904620244773656 -0.027055609427634814 0 0.049936952568519093 -0.026559404718428985 0 0.049771671808802785 -0.026419118313925852 0 0.042604504568774001 -0.018792737862004187 0 0.043292046113631424 -0.019517670975545586 0 0.042043774571858691 -0.019781395307138315 0 0.041983640155405823 -0.02259657997245312 0 0.040555512879636643 -0.019576359210097937 0 0.0375082679433578 -0.01943922775568839 0 0.038638073184347733 -0.019499451849567005 0 0.038104525384061345 -0.019880973228540093 0 0.038638073184347733 -0.019499451849567005 0 0.039194890439389916 -0.020320100647802434 0 0.038104525384061345 -0.019880973228540093 0 0.041983640155405823 -0.02259657997245312 0 0.047297494581616396 -0.023084036745689943 0 0.05057886950628173 -0.02647768830929453 0 0.05021649996772555 -0.026451036956194631 0 0.050243426414249559 -0.025984107676247592 0 0.049939155550887959 -0.026172987708977708 0 0.05021649996772555 -0.026451036956194631 0 0.050243426414249559 -0.025984107676247592 0 0.045493917658964683 -0.02146936697355516 0 0.043292046113631424 -0.019517670975545586 0 0.042957548106160731 -0.021131184017458202 0 0.047513680026191822 -0.023556687493337308 0 0.047297494581616396 -0.023084036745689943 0 0.043292046113631424 -0.019517670975545586 0 0.042043774571858691 -0.019781395307138315 0 0.042957548106160731 -0.021131184017458202 0 0.039194890439389916 -0.020320100647802434 0 0.038727664346932554 -0.02120632359392868 0 0.037802673760597504 -0.020559014674594943 0 0.039194890439389916 -0.020320100647802434 0 0.037802673760597504 -0.020559014674594943 0 0.038104525384061345 -0.019880973228540093 0 0.040555512879636643 -0.019576359210097937 0 0.040495545329310927 -0.022731425733728366 0 0.039194890439389916 -0.020320100647802434 0 0.040522751114644019 -0.02251247467171379 0 0.038727664346932554 -0.02120632359392868 0 0.042043774571858691 -0.019781395307138315 0 0.040522751114644019 -0.02251247467171379 0 0.042957548106160731 -0.021131184017458202 0 0.040522751114644019 -0.02251247467171379 0 0.042957548106160731 -0.021131184017458202 0 0.043796243350675369 -0.023663351610513441 0 0.045493917658964683 -0.02146936697355516 0 0.042957548106160731 -0.021131184017458202 0 0.043796243350675369 -0.023663351610513441 0 0.041122085576045152 -0.023700337703176842 0 0.038404183101541582 -0.022972733069256651 0 0.045126364098428587 -0.026759097043420943 0 0.043796243350675369 -0.023663351610513441 0 0.040154734461847114 -0.024763068004769521 0 0.040522751114644019 -0.02251247467171379 0 0.043796243350675369 -0.023663351610513441 0 0.040154734461847114 -0.024763068004769521 0 0.038404183101541582 -0.022972733069256651 0 0.036597406764590015 -0.021939960157297104 0 0.036404651592105243 -0.021221750137840462 0 0.036285229885225576 -0.02147661876812481 0 0.036466380414898011 -0.02179998432390454 0 0.036404651592105243 -0.021221750137840462 0 0.036285229885225576 -0.02147661876812481 0 0.036332950565006641 -0.021449002915067898 0 0.040522751114644019 -0.02251247467171379 0 0.040154734461847114 -0.024763068004769521 0 0.036466380414898011 -0.02179998432390454 0 0.035958154801986081 -0.021573132927912211 0 0.036466380414898011 -0.02179998432390454 0 0.03583414214802326 -0.021103638295479128 0 0.036285229885225576 -0.02147661876812481 0 0.035958154801986081 -0.021573132927912211 0 0.036466380414898011 -0.02179998432390454 0 0.036466380414898011 -0.02179998432390454 0 0.037802673760597504 -0.020559014674594943 0 0.036448733989616428 -0.02075048981765058 0 0.036466380414898011 -0.02179998432390454 0 0.036448733989616428 -0.02075048981765058 0 0.03583414214802326 -0.021103638295479128 0 0.040522751114644019 -0.02251247467171379 0 0.036466380414898011 -0.02179998432390454 0 0.038727664346932554 -0.02120632359392868 0 0.036466380414898011 -0.02179998432390454 0 0.038727664346932554 -0.02120632359392868 0 0.037802673760597504 -0.020559014674594943 0 0.037802673760597504 -0.020559014674594943 0 0.03716491829939142 -0.019993704436067846 0 0.038104525384061345 -0.019880973228540093 0 0.036448733989616428 -0.02075048981765058 0 0.03716491829939142 -0.019993704436067846 0 0.036306200643921559 -0.020138756813127833 0 0.037802673760597504 -0.020559014674594943 0 0.036448733989616428 -0.02075048981765058 0 0.03716491829939142 -0.019993704436067846 0 0.03716491829939142 -0.019993704436067846 0 0.036741181887534308 -0.019662928871975596 0 0.036306200643921559 -0.020138756813127833 0 0.0375082679433578 -0.01943922775568839 0 0.03716491829939142 -0.019993704436067846 0 0.036741181887534308 -0.019662928871975596 0 0.0375082679433578 -0.01943922775568839 0 0.03716491829939142 -0.019993704436067846 0 0.038104525384061345 -0.019880973228540093 0 0.035421199554089296 -0.019618837330821089 0 0.035826179515651861 -0.02012158056352345 0 0.035441718854808159 -0.020658198121261271 0 0.029499819558605582 -0.022786947481984593 0 0.032423276009325881 -0.023036202123027157 0 0.024196181264125854 -0.02570543923715014 0 0.02465354932258285 -0.027023960208610642 0 0.023919254470966041 -0.026498714270254246 0 0.035421199554089296 -0.019618837330821089 0 0.03611760264056034 -0.0196535837644536 0 0.035826179515651861 -0.02012158056352345 0 0.03611760264056034 -0.0196535837644536 0 0.036741181887534308 -0.019662928871975596 0 0.036306200643921559 -0.020138756813127833 0 0.03611760264056034 -0.0196535837644536 0 0.036306200643921559 -0.020138756813127833 0 0.035826179515651861 -0.02012158056352345 0 0.036448733989616428 -0.02075048981765058 0 0.036306200643921559 -0.020138756813127833 0 0.035754813055028409 -0.02053273797059172 0 0.036306200643921559 -0.020138756813127833 0 0.035826179515651861 -0.02012158056352345 0 0.035754813055028409 -0.02053273797059172 0 0.036448733989616428 -0.02075048981765058 0 0.035754813055028409 -0.02053273797059172 0 0.03583414214802326 -0.021103638295479128 0 0.035754813055028409 -0.02053273797059172 0 0.035358766462089145 -0.020725244944737591 0 0.03583414214802326 -0.021103638295479128 0 0.036259998291702698 -0.020734967867532893 0 0.032423276009325881 -0.023036202123027157 0 0.035826179515651861 -0.02012158056352345 0 0.035754813055028409 -0.02053273797059172 0 0.035441718854808159 -0.020658198121261271 0 0.035099166334550805 -0.020359098622755676 0 0.035372489640837952 -0.021250674114863415 0 0.034832794613070435 -0.020980857837131349 0 0.035358766462089145 -0.020725244944737591 0 0.03583414214802326 -0.021103638295479128 0 0.035372489640837952 -0.021250674114863415 0 0.032423276009325881 -0.023036202123027157 0 0.035734509167393173 -0.020415795256233146 0 0.035958154801986081 -0.021573132927912211 0 0.035372489640837952 -0.021250674114863415 0 0.035352462331897948 -0.02163910568673226 0 0.035958154801986081 -0.021573132927912211 0 0.03583414214802326 -0.021103638295479128 0 0.035372489640837952 -0.021250674114863415 0 0.035372489640837952 -0.021250674114863415 0 0.034832794613070435 -0.020980857837131349 0 0.03472857970921555 -0.021509719893519994 0 0.035372489640837952 -0.021250674114863415 0 0.035352462331897948 -0.02163910568673226 0 0.03472857970921555 -0.021509719893519994 0 0.03499604450346646 -0.021906125634905044 0 0.035352462331897948 -0.02163910568673226 0 0.03472857970921555 -0.021509719893519994 0 0.03499604450346646 -0.021906125634905044 0 0.034610259325453259 -0.021936313402345614 0 0.03472857970921555 -0.021509719893519994 0 0.03499604450346646 -0.021906125634905044 0 0.035352462331897948 -0.02163910568673226 0 0.035599952245354477 -0.021785931045092823 0 0.03499604450346646 -0.021906125634905044 0 0.035599952245354477 -0.021785931045092823 0 0.035156156542843917 -0.02205361059383731 0 0.035958154801986081 -0.021573132927912211 0 0.035352462331897948 -0.02163910568673226 0 0.035599952245354477 -0.021785931045092823 0 0.036285229885225576 -0.02147661876812481 0 0.035958154801986081 -0.021573132927912211 0 0.036083644593153004 -0.021595582425777086 0 0.035958154801986081 -0.021573132927912211 0 0.036083644593153004 -0.021595582425777086 0 0.035599952245354477 -0.021785931045092823 0 0.036285229885225576 -0.02147661876812481 0 0.036332950565006641 -0.021449002915067898 0 0.036083644593153004 -0.021595582425777086 0 0.03632421560999384 -0.021676211593074757 0 0.036332950565006641 -0.021449002915067898 0 0.036083644593153004 -0.021595582425777086 0 0.03632421560999384 -0.021676211593074757 0 0.036083644593153004 -0.021595582425777086 0 0.035971783117537001 -0.021858120369013242 0 0.036337345984937063 -0.021983352836673398 0 0.03632421560999384 -0.021676211593074757 0 0.035971783117537001 -0.021858120369013242 0 0.035971783117537001 -0.021858120369013242 0 0.035599952245354477 -0.021785931045092823 0 0.035599831366620711 -0.02209751887213722 0 0.036083644593153004 -0.021595582425777086 0 0.035971783117537001 -0.021858120369013242 0 0.035599952245354477 -0.021785931045092823 0 0.035599952245354477 -0.021785931045092823 0 0.035599831366620711 -0.02209751887213722 0 0.035156156542843917 -0.02205361059383731 0 0.035599831366620711 -0.02209751887213722 0 0.035054429350640376 -0.022489834583563351 0 0.035156156542843917 -0.02205361059383731 0 0.035599831366620711 -0.02209751887213722 0 0.036027896718424601 -0.022160279939397485 0 0.035911329604552109 -0.022554414145706862 0 0.036350201653923671 -0.022338545924652831 0 0.036027896718424601 -0.022160279939397485 0 0.035911329604552109 -0.022554414145706862 0 0.036350201653923671 -0.022338545924652831 0 0.036337345984937063 -0.021983352836673398 0 0.036027896718424601 -0.022160279939397485 0 0.036337345984937063 -0.021983352836673398 0 0.035971783117537001 -0.021858120369013242 0 0.036027896718424601 -0.022160279939397485 0 0.035971783117537001 -0.021858120369013242 0 0.035599831366620711 -0.02209751887213722 0 0.036027896718424601 -0.022160279939397485 0 0.035599831366620711 -0.02209751887213722 0 0.035911329604552109 -0.022554414145706862 0 0.035054429350640376 -0.022489834583563351 0 0.03521904675062295 -0.012433860191638672 0 0.033300788871914414 -0.0089415140283331147 0 0.034259167800176252 -3.3596727988689406e-05 0 0.035165131946446666 -0.0013670165554959918 0 0.033957761898761284 -2.3823149197501056e-05 0 0.033300788871914414 -0.0089415140283331147 0 0.032977774869172978 0.0029444877252427018 0 0.035054429350640376 -0.022489834583563351 0 0.034660644713420771 -0.022047252386623178 0 0.035156156542843917 -0.02205361059383731 0 0.031694602488464167 0.0021072670276498294 0 0.030875808472688747 0.00057225163951225833 0 0.032048311392680648 0.00015538447693932845 0 0.031694602488464167 0.0021072670276498294 0 0.032048311392680648 0.00015538447693932845 0 0.033957761898761284 -2.3823149197501056e-05 0 0.03499604450346646 -0.021906125634905044 0 0.034660644713420771 -0.022047252386623178 0 0.034610259325453259 -0.021936313402345614 0 0.033300788871914414 -0.0089415140283331147 0 0.032621858531521344 -0.01890472741102265 0 0.03499604450346646 -0.021906125634905044 0 0.034660644713420771 -0.022047252386623178 0 0.035156156542843917 -0.02205361059383731 0 0.032554635029623843 -0.0014755614740424715 0 0.03261630574216192 -0.00082358304496433577 0 0.033431882902052124 -0.0016047823064315066 0 0.033584254096515831 -0.001394457438355095 0 0.032153781484872274 -0.0013211329867208069 0 0.032554635029623843 -0.0014755614740424715 0 0.031832471486519007 -0.0012661662983692863 0 0.03261630574216192 -0.00082358304496433577 0 0.031832471486519007 -0.0012661662983692863 0 0.031219758469015046 -0.00050787987919005033 0 0.030448318539133271 -0.0012860039638909802 0 0.031832471486519007 -0.0012661662983692863 0 0.031219758469015046 -0.00050787987919005033 0 0.03261630574216192 -0.00082358304496433577 0 0.031219758469015046 -0.00050787987919005033 0 0.032048311392680648 0.00015538447693932845 0 0.03261630574216192 -0.00082358304496433577 0 0.031219758469015046 -0.00050787987919005033 0 0.030875808472688747 0.00057225163951225833 0 0.032048311392680648 0.00015538447693932845 0 0.03261630574216192 -0.00082358304496433577 0 0.034219338322051741 -0.0007004048714849394 0 0.034611510775055684 -0.0015335088680966075 0 0.032048311392680648 0.00015538447693932845 0 0.03261630574216192 -0.00082358304496433577 0 0.033957761898761284 -2.3823149197501056e-05 0 0.03261630574216192 -0.00082358304496433577 0 0.033957761898761284 -2.3823149197501056e-05 0 0.034219338322051741 -0.0007004048714849394 0 0.034259167800176252 -3.3596727988689406e-05 0 0.033957761898761284 -2.3823149197501056e-05 0 0.034219338322051741 -0.0007004048714849394 0 0.034259167800176252 -3.3596727988689406e-05 0 0.035148602530074131 -0.0011476419698193856 0 0.034219338322051741 -0.0007004048714849394 0 0.035148602530074131 -0.0011476419698193856 0 0.034219338322051741 -0.0007004048714849394 0 0.034611510775055684 -0.0015335088680966075 0 0.035911329604552109 -0.022554414145706862 0 0.035054429350640376 -0.022489834583563351 0 0.03608936656873217 -0.023238983007579306 0 0.03521904675062295 -0.012433860191638672 0 0.037019203434312871 -0.0082092859349585448 0 0.034259167800176252 -3.3596727988689406e-05 0 0.035148602530074131 -0.0011476419698193856 0 0.037339569919055113 -0.0011099483535660644 0 0.035911329604552109 -0.022554414145706862 0 0.03608936656873217 -0.023238983007579306 0 0.036343901130546793 -0.02293657557601295 0 0.035148602530074131 -0.0011476419698193856 0 0.035766220257325947 -0.0019523445129942369 0 0.037339569919055113 -0.0011099483535660644 0 0.032153781484872274 -0.0013211329867208069 0 0.036990888864213513 0.00039793982001997996 0 0.035766220257325947 -0.0019523445129942369 0 0.035185141198803366 -0.0030025060577624813 0 0.037196912152185208 -0.0021916313382748811 0 0.037092732940631576 -0.0012939529774393934 0 0.037019203434312871 -0.0082092859349585448 0 0.035766220257325947 -0.0019523445129942369 0 0.037196912152185208 -0.0021916313382748811 0 0.037133997142963705 -0.0011594296224494104 0 0.03261630574216192 -0.00082358304496433577 0 0.034611510775055684 -0.0015335088680966075 0 0.035185141198803366 -0.0030025060577624813 0 0.035766220257325947 -0.0019523445129942369 0 0.034611510775055684 -0.0015335088680966075 0 0.035185141198803366 -0.0030025060577624813 0 0.035148602530074131 -0.0011476419698193856 0 0.035766220257325947 -0.0019523445129942369 0 0.034611510775055684 -0.0015335088680966075 0 0.027190374180149406 -0.0012046066870566978 0 0.027147291048705165 -0.0013283218396090586 0 0.027310210062018361 -0.0012611154131072896 0 0.027147291048705165 -0.0013283218396090586 0 0.027310210062018361 -0.0012611154131072896 0 0.027150134097344555 -0.0013630513223258603 0 0.027190374180149406 -0.0012046066870566978 0 0.027147291048705165 -0.0013283218396090586 0 0.027067798549318699 -0.0013623750395478074 0 0.032602150599906447 0.0022981381633802428 0 0.036990888864213513 0.00039793982001997996 0 0.032937909379106255 0.0003597653965747501 0 0.034131809604584756 -0.00048070800457193944 0 0.034964167853114653 0.0011328564126791953 0 0.032153781484872274 -0.0013211329867208069 0 0.032602150599906447 0.0022981381633802428 0 0.032611579241013808 0.0067568493813096129 0 0.032447688941449657 0.0049924294663570091 0 0.033086850684145575 0.005245306622805374 0 0.032611579241013808 0.0067568493813096129 0 0.032447688941449657 0.0049924294663570091 0 0.031815366575820826 0.0049966116485114353 0 0.032602150599906447 0.0022981381633802428 0 0.029638033189481723 0.002471240739703361 0 0.032611579241013808 0.0067568493813096129 0 0.031815366575820826 0.0049966116485114353 0 0.031583332491863507 0.0047887764873235572 0 0.027310210062018361 -0.0012611154131072896 0 0.027150134097344555 -0.0013630513223258603 0 0.027127499226658233 -0.0014298672663492448 0 0.027147291048705165 -0.0013283218396090586 0 0.027150134097344555 -0.0013630513223258603 0 0.027074377776066073 -0.0013883262383733734 0 0.027147291048705165 -0.0013283218396090586 0 0.027074377776066073 -0.0013883262383733734 0 0.027067798549318699 -0.0013623750395478074 0 0.027150134097344555 -0.0013630513223258603 0 0.027098832332009583 -0.0013974474904611029 0 0.027127499226658233 -0.0014298672663492448 0 0.027098832332009583 -0.0013974474904611029 0 0.027074377776066073 -0.0013883262383733734 0 0.027052153359490391 -0.0014090519437116634 0 0.027150134097344555 -0.0013630513223258603 0 0.027098832332009583 -0.0013974474904611029 0 0.027074377776066073 -0.0013883262383733734 0 0.027098832332009583 -0.0013974474904611029 0 0.027052153359490391 -0.0014090519437116634 0 0.027127499226658233 -0.0014298672663492448 0 0.026974564367198424 -0.0014291742646031429 0 0.027067798549318699 -0.0013623750395478074 0 0.02700527393076187 -0.001393394733936907 0 0.027074377776066073 -0.0013883262383733734 0 0.027052153359490391 -0.0014090519437116634 0 0.026974564367198424 -0.0014291742646031429 0 0.027074377776066073 -0.0013883262383733734 0 0.026974564367198424 -0.0014291742646031429 0 0.027067798549318699 -0.0013623750395478074 0 0.032153781484872274 -0.0013211329867208069 0 0.029189013603084079 -0.0018383049720993993 0 0.032554635029623843 -0.0014755614740424715 0 0.033431882902052124 -0.0016047823064315066 0 0.032160450811924347 -0.002185877392603482 0 0.027190374180149406 -0.0012046066870566978 0 0.027067798549318699 -0.0013623750395478074 0 0.02700527393076187 -0.001393394733936907 0 0.032554635029623843 -0.0014755614740424715 0 0.031832471486519007 -0.0012661662983692863 0 0.032160450811924347 -0.002185877392603482 0 0.031832471486519007 -0.0012661662983692863 0 0.032160450811924347 -0.002185877392603482 0 0.030448318539133271 -0.0012860039638909802 0 0.029189013603084079 -0.0018383049720993993 0 0.028552763815973985 -0.0019370411024032569 0 0.032160450811924347 -0.002185877392603482 0 0.030448318539133271 -0.0012860039638909802 0 0.029785223155053123 -0.002391331303338701 0 0.026974564367198424 -0.0014291742646031429 0 0.02700527393076187 -0.001393394733936907 0 0.027031017652245474 -0.0016237529110483973 0 0.026974564367198424 -0.0014291742646031429 0 0.026974141233311676 -0.0014440048987482679 0 0.027031017652245474 -0.0016237529110483973 0 0.026974564367198424 -0.0014291742646031429 0 0.026974141233311676 -0.0014440048987482679 0 0.02693196449185398 -0.0014002068740907234 0 0.026974141233311676 -0.0014440048987482679 0 0.02693196449185398 -0.0014002068740907234 0 0.026901756171339154 -0.0013396414458904772 0 0.027052153359490391 -0.0014090519437116634 0 0.026974564367198424 -0.0014291742646031429 0 0.027001989446180236 -0.0014089365308090301 0 0.026974564367198424 -0.0014291742646031429 0 0.027001989446180236 -0.0014089365308090301 0 0.02693196449185398 -0.0014002068740907234 0 0.02693196449185398 -0.0014002068740907234 0 0.026909432605715149 -0.0013844069451547539 0 0.026901756171339154 -0.0013396414458904772 0 0.027001989446180236 -0.0014089365308090301 0 0.02693196449185398 -0.0014002068740907234 0 0.026909432605715149 -0.0013844069451547539 0 0.029925067130252399 0.0032919193819900042 0 0.030228332337650321 0.0024744311769929845 0 0.029508190515629241 0.001752752151830523 0 0.029925067130252399 0.0032919193819900042 0 0.028481514036697332 0.0018913831294684771 0 0.029508190515629241 0.001752752151830523 0 0.029925067130252399 0.0032919193819900042 0 0.030228332337650321 0.0024744311769929845 0 0.030593687041162266 0.0034180732148233806 0 0.026974141233311676 -0.0014440048987482679 0 0.026901756171339154 -0.0013396414458904772 0 0.026814077264703404 -0.0010551269881678019 0 0.026909432605715149 -0.0013844069451547539 0 0.026901756171339154 -0.0013396414458904772 0 0.026814077264703404 -0.0010551269881678019 0 0.028263786361200686 0.00075789414985106152 0 0.027732405113946514 0.00045674544065406407 0 0.028481514036697332 0.0018913831294684771 0 0.029508190515629241 0.001752752151830523 0 0.02862487259429004 0.00023089582658629952 0 0.029508190515629241 0.001752752151830523 0 0.030402299204986032 0.0016093052862885496 0 0.029978969493436668 0.00046118452493858799 0 0.030228332337650321 0.0024744311769929845 0 0.029508190515629241 0.001752752151830523 0 0.030402299204986032 0.0016093052862885496 0 0.029508190515629241 0.001752752151830523 0 0.029978969493436668 0.00046118452493858799 0 0.02862487259429004 0.00023089582658629952 0 0.028481514036697332 0.0018913831294684771 0 0.02862487259429004 0.00023089582658629952 0 0.027191005431743211 -0.0002330795795503196 0 0.032214358101225263 0.00074540128859975545 0 0.031167926335240508 0.0011559216670283324 0 0.032101946311935407 0.001564568240417469 0 0.032214358101225263 0.00074540128859975545 0 0.032101946311935407 0.001564568240417469 0 0.033179075354506128 0.001345699978852945 0 0.029978969493436668 0.00046118452493858799 0 0.031190511197195347 0.00029986762583317759 0 0.031167926335240508 0.0011559216670283324 0 0.032214358101225263 0.00074540128859975545 0 0.031190511197195347 0.00029986762583317759 0 0.031167926335240508 0.0011559216670283324 0 0.030402299204986032 0.0016093052862885496 0 0.029978969493436668 0.00046118452493858799 0 0.031167926335240508 0.0011559216670283324 0 0.031167926335240508 0.0011559216670283324 0 0.03126825806266853 0.0020979936888364105 0 0.032101946311935407 0.001564568240417469 0 0.030402299204986032 0.0016093052862885496 0 0.031167926335240508 0.0011559216670283324 0 0.03126825806266853 0.0020979936888364105 0 0.030228332337650321 0.0024744311769929845 0 0.030402299204986032 0.0016093052862885496 0 0.03126825806266853 0.0020979936888364105 0 0.03126825806266853 0.0020979936888364105 0 0.032222819649098823 0.0023513169625823099 0 0.031945879988291667 0.0029991438943094088 0 0.03126825806266853 0.0020979936888364105 0 0.032222819649098823 0.0023513169625823099 0 0.032101946311935407 0.001564568240417469 0 0.032222819649098823 0.0023513169625823099 0 0.032101946311935407 0.001564568240417469 0 0.033084686505297875 0.0022119458768205761 0 0.032101946311935407 0.001564568240417469 0 0.033084686505297875 0.0022119458768205761 0 0.033179075354506128 0.001345699978852945 0 0.032222819649098823 0.0023513169625823099 0 0.033084686505297875 0.0022119458768205761 0 0.032818446167391026 0.0028879610715167202 0 0.032222819649098823 0.0023513169625823099 0 0.032818446167391026 0.0028879610715167202 0 0.031945879988291667 0.0029991438943094088 0 0.032818446167391026 0.0028879610715167202 0 0.031945879988291667 0.0029991438943094088 0 0.032522462758773303 0.0035083545895423828 0 0.031945879988291667 0.0029991438943094088 0 0.032522462758773303 0.0035083545895423828 0 0.031751731930829676 0.0037975028103157558 0 0.032818446167391026 0.0028879610715167202 0 0.032522462758773303 0.0035083545895423828 0 0.033372483093561084 0.0034764195006121105 0 0.032522462758773303 0.0035083545895423828 0 0.032945365312810178 0.0039193217320252416 0 0.033372483093561084 0.0034764195006121105 0 0.030228332337650321 0.0024744311769929845 0 0.031074003441527737 0.0028907711892409049 0 0.030930618881155943 0.0037270511075477969 0 0.030228332337650321 0.0024744311769929845 0 0.03126825806266853 0.0020979936888364105 0 0.031074003441527737 0.0028907711892409049 0 0.03126825806266853 0.0020979936888364105 0 0.031945879988291667 0.0029991438943094088 0 0.031074003441527737 0.0028907711892409049 0 0.031074003441527737 0.0028907711892409049 0 0.030930618881155943 0.0037270511075477969 0 0.031751731930829676 0.0037975028103157558 0 0.031945879988291667 0.0029991438943094088 0 0.031074003441527737 0.0028907711892409049 0 0.031751731930829676 0.0037975028103157558 0 0.030233528276841174 0.0024987222681613257 0 0.0309287943739469 0.0039038764808892968 0 0.027001989446180236 -0.0014089365308090301 0 0.026909432605715149 -0.0013844069451547539 0 0.027127499226658233 -0.0014298672663492448 0 0.029925067130252399 0.0032919193819900042 0 0.030593687041162266 0.0034180732148233806 0 0.03101152051205135 0.0041927844566840861 0 0.028263786361200686 0.00075789414985106152 0 0.029638033189481723 0.002471240739703361 0 0.0309287943739469 0.0039038764808892968 0 0.029638033189481723 0.002471240739703361 0 0.030930618881155943 0.0037270511075477969 0 0.031751731930829676 0.0037975028103157558 0 0.031648978516869763 0.0042990657608551457 0 0.030930618881155943 0.0037270511075477969 0 0.031648978516869763 0.0042990657608551457 0 0.031593259971455345 0.0048119151250027442 0 0.031751731930829676 0.0037975028103157558 0 0.031648978516869763 0.0042990657608551457 0 0.032088380411663321 0.0044235524813337947 0 0.031648978516869763 0.0042990657608551457 0 0.031902937731801348 0.004711874674931101 0 0.031593259971455345 0.0048119151250027442 0 0.031648978516869763 0.0042990657608551457 0 0.031902937731801348 0.004711874674931101 0 0.032088380411663321 0.0044235524813337947 0 0.031815366575820826 0.0049966116485114353 0 0.031902937731801348 0.004711874674931101 0 0.031593259971455345 0.0048119151250027442 0 0.030572693401726612 0.0033947154491954824 0 0.029638033189481723 0.002471240739703361 0 0.027052153359490391 -0.0014090519437116634 0 0.027001989446180236 -0.0014089365308090301 0 0.027127499226658233 -0.0014298672663492448 0 0.032945365312810178 0.0039193217320252416 0 0.032759869968264847 0.0044636349203717104 0 0.033609637577756382 0.0042732269495200058 0 0.032945365312810178 0.0039193217320252416 0 0.032364475407918307 0.004052408712789138 0 0.032759869968264847 0.0044636349203717104 0 0.032522462758773303 0.0035083545895423828 0 0.032945365312810178 0.0039193217320252416 0 0.032364475407918307 0.004052408712789138 0 0.032364475407918307 0.004052408712789138 0 0.032088380411663321 0.0044235524813337947 0 0.032759869968264847 0.0044636349203717104 0 0.031751731930829676 0.0037975028103157558 0 0.032364475407918307 0.004052408712789138 0 0.032088380411663321 0.0044235524813337947 0 0.032522462758773303 0.0035083545895423828 0 0.031751731930829676 0.0037975028103157558 0 0.032364475407918307 0.004052408712789138 0 0.032447688941449657 0.0049924294663570091 0 0.032088380411663321 0.0044235524813337947 0 0.032759869968264847 0.0044636349203717104 0 0.032447688941449657 0.0049924294663570091 0 0.031902937731801348 0.004711874674931101 0 0.032088380411663321 0.0044235524813337947 0 0.032447688941449657 0.0049924294663570091 0 0.031815366575820826 0.0049966116485114353 0 0.031902937731801348 0.004711874674931101 0 0.032447688941449657 0.0049924294663570091 0 0.033086850684145575 0.005245306622805374 0 0.032759869968264847 0.0044636349203717104 0 0.033086850684145575 0.005245306622805374 0 0.032759869968264847 0.0044636349203717104 0 0.033609637577756382 0.0042732269495200058 0 0.033609637577756382 0.0042732269495200058 0 0.036045256407936294 0.0040468667113563788 0 0.034235973498962916 0.0056537339544329253 0 0.032945365312810178 0.0039193217320252416 0 0.033609637577756382 0.0042732269495200058 0 0.033372483093561084 0.0034764195006121105 0 0.033609637577756382 0.0042732269495200058 0 0.033372483093561084 0.0034764195006121105 0 0.034569521126549208 0.0034894035627675243 0 0.036045256407936294 0.0040468667113563788 0 0.03550904868759814 0.0032523062960653991 0 0.034569521126549208 0.0034894035627675243 0 0.033609637577756382 0.0042732269495200058 0 0.036045256407936294 0.0040468667113563788 0 0.034569521126549208 0.0034894035627675243 0 0.03550904868759814 0.0032523062960653991 0 0.034569521126549208 0.0034894035627675243 0 0.034629255754933141 0.0026609569618328208 0 0.03550904868759814 0.0032523062960653991 0 0.035482551993148606 0.0026035347685431222 0 0.035994162519375962 0.0029932587116807759 0 0.03550904868759814 0.0032523062960653991 0 0.034629255754933141 0.0026609569618328208 0 0.035482551993148606 0.0026035347685431222 0 0.033372483093561084 0.0034764195006121105 0 0.034569521126549208 0.0034894035627675243 0 0.033737841571162552 0.0027978582274398429 0 0.034569521126549208 0.0034894035627675243 0 0.033737841571162552 0.0027978582274398429 0 0.034629255754933141 0.0026609569618328208 0 0.032818446167391026 0.0028879610715167202 0 0.033372483093561084 0.0034764195006121105 0 0.033737841571162552 0.0027978582274398429 0 0.033084686505297875 0.0022119458768205761 0 0.033737841571162552 0.0027978582274398429 0 0.03395336536338641 0.0020485101452577463 0 0.033084686505297875 0.0022119458768205761 0 0.032818446167391026 0.0028879610715167202 0 0.033737841571162552 0.0027978582274398429 0 0.033084686505297875 0.0022119458768205761 0 0.03395336536338641 0.0020485101452577463 0 0.033179075354506128 0.001345699978852945 0 0.033737841571162552 0.0027978582274398429 0 0.03395336536338641 0.0020485101452577463 0 0.034629255754933141 0.0026609569618328208 0 0.034629255754933141 0.0026609569618328208 0 0.035482551993148606 0.0026035347685431222 0 0.034833026838577058 0.0019926141148711189 0 0.035482551993148606 0.0026035347685431222 0 0.034833026838577058 0.0019926141148711189 0 0.035786895100643916 0.0020262723137533601 0 0.03395336536338641 0.0020485101452577463 0 0.034629255754933141 0.0026609569618328208 0 0.034833026838577058 0.0019926141148711189 0 0.034833026838577058 0.0019926141148711189 0 0.03525969766828211 0.0012726574158597058 0 0.03421427334789922 0.0012376572602938662 0 0.03395336536338641 0.0020485101452577463 0 0.034833026838577058 0.0019926141148711189 0 0.03421427334789922 0.0012376572602938662 0 0.034833026838577058 0.0019926141148711189 0 0.03525969766828211 0.0012726574158597058 0 0.035786895100643916 0.0020262723137533601 0 0.03525969766828211 0.0012726574158597058 0 0.03421427334789922 0.0012376572602938662 0 0.03476386831887647 0.00041947308963297835 0 0.032214358101225263 0.00074540128859975545 0 0.033179075354506128 0.001345699978852945 0 0.033454320146614903 0.00031324319918901792 0 0.03421427334789922 0.0012376572602938662 0 0.033454320146614903 0.00031324319918901792 0 0.03476386831887647 0.00041947308963297835 0 0.033179075354506128 0.001345699978852945 0 0.03421427334789922 0.0012376572602938662 0 0.033454320146614903 0.00031324319918901792 0 0.03395336536338641 0.0020485101452577463 0 0.033179075354506128 0.001345699978852945 0 0.03421427334789922 0.0012376572602938662 0 0.037051460351936009 0.0022674853564808787 0 0.037792704372319491 0.0021886973633607762 0 0.037128584766246107 0.0015851631849068005 0 0.037051460351936009 0.0022674853564808787 0 0.037792704372319491 0.0021886973633607762 0 0.037630013029676668 0.0028089271981280297 0 0.037792704372319491 0.0021886973633607762 0 0.038377098515184553 0.0024682025910494586 0 0.037630013029676668 0.0028089271981280297 0 0.038377098515184553 0.0024682025910494586 0 0.037630013029676668 0.0028089271981280297 0 0.039686663986501829 0.0027318191445528384 0 0.038377098515184553 0.0024682025910494586 0 0.038447099832095703 0.0019652533651492578 0 0.038879107834625115 0.0023637027558785391 0 0.037792704372319491 0.0021886973633607762 0 0.038447099832095703 0.0019652533651492578 0 0.037907355319886191 0.0015354427361346499 0 0.037792704372319491 0.0021886973633607762 0 0.038377098515184553 0.0024682025910494586 0 0.038447099832095703 0.0019652533651492578 0 0.037907355319886191 0.0015354427361346499 0 0.03858456076749113 0.0012658194318479711 0 0.037655075996229546 0.00064240450406134395 0 0.038447099832095703 0.0019652533651492578 0 0.037907355319886191 0.0015354427361346499 0 0.03858456076749113 0.0012658194318479711 0 0.038447099832095703 0.0019652533651492578 0 0.03858456076749113 0.0012658194318479711 0 0.039205374509376383 0.0019275710537253934 0 0.037128584766246107 0.0015851631849068005 0 0.036725629219671936 0.00080641239012851408 0 0.037655075996229546 0.00064240450406134395 0 0.037907355319886191 0.0015354427361346499 0 0.037128584766246107 0.0015851631849068005 0 0.037655075996229546 0.00064240450406134395 0 0.037792704372319491 0.0021886973633607762 0 0.037907355319886191 0.0015354427361346499 0 0.037128584766246107 0.0015851631849068005 0 0.036182539649283654 0.0014076006886147459 0 0.035860991691441531 0.00059528365285814824 0 0.036725629219671936 0.00080641239012851408 0 0.037128584766246107 0.0015851631849068005 0 0.036182539649283654 0.0014076006886147459 0 0.036725629219671936 0.00080641239012851408 0 0.03525969766828211 0.0012726574158597058 0 0.036182539649283654 0.0014076006886147459 0 0.035860991691441531 0.00059528365285814824 0 0.036182539649283654 0.0014076006886147459 0 0.035786895100643916 0.0020262723137533601 0 0.036457457378722066 0.0021263526097244616 0 0.03525969766828211 0.0012726574158597058 0 0.036182539649283654 0.0014076006886147459 0 0.035786895100643916 0.0020262723137533601 0 0.037128584766246107 0.0015851631849068005 0 0.036182539649283654 0.0014076006886147459 0 0.036457457378722066 0.0021263526097244616 0 0.037051460351936009 0.0022674853564808787 0 0.037128584766246107 0.0015851631849068005 0 0.036457457378722066 0.0021263526097244616 0 0.037051460351936009 0.0022674853564808787 0 0.036457457378722066 0.0021263526097244616 0 0.036902677427073927 0.0028485423735746464 0 0.036457457378722066 0.0021263526097244616 0 0.036258203775136645 0.002642088299114912 0 0.036902677427073927 0.0028485423735746464 0 0.035482551993148606 0.0026035347685431222 0 0.035786895100643916 0.0020262723137533601 0 0.036258203775136645 0.002642088299114912 0 0.035786895100643916 0.0020262723137533601 0 0.036457457378722066 0.0021263526097244616 0 0.036258203775136645 0.002642088299114912 0 0.035482551993148606 0.0026035347685431222 0 0.036258203775136645 0.002642088299114912 0 0.035994162519375962 0.0029932587116807759 0 0.036258203775136645 0.002642088299114912 0 0.036902677427073927 0.0028485423735746464 0 0.036508683832922079 0.0030659443990002726 0 0.036258203775136645 0.002642088299114912 0 0.035994162519375962 0.0029932587116807759 0 0.036508683832922079 0.0030659443990002726 0 0.03694016077246149 0.0028144127700322507 0 0.03819332891011859 0.0045462623616528671 0 0.036902677427073927 0.0028485423735746464 0 0.037630013029676668 0.0028089271981280297 0 0.039513907189842365 0.005129480137437325 0 0.036902677427073927 0.0028485423735746464 0 0.036725990025899137 0.0032979449499055714 0 0.036508683832922079 0.0030659443990002726 0 0.037051460351936009 0.0022674853564808787 0 0.036902677427073927 0.0028485423735746464 0 0.037630013029676668 0.0028089271981280297 0 0.036725990025899137 0.0032979449499055714 0 0.036773452123118167 0.0036746422659821114 0 0.037019985315684747 0.0033195964795320952 0 0.036902677427073927 0.0028485423735746464 0 0.036725990025899137 0.0032979449499055714 0 0.037019985315684747 0.0033195964795320952 0 0.03550904868759814 0.0032523062960653991 0 0.035994162519375962 0.0029932587116807759 0 0.036278900094020385 0.0034937396662162935 0 0.035994162519375962 0.0029932587116807759 0 0.036508683832922079 0.0030659443990002726 0 0.036278900094020385 0.0034937396662162935 0 0.036725990025899137 0.0032979449499055714 0 0.036508683832922079 0.0030659443990002726 0 0.036278900094020385 0.0034937396662162935 0 0.036045256407936294 0.0040468667113563788 0 0.036278900094020385 0.0034937396662162935 0 0.036773452123118167 0.0036746422659821114 0 0.036045256407936294 0.0040468667113563788 0 0.03550904868759814 0.0032523062960653991 0 0.036278900094020385 0.0034937396662162935 0 0.036725990025899137 0.0032979449499055714 0 0.036278900094020385 0.0034937396662162935 0 0.036773452123118167 0.0036746422659821114 0 0.036773452123118167 0.0036746422659821114 0 0.037066342593097629 0.0034774672510198162 0 0.036509712231744922 0.0037551684780461774 0 0.037066342593097629 0.0034774672510198162 0 0.036509712231744922 0.0037551684780461774 0 0.036442126087079932 0.0039606497575753012 0 0.037066342593097629 0.0034774672510198162 0 0.037283147831111016 0.0042666552841792334 0 0.036442126087079932 0.0039606497575753012 0 0.036509712231744922 0.0037551684780461774 0 0.036341394639130373 0.0038513527953957395 0 0.036442126087079932 0.0039606497575753012 0 0.036045256407936294 0.0040468667113563788 0 0.036773452123118167 0.0036746422659821114 0 0.036509712231744922 0.0037551684780461774 0 0.036045256407936294 0.0040468667113563788 0 0.036509712231744922 0.0037551684780461774 0 0.036341394639130373 0.0038513527953957395 0 0.035981454783679825 0.0040772223263696597 0 0.035432273326850387 0.0050373365664095537 0 0.036045256407936294 0.0040468667113563788 0 0.036348996251535932 0.0039238554358794033 0 0.036341394639130373 0.0038513527953957395 0 0.033086850684145575 0.005245306622805374 0 0.033609637577756382 0.0042732269495200058 0 0.034235973498962916 0.0056537339544329253 0 0.032611579241013808 0.0067568493813096129 0 0.033086850684145575 0.005245306622805374 0 0.034235973498962916 0.0056537339544329253 0 0.036382433475958528 0.0038548143696066454 0 0.036366612087000698 0.0038427251416907177 0 0.036375444624147199 0.0038219852535930263 0 0.032602150599906447 0.0022981381633802428 0 0.035432273326850387 0.0050373365664095537 0 0.036382433475958528 0.0038548143696066454 0 0.036348996251535932 0.0039238554358794033 0 0.036366612087000698 0.0038427251416907177 0 0.036366612087000698 0.0038427251416907177 0 0.036341394639130373 0.0038513527953957395 0 0.036394050680218074 0.0038470133213524289 0 0.036348996251535932 0.0039238554358794033 0 0.036366612087000698 0.0038427251416907177 0 0.036341394639130373 0.0038513527953957395 0 0.036341394639130373 0.0038513527953957395 0 0.036394050680218074 0.0038470133213524289 0 0.036421190844279402 0.0038703543985342953 0 0.036394050680218074 0.0038470133213524289 0 0.036402063086616851 0.003835591901489801 0 0.036421190844279402 0.0038703543985342953 0 0.035423108142120921 0.0023578482118855296 0 0.037191807247838236 -0.0011369878878007061 0 0.036366612087000698 0.0038427251416907177 0 0.036378528489229726 0.0038336403584961335 0 0.036375444624147199 0.0038219852535930263 0 0.036366612087000698 0.0038427251416907177 0 0.036394050680218074 0.0038470133213524289 0 0.036378528489229726 0.0038336403584961335 0 0.037191807247838236 -0.0011369878878007061 0 0.037603189459734281 -0.0061837870745701934 0 0.036701050884649852 -0.001732153931275806 0 0.037316685698621808 -0.0014886039836833596 0 0.037096712257290131 -0.0019409163557130317 0 0.036990888864213513 0.00039793982001997996 0 0.037603189459734281 -0.0061837870745701934 0 0.037191807247838236 -0.0011369878878007061 0 0.036990888864213513 0.00039793982001997996 0 0.037196912152185208 -0.0021916313382748811 0 0.037133997142963705 -0.0011594296224494104 0 0.037598752950951789 -0.0014032644437675882 0 0.037019203434312871 -0.0082092859349585448 0 0.036343325631584204 -0.015125879961295439 0 0.037603189459734281 -0.0061837870745701934 0 0.036343325631584204 -0.015125879961295439 0 0.038797597409327526 -0.010016296804086352 0 0.037255747763584188 -0.0092232854000832438 0 0.0359733105709069 -0.011792700829792087 0 0.037019203434312871 -0.0082092859349585448 0 0.037603189459734281 -0.0061837870745701934 0 0.038702514393546945 -0.01090775268168593 0 0.038858744267663593 -0.010864500951077603 0 0.038783254178077556 -0.010777883808869002 0 0.038852561992979491 -0.010982880472494105 0 0.038702514393546945 -0.01090775268168593 0 0.038858744267663593 -0.010864500951077603 0 0.038858744267663593 -0.010864500951077603 0 0.038783254178077556 -0.010777883808869002 0 0.03910765842022975 -0.010785961764906846 0 0.036538837148643859 -0.022897216287853021 0 0.036549457374009151 -0.023095874669199094 0 0.036343901130546793 -0.02293657557601295 0 0.036549457374009151 -0.023095874669199094 0 0.036517317049486395 -0.02312793193000998 0 0.036343901130546793 -0.02293657557601295 0 0.036122191260096505 -0.015777659507964458 0 0.036343325631584204 -0.015125879961295439 0 0.03608936656873217 -0.023238983007579306 0 0.036517317049486395 -0.02312793193000998 0 0.036343901130546793 -0.02293657557601295 0 0.037191807247838236 -0.0011369878878007061 0 0.037937343190749373 -0.0043805958035078169 0 0.039264531649454343 -0.010564237070150232 0 0.038783254178077556 -0.010777883808869002 0 0.03910765842022975 -0.010785961764906846 0 0.038852561992979491 -0.010982880472494105 0 0.03910765842022975 -0.010785961764906846 0 0.039426623256450549 -0.01083480810664846 0 0.036402063086616851 0.003835591901489801 0 0.036429294239635437 0.0037909196880710509 0 0.036421190844279402 0.0038703543985342953 0 0.03760279585836216 -0.023022375910042001 0 0.036549457374009151 -0.023095874669199094 0 0.036509417442765951 -0.023126009891188893 0 0.038852561992979491 -0.010982880472494105 0 0.038858744267663593 -0.010864500951077603 0 0.03910765842022975 -0.010785961764906846 0 0.039264531649454343 -0.010564237070150232 0 0.03910765842022975 -0.010785961764906846 0 0.039426623256450549 -0.01083480810664846 0 0.036228119436151757 0.0036140787122693418 0 0.036429294239635437 0.0037909196880710509 0 0.036297685745194562 0.0037835576565661681 0 0.037689215332656525 6.3686250838152129e-05 0 0.037937343190749373 -0.0043805958035078169 0 0.037689215332656525 6.3686250838152129e-05 0 0.037245300933949517 0.0048816609414301902 0 0.037390039744587343 0.0053460511805186019 0 0.037283147831111016 0.0042666552841792334 0 0.036442126087079932 0.0039606497575753012 0 0.037245300933949517 0.0048816609414301902 0 0.036324004095067489 0.0038649668224767734 0 0.037066342593097629 0.0034774672510198162 0 0.037283147831111016 0.0042666552841792334 0 0.03833295817364292 0.0044528509724369465 0 0.037390039744587343 0.0053460511805186019 0 0.037283147831111016 0.0042666552841792334 0 0.03833295817364292 0.0044528509724369465 0 0.036429294239635437 0.0037909196880710509 0 0.036442126087079932 0.0039606497575753012 0 0.036421190844279402 0.0038703543985342953 0 0.036341394639130373 0.0038513527953957395 0 0.036442126087079932 0.0039606497575753012 0 0.036421190844279402 0.0038703543985342953 0 0.036429294239635437 0.0037909196880710509 0 0.036297685745194562 0.0037835576565661681 0 0.036442126087079932 0.0039606497575753012 0 0.039767146353807771 0.0043023506854908593 0 0.039373640468263402 0.0051715398634126636 0 0.040373221102717578 0.0051075584036808569 0 0.039767146353807771 0.0043023506854908593 0 0.03833295817364292 0.0044528509724369465 0 0.039373640468263402 0.0051715398634126636 0 0.039767146353807771 0.0043023506854908593 0 0.040373221102717578 0.0051075584036808569 0 0.041017289014164154 0.0041841384405668855 0 0.039767146353807771 0.0043023506854908593 0 0.041017289014164154 0.0041841384405668855 0 0.040352527853195534 0.0034093642560783332 0 0.039767146353807771 0.0043023506854908593 0 0.03833295817364292 0.0044528509724369465 0 0.039121231862111444 0.0032559725604959541 0 0.038603769145957478 0.0054132032612159717 0 0.039224979804228934 0.0057663439813475546 0 0.039373640468263402 0.0051715398634126636 0 0.03833295817364292 0.0044528509724369465 0 0.038603769145957478 0.0054132032612159717 0 0.039373640468263402 0.0051715398634126636 0 0.037390039744587343 0.0053460511805186019 0 0.03833295817364292 0.0044528509724369465 0 0.038603769145957478 0.0054132032612159717 0 0.038324311165138021 0.0062565674620310065 0 0.037390039744587343 0.0053460511805186019 0 0.038771630899412879 0.0060374384661701806 0 0.037390039744587343 0.0053460511805186019 0 0.038603769145957478 0.0054132032612159717 0 0.038771630899412879 0.0060374384661701806 0 0.03944739197946464 0.0063292328155544206 0 0.038771630899412879 0.0060374384661701806 0 0.039224979804228934 0.0057663439813475546 0 0.038603769145957478 0.0054132032612159717 0 0.038771630899412879 0.0060374384661701806 0 0.039224979804228934 0.0057663439813475546 0 0.039224979804228934 0.0057663439813475546 0 0.039373640468263402 0.0051715398634126636 0 0.039903548086037591 0.005841951989817502 0 0.03944739197946464 0.0063292328155544206 0 0.039224979804228934 0.0057663439813475546 0 0.039903548086037591 0.005841951989817502 0 0.040373221102717578 0.0051075584036808569 0 0.040502216385098308 0.0056661545915349899 0 0.039903548086037591 0.005841951989817502 0 0.039373640468263402 0.0051715398634126636 0 0.040373221102717578 0.0051075584036808569 0 0.039903548086037591 0.005841951989817502 0 0.040403531848712704 0.0062167735097394513 0 0.040502216385098308 0.0056661545915349899 0 0.039903548086037591 0.005841951989817502 0 0.040403531848712704 0.0062167735097394513 0 0.040502216385098308 0.0056661545915349899 0 0.041283304804803307 0.005559250269517332 0 0.040373221102717578 0.0051075584036808569 0 0.040502216385098308 0.0056661545915349899 0 0.041283304804803307 0.005559250269517332 0 0.046729538903435716 -0.0023959427023121076 0 0.046646920617261799 -0.0023513824845978657 0 0.0466237302661901 -0.0023514804701555967 0 0.050657458862661632 -0.0072135361570216123 0 0.049732851140172299 -0.0059333154328453843 0 0.046705477722664653 -0.0023250393502726404 0 0.046729538903435716 -0.0023959427023121076 0 0.046646920617261799 -0.0023513824845978657 0 0.046646920617261799 -0.0023513824845978657 0 0.046541113011098 -0.0023558585224505656 0 0.0466237302661901 -0.0023514804701555967 0 0.046705477722664653 -0.0023250393502726404 0 0.046646920617261799 -0.0023513824845978657 0 0.046541113011098 -0.0023558585224505656 0 0.043566626454235528 0.0026618251035496004 0 0.044616202592240722 0.00039922268447633278 0 0.041283304804803307 0.005559250269517332 0 0.041017289014164154 0.0041841384405668855 0 0.04247558190096707 0.003725661443096022 0 0.040373221102717578 0.0051075584036808569 0 0.041283304804803307 0.005559250269517332 0 0.041017289014164154 0.0041841384405668855 0 0.041017289014164154 0.0041841384405668855 0 0.041444540843393024 0.0030308667693555672 0 0.040352527853195534 0.0034093642560783332 0 0.041444540843393024 0.0030308667693555672 0 0.042866076416344094 0.0016728219301322942 0 0.040466558895488752 0.0020848135975793359 0 0.041444540843393024 0.0030308667693555672 0 0.04247558190096707 0.003725661443096022 0 0.042866076416344094 0.0016728219301322942 0 0.041017289014164154 0.0041841384405668855 0 0.041444540843393024 0.0030308667693555672 0 0.04247558190096707 0.003725661443096022 0 0.041444540843393024 0.0030308667693555672 0 0.040466558895488752 0.0020848135975793359 0 0.040352527853195534 0.0034093642560783332 0 0.046541113011098 -0.0023558585224505656 0 0.046509931087491609 -0.0024174045552433836 0 0.0466237302661901 -0.0023514804701555967 0 0.04247558190096707 0.003725661443096022 0 0.042866076416344094 0.0016728219301322942 0 0.044152710601767349 0.0008150704245287522 0 0.046541113011098 -0.0023558585224505656 0 0.046292961446397503 -0.0025682412197023338 0 0.046509931087491609 -0.0024174045552433836 0 0.044616202592240722 0.00039922268447633278 0 0.045197566282787247 -0.00092220383272604992 0 0.042866076416344094 0.0016728219301322942 0 0.043309756456115185 0.00031014085406654343 0 0.044152710601767349 0.0008150704245287522 0 0.043309756456115185 0.00031014085406654343 0 0.044152710601767349 0.0008150704245287522 0 0.043795743428356723 -0.0011006555669475747 0 0.042866076416344094 0.0016728219301322942 0 0.043309756456115185 0.00031014085406654343 0 0.042474379381819999 -0.00025939001003592036 0 0.042521057411985134 0.0012150306227780515 0 0.040832572627160807 0.0012002109187339036 0 0.042866076416344094 0.0016728219301322942 0 0.040466558895488752 0.0020848135975793359 0 0.040825404959361121 0.00021261003590959194 0 0.042866076416344094 0.0016728219301322942 0 0.042474379381819999 -0.00025939001003592036 0 0.0405171651209075 -0.00043814760350233345 0 0.037722794396733247 0.0025583305284158551 0 0.040600173834325529 0.0031700727205073646 0 0.040466558895488752 0.0020848135975793359 0 0.038730346997408106 0.0015432955091084486 0 0.040496617158681851 -5.0587752374331661e-05 0 0.040466558895488752 0.0020848135975793359 0 0.040496617158681851 -5.0587752374331661e-05 0 0.040825404959361121 0.00021261003590959194 0 0.040466558895488752 0.0020848135975793359 0 0.039121231862111444 0.0032559725604959541 0 0.038730346997408106 0.0015432955091084486 0 0.040466558895488752 0.0020848135975793359 0 0.039121231862111444 0.0032559725604959541 0 0.040352527853195534 0.0034093642560783332 0 0.039767146353807771 0.0043023506854908593 0 0.039121231862111444 0.0032559725604959541 0 0.040352527853195534 0.0034093642560783332 0 0.037066342593097629 0.0034774672510198162 0 0.03833295817364292 0.0044528509724369465 0 0.039121231862111444 0.0032559725604959541 0 0.037066342593097629 0.0034774672510198162 0 0.039121231862111444 0.0032559725604959541 0 0.038730346997408106 0.0015432955091084486 0 0.037176077699627809 0.0033474234440648985 0 0.037722794396733247 0.0025583305284158551 0 0.036773452123118167 0.0036746422659821114 0 0.037066342593097629 0.0034774672510198162 0 0.036992350892500941 0.0036461586617970005 0 0.036773452123118167 0.0036746422659821114 0 0.036992350892500941 0.0036461586617970005 0 0.037007062705917422 0.0035584337797793198 0 0.036773452123118167 0.0036746422659821114 0 0.037007062705917422 0.0035584337797793198 0 0.037019985315684747 0.0033195964795320952 0 0.036992350892500941 0.0036461586617970005 0 0.037007062705917422 0.0035584337797793198 0 0.037231932197943615 0.0035607582415033132 0 0.040600173834325529 0.0031700727205073646 0 0.03819332891011859 0.0045462623616528671 0 0.042139668929593685 0.0073024291209304046 0 0.041709373839394555 0.0058822084384099645 0 0.039513907189842365 0.005129480137437325 0 0.037007062705917422 0.0035584337797793198 0 0.037231932197943615 0.0035607582415033132 0 0.037019985315684747 0.0033195964795320952 0 0.040600173834325529 0.0031700727205073646 0 0.040832572627160807 0.0012002109187339036 0 0.042139668929593685 0.0073024291209304046 0 0.042333710187811485 0.0063840602046477766 0 0.041709373839394555 0.0058822084384099645 0 0.041709373839394555 0.0058822084384099645 0 0.041186501082191004 0.0046526790502049815 0 0.039513907189842365 0.005129480137437325 0 0.041709373839394555 0.0058822084384099645 0 0.041186501082191004 0.0046526790502049815 0 0.042219899881475412 0.0048614937597188492 0 0.041709373839394555 0.0058822084384099645 0 0.042219899881475412 0.0048614937597188492 0 0.042509034391915008 0.005710412772697961 0 0.042333710187811485 0.0063840602046477766 0 0.041709373839394555 0.0058822084384099645 0 0.042509034391915008 0.005710412772697961 0 0.041186501082191004 0.0046526790502049815 0 0.039513907189842365 0.005129480137437325 0 0.040776082820773316 0.0033722835049403194 0 0.041186501082191004 0.0046526790502049815 0 0.042219899881475412 0.0048614937597188492 0 0.041807217258873465 0.0040074418360256494 0 0.042219899881475412 0.0048614937597188492 0 0.041807217258873465 0.0040074418360256494 0 0.04262715144295072 0.0039843104448458533 0 0.037630013029676668 0.0028089271981280297 0 0.039809381317149298 0.0028141531298592455 0 0.040429108975884212 0.0018766323083806425 0 0.037630013029676668 0.0028089271981280297 0 0.039513907189842365 0.005129480137437325 0 0.039487372061293734 0.0034894569804153949 0 0.037630013029676668 0.0028089271981280297 0 0.039487372061293734 0.0034894569804153949 0 0.039809381317149298 0.0028141531298592455 0 0.037921788440106782 0.0028818707614290439 0 0.040925115374691762 0.0025039255571159599 0 0.039809381317149298 0.0028141531298592455 0 0.040648761536825111 0.0025868659552822121 0 0.040429108975884212 0.0018766323083806425 0 0.039809381317149298 0.0028141531298592455 0 0.040776082820773316 0.0033722835049403194 0 0.040648761536825111 0.0025868659552822121 0 0.039513907189842365 0.005129480137437325 0 0.039487372061293734 0.0034894569804153949 0 0.040776082820773316 0.0033722835049403194 0 0.039487372061293734 0.0034894569804153949 0 0.039809381317149298 0.0028141531298592455 0 0.040776082820773316 0.0033722835049403194 0 0.041186501082191004 0.0046526790502049815 0 0.040776082820773316 0.0033722835049403194 0 0.041807217258873465 0.0040074418360256494 0 0.040776082820773316 0.0033722835049403194 0 0.041807217258873465 0.0040074418360256494 0 0.042229867123651413 0.0031609654794280263 0 0.041807217258873465 0.0040074418360256494 0 0.042229867123651413 0.0031609654794280263 0 0.04262715144295072 0.0039843104448458533 0 0.040776082820773316 0.0033722835049403194 0 0.042229867123651413 0.0031609654794280263 0 0.041444887489180786 0.0023619981468276058 0 0.042229867123651413 0.0031609654794280263 0 0.041444887489180786 0.0023619981468276058 0 0.042781890205584552 0.0024002228438729308 0 0.041444887489180786 0.0023619981468276058 0 0.040648761536825111 0.0025868659552822121 0 0.040429108975884212 0.0018766323083806425 0 0.040776082820773316 0.0033722835049403194 0 0.041444887489180786 0.0023619981468276058 0 0.040648761536825111 0.0025868659552822121 0 0.041444887489180786 0.0023619981468276058 0 0.040429108975884212 0.0018766323083806425 0 0.043273944077938976 0.00098041746553084752 0 0.040925115374691762 0.0025039255571159599 0 0.043965893347575183 0.0020326168220022533 0 0.041660693512810355 0.0026239615518545058 0 0.041189362778283681 0.0032846060860662455 0 0.045421711748525696 0.0029276290619089694 0 0.041660693512810355 0.0026239615518545058 0 0.045421711748525696 0.0029276290619089694 0 0.043930652433276228 0.0017689478886384576 0 0.040587597038976062 0.0013402978273964828 0 0.040020522159041165 0.0020150476905470018 0 0.040657684156847063 0.0024618821435509032 0 0.037630013029676668 0.0028089271981280297 0 0.039686663986501829 0.0027318191445528384 0 0.041189362778283681 0.0032846060860662455 0 0.041660693512810355 0.0026239615518545058 0 0.040587597038976062 0.0013402978273964828 0 0.040657684156847063 0.0024618821435509032 0 0.040587597038976062 0.0013402978273964828 0 0.040020522159041165 0.0020150476905470018 0 0.039537421690512081 0.001169924462508632 0 0.03858456076749113 0.0012658194318479711 0 0.039205374509376383 0.0019275710537253934 0 0.039537421690512081 0.001169924462508632 0 0.040020522159041165 0.0020150476905470018 0 0.039205374509376383 0.0019275710537253934 0 0.039537421690512081 0.001169924462508632 0 0.040020522159041165 0.0020150476905470018 0 0.039205374509376383 0.0019275710537253934 0 0.039686663986501829 0.0027318191445528384 0 0.038377098515184553 0.0024682025910494586 0 0.038879107834625115 0.0023637027558785391 0 0.039686663986501829 0.0027318191445528384 0 0.039205374509376383 0.0019275710537253934 0 0.038879107834625115 0.0023637027558785391 0 0.039686663986501829 0.0027318191445528384 0 0.038447099832095703 0.0019652533651492578 0 0.039205374509376383 0.0019275710537253934 0 0.038879107834625115 0.0023637027558785391 0 0.039686663986501829 0.0027318191445528384 0 0.041189362778283681 0.0032846060860662455 0 0.040657684156847063 0.0024618821435509032 0 0.041660693512810355 0.0026239615518545058 0 0.041189362778283681 0.0032846060860662455 0 0.040657684156847063 0.0024618821435509032 0 0.040020522159041165 0.0020150476905470018 0 0.039686663986501829 0.0027318191445528384 0 0.040657684156847063 0.0024618821435509032 0 0.043273944077938976 0.00098041746553084752 0 0.044397431032062382 0.0015760458489913901 0 0.046219855673737896 9.2166011022088757e-05 0 0.043965893347575183 0.0020326168220022533 0 0.049112567146255004 0.00058586675567156156 0 0.044945555641161018 0.0018407863156094735 0 0.045504204951445644 0.001580997337879977 0 0.044440445913361645 0.0026801622668628975 0 0.044945555641161018 0.0018407863156094735 0 0.045504204951445644 0.001580997337879977 0 0.044397431032062382 0.0015760458489913901 0 0.044945555641161018 0.0018407863156094735 0 0.044397431032062382 0.0015760458489913901 0 0.044440445913361645 0.0026801622668628975 0 0.048205219415042286 0.00032673680031240082 0 0.049112567146255004 0.00058586675567156156 0 0.054232172167268229 -0.0009962629889479469 0 0.0530167575924676 -0.00087133668151528269 0 0.053837597559328133 2.6409204739192743e-06 0 0.045504204951445644 0.001580997337879977 0 0.044397431032062382 0.0015760458489913901 0 0.046219855673737896 9.2166011022088757e-05 0 0.041444887489180786 0.0023619981468276058 0 0.043273944077938976 0.00098041746553084752 0 0.042781890205584552 0.0024002228438729308 0 0.043273944077938976 0.00098041746553084752 0 0.043559572398290995 0.0021788161829012056 0 0.042781890205584552 0.0024002228438729308 0 0.043273944077938976 0.00098041746553084752 0 0.044397431032062382 0.0015760458489913901 0 0.043559572398290995 0.0021788161829012056 0 0.044397431032062382 0.0015760458489913901 0 0.043559572398290995 0.0021788161829012056 0 0.044440445913361645 0.0026801622668628975 0 0.043559572398290995 0.0021788161829012056 0 0.043404775422950133 0.0033069826237237632 0 0.044440445913361645 0.0026801622668628975 0 0.043559572398290995 0.0021788161829012056 0 0.042781890205584552 0.0024002228438729308 0 0.043404775422950133 0.0033069826237237632 0 0.042229867123651413 0.0031609654794280263 0 0.042781890205584552 0.0024002228438729308 0 0.043404775422950133 0.0033069826237237632 0 0.043404775422950133 0.0033069826237237632 0 0.04262715144295072 0.0039843104448458533 0 0.042992211826344218 0.0047824563470040054 0 0.042229867123651413 0.0031609654794280263 0 0.043404775422950133 0.0033069826237237632 0 0.04262715144295072 0.0039843104448458533 0 0.043404775422950133 0.0033069826237237632 0 0.042992211826344218 0.0047824563470040054 0 0.044210637646347806 0.0041568242336454553 0 0.043404775422950133 0.0033069826237237632 0 0.044440445913361645 0.0026801622668628975 0 0.044210637646347806 0.0041568242336454553 0 0.046010058993599452 0.00082085360056749859 0 0.046405995606891383 0.00011260622216369159 0 0.047877522685142615 0.00010572130874796576 0 0.046010058993599452 0.00082085360056749859 0 0.045994639216041723 0.0016294332904861616 0 0.047877522685142615 0.00010572130874796576 0 0.048205219415042286 0.00032673680031240082 0 0.044478438585711683 0.0029663132032831802 0 0.044856211022083627 -0.0012778502315629291 0 0.048884004182619477 -0.0013725038270310482 0 0.046010058993599452 0.00082085360056749859 0 0.046405995606891383 0.00011260622216369159 0 0.045195565548852241 0.00089862831980913214 0 0.046259198063621006 -0.0012973842069062525 0 0.046405995606891383 0.00011260622216369159 0 0.045195565548852241 0.00089862831980913214 0 0.045504204951445644 0.001580997337879977 0 0.044440445913361645 0.0026801622668628975 0 0.044210637646347806 0.0041568242336454553 0 0.046259198063621006 -0.0012973842069062525 0 0.046405995606891383 0.00011260622216369159 0 0.047877522685142615 0.00010572130874796576 0 0.045232244838548985 -0.003947850175460667 0 0.043963950418352903 -0.0037965871719633087 0 0.046191602282540482 -0.0049151728868447719 0 0.046010058993599452 0.00082085360056749859 0 0.045994639216041723 0.0016294332904861616 0 0.045195565548852241 0.00089862831980913214 0 0.043963950418352903 -0.0037965871719633087 0 0.044373724953933526 -0.0029296945116639951 0 0.042979143547439425 -0.0021194444022850142 0 0.045232244838548985 -0.003947850175460667 0 0.043963950418352903 -0.0037965871719633087 0 0.044373724953933526 -0.0029296945116639951 0 0.045232244838548985 -0.003947850175460667 0 0.044373724953933526 -0.0029296945116639951 0 0.045809817442478529 -0.0031883002677226867 0 0.044856211022083627 -0.0012778502315629291 0 0.042476251045805484 0.0025224723588445543 0 0.045994639216041723 0.0016294332904861616 0 0.045195565548852241 0.00089862831980913214 0 0.04410903414519822 0.0031178934391339649 0 0.044478438585711683 0.0029663132032831802 0 0.042476251045805484 0.0025224723588445543 0 0.042992211826344218 0.0047824563470040054 0 0.044210637646347806 0.0041568242336454553 0 0.042975885104656185 0.0066368875120987221 0 0.043963950418352903 -0.0037965871719633087 0 0.0410351810886165 -0.0016913354113029801 0 0.042979143547439425 -0.0021194444022850142 0 0.042219899881475412 0.0048614937597188492 0 0.04262715144295072 0.0039843104448458533 0 0.042992211826344218 0.0047824563470040054 0 0.042992211826344218 0.0047824563470040054 0 0.042509034391915008 0.005710412772697961 0 0.042975885104656185 0.0066368875120987221 0 0.042219899881475412 0.0048614937597188492 0 0.042992211826344218 0.0047824563470040054 0 0.042509034391915008 0.005710412772697961 0 0.042139668929593685 0.0073024291209304046 0 0.042333710187811485 0.0063840602046477766 0 0.042975885104656185 0.0066368875120987221 0 0.040600173834325529 0.0031700727205073646 0 0.042476251045805484 0.0025224723588445543 0 0.042333710187811485 0.0063840602046477766 0 0.042509034391915008 0.005710412772697961 0 0.042975885104656185 0.0066368875120987221 0 0.0410351810886165 -0.0016913354113029801 0 0.042029264537596728 -0.0013500520470794365 0 0.041533275655968205 -0.00099140252451681036 0 0.0410351810886165 -0.0016913354113029801 0 0.042029264537596728 -0.0013500520470794365 0 0.042979143547439425 -0.0021194444022850142 0 0.042029264537596728 -0.0013500520470794365 0 0.042474379381819999 -0.00025939001003592036 0 0.042979143547439425 -0.0021194444022850142 0 0.042029264537596728 -0.0013500520470794365 0 0.042474379381819999 -0.00025939001003592036 0 0.041533275655968205 -0.00099140252451681036 0 0.0410351810886165 -0.0016913354113029801 0 0.041533275655968205 -0.00099140252451681036 0 0.0405171651209075 -0.00043814760350233345 0 0.041227585819859809 0.0027365132547074681 0 0.04185111651396619 0.0022391055404986423 0 0.041494476236137175 0.0029638855628603272 0 0.042474379381819999 -0.00025939001003592036 0 0.041533275655968205 -0.00099140252451681036 0 0.0405171651209075 -0.00043814760350233345 0 0.042476251045805484 0.0025224723588445543 0 0.040832572627160807 0.0012002109187339036 0 0.045197566282787247 -0.00092220383272604992 0 0.045824234400781504 -0.0031057659009216679 0 0.044152710601767349 0.0008150704245287522 0 0.043795743428356723 -0.0011006555669475747 0 0.045809817442478529 -0.0031883002677226867 0 0.044373724953933526 -0.0029296945116639951 0 0.043795743428356723 -0.0011006555669475747 0 0.045809817442478529 -0.0031883002677226867 0 0.044373724953933526 -0.0029296945116639951 0 0.042979143547439425 -0.0021194444022850142 0 0.043795743428356723 -0.0011006555669475747 0 0.043309756456115185 0.00031014085406654343 0 0.042474379381819999 -0.00025939001003592036 0 0.043795743428356723 -0.0011006555669475747 0 0.042474379381819999 -0.00025939001003592036 0 0.042979143547439425 -0.0021194444022850142 0 0.043795743428356723 -0.0011006555669475747 0 0.046299997161962855 -0.0027579145821505506 0 0.046635074430492585 -0.0027982705889840823 0 0.045809817442478529 -0.0031883002677226867 0 0.046292961446397503 -0.0025682412197023338 0 0.046299997161962855 -0.0027579145821505506 0 0.045809817442478529 -0.0031883002677226867 0 0.046635074430492585 -0.0027982705889840823 0 0.045809817442478529 -0.0031883002677226867 0 0.046469026503953216 -0.0035062333219234103 0 0.047075876845771587 -0.0028407437274963416 0 0.046635074430492585 -0.0027982705889840823 0 0.047135546571348864 -0.0033594571322621246 0 0.046635074430492585 -0.0027982705889840823 0 0.047135546571348864 -0.0033594571322621246 0 0.046469026503953216 -0.0035062333219234103 0 0.051892403305198523 -0.0035676691733390908 0 0.052270360767412392 -0.0021981852507238406 0 0.051717610309191558 -0.0022773857751815438 0 0.051892403305198523 -0.0035676691733390908 0 0.052838743224730693 -0.0022511677640884662 0 0.052270360767412392 -0.0021981852507238406 0 0.047135546571348864 -0.0033594571322621246 0 0.046469026503953216 -0.0035062333219234103 0 0.046393085015916331 -0.0045516213001111422 0 0.049395708934157241 -0.0035245103954256022 0 0.049082793404561127 -0.0026179189902892854 0 0.045809817442478529 -0.0031883002677226867 0 0.046469026503953216 -0.0035062333219234103 0 0.04607193917689463 -0.0039007283397383382 0 0.046469026503953216 -0.0035062333219234103 0 0.04607193917689463 -0.0039007283397383382 0 0.046393085015916331 -0.0045516213001111422 0 0.045232244838548985 -0.003947850175460667 0 0.04607193917689463 -0.0039007283397383382 0 0.045964639427197189 -0.004333580384214916 0 0.045232244838548985 -0.003947850175460667 0 0.045809817442478529 -0.0031883002677226867 0 0.04607193917689463 -0.0039007283397383382 0 0.045232244838548985 -0.003947850175460667 0 0.045964639427197189 -0.004333580384214916 0 0.046191602282540482 -0.0049151728868447719 0 0.054232172167268229 -0.0009962629889479469 0 0.053035211713335875 -0.0020513413664976789 0 0.052771338155040003 -0.0014764209348537753 0 0.048205219415042286 0.00032673680031240082 0 0.048884004182619477 -0.0013725038270310482 0 0.052771338155040003 -0.0014764209348537753 0 0.052838743224730693 -0.0022511677640884662 0 0.052270360767412392 -0.0021981852507238406 0 0.053035211713335875 -0.0020513413664976789 0 0.052771338155040003 -0.0014764209348537753 0 0.052838743224730693 -0.0022511677640884662 0 0.04607193917689463 -0.0039007283397383382 0 0.045964639427197189 -0.004333580384214916 0 0.046393085015916331 -0.0045516213001111422 0 0.045964639427197189 -0.004333580384214916 0 0.046191602282540482 -0.0049151728868447719 0 0.046393085015916331 -0.0045516213001111422 0 0.048884004182619477 -0.0013725038270310482 0 0.049082793404561127 -0.0026179189902892854 0 0.051717610309191558 -0.0022773857751815438 0 0.052063896263313904 -0.0014439104770477566 0 0.051323995651010881 -0.0011632312590658207 0 0.052270360767412392 -0.0021981852507238406 0 0.051717610309191558 -0.0022773857751815438 0 0.052063896263313904 -0.0014439104770477566 0 0.052771338155040003 -0.0014764209348537753 0 0.052270360767412392 -0.0021981852507238406 0 0.052063896263313904 -0.0014439104770477566 0 0.051908810370667489 -0.00048017758033343005 0 0.051323995651010881 -0.0011632312590658207 0 0.051284490443870949 5.854924121734864e-06 0 0.052063896263313904 -0.0014439104770477566 0 0.052378453756290258 -0.0011247396706968531 0 0.051908810370667489 -0.00048017758033343005 0 0.052063896263313904 -0.0014439104770477566 0 0.051908810370667489 -0.00048017758033343005 0 0.051323995651010881 -0.0011632312590658207 0 0.052771338155040003 -0.0014764209348537753 0 0.052063896263313904 -0.0014439104770477566 0 0.052378453756290258 -0.0011247396706968531 0 0.054232172167268229 -0.0009962629889479469 0 0.052771338155040003 -0.0014764209348537753 0 0.0530167575924676 -0.00087133668151528269 0 0.051908810370667489 -0.00048017758033343005 0 0.0530167575924676 -0.00087133668151528269 0 0.053837597559328133 2.6409204739192743e-06 0 0.052771338155040003 -0.0014764209348537753 0 0.052378453756290258 -0.0011247396706968531 0 0.0530167575924676 -0.00087133668151528269 0 0.052378453756290258 -0.0011247396706968531 0 0.051908810370667489 -0.00048017758033343005 0 0.0530167575924676 -0.00087133668151528269 0 0.049999110566211605 -0.0014117832136590141 0 0.051323995651010881 -0.0011632312590658207 0 0.05095788459659048 0.00029773722954731395 0 0.051323995651010881 -0.0011632312590658207 0 0.051284490443870949 5.854924121734864e-06 0 0.05095788459659048 0.00029773722954731395 0 0.051717610309191558 -0.0022773857751815438 0 0.051323995651010881 -0.0011632312590658207 0 0.05093948572166361 -0.0029279838169404154 0 0.049999110566211605 -0.0014117832136590141 0 0.049999561460966853 -0.0042903867247832727 0 0.05093948572166361 -0.0029279838169404154 0 0.049999110566211605 -0.0014117832136590141 0 0.051323995651010881 -0.0011632312590658207 0 0.05093948572166361 -0.0029279838169404154 0 0.049999561460966853 -0.0042903867247832727 0 0.05093948572166361 -0.0029279838169404154 0 0.050835558265907181 -0.0049349995393229689 0 0.051892403305198523 -0.0035676691733390908 0 0.051717610309191558 -0.0022773857751815438 0 0.05093948572166361 -0.0029279838169404154 0 0.051892403305198523 -0.0035676691733390908 0 0.05093948572166361 -0.0029279838169404154 0 0.050835558265907181 -0.0049349995393229689 0 0.049395708934157241 -0.0035245103954256022 0 0.050312196379315999 -0.0048049608817037374 0 0.047075876845771587 -0.0028407437274963416 0 0.047135546571348864 -0.0033594571322621246 0 0.04756041525190751 -0.0028690413667097204 0 0.050000013619651007 -0.004292190913953514 0 0.051486785129696309 -0.0059386577362981145 0 0.050558313471763719 -0.0067545976390830714 0 0.050001151554453664 -0.004293470176672037 0 0.050312196379315999 -0.0048049608817037374 0 0.050000013619651007 -0.004292190913953514 0 0.050558313471763719 -0.0067545976390830714 0 0.049999845017941136 -0.0072423649786399888 0 0.051338950878223724 -0.0061603122203977715 0 0.050558313471763719 -0.0067545976390830714 0 0.051265137353866105 -0.0082867277952855603 0 0.050312196379315999 -0.0048049608817037374 0 0.050446879157559972 -0.0062920010031244878 0 0.050558313471763719 -0.0067545976390830714 0 0.049999845017941136 -0.0072423649786399888 0 0.051265137353866105 -0.0082867277952855603 0 0.049999845017941136 -0.0072423649786399888 0 0.051265137353866105 -0.0082867277952855603 0 0.04999999805890086 -0.010190786825856911 0 0.051265137353866105 -0.0082867277952855603 0 0.052731653068318569 -0.0083377048208979135 0 0.052592126683461166 -0.010585899901807215 0 0.047075876845771587 -0.0028407437274963416 0 0.04756041525190751 -0.0028690413667097204 0 0.046910494585905411 -0.0024047052283795254 0 0.050312196379315999 -0.0048049608817037374 0 0.049665884581807769 -0.0053138938613027749 0 0.051338950878223724 -0.0061603122203977715 0 0.051265137353866105 -0.0082867277952855603 0 0.052731653068318569 -0.0083377048208979135 0 0.046635074430492585 -0.0027982705889840823 0 0.046499575717977637 -0.0025624373943899863 0 0.046910494585905411 -0.0024047052283795254 0 0.047075876845771587 -0.0028407437274963416 0 0.046635074430492585 -0.0027982705889840823 0 0.046910494585905411 -0.0024047052283795254 0 0.046292961446397503 -0.0025682412197023338 0 0.046499575717977637 -0.0025624373943899863 0 0.046509931087491609 -0.0024174045552433836 0 0.046499575717977637 -0.0025624373943899863 0 0.046509931087491609 -0.0024174045552433836 0 0.046910494585905411 -0.0024047052283795254 0 0.046292961446397503 -0.0025682412197023338 0 0.046299997161962855 -0.0027579145821505506 0 0.046499575717977637 -0.0025624373943899863 0 0.046299997161962855 -0.0027579145821505506 0 0.046635074430492585 -0.0027982705889840823 0 0.046499575717977637 -0.0025624373943899863 0 0.046509931087491609 -0.0024174045552433836 0 0.046910494585905411 -0.0024047052283795254 0 0.0466237302661901 -0.0023514804701555967 0 0.049665884581807769 -0.0053138938613027749 0 0.049732851140172299 -0.0059333154328453843 0 0.052731653068318569 -0.0083377048208979135 0 0.053176523894552977 -0.0099650949649101612 0 0.052592126683461166 -0.010585899901807215 0 0.052814044035731637 -0.010431111251542819 0 0.05289787189273782 -0.010267303904024454 0 0.053176523894552977 -0.0099650949649101612 0 0.052889560887517777 -0.011600376363758734 0 0.052658035545180663 -0.01071553395359332 0 0.052814044035731637 -0.010431111251542819 0 0.053176523894552977 -0.0099650949649101612 0 0.052592126683461166 -0.010585899901807215 0 0.052669380827389777 -0.010509671706891727 0 0.052814044035731637 -0.010431111251542819 0 0.052592126683461166 -0.010585899901807215 0 0.053174427935350294 -0.012824848931532894 0 0.052592126683461166 -0.010585899901807215 0 0.051428790355885864 -0.012101516864255585 0 0.049999733068964235 -0.013140354790392652 0 0.051428790355885864 -0.012101516864255585 0 0.04999999805890086 -0.010190786825856911 0 0.052592126683461166 -0.010585899901807215 0 0.051428790355885864 -0.012101516864255585 0 0.04999999805890086 -0.010190786825856911 0 0.051265137353866105 -0.0082867277952855603 0 0.052592126683461166 -0.010585899901807215 0 0.04999999805890086 -0.010190786825856911 0 -0.013026266245961005 -0.012241862370319019 0 -0.013030523737213244 -0.016150038572968112 0 -0.015446436197026417 -0.013143345729157331 0 -0.011598117067013074 -0.013528367258284072 0 -0.014277926152174816 -0.016952620361867624 0 -0.013026266245961005 -0.012241862370319019 0 -0.010787126229935381 -0.012468051289251606 0 -0.013030523737213244 -0.016150038572968112 0 -0.015238398228867467 -0.0175810619314451 0 -0.012355074271706699 -0.017772354879534047 0 -0.014543986005710252 -0.019666971345390052 0 -0.014014153644170271 -0.014958418159463331 0 -0.015238398228867467 -0.0175810619314451 0 -0.012355074271706699 -0.017772354879534047 0 -0.013030523737213244 -0.016150038572968112 0 -0.017579245857529464 -0.016789501898765061 0 -0.015446436197026417 -0.013143345729157331 0 -0.0054293833290769162 -0.0099744187586236297 0 -0.012381749560956699 -0.0083767736173039255 0 0.023612253873212575 -0.0060111985597440859 0 0.021501147164996102 -0.0059893991437362081 0 0.022973683958975869 -0.0016637506926960623 0 0.023612253873212575 -0.0060111985597440859 0 0.021501147164996102 -0.0059893991437362081 0 0.022415741337501262 -0.0083319843542033929 0 0.021733177893526197 -0.0073784299279588171 0 0.020844182166849089 -0.0041584898025856243 0 0.022973683958975869 -0.0016637506926960623 0 0.021323415559094457 -0.0011973432892857416 0 0.020758455618906463 -0.0038163478467339558 0 0.021501147164996102 -0.0059893991437362081 0 0.022973683958975869 -0.0016637506926960623 0 0.020758455618906463 -0.0038163478467339558 0 -0.0068587755556788824 -0.0012072659910174674 0 -0.0063090379069089099 -0.0038140098849236597 0 -0.0079683959941931459 -0.0031800827833757886 0 -0.0054293833290769162 -0.0099744187586236297 0 0.0099458514843414458 -0.0015588393485982299 0 -0.0063090379069089099 -0.0038140098849236597 0 -0.0079683959941931459 -0.0031800827833757886 0 -0.0075554339551422191 -0.0053104979891416331 0 -0.0079683959941931459 -0.0031800827833757886 0 -0.0075554339551422191 -0.0053104979891416331 0 -0.0094395885696768791 -0.0054684112821403435 0 -0.0063090379069089099 -0.0038140098849236597 0 -0.0075554339551422191 -0.0053104979891416331 0 -0.0055066675994823447 -0.0069976992730837791 0 0.021323415559094457 -0.0011973432892857416 0 0.021631190038969232 0.00098622498747839198 0 0.021167725214341467 0.00077957600335528147 0 0.0099458514843414458 -0.0015588393485982299 0 0.0075100753646722661 -0.0036835442936717332 0 0.022973683958975869 -0.0016637506926960623 0 0.021323415559094457 -0.0011973432892857416 0 0.021631190038969232 0.00098622498747839198 0 0.021631190038969232 0.00098622498747839198 0 0.021167725214341467 0.00077957600335528147 0 0.0217049134718258 0.00033384583466860727 0 -0.0075554339551422191 -0.0053104979891416331 0 -0.0055066675994823447 -0.0069976992730837791 0 -0.0084999717618831419 -0.0074244539920096291 0 -0.0075554339551422191 -0.0053104979891416331 0 -0.0084999717618831419 -0.0074244539920096291 0 -0.0094395885696768791 -0.0054684112821403435 0 -0.013292790015429998 -0.010164255214414292 0 -0.011413931894624025 -0.0097183007627108763 0 -0.011072592515017014 -0.0083052643854227073 0 -0.0084999717618831419 -0.0074244539920096291 0 -0.0094395885696768791 -0.0054684112821403435 0 -0.011072592515017014 -0.0083052643854227073 0 -0.011289116181980877 -0.0078564821026105656 0 -0.011220907966190454 -0.0083271392698640936 0 -0.013026266245961005 -0.012241862370319019 0 -0.015446436197026417 -0.013143345729157331 0 -0.013292790015429998 -0.010164255214414292 0 -0.012381749560956699 -0.0083767736173039255 0 -0.011289116181980877 -0.0078564821026105656 0 -0.013026266245961005 -0.012241862370319019 0 -0.013292790015429998 -0.010164255214414292 0 -0.011413931894624025 -0.0097183007627108763 0 -0.013026266245961005 -0.012241862370319019 0 -0.010787126229935381 -0.012468051289251606 0 -0.011413931894624025 -0.0097183007627108763 0 -0.010787126229935381 -0.012468051289251606 0 -0.011413931894624025 -0.0097183007627108763 0 -0.0093334483321093932 -0.0096540659901255786 0 -0.011413931894624025 -0.0097183007627108763 0 -0.011072592515017014 -0.0083052643854227073 0 -0.0107842761967001 -0.0083323790286595738 0 -0.011413931894624025 -0.0097183007627108763 0 -0.0093334483321093932 -0.0096540659901255786 0 -0.0107842761967001 -0.0083323790286595738 0 -0.016997770282349584 -0.01047334155618317 0 -0.01366269641528586 -0.0088180768565418541 0 -0.016997770282349584 -0.01047334155618317 0 -0.024492506902388102 -0.0096863242752895269 0 -0.014014153644170271 -0.014958418159463331 0 -0.012733259430541677 -0.012489636492533755 0 -0.010590106465357983 -0.014907792360969225 0 -0.018913203713455069 -0.0065318061297097449 0 -0.017272551070723577 -0.0083688223668113796 0 -0.018202078500944931 -0.0097850976416581237 0 -0.027624337389903247 -0.012263677163369499 0 -0.026128135636805921 -0.011836951815773395 0 -0.026364233345445645 -0.01007675418447768 0 -0.026128135636805921 -0.011836951815773395 0 -0.024746444935058679 -0.010998193416096003 0 -0.025780856619269592 -0.010162562653250913 0 -0.016997770282349584 -0.01047334155618317 0 -0.018595607850653978 -0.015076736712659973 0 -0.027624337389903247 -0.012263677163369499 0 -0.026128135636805921 -0.011836951815773395 0 -0.025625203153738531 -0.014777897279087191 0 -0.026128135636805921 -0.011836951815773395 0 -0.024783260276795626 -0.012646300446342891 0 -0.025625203153738531 -0.014777897279087191 0 -0.011598117067013074 -0.013528367258284072 0 -0.016997770282349584 -0.01047334155618317 0 -0.022491267371305218 -0.012702239386696446 0 -0.022596712728824412 -0.010882548530072757 0 -0.02359821728917641 -0.011683714410151473 0 -0.022596712728824412 -0.010882548530072757 0 -0.02359821728917641 -0.011683714410151473 0 -0.023652121062141311 -0.010176361905484398 0 -0.02359821728917641 -0.011683714410151473 0 -0.024746444935058679 -0.010998193416096003 0 -0.024783260276795626 -0.012646300446342891 0 -0.02359821728917641 -0.011683714410151473 0 -0.024746444935058679 -0.010998193416096003 0 -0.023652121062141311 -0.010176361905484398 0 -0.026128135636805921 -0.011836951815773395 0 -0.024746444935058679 -0.010998193416096003 0 -0.024783260276795626 -0.012646300446342891 0 -0.02359821728917641 -0.011683714410151473 0 -0.024783260276795626 -0.012646300446342891 0 -0.023734963879584087 -0.014006012989615192 0 -0.024783260276795626 -0.012646300446342891 0 -0.023734963879584087 -0.014006012989615192 0 -0.025625203153738531 -0.014777897279087191 0 -0.022491267371305218 -0.012702239386696446 0 -0.02359821728917641 -0.011683714410151473 0 -0.023734963879584087 -0.014006012989615192 0 -0.022491267371305218 -0.012702239386696446 0 -0.022225213110514883 -0.015085690084314655 0 -0.023734963879584087 -0.014006012989615192 0 -0.022225213110514883 -0.015085690084314655 0 -0.023734963879584087 -0.014006012989615192 0 -0.023733761299548468 -0.017405991522593436 0 -0.023734963879584087 -0.014006012989615192 0 -0.023733761299548468 -0.017405991522593436 0 -0.025625203153738531 -0.014777897279087191 0 -0.016043907299487271 -0.017401173224708067 0 -0.018595607850653978 -0.015076736712659973 0 -0.0084214786445563402 -0.017262551306406339 0 -0.010409506776337951 -0.017215958478173931 0 -0.010401644542449025 -0.019492935062986671 0 -0.0084214786445563402 -0.017262551306406339 0 -0.010590106465357983 -0.014907792360969225 0 -0.010409506776337951 -0.017215958478173931 0 -0.022225213110514883 -0.015085690084314655 0 -0.021555367061418768 -0.018100373198586386 0 -0.023733761299548468 -0.017405991522593436 0 -0.014014153644170271 -0.014958418159463331 0 -0.010590106465357983 -0.014907792360969225 0 -0.012355074271706699 -0.017772354879534047 0 -0.010590106465357983 -0.014907792360969225 0 -0.010409506776337951 -0.017215958478173931 0 -0.012355074271706699 -0.017772354879534047 0 -0.010409506776337951 -0.017215958478173931 0 -0.012355074271706699 -0.017772354879534047 0 -0.010401644542449025 -0.019492935062986671 0 -0.012355074271706699 -0.017772354879534047 0 -0.012215410531042544 -0.021128979588259919 0 -0.014543986005710252 -0.019666971345390052 0 -0.012355074271706699 -0.017772354879534047 0 -0.010401644542449025 -0.019492935062986671 0 -0.012215410531042544 -0.021128979588259919 0 -0.010401644542449025 -0.019492935062986671 0 -0.012215410531042544 -0.021128979588259919 0 -0.0097369100148007575 -0.021904356988844124 0 -0.0059033952062948897 -0.020006631889768256 0 -0.0084214786445563402 -0.017262551306406339 0 -0.0083460628882418338 -0.020298867085034072 0 -0.013265701617037991 -0.019772026605142656 0 -0.016043907299487271 -0.017401173224708067 0 -0.021555367061418768 -0.018100373198586386 0 -0.021561306442752035 -0.020422963345251646 0 -0.023733761299548468 -0.017405991522593436 0 -0.0084214786445563402 -0.017262551306406339 0 -0.010401644542449025 -0.019492935062986671 0 -0.0083460628882418338 -0.020298867085034072 0 -0.010401644542449025 -0.019492935062986671 0 -0.0097369100148007575 -0.021904356988844124 0 -0.0083460628882418338 -0.020298867085034072 0 -0.0097369100148007575 -0.021904356988844124 0 -0.0083460628882418338 -0.020298867085034072 0 -0.0071530474616899303 -0.022860008684049679 0 -0.0059033952062948897 -0.020006631889768256 0 -0.0083460628882418338 -0.020298867085034072 0 -0.0071530474616899303 -0.022860008684049679 0 -0.0097369100148007575 -0.021904356988844124 0 -0.0071530474616899303 -0.022860008684049679 0 -0.0092332512662279213 -0.024636263420746797 0 -0.0082734023523040011 -0.0268920456899709 0 -0.0092332512662279213 -0.024636263420746797 0 -0.00697636897660402 -0.025630297639334467 0 -0.0071530474616899303 -0.022860008684049679 0 -0.0092332512662279213 -0.024636263420746797 0 -0.00697636897660402 -0.025630297639334467 0 -0.0048797792317048887 -0.024805235274941648 0 -0.0071530474616899303 -0.022860008684049679 0 -0.00697636897660402 -0.025630297639334467 0 -0.012215410531042544 -0.021128979588259919 0 -0.012747104899960407 -0.0237215542192163 0 -0.011132657641138553 -0.023190433206237645 0 -0.012215410531042544 -0.021128979588259919 0 -0.0097369100148007575 -0.021904356988844124 0 -0.011132657641138553 -0.023190433206237645 0 -0.0097369100148007575 -0.021904356988844124 0 -0.0092332512662279213 -0.024636263420746797 0 -0.011132657641138553 -0.023190433206237645 0 -0.0092332512662279213 -0.024636263420746797 0 -0.011132657641138553 -0.023190433206237645 0 -0.011276006164648163 -0.025301386133569637 0 -0.0098673446042069988 -0.026946600748544096 0 -0.0092332512662279213 -0.024636263420746797 0 -0.011276006164648163 -0.025301386133569637 0 -0.013366919153019073 -0.02619078485334023 0 -0.012747104899960407 -0.0237215542192163 0 -0.011276006164648163 -0.025301386133569637 0 -0.012747104899960407 -0.0237215542192163 0 -0.011132657641138553 -0.023190433206237645 0 -0.011276006164648163 -0.025301386133569637 0 -0.013366919153019073 -0.02619078485334023 0 -0.012747104899960407 -0.0237215542192163 0 -0.014404352691255912 -0.024302159189836386 0 -0.014404352691255912 -0.024302159189836386 0 -0.015920044013516557 -0.025330953858123277 0 -0.015648614624596324 -0.023410511868914154 0 -0.013366919153019073 -0.02619078485334023 0 -0.014404352691255912 -0.024302159189836386 0 -0.015920044013516557 -0.025330953858123277 0 -0.014404352691255912 -0.024302159189836386 0 -0.015648614624596324 -0.023410511868914154 0 -0.01460751189863284 -0.021914070935503766 0 -0.015648614624596324 -0.023410511868914154 0 -0.01460751189863284 -0.021914070935503766 0 -0.016193540569840289 -0.021393854089873803 0 -0.015920044013516557 -0.025330953858123277 0 -0.015648614624596324 -0.023410511868914154 0 -0.017011766422294176 -0.02245785286690782 0 -0.012747104899960407 -0.0237215542192163 0 -0.014404352691255912 -0.024302159189836386 0 -0.01460751189863284 -0.021914070935503766 0 -0.012215410531042544 -0.021128979588259919 0 -0.012747104899960407 -0.0237215542192163 0 -0.01460751189863284 -0.021914070935503766 0 -0.012215410531042544 -0.021128979588259919 0 -0.01460751189863284 -0.021914070935503766 0 -0.014543986005710252 -0.019666971345390052 0 -0.01460751189863284 -0.021914070935503766 0 -0.015341611412386557 -0.020756578584623039 0 -0.014543986005710252 -0.019666971345390052 0 -0.01460751189863284 -0.021914070935503766 0 -0.015341611412386557 -0.020756578584623039 0 -0.016193540569840289 -0.021393854089873803 0 -0.015341611412386557 -0.020756578584623039 0 -0.016055855364182282 -0.020061377107807768 0 -0.016193540569840289 -0.021393854089873803 0 -0.015341611412386557 -0.020756578584623039 0 -0.014543986005710252 -0.019666971345390052 0 -0.016055855364182282 -0.020061377107807768 0 -0.015238398228867467 -0.0175810619314451 0 -0.014543986005710252 -0.019666971345390052 0 -0.016055855364182282 -0.020061377107807768 0 -0.014277926152174816 -0.016952620361867624 0 -0.015873472359509512 -0.019766628001824955 0 0.022679805163930682 -0.0076319551677030487 0 0.02442852079739689 -0.011430033040245714 0 0.020929352442496846 -0.011604136456974255 0 0.021733177893526197 -0.0073784299279588171 0 0.0039889333135062956 -0.016585445395768575 0 -0.0054293833290769162 -0.0099744187586236297 0 0.0039889333135062956 -0.016585445395768575 0 -0.013030523737213244 -0.016150038572968112 0 -0.017579245857529464 -0.016789501898765061 0 -0.016055855364182282 -0.020061377107807768 0 -0.0054293833290769162 -0.0099744187586236297 0 -0.017816019999808589 -0.022122903203904688 0 -0.017171599892512022 -0.018068705641804017 0 -0.018043984494536088 -0.019718606010829653 0 -0.017053130623145719 -0.020277761407528731 0 -0.017579245857529464 -0.016789501898765061 0 -0.016055855364182282 -0.020061377107807768 0 -0.017053130623145719 -0.020277761407528731 0 -0.018043984494536088 -0.019718606010829653 0 -0.017053130623145719 -0.020277761407528731 0 -0.017011766422294176 -0.02245785286690782 0 -0.017053130623145719 -0.020277761407528731 0 -0.016193540569840289 -0.021393854089873803 0 -0.017011766422294176 -0.02245785286690782 0 -0.010061714510019198 -0.026534785149663526 0 -0.010097259618094684 -0.029427620786509668 0 -0.0087491143926850552 -0.029982346089008561 0 0.0039889333135062956 -0.016585445395768575 0 -0.015204955883463685 -0.02681864865813198 0 -0.016055855364182282 -0.020061377107807768 0 -0.017053130623145719 -0.020277761407528731 0 -0.016193540569840289 -0.021393854089873803 0 -0.010061714510019198 -0.026534785149663526 0 -0.010097259618094684 -0.029427620786509668 0 -0.011451694971668439 -0.030252659632307513 0 0.02442852079739689 -0.011430033040245714 0 0.020981307429677722 -0.018400647235174677 0 0.020929352442496846 -0.011604136456974255 0 0.0039889333135062956 -0.016585445395768575 0 0.0060072783454452336 -0.024427786268586896 0 -0.010104869763614204 -0.030805895013278451 0 -0.010809597314487574 -0.032119990545458513 0 -0.011451694971668439 -0.030252659632307513 0 -0.010097259618094684 -0.029427620786509668 0 -0.010104869763614204 -0.030805895013278451 0 -0.011451694971668439 -0.030252659632307513 0 -0.0088519909246509345 -0.032591585140651615 0 -0.0087491143926850552 -0.029982346089008561 0 -0.009117713962232361 -0.031849676442820954 0 -0.015648614624596324 -0.023410511868914154 0 -0.016193540569840289 -0.021393854089873803 0 -0.017011766422294176 -0.02245785286690782 0 -0.010104869763614204 -0.030805895013278451 0 -0.0087491143926850552 -0.029982346089008561 0 -0.009117713962232361 -0.031849676442820954 0 -0.012113867294691055 -0.028843219498803929 0 -0.015204955883463685 -0.02681864865813198 0 -0.010097259618094684 -0.029427620786509668 0 -0.010104869763614204 -0.030805895013278451 0 -0.0087491143926850552 -0.029982346089008561 0 -0.0090054299877630976 -0.032746978369176803 0 -0.0088519909246509345 -0.032591585140651615 0 -0.009117713962232361 -0.031849676442820954 0 -0.0090054299877630976 -0.032746978369176803 0 -0.009117713962232361 -0.031849676442820954 0 -0.0089534039980250692 -0.03258813825380074 0 -0.010104869763614204 -0.030805895013278451 0 -0.009117713962232361 -0.031849676442820954 0 -0.010809597314487574 -0.032119990545458513 0 -0.0084768077423535027 -0.031692015749141739 0 -0.011521333799501734 -0.032916198335329425 0 0.017462907080017607 -0.025225519488761724 0 0.020981307429677722 -0.018400647235174677 0 0.015269332125314403 -0.022992576701713268 0 -0.0024984956320287205 -0.029356937169468685 0 -0.011521333799501734 -0.032916198335329425 0 -0.012279280573686623 -0.032622336753764601 0 -0.010809597314487574 -0.032119990545458513 0 -0.011451694971668439 -0.030252659632307513 0 -0.0024984956320287205 -0.029356937169468685 0 0.0060072783454452336 -0.024427786268586896 0 0.020981307429677722 -0.018400647235174677 0 0.014923782271602662 -0.019355727320868033 0 0.015863192730493275 -0.015780963045660571 0 0.020981307429677722 -0.018400647235174677 0 0.014923782271602662 -0.019355727320868033 0 0.015269332125314403 -0.022992576701713268 0 0.014923782271602662 -0.019355727320868033 0 0.015863192730493275 -0.015780963045660571 0 0.013459816507722946 -0.016903637815985584 0 0.014923782271602662 -0.019355727320868033 0 0.015269332125314403 -0.022992576701713268 0 0.012181368848821246 -0.022660715843106652 0 0.012501156852936571 -0.026855157095712373 0 0.015269332125314403 -0.022992576701713268 0 0.01254333644976879 -0.024469566415854089 0 0.012501156852936571 -0.026855157095712373 0 0.017462907080017607 -0.025225519488761724 0 0.015269332125314403 -0.022992576701713268 0 0.015269332125314403 -0.022992576701713268 0 0.01254333644976879 -0.024469566415854089 0 0.012181368848821246 -0.022660715843106652 0 0.010281807044396546 -0.025354649714417823 0 0.01254333644976879 -0.024469566415854089 0 0.012181368848821246 -0.022660715843106652 0 0.010281807044396546 -0.025354649714417823 0 0.012181368848821246 -0.022660715843106652 0 0.0090517123716891499 -0.022331878024088512 0 0.012181368848821246 -0.022660715843106652 0 0.0090517123716891499 -0.022331878024088512 0 0.006813260100528914 -0.020217085236722498 0 0.0098769616624135911 -0.022249488140231699 0 0.012068468403950452 -0.019396169161889392 0 0.010281807044396546 -0.025354649714417823 0 0.0090517123716891499 -0.022331878024088512 0 0.006931989104436583 -0.021120589211802172 0 0.008564053621009449 -0.024143909267072099 0 0.012534726149815824 -0.022305982411551139 0 0.010281807044396546 -0.025354649714417823 0 0.0075608541747205398 -0.024895655755017961 0 0.0071654963148744619 -0.021551245178903659 0 0.021050703731895631 -0.025642241479359965 0 0.020815415816136926 -0.025906792581380959 0 0.021241743288331127 -0.026144005658385795 0 0.020815415816136926 -0.025906792581380959 0 0.020909365130926939 -0.026576669166206126 0 0.021241743288331127 -0.026144005658385795 0 0.013747125686072731 -0.025255183027477104 0 0.012534726149815824 -0.022305982411551139 0 0.0064756061886407073 -0.01990316691646303 0 0.0058571261352359178 -0.015150902223482801 0 0.0087382312625774554 -0.017055422713210328 0 0.012068468403950452 -0.019396169161889392 0 0.014904310227903173 -0.016756351121984307 0 0.0064756061886407073 -0.01990316691646303 0 0.011304282046147801 -0.018798993514625315 0 0.0087382312625774554 -0.017055422713210328 0 0.01966011695821995 -0.016859336903764427 0 0.019770256799273328 -0.017532634341962169 0 0.019836638071492291 -0.016928470755145631 0 0.0090517123716891499 -0.022331878024088512 0 0.006931989104436583 -0.021120589211802172 0 0.006813260100528914 -0.020217085236722498 0 0.013868140876170252 -0.019862076677601936 0 0.014028381367741052 -0.021006999027729685 0 0.015320047286222891 -0.021590997814277892 0 0.012068468403950452 -0.019396169161889392 0 0.018618079740536898 -0.021730187932714289 0 0.012534726149815824 -0.022305982411551139 0 0.018618079740536898 -0.021730187932714289 0 0.012534726149815824 -0.022305982411551139 0 0.012068468403950452 -0.019396169161889392 0 0.012181368848821246 -0.022660715843106652 0 0.0064756061886407073 -0.01990316691646303 0 0.011304282046147801 -0.018798993514625315 0 0.014923782271602662 -0.019355727320868033 0 0.012181368848821246 -0.022660715843106652 0 0.011304282046147801 -0.018798993514625315 0 0.011304282046147801 -0.018798993514625315 0 0.010820956920800181 -0.015947970422750035 0 0.0087382312625774554 -0.017055422713210328 0 0.014923782271602662 -0.019355727320868033 0 0.011304282046147801 -0.018798993514625315 0 0.013459816507722946 -0.016903637815985584 0 0.011304282046147801 -0.018798993514625315 0 0.010820956920800181 -0.015947970422750035 0 0.013459816507722946 -0.016903637815985584 0 0.010820956920800181 -0.015947970422750035 0 0.012814286389567416 -0.014528868226037333 0 0.013459816507722946 -0.016903637815985584 0 0.010820956920800181 -0.015947970422750035 0 0.0087382312625774554 -0.017055422713210328 0 0.0088007911066334127 -0.015401775310707744 0 0.010820956920800181 -0.015947970422750035 0 0.0097801347739908864 -0.013450106593139451 0 0.0088007911066334127 -0.015401775310707744 0 0.010820956920800181 -0.015947970422750035 0 0.0097801347739908864 -0.013450106593139451 0 0.012814286389567416 -0.014528868226037333 0 0.0097801347739908864 -0.013450106593139451 0 0.012814286389567416 -0.014528868226037333 0 0.012143918107655414 -0.012119943272127866 0 0.012814286389567416 -0.014528868226037333 0 0.012143918107655414 -0.012119943272127866 0 0.014794050167851763 -0.012953769310097908 0 0.014904310227903173 -0.016756351121984307 0 0.021973414307199388 -0.012325766139084926 0 0.0058571261352359178 -0.015150902223482801 0 0.0087382312625774554 -0.017055422713210328 0 0.0088007911066334127 -0.015401775310707744 0 0.0097801347739908864 -0.013450106593139451 0 0.0058571261352359178 -0.015150902223482801 0 0.0088007911066334127 -0.015401775310707744 0 0.014904310227903173 -0.016756351121984307 0 0.017738098447489581 -0.0065994276082096837 0 0.017738098447489581 -0.0065994276082096837 0 0.021973414307199388 -0.012325766139084926 0 0.016643186298973073 -0.014325573197743406 0 0.02030526303478045 -0.0096852181161999513 0 0.01624238332598435 -0.01116549875518779 0 0.0097801347739908864 -0.013450106593139451 0 0.0058571261352359178 -0.015150902223482801 0 0.010687707109731421 -0.0090416045400049262 0 0.0097801347739908864 -0.013450106593139451 0 0.012143918107655414 -0.012119943272127866 0 0.010687707109731421 -0.0090416045400049262 0 0.010690703181892696 -0.0089778658275231835 0 0.0121424035282869 -0.0097762061815197896 0 0.011006943181851697 -0.0085768200388139735 0 0.017738098447489581 -0.0065994276082096837 0 0.014222724146958129 -0.0066587229157454826 0 0.012143918107655414 -0.012119943272127866 0 0.0121424035282869 -0.0097762061815197896 0 0.014990440309157057 -0.010025724345092645 0 0.012143918107655414 -0.012119943272127866 0 0.010687707109731421 -0.0090416045400049262 0 0.0121424035282869 -0.0097762061815197896 0 0.014990440309157057 -0.010025724345092645 0 0.017808933489232827 -0.012502774045892387 0 0.018735081318118733 -0.0080467739086834064 0 0.0121424035282869 -0.0097762061815197896 0 0.014990440309157057 -0.010025724345092645 0 0.014081785852718279 -0.0075664312998980398 0 0.012143918107655414 -0.012119943272127866 0 0.014990440309157057 -0.010025724345092645 0 0.014794050167851763 -0.012953769310097908 0 0.014990440309157057 -0.010025724345092645 0 0.014794050167851763 -0.012953769310097908 0 0.017808933489232827 -0.012502774045892387 0 0.022679805163930682 -0.0076319551677030487 0 0.020929352442496846 -0.011604136456974255 0 0.018735081318118733 -0.0080467739086834064 0 0.020929352442496846 -0.011604136456974255 0 0.017808933489232827 -0.012502774045892387 0 0.018735081318118733 -0.0080467739086834064 0 0.020981307429677722 -0.018400647235174677 0 0.020929352442496846 -0.011604136456974255 0 0.017808933489232827 -0.012502774045892387 0 0.020981307429677722 -0.018400647235174677 0 0.017808933489232827 -0.012502774045892387 0 0.015863192730493275 -0.015780963045660571 0 0.012814286389567416 -0.014528868226037333 0 0.015863192730493275 -0.015780963045660571 0 0.013459816507722946 -0.016903637815985584 0 0.012814286389567416 -0.014528868226037333 0 0.014794050167851763 -0.012953769310097908 0 0.015863192730493275 -0.015780963045660571 0 0.014794050167851763 -0.012953769310097908 0 0.017808933489232827 -0.012502774045892387 0 0.015863192730493275 -0.015780963045660571 0 0.023919254470966041 -0.026498714270254246 0 0.023252656907150226 -0.027063802310957449 0 0.023855669950698499 -0.027354701333400441 0 0.032423276009325881 -0.023036202123027157 0 0.02856271826836362 -0.024222152895801895 0 0.02465354932258285 -0.027023960208610642 0 0.023919254470966041 -0.026498714270254246 0 0.023855669950698499 -0.027354701333400441 0 0.024196181264125854 -0.02570543923715014 0 0.023919254470966041 -0.026498714270254246 0 0.023010412587992763 -0.026468338133810668 0 0.023014398636914637 -0.025418552491167784 0 0.024196181264125854 -0.02570543923715014 0 0.023010412587992763 -0.026468338133810668 0 0.023014398636914637 -0.025418552491167784 0 0.023010412587992763 -0.026468338133810668 0 0.022353203299014537 -0.026015187230205995 0 0.023919254470966041 -0.026498714270254246 0 0.023010412587992763 -0.026468338133810668 0 0.023252656907150226 -0.027063802310957449 0 0.023010412587992763 -0.026468338133810668 0 0.023252656907150226 -0.027063802310957449 0 0.022102931278003252 -0.027271811323481533 0 0.023010412587992763 -0.026468338133810668 0 0.022102931278003252 -0.027271811323481533 0 0.021834694620706054 -0.026672995920129231 0 0.023010412587992763 -0.026468338133810668 0 0.022353203299014537 -0.026015187230205995 0 0.021834694620706054 -0.026672995920129231 0 0.022144808950348042 -0.025440338772686841 0 0.022353203299014537 -0.026015187230205995 0 0.021756812018792791 -0.026090463326349327 0 0.022353203299014537 -0.026015187230205995 0 0.021756812018792791 -0.026090463326349327 0 0.021834694620706054 -0.026672995920129231 0 0.021756812018792791 -0.026090463326349327 0 0.02137610450835278 -0.026466740794227072 0 0.021834694620706054 -0.026672995920129231 0 0.021460075271646669 -0.025579602289949429 0 0.021756812018792791 -0.026090463326349327 0 0.021241743288331127 -0.026144005658385795 0 0.021756812018792791 -0.026090463326349327 0 0.021241743288331127 -0.026144005658385795 0 0.02137610450835278 -0.026466740794227072 0 0.020909365130926939 -0.026576669166206126 0 0.021241743288331127 -0.026144005658385795 0 0.02137610450835278 -0.026466740794227072 0 0.023217698788351334 -0.024022908782821029 0 0.018618079740536898 -0.021730187932714289 0 0.019770256799273328 -0.017532634341962169 0 0.019836638071492291 -0.016928470755145631 0 0.019995608648091266 -0.017281150994438339 0 0.024432968699653237 -0.020366464846995835 0 0.020827976074291769 -0.018760127642392141 0 0.022758613926834557 -0.021037470655346519 0 0.020909365130926939 -0.026576669166206126 0 0.02137610450835278 -0.026466740794227072 0 0.021143744293963655 -0.026855241445435881 0 0.02137610450835278 -0.026466740794227072 0 0.021143744293963655 -0.026855241445435881 0 0.021834694620706054 -0.026672995920129231 0 0.022102931278003252 -0.027271811323481533 0 0.021143744293963655 -0.026855241445435881 0 0.021834694620706054 -0.026672995920129231 0 0.019836638071492291 -0.016928470755145631 0 0.019995608648091266 -0.017281150994438339 0 0.020255370033427103 -0.017352031436452059 0 0.018618079740536898 -0.021730187932714289 0 0.021215560561514846 -0.018782292462871046 0 0.019865540606593627 -0.017475667758653897 0 0.020140079833463147 -0.017560309624941775 0 0.01995778733698568 -0.017953468636135343 0 0.019995608648091266 -0.017281150994438339 0 0.020255370033427103 -0.017352031436452059 0 0.020140079833463147 -0.017560309624941775 0 0.019865540606593627 -0.017475667758653897 0 0.019995608648091266 -0.017281150994438339 0 0.020140079833463147 -0.017560309624941775 0 0.014904310227903173 -0.016756351121984307 0 0.018193401776598162 -0.015998658434549735 0 0.021215560561514846 -0.018782292462871046 0 0.02741317342175708 -0.018430750748480284 0 0.020255370033427103 -0.017352031436452059 0 0.020140079833463147 -0.017560309624941775 0 0.020621648513437663 -0.017733990464727695 0 0.021973414307199388 -0.012325766139084926 0 0.02741317342175708 -0.018430750748480284 0 0.020140079833463147 -0.017560309624941775 0 0.01995778733698568 -0.017953468636135343 0 0.020621648513437663 -0.017733990464727695 0 0.028454443347810828 -0.011776824027617316 0 0.029071814588020963 -0.011588991671255827 0 0.029036351347947551 -0.012089763859075432 0 0.02741317342175708 -0.018430750748480284 0 0.032232015970642923 -0.016370230120004485 0 0.029071814588020963 -0.011588991671255827 0 0.02963307445591935 -0.012183424240554465 0 0.029036351347947551 -0.012089763859075432 0 0.024432968699653237 -0.020366464846995835 0 0.022758613926834557 -0.021037470655346519 0 0.024683835593192673 -0.023334491960945229 0 0.02741317342175708 -0.018430750748480284 0 0.02927876965837135 -0.022470644985495666 0 0.023217698788351334 -0.024022908782821029 0 0.02927876965837135 -0.022470644985495666 0 0.024432968699653237 -0.020366464846995835 0 0.024683835593192673 -0.023334491960945229 0 0.028027403098247385 -0.022004204971114241 0 0.033344615075136204 -0.020932086419173889 0 0.033983929290393095 -0.020733536983621324 0 0.034087873212268943 -0.021159268511608754 0 0.033933280904032831 -0.020801381617428536 0 0.034364990596002648 -0.020967060029585774 0 0.034504828814617999 -0.02059787854469261 0 0.02927876965837135 -0.022470644985495666 0 0.02856271826836362 -0.024222152895801895 0 0.023252656907150226 -0.027063802310957449 0 0.023069676671230901 -0.027674927456988109 0 0.023855669950698499 -0.027354701333400441 0 0.023252656907150226 -0.027063802310957449 0 0.022102931278003252 -0.027271811323481533 0 0.023069676671230901 -0.027674927456988109 0 0.02927876965837135 -0.022470644985495666 0 0.034574245166581606 -0.021998494455073476 0 0.033983929290393095 -0.020733536983621324 0 0.034087873212268943 -0.021159268511608754 0 0.034364990596002648 -0.020967060029585774 0 0.033344615075136204 -0.020932086419173889 0 0.034087873212268943 -0.021159268511608754 0 0.034050576276740165 -0.02157758345891268 0 0.034087873212268943 -0.021159268511608754 0 0.03472857970921555 -0.021509719893519994 0 0.034050576276740165 -0.02157758345891268 0 0.034087873212268943 -0.021159268511608754 0 0.034364990596002648 -0.020967060029585774 0 0.03472857970921555 -0.021509719893519994 0 0.034832794613070435 -0.020980857837131349 0 0.034364990596002648 -0.020967060029585774 0 0.03472857970921555 -0.021509719893519994 0 0.034832794613070435 -0.020980857837131349 0 0.034364990596002648 -0.020967060029585774 0 0.034504828814617999 -0.02059787854469261 0 0.035099166334550805 -0.020359098622755676 0 0.034832794613070435 -0.020980857837131349 0 0.034504828814617999 -0.02059787854469261 0 0.034610259325453259 -0.021936313402345614 0 0.03472857970921555 -0.021509719893519994 0 0.034050576276740165 -0.02157758345891268 0 0.032621858531521344 -0.01890472741102265 0 0.032232015970642923 -0.016370230120004485 0 0.03016187728858679 -0.012737153371187835 0 0.02963307445591935 -0.012183424240554465 0 0.029280260115367013 -0.012654687695732737 0 0.029077312773156515 -0.0050187742572152839 0 0.029206832431195876 -0.0045149373177689276 0 0.03016187728858679 -0.012737153371187835 0 0.029280260115367013 -0.012654687695732737 0 0.029999175357579892 -0.012950156960461954 0 0.029280260115367013 -0.012654687695732737 0 0.029036351347947551 -0.012089763859075432 0 0.028545690252420285 -0.012299565001726491 0 0.02963307445591935 -0.012183424240554465 0 0.029280260115367013 -0.012654687695732737 0 0.029036351347947551 -0.012089763859075432 0 0.021973414307199388 -0.012325766139084926 0 0.026485930472585555 -0.0027662231049749523 0 0.028454443347810828 -0.011776824027617316 0 0.029036351347947551 -0.012089763859075432 0 0.028545690252420285 -0.012299565001726491 0 0.026485930472585555 -0.0027662231049749523 0 0.026546407925335407 0.0038199072567005172 0 0.029077312773156515 -0.0050187742572152839 0 0.026485930472585555 -0.0027662231049749523 0 0.028029636163742384 0.0032899897121262691 0 0.026660696408857022 0.0038733818013239906 0 0.026794217721332673 0.0026614072594304847 0 0.026531714408170284 0.002313902242919903 0 0.026737691390834224 0.00092765726731366537 0 0.025481505285980404 0.001490182220574161 0 0.026546407925335407 0.0038199072567005172 0 0.026848139416774091 0.00078604843051435433 0 0.026794217721332673 0.0026614072594304847 0 0.026875264376435924 0.0012604274639423146 0 0.027942897394868129 0.0022724632346852987 0 0.026875264376435924 0.0012604274639423146 0 0.027942897394868129 0.0022724632346852987 0 0.028534295685568825 0.0014122336768704552 0 0.026875264376435924 0.0012604274639423146 0 0.028534295685568825 0.0014122336768704552 0 0.028080775956907836 0.00032072304059364577 0 0.028029636163742384 0.0032899897121262691 0 0.026794217721332673 0.0026614072594304847 0 0.027942897394868129 0.0022724632346852987 0 0.027942897394868129 0.0022724632346852987 0 0.028534295685568825 0.0014122336768704552 0 0.029638701195438294 0.0027266919402165824 0 0.028029636163742384 0.0032899897121262691 0 0.027942897394868129 0.0022724632346852987 0 0.029638701195438294 0.0027266919402165824 0 0.028534295685568825 0.0014122336768704552 0 0.029831070931799802 0.0014332098783902383 0 0.029638701195438294 0.0027266919402165824 0 0.028534295685568825 0.0014122336768704552 0 0.029831070931799802 0.0014332098783902383 0 0.029561597262707944 8.2669294574241956e-05 0 0.031694602488464167 0.0021072670276498294 0 0.030875808472688747 0.00057225163951225833 0 0.029831070931799802 0.0014332098783902383 0 0.03064050292497349 -0.01314937655750926 0 0.03016187728858679 -0.012737153371187835 0 0.029999175357579892 -0.012950156960461954 0 0.031694602488464167 0.0021072670276498294 0 0.029831070931799802 0.0014332098783902383 0 0.029638701195438294 0.0027266919402165824 0 0.033300788871914414 -0.0089415140283331147 0 0.029206832431195876 -0.0045149373177689276 0 0.021323415559094457 -0.0011973432892857416 0 0.016282736641671149 -0.0028193082221237369 0 0.020758455618906463 -0.0038163478467339558 0 0.016282736641671149 -0.0028193082221237369 0 0.020758455618906463 -0.0038163478467339558 0 0.017973319687579321 -0.0053330564931119854 0 0.022679805163930682 -0.0076319551677030487 0 0.020758455618906463 -0.0038163478467339558 0 0.018735081318118733 -0.0080467739086834064 0 0.020758455618906463 -0.0038163478467339558 0 0.017973319687579321 -0.0053330564931119854 0 0.018735081318118733 -0.0080467739086834064 0 0.017973319687579321 -0.0053330564931119854 0 0.018735081318118733 -0.0080467739086834064 0 0.016129872816515654 -0.0067893963134315017 0 0.016282736641671149 -0.0028193082221237369 0 0.017973319687579321 -0.0053330564931119854 0 0.016129872816515654 -0.0067893963134315017 0 0.014990440309157057 -0.010025724345092645 0 0.018735081318118733 -0.0080467739086834064 0 0.016129872816515654 -0.0067893963134315017 0 0.016282736641671149 -0.0028193082221237369 0 0.016129872816515654 -0.0067893963134315017 0 0.014081785852718279 -0.0075664312998980398 0 0.016282736641671149 -0.0028193082221237369 0 0.014081785852718279 -0.0075664312998980398 0 0.011006943181851697 -0.0085768200388139735 0 0.014990440309157057 -0.010025724345092645 0 0.016129872816515654 -0.0067893963134315017 0 0.014081785852718279 -0.0075664312998980398 0 0.0121424035282869 -0.0097762061815197896 0 0.014081785852718279 -0.0075664312998980398 0 0.011006943181851697 -0.0085768200388139735 0 0.023258942479988051 0.0031128807698292465 0 0.024600789496516839 0.0044633601470989871 0 0.025006956491556195 0.0037865244541226205 0 0.019745212368990649 0.00046633085525584996 0 0.018480387636542767 -0.0042565546824758112 0 0.02467798856072536 0.0045591706436632047 0 0.024600789496516839 0.0044633601470989871 0 0.025006956491556195 0.0037865244541226205 0 0.017738098447489581 -0.0065994276082096837 0 0.018480387636542767 -0.0042565546824758112 0 0.021000271442186288 -0.0069544386305236067 0 0.022234993216017841 -0.0065405751768110787 0 0.022402516375023017 -0.0076338445660244945 0 0.017738098447489581 -0.0065994276082096837 0 0.026485930472585555 -0.0027662231049749523 0 0.02467798856072536 0.0045591706436632047 0 0.026297829214797772 0.0037658180805079699 0 0.025006956491556195 0.0037865244541226205 0 0.026297829214797772 0.0037658180805079699 0 0.026531714408170284 0.002313902242919903 0 0.025194780568586837 0.0027476488783312113 0 0.026297829214797772 0.0037658180805079699 0 0.025006956491556195 0.0037865244541226205 0 0.025194780568586837 0.0027476488783312113 0 0.023258942479988051 0.0031128807698292465 0 0.025006956491556195 0.0037865244541226205 0 0.025194780568586837 0.0027476488783312113 0 0.023258942479988051 0.0031128807698292465 0 0.025194780568586837 0.0027476488783312113 0 0.02432930101940798 0.0019563448580166131 0 0.02432930101940798 0.0019563448580166131 0 0.025481505285980404 0.001490182220574161 0 0.024278254998655317 0.0010066184371519795 0 0.025194780568586837 0.0027476488783312113 0 0.02432930101940798 0.0019563448580166131 0 0.025481505285980404 0.001490182220574161 0 0.02432930101940798 0.0019563448580166131 0 0.024278254998655317 0.0010066184371519795 0 0.023255230135282034 0.0015277701963838149 0 0.026531714408170284 0.002313902242919903 0 0.025194780568586837 0.0027476488783312113 0 0.025481505285980404 0.001490182220574161 0 0.026737691390834224 0.00092765726731366537 0 0.025481505285980404 0.001490182220574161 0 0.025483954775173623 0.00011815368837433775 0 0.025481505285980404 0.001490182220574161 0 0.024278254998655317 0.0010066184371519795 0 0.025483954775173623 0.00011815368837433775 0 0.024278254998655317 0.0010066184371519795 0 0.023997875338447116 0.00025497022512066802 0 0.025483954775173623 0.00011815368837433775 0 0.023063411514334688 0.00073729341215778878 0 0.023255230135282034 0.0015277701963838149 0 0.021167725214341467 0.00077957600335528147 0 0.024278254998655317 0.0010066184371519795 0 0.023063411514334688 0.00073729341215778878 0 0.023997875338447116 0.00025497022512066802 0 0.024278254998655317 0.0010066184371519795 0 0.023063411514334688 0.00073729341215778878 0 0.023255230135282034 0.0015277701963838149 0 0.023258942479988051 0.0031128807698292465 0 0.02432930101940798 0.0019563448580166131 0 0.023255230135282034 0.0015277701963838149 0 0.023258942479988051 0.0031128807698292465 0 0.023255230135282034 0.0015277701963838149 0 0.021167725214341467 0.00077957600335528147 0 0.019745212368990649 0.00046633085525584996 0 0.020969916087168243 0.00059865628717541792 0 0.021323415559094457 -0.0011973432892857416 0 0.016282736641671149 -0.0028193082221237369 0 0.021167725214341467 0.00077957600335528147 0 0.023063411514334688 0.00073729341215778878 0 0.021167725214341467 0.00077957600335528147 0 0.022554209002120316 0.00018918322880976732 0 0.021167725214341467 0.00077957600335528147 0 0.0217049134718258 0.00033384583466860727 0 0.022554209002120316 0.00018918322880976732 0 0.0217049134718258 0.00033384583466860727 0 0.022554209002120316 0.00018918322880976732 0 0.021775468749134434 -0.00042451700309816562 0 0.0217049134718258 0.00033384583466860727 0 0.021775468749134434 -0.00042451700309816562 0 0.021044504630772509 -0.00088901773762024502 0 0.022554209002120316 0.00018918322880976732 0 0.021775468749134434 -0.00042451700309816562 0 0.022036962146035462 -0.0014152860849667992 0 0.021775468749134434 -0.00042451700309816562 0 0.022036962146035462 -0.0014152860849667992 0 0.021044504630772509 -0.00088901773762024502 0 0.022036962146035462 -0.0014152860849667992 0 0.018846191114164752 -0.0053839369526229933 0 0.018361129993074144 -0.00072622964526536209 0 0.024176231601345133 -0.0017840096287280941 0 0.01164838482073581 -0.0039632651222633918 0 0.022554209002120316 0.00018918322880976732 0 0.022036962146035462 -0.0014152860849667992 0 0.024385852118487174 -0.00066392265022265106 0 0.022036962146035462 -0.0014152860849667992 0 0.024385852118487174 -0.00066392265022265106 0 0.022689551271927302 -0.0055583562236398553 0 0.022554209002120316 0.00018918322880976732 0 0.024385852118487174 -0.00066392265022265106 0 0.023997875338447116 0.00025497022512066802 0 0.023063411514334688 0.00073729341215778878 0 0.022554209002120316 0.00018918322880976732 0 0.023997875338447116 0.00025497022512066802 0 0.024385852118487174 -0.00066392265022265106 0 0.023997875338447116 0.00025497022512066802 0 0.025483954775173623 0.00011815368837433775 0 0.025483954775173623 0.00011815368837433775 0 0.02583454255857091 -0.00077527710332522619 0 0.026983398502484268 -0.00019604209420116659 0 0.024385852118487174 -0.00066392265022265106 0 0.02583454255857091 -0.00077527710332522619 0 0.025256436497906053 -0.0010982230079482629 0 0.024385852118487174 -0.00066392265022265106 0 0.025483954775173623 0.00011815368837433775 0 0.02583454255857091 -0.00077527710332522619 0 0.025256436497906053 -0.0010982230079482629 0 0.026033631655034389 -0.0012651410848638668 0 0.025591242148185197 -0.0013110664570687347 0 0.02583454255857091 -0.00077527710332522619 0 0.025256436497906053 -0.0010982230079482629 0 0.026033631655034389 -0.0012651410848638668 0 0.02583454255857091 -0.00077527710332522619 0 0.026033631655034389 -0.0012651410848638668 0 0.026965174973019892 -0.0011694083500703911 0 0.026033631655034389 -0.0012651410848638668 0 0.026876383762382682 -0.0015967435213692874 0 0.026220603584049647 -0.0014806055152163647 0 0.026033631655034389 -0.0012651410848638668 0 0.025591242148185197 -0.0013110664570687347 0 0.026220603584049647 -0.0014806055152163647 0 0.025591242148185197 -0.0013110664570687347 0 0.025753814774515486 -0.0014391542146660182 0 0.026220603584049647 -0.0014806055152163647 0 0.025591242148185197 -0.0013110664570687347 0 0.025463080877789521 -0.001384686807762972 0 0.025753814774515486 -0.0014391542146660182 0 0.025591242148185197 -0.0013110664570687347 0 0.025463080877789521 -0.001384686807762972 0 0.025218248091683607 -0.0012191985193921197 0 0.024161471188809513 -0.0042804990609178447 0 0.020005427568822731 -0.002560494130870089 0 0.025463080877789521 -0.001384686807762972 0 0.025218248091683607 -0.0012191985193921197 0 0.02526553508632004 -0.001480604924910251 0 0.022689551271927302 -0.0055583562236398553 0 0.019825738188855593 -0.012540863643485394 0 0.018846191114164752 -0.0053839369526229933 0 0.022036962146035462 -0.0014152860849667992 0 0.022689551271927302 -0.0055583562236398553 0 0.018846191114164752 -0.0053839369526229933 0 0.024385852118487174 -0.00066392265022265106 0 0.025256436497906053 -0.0010982230079482629 0 0.025218248091683607 -0.0012191985193921197 0 0.024435095122761114 -0.00041028886091917192 0 0.024161471188809513 -0.0042804990609178447 0 0.025256436497906053 -0.0010982230079482629 0 0.025591242148185197 -0.0013110664570687347 0 0.025218248091683607 -0.0012191985193921197 0 0.030448318539133271 -0.0012860039638909802 0 0.029561597262707944 8.2669294574241956e-05 0 0.028351710150407654 -0.0010234100871196687 0 0.031219758469015046 -0.00050787987919005033 0 0.030448318539133271 -0.0012860039638909802 0 0.029561597262707944 8.2669294574241956e-05 0 0.031219758469015046 -0.00050787987919005033 0 0.030875808472688747 0.00057225163951225833 0 0.029561597262707944 8.2669294574241956e-05 0 0.030875808472688747 0.00057225163951225833 0 0.029831070931799802 0.0014332098783902383 0 0.029561597262707944 8.2669294574241956e-05 0 0.029561597262707944 8.2669294574241956e-05 0 0.028351710150407654 -0.0010234100871196687 0 0.028080775956907836 0.00032072304059364577 0 0.028534295685568825 0.0014122336768704552 0 0.029561597262707944 8.2669294574241956e-05 0 0.028080775956907836 0.00032072304059364577 0 0.028351710150407654 -0.0010234100871196687 0 0.026983398502484268 -0.00019604209420116659 0 0.026965174973019892 -0.0011694083500703911 0 0.028351710150407654 -0.0010234100871196687 0 0.028080775956907836 0.00032072304059364577 0 0.026983398502484268 -0.00019604209420116659 0 0.026875264376435924 0.0012604274639423146 0 0.028080775956907836 0.00032072304059364577 0 0.026983398502484268 -0.00019604209420116659 0 0.026848139416774091 0.00078604843051435433 0 0.0269552866672403 2.6759109398224225e-06 0 0.026737691390834224 0.00092765726731366537 0 0.025483954775173623 0.00011815368837433775 0 0.026983398502484268 -0.00019604209420116659 0 0.02583454255857091 -0.00077527710332522619 0 0.026983398502484268 -0.00019604209420116659 0 0.026965174973019892 -0.0011694083500703911 0 0.026033631655034389 -0.0012651410848638668 0 0.026965174973019892 -0.0011694083500703911 0 0.026876383762382682 -0.0015967435213692874 0 0.026965174973019892 -0.0011694083500703911 0 0.026876383762382682 -0.0015967435213692874 0 0.027543012421768678 -0.0019010556079315044 0 0.028351710150407654 -0.0010234100871196687 0 0.026965174973019892 -0.0011694083500703911 0 0.027543012421768678 -0.0019010556079315044 0 0.028351710150407654 -0.0010234100871196687 0 0.027543012421768678 -0.0019010556079315044 0 0.029785223155053123 -0.002391331303338701 0 0.027647463153864505 -0.0019404845853989731 0 0.028552763815973985 -0.0019370411024032569 0 0.027543012421768678 -0.0019010556079315044 0 0.027031017652245474 -0.0016237529110483973 0 0.027158717372415528 -0.0015322192434625078 0 0.030448318539133271 -0.0012860039638909802 0 0.028351710150407654 -0.0010234100871196687 0 0.029785223155053123 -0.002391331303338701 0 0.026974141233311676 -0.0014440048987482679 0 0.026814077264703404 -0.0010551269881678019 0 0.027088066795608014 -0.00099055410358254319 0 0.026974141233311676 -0.0014440048987482679 0 0.02719265640972587 -0.0012730160520689187 0 0.027088066795608014 -0.00099055410358254319 0 0.026974141233311676 -0.0014440048987482679 0 0.027158717372415528 -0.0015322192434625078 0 0.02719265640972587 -0.0012730160520689187 0 0.026974141233311676 -0.0014440048987482679 0 0.027031017652245474 -0.0016237529110483973 0 0.027158717372415528 -0.0015322192434625078 0 0.027543012421768678 -0.0019010556079315044 0 0.027158717372415528 -0.0015322192434625078 0 0.027281891156620591 -0.0015080724338401444 0 0.027158717372415528 -0.0015322192434625078 0 0.02719265640972587 -0.0012730160520689187 0 0.027281891156620591 -0.0015080724338401444 0 0.027281891156620591 -0.0015080724338401444 0 0.026801645794743024 -0.0015021554837874995 0 0.027150653355318383 -0.0012906417251121183 0 0.02719265640972587 -0.0012730160520689187 0 0.027281891156620591 -0.0015080724338401444 0 0.027150653355318383 -0.0012906417251121183 0 0.026876383762382682 -0.0015967435213692874 0 0.027543012421768678 -0.0019010556079315044 0 0.027281891156620591 -0.0015080724338401444 0 0.026876383762382682 -0.0015967435213692874 0 0.027281891156620591 -0.0015080724338401444 0 0.026801645794743024 -0.0015021554837874995 0 0.026801645794743024 -0.0015021554837874995 0 0.027150653355318383 -0.0012906417251121183 0 0.026810376245455694 -0.0014583913607651381 0 0.02717474733340864 -0.00084963281728132184 0 0.027150653355318383 -0.0012906417251121183 0 0.026810376245455694 -0.0014583913607651381 0 0.03037707625897761 0.027293350018613834 0 0.029938067290581967 0.027110540196813662 0 0.029931713690013562 0.027032758059175422 0 0.028775213324010881 0.01320817351683214 0 0.028297411060574196 0.012891805242185262 0 0.02717474733340864 -0.00084963281728132184 0 0.027150653355318383 -0.0012906417251121183 0 0.027220870734669833 -0.00091219523509082818 0 0.02719265640972587 -0.0012730160520689187 0 0.027150653355318383 -0.0012906417251121183 0 0.027220870734669833 -0.00091219523509082818 0 0.027220870734669833 -0.00091219523509082818 0 0.027191005431743211 -0.0002330795795503196 0 0.027088066795608014 -0.00099055410358254319 0 0.02719265640972587 -0.0012730160520689187 0 0.027220870734669833 -0.00091219523509082818 0 0.027088066795608014 -0.00099055410358254319 0 0.02717474733340864 -0.00084963281728132184 0 0.027220870734669833 -0.00091219523509082818 0 0.027191005431743211 -0.0002330795795503196 0 0.02717474733340864 -0.00084963281728132184 0 0.027191005431743211 -0.0002330795795503196 0 0.02722373929359885 -0.00047921533010975118 0 0.027191005431743211 -0.0002330795795503196 0 0.027803472389264373 -0.00029918892002528998 0 0.02722373929359885 -0.00047921533010975118 0 0.02862487259429004 0.00023089582658629952 0 0.027191005431743211 -0.0002330795795503196 0 0.027803472389264373 -0.00029918892002528998 0 0.027732405113946514 0.00045674544065406407 0 0.027224753552533773 -0.00014879540025854182 0 0.026814077264703404 -0.0010551269881678019 0 0.027191005431743211 -0.0002330795795503196 0 0.027088066795608014 -0.00099055410358254319 0 0.029123971763128264 0.027019070154985003 0 0.028939602211438483 0.027060093168091836 0 0.029512692144710199 0.027039199370426849 0 0.026235301563347687 0.014125781167632473 0 0.028022603757822687 0.012466054475858954 0 0.029123971763128264 0.027019070154985003 0 0.028851565351390669 0.027135335594111999 0 0.029080213426682509 0.026844989289731919 0 0.025424136169797388 -0.0015808109805224577 0 0.025655275396546391 -0.0015141897815247121 0 0.026031432315314591 -0.0016614098534434077 0 0.025699597925146991 0.025698546872607555 0 0.026235301563347687 0.014125781167632473 0 0.028851565351390669 0.027135335594111999 0 0.029080213426682509 0.026844989289731919 0 0.02844248527345352 0.027075868737238412 0 0.018751697638480645 0.024082717277803176 0 0.011630668158402736 0.021011554784797187 0 0.026235301563347687 0.014125781167632473 0 0.018450415650015414 0.010653980349864591 0 0.028851565351390669 0.027135335594111999 0 0.028501210154639672 0.02720629605200512 0 0.02844248527345352 0.027075868737238412 0 0.018450415650015414 0.010653980349864591 0 0.011630668158402736 0.021011554784797187 0 0.026235301563347687 0.014125781167632473 0 0.020005427568822731 -0.002560494130870089 0 0.025424136169797388 -0.0015808109805224577 0 0.02526553508632004 -0.001480604924910251 0 0.025655275396546391 -0.0015141897815247121 0 0.022136338123822423 0.00884536184521581 0 0.021947322113862505 0.0088757353213356725 0 0.021970788070044895 0.0089222945920139091 0 0.018450415650015414 0.010653980349864591 0 0.020005427568822731 -0.002560494130870089 0 0.025463080877789521 -0.001384686807762972 0 0.02526553508632004 -0.001480604924910251 0 0.025655275396546391 -0.0015141897815247121 0 0.025463080877789521 -0.001384686807762972 0 0.025655275396546391 -0.0015141897815247121 0 0.025753814774515486 -0.0014391542146660182 0 0.025655275396546391 -0.0015141897815247121 0 0.025753814774515486 -0.0014391542146660182 0 0.02621660985311023 -0.0015373117833792217 0 0.025753814774515486 -0.0014391542146660182 0 0.026220603584049647 -0.0014806055152163647 0 0.02621660985311023 -0.0015373117833792217 0 0.026876383762382682 -0.0015967435213692874 0 0.026801645794743024 -0.0015021554837874995 0 0.026220603584049647 -0.0014806055152163647 0 0.026801645794743024 -0.0015021554837874995 0 0.026220603584049647 -0.0014806055152163647 0 0.02621660985311023 -0.0015373117833792217 0 0.026801645794743024 -0.0015021554837874995 0 0.02621660985311023 -0.0015373117833792217 0 0.026810376245455694 -0.0014583913607651381 0 0.02621660985311023 -0.0015373117833792217 0 0.026031432315314591 -0.0016614098534434077 0 0.026810376245455694 -0.0014583913607651381 0 0.025655275396546391 -0.0015141897815247121 0 0.02621660985311023 -0.0015373117833792217 0 0.026031432315314591 -0.0016614098534434077 0 0.029512692144710199 0.027039199370426849 0 0.029938067290581967 0.027110540196813662 0 0.029554919903558127 0.026962603100090587 0 0.029512692144710199 0.027039199370426849 0 0.029554919903558127 0.026962603100090587 0 0.029323473055667189 0.026958739687820251 0 0.028022603757822687 0.012466054475858954 0 0.028297411060574196 0.012891805242185262 0 0.029938067290581967 0.027110540196813662 0 0.029554919903558127 0.026962603100090587 0 0.029931713690013562 0.027032758059175422 0 0.029507319886291097 0.026876026914937158 0 0.029554919903558127 0.026962603100090587 0 0.029931713690013562 0.027032758059175422 0 0.018832196461069945 0.023138580301418261 0 0.018751697638480645 0.024082717277803176 0 0.029507319886291097 0.026876026914937158 0 0.029554919903558127 0.026962603100090587 0 0.029080213426682509 0.026844989289731919 0 0.0082926819864898964 0.019404346154996567 0 0.0070474719663860099 0.020606571842717195 0 0.0060883900312074263 0.019577599289055128 0 0.029554919903558127 0.026962603100090587 0 0.029080213426682509 0.026844989289731919 0 0.029323473055667189 0.026958739687820251 0 0.029123971763128264 0.027019070154985003 0 0.029512692144710199 0.027039199370426849 0 0.029323473055667189 0.026958739687820251 0 0.029123971763128264 0.027019070154985003 0 0.029080213426682509 0.026844989289731919 0 0.029323473055667189 0.026958739687820251 0 0.0070474719663860099 0.020606571842717195 0 0.0052507176079313314 0.020800018845342393 0 0.0058119372466241097 0.021948205183796039 0 0.0070474719663860099 0.020606571842717195 0 0.0060883900312074263 0.019577599289055128 0 0.0052507176079313314 0.020800018845342393 0 0.0060883900312074263 0.019577599289055128 0 0.0049809619140314901 0.019896615072045327 0 0.0052507176079313314 0.020800018845342393 0 0.0049809619140314901 0.019896615072045327 0 0.0038227648027310129 0.019427462484433083 0 0.0055107436414458914 0.018432850759965161 0 0.0060883900312074263 0.019577599289055128 0 0.0049809619140314901 0.019896615072045327 0 0.0055107436414458914 0.018432850759965161 0 0.0049809619140314901 0.019896615072045327 0 0.0038227648027310129 0.019427462484433083 0 0.0041239916133930139 0.020414271437347118 0 0.0041239916133930139 0.020414271437347118 0 0.0052507176079313314 0.020800018845342393 0 0.0040547751112172403 0.021351814748506493 0 0.0049809619140314901 0.019896615072045327 0 0.0041239916133930139 0.020414271437347118 0 0.0052507176079313314 0.020800018845342393 0 -0.025350848363140527 0.018361447818675509 0 -0.026686647718247785 0.016743216268676465 0 -0.025847566527400126 0.018861076773178026 0 -0.012086906560737994 0.018274745124158637 0 -0.011904756384496255 0.018667809065701667 0 -0.025350848363140527 0.018361447818675509 0 -0.025591513635691426 0.01878633327888991 0 -0.025847566527400126 0.018861076773178026 0 0.0038227648027310129 0.019427462484433083 0 0.0025676456828673064 0.020489972613084426 0 0.0022353679846388581 0.019117744540252724 0 0.0041239916133930139 0.020414271437347118 0 0.0025676456828673064 0.020489972613084426 0 0.0040547751112172403 0.021351814748506493 0 0.0038227648027310129 0.019427462484433083 0 0.0041239916133930139 0.020414271437347118 0 0.0025676456828673064 0.020489972613084426 0 -0.026686647718247785 0.016743216268676465 0 -0.025220677892802596 0.017001979571773185 0 -0.024524675839074486 0.015688323871878362 0 -0.026686647718247785 0.016743216268676465 0 -0.025834861393217591 0.014500040954479893 0 -0.024524675839074486 0.015688323871878362 0 -0.025350848363140527 0.018361447818675509 0 -0.026686647718247785 0.016743216268676465 0 -0.025220677892802596 0.017001979571773185 0 -0.025834861393217591 0.014500040954479893 0 -0.024646605553982934 0.012681651584584074 0 -0.024524675839074486 0.015688323871878362 0 -0.026686647718247785 0.016743216268676465 0 -0.025834861393217591 0.014500040954479893 0 -0.027485246836646781 0.012778530860672821 0 -0.012086906560737994 0.018274745124158637 0 -0.012128524610367628 0.018935357487867309 0 -0.025834861393217591 0.014500040954479893 0 -0.027485246836646781 0.012778530860672821 0 -0.024646605553982934 0.012681651584584074 0 0.0025676456828673064 0.020489972613084426 0 0.0028404919490563128 0.021685359257757508 0 0.0040547751112172403 0.021351814748506493 0 0.0028404919490563128 0.021685359257757508 0 0.0039033910300585281 0.022475688045409486 0 0.0029977237337219399 0.022784869062001129 0 0.0028404919490563128 0.021685359257757508 0 0.0040547751112172403 0.021351814748506493 0 0.0039033910300585281 0.022475688045409486 0 -0.012128524610367628 0.018935357487867309 0 -0.012878064235231084 0.0075603093140086067 0 -0.027485246836646781 0.012778530860672821 0 -0.028041904008075852 0.0086648409783139091 0 -0.025406058739879556 0.0097247721131153483 0 -0.027485246836646781 0.012778530860672821 0 -0.025406058739879556 0.0097247721131153483 0 -0.024646605553982934 0.012681651584584074 0 0.0052507176079313314 0.020800018845342393 0 0.0049126959478689655 0.021434882370594877 0 0.0040547751112172403 0.021351814748506493 0 0.0049126959478689655 0.021434882370594877 0 0.0054571237956415981 0.02149099718836284 0 0.0048548587556493297 0.022110652367200289 0 0.0052507176079313314 0.020800018845342393 0 0.0049126959478689655 0.021434882370594877 0 0.0054571237956415981 0.02149099718836284 0 0.005171268514723988 0.02034666092217334 0 0.011630668158402736 0.021011554784797187 0 0.0049126959478689655 0.021434882370594877 0 0.0040547751112172403 0.021351814748506493 0 0.0048548587556493297 0.022110652367200289 0 0.0040547751112172403 0.021351814748506493 0 0.0039033910300585281 0.022475688045409486 0 0.0048548587556493297 0.022110652367200289 0 -0.0014872861324279926 0.0030681870002072752 0 0.00053835091940447773 0.0021869873848491873 0 -0.0013324935797663169 0.0041174750765259728 0 0.0017574068744043176 0.012380708663629369 0 0.0059049668009064672 0.0082583362349575948 0 0.01084008388941528 0.013039939840014059 0 0.01066729903845888 0.012658271176412694 0 0.009905987938774171 0.013445710490105995 0 0.018450415650015414 0.010653980349864591 0 0.0059049668009064672 0.0082583362349575948 0 0.012104889926095994 -0.005934585812983526 0 0.01249826559609713 -0.0050288634491471428 0 0.0092803481183262107 -0.0045971853331597638 0 0.011630668158402736 0.021011554784797187 0 0.0059049668009064672 0.0082583362349575948 0 0.01249826559609713 -0.0050288634491471428 0 0.0092803481183262107 -0.0045971853331597638 0 0.0095900908227578123 -0.0019739728218710353 0 0.020005427568822731 -0.002560494130870089 0 0.012789159489108968 -0.0059005009699227978 0 0.016223848427121754 -0.0088196712204312976 0 0.018846191114164752 -0.0053839369526229933 0 0.011565162337765793 -0.0044785871218074825 0 0.019825738188855593 -0.012540863643485394 0 0.016223848427121754 -0.0088196712204312976 0 0.018846191114164752 -0.0053839369526229933 0 0.0092803481183262107 -0.0045971853331597638 0 0.0095900908227578123 -0.0019739728218710353 0 0.0063873358780582529 -0.0013936978663188632 0 0.019864853098689805 -0.0033250069308551114 0 0.01164838482073581 -0.0039632651222633918 0 0.018846191114164752 -0.0053839369526229933 0 0.011565162337765793 -0.0044785871218074825 0 0.01326108954278981 -0.00022690918873565137 0 0.018846191114164752 -0.0053839369526229933 0 0.017480347168258793 0.002413303405634695 0 0.01326108954278981 -0.00022690918873565137 0 0.0067112480131679237 0.0010398779290900265 0 0.0063873358780582529 -0.0013936978663188632 0 0.0035468588723365415 0.0017767117239978019 0 0.011565162337765793 -0.0044785871218074825 0 0.0065589940092008938 0.0005578232716512521 0 0.01326108954278981 -0.00022690918873565137 0 0.0096679275152618087 -0.0016659133719657273 0 -0.0017719688834902901 -0.00095768784283207804 0 -0.0014872861324279926 0.0030681870002072752 0 -0.0013324935797663169 0.0041174750765259728 0 -0.003410577007191779 0.0039796938021563807 0 0.0059049668009064672 0.0082583362349575948 0 0.0036777679560820388 0.00043391246641411301 0 0.0095900908227578123 -0.0019739728218710353 0 0.0067112480131679237 0.0010398779290900265 0 0.0063873358780582529 -0.0013936978663188632 0 0.012789159489108968 -0.0059005009699227978 0 0.0096679275152618087 -0.0016659133719657273 0 -0.0013324935797663169 0.0041174750765259728 0 -0.003410577007191779 0.0039796938021563807 0 -0.0030919670051541945 0.0059983671625485858 0 0.0017574068744043176 0.012380708663629369 0 -0.012878064235231084 0.0075603093140086067 0 -0.028041904008075852 0.0086648409783139091 0 -0.025406058739879556 0.0097247721131153483 0 -0.024624020601446379 0.0068139223027469074 0 -0.012878064235231084 0.0075603093140086067 0 -0.026338797155302525 -0.001161146612895945 0 -0.023087936948395182 -0.0088211253186250699 0 -0.023878746128773602 -0.008690063611781559 0 -0.023359016878846395 -0.0084314081790516551 0 -0.023878746128773602 -0.008690063611781559 0 -0.023359016878846395 -0.0084314081790516551 0 -0.023914816015031721 -0.0081562553786852041 0 -0.023087936948395182 -0.0088211253186250699 0 -0.023359016878846395 -0.0084314081790516551 0 -0.022968200645188157 -0.0083952895053448912 0 0.0036777679560820388 0.00043391246641411301 0 -0.0089890756456936088 -0.0026748564008707123 0 -0.012878064235231084 0.0075603093140086067 0 -0.0089890756456936088 -0.0026748564008707123 0 -0.023359016878846395 -0.0084314081790516551 0 -0.02302714153524086 -0.008337436323031194 0 -0.022968200645188157 -0.0083952895053448912 0 -0.023359016878846395 -0.0084314081790516551 0 -0.02302714153524086 -0.008337436323031194 0 -0.023351085937660224 -0.0080855927216699694 0 -0.011063200407024368 -0.0024116949661486965 0 -0.0089890756456936088 -0.0026748564008707123 0 -0.0089890756456936088 -0.0026748564008707123 0 -0.0017719688834902901 -0.00095768784283207804 0 0.0067112480131679237 0.0010398779290900265 0 0.0035468588723365415 0.0017767117239978019 0 0.0038931775692322254 0.0040257217224550345 0 -0.02302714153524086 -0.008337436323031194 0 -0.022936831774265573 -0.0084153066426489904 0 -0.022837964112183282 -0.0080401186817843952 0 0.0065589940092008938 0.0005578232716512521 0 0.0023342820315971858 0.0051318994856103797 0 0.010149078725304579 0.0037999199863915424 0 -0.02302714153524086 -0.008337436323031194 0 -0.022837964112183282 -0.0080401186817843952 0 -0.023351085937660224 -0.0080855927216699694 0 -0.022837964112183282 -0.0080401186817843952 0 -0.023351085937660224 -0.0080855927216699694 0 -0.023275900163166524 -0.0076294563444660006 0 -0.0017719688834902901 -0.00095768784283207804 0 -0.011364893417775506 -0.0043096600825443246 0 -0.023275900163166524 -0.0076294563444660006 0 -0.02400825317601012 -0.007620137946143332 0 -0.023914816015031721 -0.0081562553786852041 0 -0.023359016878846395 -0.0084314081790516551 0 -0.023351085937660224 -0.0080855927216699694 0 -0.023914816015031721 -0.0081562553786852041 0 -0.023351085937660224 -0.0080855927216699694 0 -0.023275900163166524 -0.0076294563444660006 0 -0.023914816015031721 -0.0081562553786852041 0 -0.011364893417775506 -0.0043096600825443246 0 -0.022051802225245703 -0.008575562258270733 0 -0.015600799076374768 -0.010182791509150677 0 -0.017272551070723577 -0.0083688223668113796 0 -0.018202078500944931 -0.0097850976416581237 0 -0.010997058402504664 -0.0091924527874497619 0 -0.011072592515017014 -0.0083052643854227073 0 -0.0107842761967001 -0.0083323790286595738 0 -0.011364893417775506 -0.0043096600825443246 0 -0.01366269641528586 -0.0088180768565418541 0 -0.0084999717618831419 -0.0074244539920096291 0 -0.011072592515017014 -0.0083052643854227073 0 -0.0096044666986981244 -0.0087430202540843948 0 -0.0084999717618831419 -0.0074244539920096291 0 -0.0096044666986981244 -0.0087430202540843948 0 -0.0078628508464417875 -0.010104343547140515 0 -0.010997058402504664 -0.0091924527874497619 0 -0.0096044666986981244 -0.0087430202540843948 0 -0.0078628508464417875 -0.010104343547140515 0 -0.011364893417775506 -0.0043096600825443246 0 0.0014444224794952878 -0.003015327829206862 0 -0.010997058402504664 -0.0091924527874497619 0 -0.011072592515017014 -0.0083052643854227073 0 -0.0096044666986981244 -0.0087430202540843948 0 -0.0055066675994823447 -0.0069976992730837791 0 -0.0084999717618831419 -0.0074244539920096291 0 -0.0078628508464417875 -0.010104343547140515 0 -0.0055066675994823447 -0.0069976992730837791 0 -0.004678660773323233 -0.010623958577400309 0 -0.0078628508464417875 -0.010104343547140515 0 0.021631190038969232 0.00098622498747839198 0 0.0217049134718258 0.00033384583466860727 0 0.021044504630772509 -0.00088901773762024502 0 0.0075100753646722661 -0.0036835442936717332 0 0.01164838482073581 -0.0039632651222633918 0 0.01164838482073581 -0.0039632651222633918 0 0.0014444224794952878 -0.003015327829206862 0 0.017480347168258793 0.002413303405634695 0 0.01326108954278981 -0.00022690918873565137 0 0.010149078725304579 0.0037999199863915424 0 0.0065589940092008938 0.0005578232716512521 0 0.01326108954278981 -0.00022690918873565137 0 0.010149078725304579 0.0037999199863915424 0 -0.024022272145906541 -0.0038437956443866609 0 -0.02214067708025139 -0.0018211066520765172 0 -0.024518128207489071 -0.0084332952070739972 0 -0.024737185978376233 -0.009574337157569935 0 -0.024978037015692491 -0.0084667855129003967 0 -0.030959719289545915 -0.0048290383407541817 0 -0.027764839908407373 -0.0038728917448546578 0 -0.029652879307309171 -0.0012698748281239243 0 -0.030959719289545915 -0.0048290383407541817 0 -0.027764839908407373 -0.0038728917448546578 0 -0.026455954760187896 -0.0073975953530184529 0 -0.024022272145906541 -0.0038437956443866609 0 -0.025003411066402893 -0.008497968324783561 0 -0.025097153299172528 -0.0047276223160982178 0 -0.027764839908407373 -0.0038728917448546578 0 -0.026449747492908026 -0.0010392358103021805 0 -0.025097153299172528 -0.0047276223160982178 0 -0.027764839908407373 -0.0038728917448546578 0 -0.026455954760187896 -0.0073975953530184529 0 -0.024310017259794984 -0.0087143743095082354 0 -0.022811397224512846 -0.0095421262600681855 0 -0.023652121062141311 -0.010176361905484398 0 -0.022596712728824412 -0.010882548530072757 0 -0.022811397224512846 -0.0095421262600681855 0 -0.023652121062141311 -0.010176361905484398 0 -0.024518128207489071 -0.0084332952070739972 0 -0.023652121062141311 -0.010176361905484398 0 -0.024737185978376233 -0.009574337157569935 0 -0.024746444935058679 -0.010998193416096003 0 -0.023652121062141311 -0.010176361905484398 0 -0.024737185978376233 -0.009574337157569935 0 -0.024022272145906541 -0.0038437956443866609 0 -0.023228240977890145 -0.011420171163439862 0 -0.024746444935058679 -0.010998193416096003 0 -0.024737185978376233 -0.009574337157569935 0 -0.025780856619269592 -0.010162562653250913 0 -0.026128135636805921 -0.011836951815773395 0 -0.025780856619269592 -0.010162562653250913 0 -0.026364233345445645 -0.01007675418447768 0 -0.025420176871137141 -0.0096964366736401759 0 -0.024492506902388102 -0.0096863242752895269 0 -0.025780856619269592 -0.010162562653250913 0 -0.026402751487962835 -0.010051724761953691 0 -0.024978037015692491 -0.0084667855129003967 0 -0.024492506902388102 -0.0096863242752895269 0 -0.025074520914355275 -0.0084507559082131773 0 -0.024737185978376233 -0.009574337157569935 0 -0.025780856619269592 -0.010162562653250913 0 -0.024978037015692491 -0.0084667855129003967 0 -0.024492506902388102 -0.0096863242752895269 0 -0.022051802225245703 -0.008575562258270733 0 -0.018913203713455069 -0.0065318061297097449 0 -0.020779712596248445 -0.0093574747939521308 0 -0.018202078500944931 -0.0097850976416581237 0 -0.024724710732732386 -0.0076350237670079063 0 -0.02400825317601012 -0.007620137946143332 0 -0.024546086579331269 -0.0081078162633734727 0 -0.02400825317601012 -0.007620137946143332 0 -0.023914816015031721 -0.0081562553786852041 0 -0.024546086579331269 -0.0081078162633734727 0 -0.023914816015031721 -0.0081562553786852041 0 -0.024546086579331269 -0.0081078162633734727 0 -0.024832403145106634 -0.0084234584782750012 0 -0.024518128207489071 -0.0084332952070739972 0 -0.024978037015692491 -0.0084667855129003967 0 -0.024832403145106634 -0.0084234584782750012 0 -0.024724710732732386 -0.0076350237670079063 0 -0.024978037015692491 -0.0084667855129003967 0 -0.024546086579331269 -0.0081078162633734727 0 -0.024978037015692491 -0.0084667855129003967 0 -0.024546086579331269 -0.0081078162633734727 0 -0.024832403145106634 -0.0084234584782750012 0 -0.021180904264230617 0.0049276219992000162 0 -0.022465986268018462 0.0081794664709861457 0 -0.019579433941650338 0.0074947248350819015 0 -0.01769335973458893 0.0030174584003889717 0 -0.021180904264230617 0.0049276219992000162 0 -0.019579433941650338 0.0074947248350819015 0 -0.023878746128773602 -0.008690063611781559 0 -0.023914816015031721 -0.0081562553786852041 0 -0.024832403145106634 -0.0084234584782750012 0 -0.024624020601446379 0.0068139223027469074 0 -0.021180904264230617 0.0049276219992000162 0 -0.022465986268018462 0.0081794664709861457 0 -0.026338797155302525 -0.001161146612895945 0 -0.02214067708025139 -0.0018211066520765172 0 -0.025406058739879556 0.0097247721131153483 0 -0.024624020601446379 0.0068139223027469074 0 -0.022465986268018462 0.0081794664709861457 0 -0.022465986268018462 0.0081794664709861457 0 -0.019579433941650338 0.0074947248350819015 0 -0.021525380095538567 0.011947770217710379 0 -0.033373149678138647 0.0014568129032140526 0 -0.031795570894480867 0.0041158394442775206 0 -0.0354062277686766 0.0069962273396605469 0 -0.026563460855814503 0.0050778930285654503 0 -0.028792386236298866 0.0092737894721899531 0 -0.031795570894480867 0.0041158394442775206 0 -0.029459790918192664 0.0022774515822122903 0 -0.029791102569792626 0.0063520531475812179 0 -0.033373149678138647 0.0014568129032140526 0 -0.031795570894480867 0.0041158394442775206 0 -0.029459790918192664 0.0022774515822122903 0 -0.033373149678138647 0.0014568129032140526 0 -0.029652879307309171 -0.0012698748281239243 0 -0.029459790918192664 0.0022774515822122903 0 -0.024022272145906541 -0.0038437956443866609 0 -0.026563460855814503 0.0050778930285654503 0 -0.030959719289545915 -0.0048290383407541817 0 -0.033373149678138647 0.0014568129032140526 0 -0.029652879307309171 -0.0012698748281239243 0 -0.027764839908407373 -0.0038728917448546578 0 -0.029652879307309171 -0.0012698748281239243 0 -0.026449747492908026 -0.0010392358103021805 0 -0.029652879307309171 -0.0012698748281239243 0 -0.026449747492908026 -0.0010392358103021805 0 -0.029459790918192664 0.0022774515822122903 0 -0.026449747492908026 -0.0010392358103021805 0 -0.029459790918192664 0.0022774515822122903 0 -0.026975191083944132 0.0049654750019756102 0 -0.025345452618649407 0.0092591149654989591 0 -0.026975191083944132 0.0049654750019756102 0 -0.028141972479911008 0.0085835577927749849 0 -0.026975191083944132 0.0049654750019756102 0 -0.029791102569792626 0.0063520531475812179 0 -0.028141972479911008 0.0085835577927749849 0 -0.029459790918192664 0.0022774515822122903 0 -0.026975191083944132 0.0049654750019756102 0 -0.029791102569792626 0.0063520531475812179 0 -0.031795570894480867 0.0041158394442775206 0 -0.029791102569792626 0.0063520531475812179 0 -0.0354062277686766 0.0069962273396605469 0 -0.029791102569792626 0.0063520531475812179 0 -0.030994000058411963 0.0096482558880469534 0 -0.0354062277686766 0.0069962273396605469 0 -0.025345452618649407 0.0092591149654989591 0 -0.028141972479911008 0.0085835577927749849 0 -0.028270267832224506 0.011561615080470333 0 -0.029791102569792626 0.0063520531475812179 0 -0.030994000058411963 0.0096482558880469534 0 -0.028141972479911008 0.0085835577927749849 0 -0.030994000058411963 0.0096482558880469534 0 -0.028141972479911008 0.0085835577927749849 0 -0.028270267832224506 0.011561615080470333 0 -0.025406058739879556 0.0097247721131153483 0 -0.021525380095538567 0.011947770217710379 0 -0.024646605553982934 0.012681651584584074 0 -0.025406058739879556 0.0097247721131153483 0 -0.022465986268018462 0.0081794664709861457 0 -0.021525380095538567 0.011947770217710379 0 -0.030994000058411963 0.0096482558880469534 0 -0.0354062277686766 0.0069962273396605469 0 -0.033674533876493537 0.011276439995139475 0 -0.0354062277686766 0.0069962273396605469 0 -0.037499208570427246 0.012104602094565441 0 -0.033674533876493537 0.011276439995139475 0 -0.021525380095538567 0.011947770217710379 0 -0.024524675839074486 0.015688323871878362 0 -0.023651316773380691 0.01638541454574604 0 -0.021525380095538567 0.011947770217710379 0 -0.024646605553982934 0.012681651584584074 0 -0.024524675839074486 0.015688323871878362 0 -0.028792386236298866 0.0092737894721899531 0 -0.027970400823511998 0.014888160737388441 0 -0.025350848363140527 0.018361447818675509 0 -0.025220677892802596 0.017001979571773185 0 -0.023919578337791608 0.016289275634141953 0 -0.025290798047408018 0.018585898135401135 0 -0.027970400823511998 0.014888160737388441 0 -0.025220677892802596 0.017001979571773185 0 -0.024524675839074486 0.015688323871878362 0 -0.023919578337791608 0.016289275634141953 0 -0.025502383450013742 0.016222613301323921 0 -0.027970400823511998 0.014888160737388441 0 -0.037499208570427246 0.012104602094565441 0 -0.033674533876493537 0.011276439995139475 0 -0.033710980663430458 0.015100096222505096 0 -0.027970400823511998 0.014888160737388441 0 -0.030197494267439753 0.016842368210938877 0 -0.033674533876493537 0.011276439995139475 0 -0.033710980663430458 0.015100096222505096 0 -0.03115563456675494 0.012489610704542147 0 -0.025624521892598787 0.018600396366593126 0 -0.025531767689040134 0.018533105942762324 0 -0.025583633308532919 0.018703645893676974 0 -0.025350848363140527 0.018361447818675509 0 -0.025505998669640709 0.018617179774817152 0 -0.025531767689040134 0.018533105942762324 0 -0.025505998669640709 0.018617179774817152 0 -0.025624521892598787 0.018600396366593126 0 -0.025531767689040134 0.018533105942762324 0 -0.025350848363140527 0.018361447818675509 0 -0.025531767689040134 0.018533105942762324 0 -0.025583633308532919 0.018703645893676974 0 -0.028309149266055433 0.011914594656370804 0 -0.028799949558934786 0.014323288088012698 0 -0.026690500246312778 0.01254355307268528 0 -0.028270267832224506 0.011561615080470333 0 -0.028601482632237732 0.01394925753140005 0 -0.028270267832224506 0.011561615080470333 0 -0.03115563456675494 0.012489610704542147 0 -0.029077363132814962 0.014886372945975977 0 -0.030994000058411963 0.0096482558880469534 0 -0.028270267832224506 0.011561615080470333 0 -0.03115563456675494 0.012489610704542147 0 -0.030994000058411963 0.0096482558880469534 0 -0.033674533876493537 0.011276439995139475 0 -0.03115563456675494 0.012489610704542147 0 -0.033710980663430458 0.015100096222505096 0 -0.029077363132814962 0.014886372945975977 0 -0.02986223419422249 0.018129536145338656 0 -0.033710980663430458 0.015100096222505096 0 -0.03115563456675494 0.012489610704542147 0 -0.029077363132814962 0.014886372945975977 0 -0.030197494267439753 0.016842368210938877 0 -0.02771956911880058 0.017663765480371352 0 -0.028601482632237732 0.01394925753140005 0 -0.027370341827037552 0.015765045550259954 0 -0.028942081845148664 0.016158508910522101 0 -0.028799949558934786 0.014323288088012698 0 -0.02771956911880058 0.017663765480371352 0 -0.026690500246312778 0.01254355307268528 0 -0.026450037945204417 0.014420381797048023 0 -0.028601482632237732 0.01394925753140005 0 -0.026450037945204417 0.014420381797048023 0 -0.028601482632237732 0.01394925753140005 0 -0.027370341827037552 0.015765045550259954 0 -0.02771956911880058 0.017663765480371352 0 -0.026575223418231788 0.017462711329982131 0 -0.027370341827037552 0.015765045550259954 0 -0.028942081845148664 0.016158508910522101 0 -0.026354161881852464 0.017708120525965928 0 -0.025641440964237122 0.018740195228288611 0 -0.025801461322073071 0.018858739361044336 0 -0.025670209937208567 0.018759185990454556 0 -0.025624521892598787 0.018600396366593126 0 -0.025641440964237122 0.018740195228288611 0 -0.025670209937208567 0.018759185990454556 0 -0.02771956911880058 0.017663765480371352 0 -0.026042732067028798 0.018549311473986394 0 -0.026585899032474006 0.017655218687012753 0 -0.026608916536529303 0.018160800062017503 0 -0.026354161881852464 0.017708120525965928 0 -0.026608916536529303 0.018160800062017503 0 -0.026334321324765129 0.018524364119366567 0 -0.026354161881852464 0.017708120525965928 0 -0.025583633308532919 0.018703645893676974 0 -0.025627152326817747 0.018813152934704463 0 -0.025684765561126376 0.018840769198727961 0 -0.025591513635691426 0.01878633327888991 0 -0.025627152326817747 0.018813152934704463 0 -0.025618393037837191 0.01888330021294933 0 -0.025350848363140527 0.018361447818675509 0 -0.025591513635691426 0.01878633327888991 0 -0.025583633308532919 0.018703645893676974 0 -0.025591513635691426 0.01878633327888991 0 -0.025583633308532919 0.018703645893676974 0 -0.025627152326817747 0.018813152934704463 0 -0.025624521892598787 0.018600396366593126 0 -0.025583633308532919 0.018703645893676974 0 -0.025670209937208567 0.018759185990454556 0 -0.025583633308532919 0.018703645893676974 0 -0.025670209937208567 0.018759185990454556 0 -0.025684765561126376 0.018840769198727961 0 -0.025801461322073071 0.018858739361044336 0 -0.025670209937208567 0.018759185990454556 0 -0.025684765561126376 0.018840769198727961 0 -0.025801461322073071 0.018858739361044336 0 -0.025684765561126376 0.018840769198727961 0 -0.025827830878364634 0.018885913530798579 0 -0.025684765561126376 0.018840769198727961 0 -0.025675764789399664 0.018889096744596458 0 -0.025827830878364634 0.018885913530798579 0 -0.025627152326817747 0.018813152934704463 0 -0.025684765561126376 0.018840769198727961 0 -0.025618393037837191 0.01888330021294933 0 -0.025675764789399664 0.018889096744596458 0 -0.025618393037837191 0.01888330021294933 0 -0.025590899649062932 0.018898798100093889 0 -0.025684765561126376 0.018840769198727961 0 -0.025675764789399664 0.018889096744596458 0 -0.025618393037837191 0.01888330021294933 0 -0.025675764789399664 0.018889096744596458 0 -0.025827830878364634 0.018885913530798579 0 -0.025627650183517384 0.018867610621628124 0 -0.025801461322073071 0.018858739361044336 0 -0.025827830878364634 0.018885913530798579 0 -0.026192737201189406 0.01880073238608675 0 -0.025827830878364634 0.018885913530798579 0 -0.026192737201189406 0.01880073238608675 0 -0.025912543126468894 0.018761904222410412 0 -0.026192737201189406 0.01880073238608675 0 -0.026162092222285733 0.018782629868551823 0 -0.025912543126468894 0.018761904222410412 0 -0.025827830878364634 0.018885913530798579 0 -0.025912543126468894 0.018761904222410412 0 -0.025627650183517384 0.018867610621628124 0 -0.014507700102565697 0.020866722931976025 0 -0.015102322249593417 0.022469928874660691 0 -0.026608916536529303 0.018160800062017503 0 -0.026334321324765129 0.018524364119366567 0 -0.026192737201189406 0.01880073238608675 0 -0.026042732067028798 0.018549311473986394 0 -0.026217809757786082 0.018703526898787966 0 -0.026192737201189406 0.01880073238608675 0 -0.026299175974943259 0.018899313372230213 0 -0.026162092222285733 0.018782629868551823 0 -0.026334321324765129 0.018524364119366567 0 -0.026192737201189406 0.01880073238608675 0 -0.026299175974943259 0.018899313372230213 0 -0.026334321324765129 0.018524364119366567 0 -0.026299175974943259 0.018899313372230213 0 -0.026315980974406971 0.01924266695254288 0 -0.026299175974943259 0.018899313372230213 0 -0.026259246548616902 0.018723364893199475 0 -0.026315980974406971 0.01924266695254288 0 -0.027080021529036619 0.019730131176836332 0 -0.026412922661564826 0.019252024975461603 0 -0.028198700309208641 0.020758363913815272 0 -0.026315980974406971 0.01924266695254288 0 -0.026839108917773691 0.020987637437587484 0 -0.028198700309208641 0.020758363913815272 0 -0.02753245552516672 0.022131794907250091 0 -0.028572324543491859 0.022324658873287832 0 -0.028198700309208641 0.020758363913815272 0 -0.02753245552516672 0.022131794907250091 0 -0.026839108917773691 0.020987637437587484 0 -0.027080021529036619 0.019730131176836332 0 -0.028602305343756181 0.020315422645384416 0 -0.026259246548616902 0.018723364893199475 0 -0.026092280534555985 0.018679210182853012 0 -0.026066328693542386 0.018644016117929603 0 -0.028198700309208641 0.020758363913815272 0 -0.029842368279778826 0.022202538443933814 0 -0.028572324543491859 0.022324658873287832 0 -0.026259246548616902 0.018723364893199475 0 -0.026092280534555985 0.018679210182853012 0 -0.026162092222285733 0.018782629868551823 0 -0.026299175974943259 0.018899313372230213 0 -0.026259246548616902 0.018723364893199475 0 -0.026162092222285733 0.018782629868551823 0 -0.026092280534555985 0.018679210182853012 0 -0.026162092222285733 0.018782629868551823 0 -0.025912543126468894 0.018761904222410412 0 -0.026092280534555985 0.018679210182853012 0 -0.025912543126468894 0.018761904222410412 0 -0.025880274928370934 0.018660652172500718 0 -0.025912543126468894 0.018761904222410412 0 -0.025880274928370934 0.018660652172500718 0 -0.02564976442934944 0.018678838076551477 0 -0.025912543126468894 0.018761904222410412 0 -0.02564976442934944 0.018678838076551477 0 -0.025627650183517384 0.018867610621628124 0 -0.02564976442934944 0.018678838076551477 0 -0.025864697586734185 0.018485641497524075 0 -0.02563530731881174 0.018348239362393798 0 -0.014507700102565697 0.020866722931976025 0 -0.018057317177717781 0.020130902204909353 0 -0.025880274928370934 0.018660652172500718 0 -0.02564976442934944 0.018678838076551477 0 -0.025864697586734185 0.018485641497524075 0 -0.025880043692675325 0.018501342272264003 0 -0.026471757013432108 0.019184126879109337 0 -0.026092280534555985 0.018679210182853012 0 -0.025880274928370934 0.018660652172500718 0 -0.025864697586734185 0.018485641497524075 0 -0.026092280534555985 0.018679210182853012 0 -0.026035907037573358 0.018666697085667743 0 -0.026066328693542386 0.018644016117929603 0 -0.028602305343756181 0.020315422645384416 0 -0.024724490881452177 0.023316056998004663 0 -0.026035907037573358 0.018666697085667743 0 -0.026066328693542386 0.018644016117929603 0 -0.025987438977421534 0.018691804970482818 0 -0.029842368279778826 0.022202538443933814 0 -0.030225672192814204 0.023395206094203886 0 -0.03176699206472642 0.023740607227561016 0 -0.030225672192814204 0.023395206094203886 0 -0.029870375922682171 0.023863738956978145 0 -0.029112798245314649 0.023136818406903906 0 -0.029842368279778826 0.022202538443933814 0 -0.030225672192814204 0.023395206094203886 0 -0.029112798245314649 0.023136818406903906 0 -0.026066328693542386 0.018644016117929603 0 -0.025987438977421534 0.018691804970482818 0 -0.025984731675758415 0.018703792158637315 0 -0.026471757013432108 0.019184126879109337 0 -0.018057317177717781 0.020130902204909353 0 -0.015107012084207347 0.024146688920554465 0 -0.015152825162988347 0.023981397985652297 0 -0.014859856607149646 0.023990406832331303 0 -0.018057317177717781 0.020130902204909353 0 -0.024724490881452177 0.023316056998004663 0 -0.018057317177717781 0.020130902204909353 0 -0.00783188046376662 0.031336011995832781 0 -0.015052773508767704 0.023917471620788999 0 -0.015152825162988347 0.023981397985652297 0 -0.014859856607149646 0.023990406832331303 0 -0.022946832102560131 0.029456286901520773 0 -0.023442981242584336 0.029858515429724144 0 -0.021412234688877801 0.030610194288297917 0 -0.022946832102560131 0.029456286901520773 0 -0.023505878923615955 0.029931892459307226 0 -0.023738257602558922 0.029050262009116666 0 -0.022230095459378908 0.026530152660963743 0 -0.021667618684209033 0.025901489848214273 0 -0.021667618684209033 0.025901489848214273 0 -0.024724490881452177 0.023316056998004663 0 -0.023505878923615955 0.029931892459307226 0 -0.025085021903451608 0.02932510951101238 0 -0.023738257602558922 0.029050262009116666 0 -0.021667618684209033 0.025901489848214273 0 -0.026172275381600083 0.025601390200726045 0 -0.024668159169335725 0.02538099574240657 0 -0.024696958898895113 0.025372162318283712 0 -0.02469048875064201 0.025391172992842135 0 -0.031701154675746891 0.024340795517908236 0 -0.03176699206472642 0.023740607227561016 0 -0.030593242566635464 0.024033104174096258 0 -0.026172275381600083 0.025601390200726045 0 -0.024724490881452177 0.023316056998004663 0 -0.025428294517360735 0.028875557766931102 0 -0.025313461365504518 0.028077831491508755 0 -0.026895233779836731 0.026879499603769952 0 -0.025313461365504518 0.028077831491508755 0 -0.026895233779836731 0.026879499603769952 0 -0.025574374354539551 0.026828946252465211 0 -0.025313461365504518 0.028077831491508755 0 -0.024339906642426246 0.027236360074847817 0 -0.025574374354539551 0.026828946252465211 0 -0.025085021903451608 0.02932510951101238 0 -0.025313461365504518 0.028077831491508755 0 -0.024156326150524991 0.028422629001243951 0 -0.026172275381600083 0.025601390200726045 0 -0.0258851592009792 0.026950452759972786 0 -0.025085021903451608 0.02932510951101238 0 -0.024156326150524991 0.028422629001243951 0 -0.023738257602558922 0.029050262009116666 0 -0.024156326150524991 0.028422629001243951 0 -0.023738257602558922 0.029050262009116666 0 -0.023083824304168603 0.028198440764416282 0 -0.024156326150524991 0.028422629001243951 0 -0.024339906642426246 0.027236360074847817 0 -0.023083824304168603 0.028198440764416282 0 -0.025313461365504518 0.028077831491508755 0 -0.024156326150524991 0.028422629001243951 0 -0.024339906642426246 0.027236360074847817 0 -0.024339906642426246 0.027236360074847817 0 -0.023083824304168603 0.028198440764416282 0 -0.022494048059774306 0.026726691740457477 0 -0.022946832102560131 0.029456286901520773 0 -0.023738257602558922 0.029050262009116666 0 -0.023083824304168603 0.028198440764416282 0 -0.031701154675746891 0.024340795517908236 0 -0.030593242566635464 0.024033104174096258 0 -0.028955883187477226 0.025587521722914511 0 -0.025428294517360735 0.028875557766931102 0 -0.028955883187477226 0.025587521722914511 0 -0.026895233779836731 0.026879499603769952 0 -0.030225672192814204 0.023395206094203886 0 -0.03176699206472642 0.023740607227561016 0 -0.030593242566635464 0.024033104174096258 0 -0.029870375922682171 0.023863738956978145 0 -0.030593242566635464 0.024033104174096258 0 -0.028955883187477226 0.025587521722914511 0 -0.026172275381600083 0.025601390200726045 0 -0.029802275631136122 0.025920245550814333 0 -0.030225672192814204 0.023395206094203886 0 -0.029870375922682171 0.023863738956978145 0 -0.030593242566635464 0.024033104174096258 0 -0.029870375922682171 0.023863738956978145 0 -0.02878667179248566 0.024090742624292887 0 -0.028955883187477226 0.025587521722914511 0 -0.029870375922682171 0.023863738956978145 0 -0.02878667179248566 0.024090742624292887 0 -0.029112798245314649 0.023136818406903906 0 -0.02878667179248566 0.024090742624292887 0 -0.027957876426463909 0.024625578574405931 0 -0.028146615835766494 0.02332385908101425 0 -0.02878667179248566 0.024090742624292887 0 -0.027957876426463909 0.024625578574405931 0 -0.028955883187477226 0.025587521722914511 0 -0.027957876426463909 0.024625578574405931 0 -0.026995435529351134 0.02366721719532814 0 -0.027075886295442667 0.025099730562962018 0 -0.027957876426463909 0.024625578574405931 0 -0.028146615835766494 0.02332385908101425 0 -0.026995435529351134 0.02366721719532814 0 -0.02753245552516672 0.022131794907250091 0 -0.028146615835766494 0.02332385908101425 0 -0.026995435529351134 0.02366721719532814 0 -0.02753245552516672 0.022131794907250091 0 -0.028146615835766494 0.02332385908101425 0 -0.028572324543491859 0.022324658873287832 0 -0.029842368279778826 0.022202538443933814 0 -0.028572324543491859 0.022324658873287832 0 -0.029112798245314649 0.023136818406903906 0 -0.028146615835766494 0.02332385908101425 0 -0.028572324543491859 0.022324658873287832 0 -0.029112798245314649 0.023136818406903906 0 -0.02878667179248566 0.024090742624292887 0 -0.028146615835766494 0.02332385908101425 0 -0.029112798245314649 0.023136818406903906 0 0.0043834994640842978 0.032665819791441293 0 0.0029404290000597326 0.032691580173929473 0 0.0076880282812185879 0.042719600740943268 0 0.0073220467189059552 0.042779098482674534 0 0.0076008715841142209 0.042941845790950506 0 0.0073220467189059552 0.042779098482674534 0 0.007133567919844909 0.043078594253667522 0 0.0076008715841142209 0.042941845790950506 0 0.0076880282812185879 0.042719600740943268 0 0.0076008715841142209 0.042941845790950506 0 0.007868892783403485 0.042797336702634921 0 0.0076880282812185879 0.042719600740943268 0 0.0079771296748265327 0.042597313129173239 0 0.007609419253439006 0.042466054533202138 0 0.0076880282812185879 0.042719600740943268 0 0.0073220467189059552 0.042779098482674534 0 0.007609419253439006 0.042466054533202138 0 0.0074346150393861509 0.042730093846362747 0 0.0071190159188370301 0.042730285806061266 0 0.0073220467189059552 0.042779098482674534 0 0.0073854404041664989 0.042880172373253013 0 0.0073223224442051935 0.042972283704250269 0 0.0073220467189059552 0.042779098482674534 0 0.0073854404041664989 0.042880172373253013 0 0.0070657049746304205 0.042642311904748521 0 0.0073854404041664989 0.042880172373253013 0 0.0070657049746304205 0.042642311904748521 0 0.0073806110544047485 0.042828438009617262 0 0.0070657049746304205 0.042642311904748521 0 0.0053959251802781806 0.042833792102679673 0 0.0066155008821051778 0.041729260321722868 0 0.0063102134218565057 0.044939559908787667 0 -0.0022870486545955369 0.036006617029437749 0 -0.021112934743477758 0.02809149590010971 0 -0.021412234688877801 0.030610194288297917 0 -0.017530120463358386 0.027194660778816809 0 -0.00783188046376662 0.031336011995832781 0 -0.0022870486545955369 0.036006617029437749 0 -0.022946832102560131 0.029456286901520773 0 -0.023083824304168603 0.028198440764416282 0 -0.021112934743477758 0.02809149590010971 0 -0.023083824304168603 0.028198440764416282 0 -0.021112934743477758 0.02809149590010971 0 -0.022494048059774306 0.026726691740457477 0 -0.021667618684209033 0.025901489848214273 0 -0.00783188046376662 0.031336011995832781 0 -0.022946832102560131 0.029456286901520773 0 -0.021112934743477758 0.02809149590010971 0 -0.021412234688877801 0.030610194288297917 0 -0.0036806138617399447 0.02088929995227921 0 -0.0019316979200376687 0.021498095688442086 0 -0.0031076655000449732 0.022159623915740126 0 -0.0044943011673624061 0.021571717005362596 0 -0.0036806138617399447 0.02088929995227921 0 -0.0031076655000449732 0.022159623915740126 0 0.0070657049746304205 0.042642311904748521 0 0.0053959251802781806 0.042833792102679673 0 0.007133567919844909 0.043078594253667522 0 -0.00783188046376662 0.031336011995832781 0 0.0043834994640842978 0.032665819791441293 0 0.0073220467189059552 0.042779098482674534 0 0.0070657049746304205 0.042642311904748521 0 0.007133567919844909 0.043078594253667522 0 -0.0031076655000449732 0.022159623915740126 0 -0.002172033917492528 0.023603600601867451 0 -0.0014579439284334761 0.02255690546160883 0 -0.0019316979200376687 0.021498095688442086 0 -0.0031076655000449732 0.022159623915740126 0 -0.0014579439284334761 0.02255690546160883 0 -0.0041228475770663311 0.023274696672481703 0 -0.0031076655000449732 0.022159623915740126 0 -0.002172033917492528 0.023603600601867451 0 -0.0041228475770663311 0.023274696672481703 0 -0.0044943011673624061 0.021571717005362596 0 -0.0031076655000449732 0.022159623915740126 0 -0.0041228475770663311 0.023274696672481703 0 -0.002172033917492528 0.023603600601867451 0 -0.0038041694917589804 0.024944724685371233 0 -0.002172033917492528 0.023603600601867451 0 -0.00024521653199125799 0.023215481914265743 0 -0.00043898703118159355 0.024272310103758632 0 -0.002172033917492528 0.023603600601867451 0 -0.0014579439284334761 0.02255690546160883 0 -0.00024521653199125799 0.023215481914265743 0 -0.0019316979200376687 0.021498095688442086 0 -0.0014579439284334761 0.02255690546160883 0 -0.00022288104348805761 0.022111794968456368 0 -0.0014579439284334761 0.02255690546160883 0 -0.00022288104348805761 0.022111794968456368 0 -0.00024521653199125799 0.023215481914265743 0 -0.00024521653199125799 0.023215481914265743 0 0.00090258422978120069 0.022830944673771808 0 0.0012274540523819666 0.023045221116998946 0 -0.00022288104348805761 0.022111794968456368 0 -0.00024521653199125799 0.023215481914265743 0 0.00090258422978120069 0.022830944673771808 0 0.0029404290000597326 0.032691580173929473 0 0.0073336614259006125 0.029749419938142164 0 -0.00022288104348805761 0.022111794968456368 0 0.00090258422978120069 0.022830944673771808 0 0.001569854133550042 0.022793006633443455 0 0.0016751206576524074 0.019295355399049925 0 0.0058406283828251245 0.02198595724641669 0 -0.00024521653199125799 0.023215481914265743 0 -0.00043898703118159355 0.024272310103758632 0 0.0012274540523819666 0.023045221116998946 0 0.004862606313735981 0.01516852767083922 0 0.0063598639090030199 0.015375453979399649 0 0.0063781679433935305 0.013908564444429127 0 0.004862606313735981 0.01516852767083922 0 0.0051710944001459687 0.016669525864990618 0 0.0063598639090030199 0.015375453979399649 0 -0.002172033917492528 0.023603600601867451 0 -0.00043898703118159355 0.024272310103758632 0 -0.0020277843777906776 0.02543008441694191 0 0.0016751206576524074 0.019295355399049925 0 0.0025172958674123964 0.020903841352397881 0 0.004862606313735981 0.01516852767083922 0 0.0051710944001459687 0.016669525864990618 0 0.0033731124231069472 0.016418630081800393 0 0.0051710944001459687 0.016669525864990618 0 0.0033731124231069472 0.016418630081800393 0 0.00373475938092197 0.017958268546060079 0 -0.002172033917492528 0.023603600601867451 0 -0.0038041694917589804 0.024944724685371233 0 -0.0020277843777906776 0.02543008441694191 0 0.0025172958674123964 0.020903841352397881 0 -0.01121748485020083 0.019833412204259156 0 -0.0038041694917589804 0.024944724685371233 0 -0.0020277843777906776 0.02543008441694191 0 -0.0035490374978358308 0.026558886126977946 0 -0.015102322249593417 0.022469928874660691 0 -0.01121748485020083 0.019833412204259156 0 -0.025675764789399664 0.018889096744596458 0 -0.025627650183517384 0.018867610621628124 0 -0.025590899649062932 0.018898798100093889 0 -0.022137204184399652 0.022730757217738155 0 -0.01121748485020083 0.019833412204259156 0 0.0033731124231069472 0.016418630081800393 0 0.0019153026583775929 0.017640151701232617 0 0.00373475938092197 0.017958268546060079 0 0.0038227648027310129 0.019427462484433083 0 0.0022353679846388581 0.019117744540252724 0 0.00373475938092197 0.017958268546060079 0 -0.025591513635691426 0.01878633327888991 0 -0.025618393037837191 0.01888330021294933 0 -0.025847566527400126 0.018861076773178026 0 -0.025618393037837191 0.01888330021294933 0 -0.025575289850230661 0.018903593615045251 0 -0.025847566527400126 0.018861076773178026 0 0.0019153026583775929 0.017640151701232617 0 0.0022353679846388581 0.019117744540252724 0 0.00373475938092197 0.017958268546060079 0 -0.01121748485020083 0.019833412204259156 0 -0.011904756384496255 0.018667809065701667 0 0.0051710944001459687 0.016669525864990618 0 0.00373475938092197 0.017958268546060079 0 0.0055107436414458914 0.018432850759965161 0 0.0038227648027310129 0.019427462484433083 0 0.00373475938092197 0.017958268546060079 0 0.0055107436414458914 0.018432850759965161 0 0.0060883900312074263 0.019577599289055128 0 0.0055107436414458914 0.018432850759965161 0 0.0074363945008939286 0.01825801821511587 0 0.0051710944001459687 0.016669525864990618 0 0.0055107436414458914 0.018432850759965161 0 0.0072169452246365817 0.016639288493436176 0 0.0055107436414458914 0.018432850759965161 0 0.0074363945008939286 0.01825801821511587 0 0.0072169452246365817 0.016639288493436176 0 0.0074363945008939286 0.01825801821511587 0 0.0088289969708126356 0.017040439798008466 0 0.0072169452246365817 0.016639288493436176 0 0.0082926819864898964 0.019404346154996567 0 0.0060883900312074263 0.019577599289055128 0 0.0074363945008939286 0.01825801821511587 0 0.018832196461069945 0.023138580301418261 0 0.019428358434899571 0.022292074988102657 0 0.0082926819864898964 0.019404346154996567 0 0.0074363945008939286 0.01825801821511587 0 0.0095939106326895663 0.01813940052421488 0 0.029931713690013562 0.027032758059175422 0 0.0297911221375909 0.026886145560905031 0 0.030079883632581298 0.02693588169482327 0 0.029507319886291097 0.026876026914937158 0 0.029931713690013562 0.027032758059175422 0 0.0297911221375909 0.026886145560905031 0 0.019428358434899571 0.022292074988102657 0 0.022813004480965612 0.023592736696794934 0 0.0095939106326895663 0.01813940052421488 0 0.0088289969708126356 0.017040439798008466 0 0.010943433578825082 0.016768935494133465 0 0.0297911221375909 0.026886145560905031 0 0.030079883632581298 0.02693588169482327 0 0.030050407091874499 0.026702310311647826 0 0.0074363945008939286 0.01825801821511587 0 0.0095939106326895663 0.01813940052421488 0 0.0088289969708126356 0.017040439798008466 0 0.0088289969708126356 0.017040439798008466 0 0.0093621046496117251 0.015748658280912951 0 0.0072169452246365817 0.016639288493436176 0 0.012332037706890803 0.021562594400751395 0 0.022813004480965612 0.023592736696794934 0 0.0088289969708126356 0.017040439798008466 0 0.0093621046496117251 0.015748658280912951 0 0.010943433578825082 0.016768935494133465 0 0.020539091795407242 0.02790789430705411 0 0.017702759265022117 0.027999645058848228 0 0.021422682794681434 0.030457870366660082 0 0.020539091795407242 0.02790789430705411 0 0.017702759265022117 0.027999645058848228 0 0.019117727581072583 0.025603992637261968 0 0.012332037706890803 0.021562594400751395 0 0.011325188041077763 0.019939944810951571 0 0.017702759265022117 0.027999645058848228 0 0.013934154208520946 0.025582112485094365 0 0.015862695594306486 0.025480071614353863 0 0.017702759265022117 0.027999645058848228 0 0.015862695594306486 0.025480071614353863 0 0.019117727581072583 0.025603992637261968 0 0.0063598639090030199 0.015375453979399649 0 0.0072169452246365817 0.016639288493436176 0 0.0078470745274672338 0.014812010459981977 0 0.0093621046496117251 0.015748658280912951 0 0.0072169452246365817 0.016639288493436176 0 0.0078470745274672338 0.014812010459981977 0 0.0051710944001459687 0.016669525864990618 0 0.0063598639090030199 0.015375453979399649 0 0.0072169452246365817 0.016639288493436176 0 0.031308734256526645 0.027239605564891987 0 0.032022482260574706 0.027680597853167201 0 0.031797662146912022 0.027276522344008496 0 0.031308734256526645 0.027239605564891987 0 0.031022919465895991 0.027505534854941085 0 0.032022482260574706 0.027680597853167201 0 0.029155312684279708 0.013492165412369974 0 0.03033373630030127 0.01329779922562244 0 0.027803472389264373 -0.00029918892002528998 0 0.02722373929359885 -0.00047921533010975118 0 0.028592307304661061 -0.0010632040444775042 0 0.028775213324010881 0.01320817351683214 0 0.029155312684279708 0.013492165412369974 0 0.031022919465895991 0.027505534854941085 0 0.030870361630863759 0.027169955741808745 0 0.030431150795325553 0.027131632362951234 0 0.031308734256526645 0.027239605564891987 0 0.031022919465895991 0.027505534854941085 0 0.030870361630863759 0.027169955741808745 0 0.031308734256526645 0.027239605564891987 0 0.030870361630863759 0.027169955741808745 0 0.03092848969709024 0.027018452216254974 0 0.030870361630863759 0.027169955741808745 0 0.030613761020053459 0.026971551512206215 0 0.03092848969709024 0.027018452216254974 0 0.030870361630863759 0.027169955741808745 0 0.030431150795325553 0.027131632362951234 0 0.030613761020053459 0.026971551512206215 0 0.030313612249349711 0.026904041526309229 0 0.030431150795325553 0.027131632362951234 0 0.030613761020053459 0.026971551512206215 0 0.03037707625897761 0.027293350018613834 0 0.031022919465895991 0.027505534854941085 0 0.030431150795325553 0.027131632362951234 0 0.03037707625897761 0.027293350018613834 0 0.029931713690013562 0.027032758059175422 0 0.030431150795325553 0.027131632362951234 0 0.029931713690013562 0.027032758059175422 0 0.030431150795325553 0.027131632362951234 0 0.030079883632581298 0.02693588169482327 0 0.030313612249349711 0.026904041526309229 0 0.030431150795325553 0.027131632362951234 0 0.030079883632581298 0.02693588169482327 0 0.030313612249349711 0.026904041526309229 0 0.030079883632581298 0.02693588169482327 0 0.030050407091874499 0.026702310311647826 0 0.022813004480965612 0.023592736696794934 0 0.027244294905701519 0.030500246812635325 0 0.030313612249349711 0.026904041526309229 0 0.030047000289909333 0.026794867044860386 0 0.030349090729433065 0.026736557539558573 0 0.03189530330664591 0.028218975154207314 0 0.022813004480965612 0.023592736696794934 0 0.030047000289909333 0.026794867044860386 0 0.030309894335861693 0.026607215195249518 0 0.030349090729433065 0.026736557539558573 0 0.020539091795407242 0.02790789430705411 0 0.023903887336559227 0.027571235064707343 0 0.019117727581072583 0.025603992637261968 0 0.027244294905701519 0.030500246812635325 0 0.021920029106775981 0.031447114261137638 0 0.020539091795407242 0.02790789430705411 0 0.021422682794681434 0.030457870366660082 0 0.023903887336559227 0.027571235064707343 0 0.030047000289909333 0.026794867044860386 0 0.030309894335861693 0.026607215195249518 0 0.030323202862198879 0.026459797472743615 0 0.025901242874651738 0.037097592471178532 0 0.025660607229617584 0.036841096415955066 0 0.024847032534639102 0.036913433373620221 0 0.027244294905701519 0.030500246812635325 0 0.02888555955808092 0.030986411190653228 0 0.030323202862198879 0.026459797472743615 0 0.030685965096475486 0.026671299203971429 0 0.030977211152544218 0.026801459909435964 0 0.030309894335861693 0.026607215195249518 0 0.030421907044261974 0.02661124829850927 0 0.030382917478191947 0.026550989249835986 0 0.025901242874651738 0.037097592471178532 0 0.02625968798385088 0.037054274053557414 0 0.026975048576727625 0.037134753754136322 0 0.030309894335861693 0.026607215195249518 0 0.030382917478191947 0.026550989249835986 0 0.030342019032178088 0.026511464622086242 0 0.030421907044261974 0.02661124829850927 0 0.030490527564773141 0.026627596768673132 0 0.030505609415214383 0.026690596497564938 0 0.030421907044261974 0.02661124829850927 0 0.030431336770356334 0.026576069096342185 0 0.030382917478191947 0.026550989249835986 0 0.030431336770356334 0.026576069096342185 0 0.030469856319364837 0.02658679307496192 0 0.030382917478191947 0.026550989249835986 0 0.030421907044261974 0.02661124829850927 0 0.030469856319364837 0.02658679307496192 0 0.030490527564773141 0.026627596768673132 0 0.030421907044261974 0.02661124829850927 0 0.030431336770356334 0.026576069096342185 0 0.030469856319364837 0.02658679307496192 0 0.030469856319364837 0.02658679307496192 0 0.030323202862198879 0.026459797472743615 0 0.030342019032178088 0.026511464622086242 0 0.030469856319364837 0.02658679307496192 0 0.030382917478191947 0.026550989249835986 0 0.030342019032178088 0.026511464622086242 0 0.030309894335861693 0.026607215195249518 0 0.030323202862198879 0.026459797472743615 0 0.030342019032178088 0.026511464622086242 0 0.025901242874651738 0.037097592471178532 0 0.026119435837435055 0.036966230778416903 0 0.02625968798385088 0.037054274053557414 0 0.025901242874651738 0.037097592471178532 0 0.025975881991704843 0.036888296305243803 0 0.025660607229617584 0.036841096415955066 0 0.025901242874651738 0.037097592471178532 0 0.026119435837435055 0.036966230778416903 0 0.025975881991704843 0.036888296305243803 0 0.026119435837435055 0.036966230778416903 0 0.025975881991704843 0.036888296305243803 0 0.02615462262001414 0.036836050879379155 0 0.026310010896442592 0.036892398648554536 0 0.026520570983285974 0.036845706966020166 0 0.026363464438891586 0.036687113046818619 0 0.026119435837435055 0.036966230778416903 0 0.02615462262001414 0.036836050879379155 0 0.026310010896442592 0.036892398648554536 0 0.02615462262001414 0.036836050879379155 0 0.026310010896442592 0.036892398648554536 0 0.026363464438891586 0.036687113046818619 0 0.026119435837435055 0.036966230778416903 0 0.026310010896442592 0.036892398648554536 0 0.02625968798385088 0.037054274053557414 0 0.026310010896442592 0.036892398648554536 0 0.026420125610790945 0.036942545068444202 0 0.02625968798385088 0.037054274053557414 0 0.026310010896442592 0.036892398648554536 0 0.026420125610790945 0.036942545068444202 0 0.026520570983285974 0.036845706966020166 0 0.030469856319364837 0.02658679307496192 0 0.030323202862198879 0.026459797472743615 0 0.030685965096475486 0.026671299203971429 0 0.030469856319364837 0.02658679307496192 0 0.030544863610208268 0.026630049663941977 0 0.030685965096475486 0.026671299203971429 0 0.026420125610790945 0.036942545068444202 0 0.02625968798385088 0.037054274053557414 0 0.026589321455764661 0.036979987050202064 0 0.030469856319364837 0.02658679307496192 0 0.030544863610208268 0.026630049663941977 0 0.030490527564773141 0.026627596768673132 0 0.030544863610208268 0.026630049663941977 0 0.030490527564773141 0.026627596768673132 0 0.030505609415214383 0.026690596497564938 0 0.030544863610208268 0.026630049663941977 0 0.030685965096475486 0.026671299203971429 0 0.030616817807717602 0.026712537852948436 0 0.030685965096475486 0.026671299203971429 0 0.030616817807717602 0.026712537852948436 0 0.030704150640161906 0.026774626773120758 0 0.030616817807717602 0.026712537852948436 0 0.03062237501231926 0.026802385324078842 0 0.030704150640161906 0.026774626773120758 0 0.03062237501231926 0.026802385324078842 0 0.030505609415214383 0.026690596497564938 0 0.030477511869651759 0.026825562880369188 0 0.030616817807717602 0.026712537852948436 0 0.03062237501231926 0.026802385324078842 0 0.030505609415214383 0.026690596497564938 0 0.030544863610208268 0.026630049663941977 0 0.030616817807717602 0.026712537852948436 0 0.030505609415214383 0.026690596497564938 0 0.030421907044261974 0.02661124829850927 0 0.030505609415214383 0.026690596497564938 0 0.030349090729433065 0.026736557539558573 0 0.030309894335861693 0.026607215195249518 0 0.030421907044261974 0.02661124829850927 0 0.030349090729433065 0.026736557539558573 0 0.030505609415214383 0.026690596497564938 0 0.030349090729433065 0.026736557539558573 0 0.030477511869651759 0.026825562880369188 0 0.030313612249349711 0.026904041526309229 0 0.030349090729433065 0.026736557539558573 0 0.030477511869651759 0.026825562880369188 0 0.030313612249349711 0.026904041526309229 0 0.030477511869651759 0.026825562880369188 0 0.030613761020053459 0.026971551512206215 0 0.03062237501231926 0.026802385324078842 0 0.030477511869651759 0.026825562880369188 0 0.030613761020053459 0.026971551512206215 0 0.03062237501231926 0.026802385324078842 0 0.030613761020053459 0.026971551512206215 0 0.030774645191653443 0.026884356633461153 0 0.030613761020053459 0.026971551512206215 0 0.030774645191653443 0.026884356633461153 0 0.03092848969709024 0.027018452216254974 0 0.030774645191653443 0.026884356633461153 0 0.03092848969709024 0.027018452216254974 0 0.030956155533120096 0.026924084717312568 0 0.031308734256526645 0.027239605564891987 0 0.03092848969709024 0.027018452216254974 0 0.031158564922858376 0.027015889470918947 0 0.03092848969709024 0.027018452216254974 0 0.030956155533120096 0.026924084717312568 0 0.031158564922858376 0.027015889470918947 0 0.03109437771154825 0.0269200152689953 0 0.030977211152544218 0.026801459909435964 0 0.030840091032393643 0.026807533935813949 0 0.030956155533120096 0.026924084717312568 0 0.03109437771154825 0.0269200152689953 0 0.030840091032393643 0.026807533935813949 0 0.030956155533120096 0.026924084717312568 0 0.03109437771154825 0.0269200152689953 0 0.031158564922858376 0.027015889470918947 0 0.029411605005504389 0.030490660205759943 0 0.02888555955808092 0.030986411190653228 0 0.030685965096475486 0.026671299203971429 0 0.030977211152544218 0.026801459909435964 0 0.030840091032393643 0.026807533935813949 0 0.030774645191653443 0.026884356633461153 0 0.030956155533120096 0.026924084717312568 0 0.030840091032393643 0.026807533935813949 0 0.030774645191653443 0.026884356633461153 0 0.030840091032393643 0.026807533935813949 0 0.030704150640161906 0.026774626773120758 0 0.03062237501231926 0.026802385324078842 0 0.030774645191653443 0.026884356633461153 0 0.030704150640161906 0.026774626773120758 0 0.030685965096475486 0.026671299203971429 0 0.030840091032393643 0.026807533935813949 0 0.030704150640161906 0.026774626773120758 0 0.02625968798385088 0.037054274053557414 0 0.026975048576727625 0.037134753754136322 0 0.026589321455764661 0.036979987050202064 0 0.026975048576727625 0.037134753754136322 0 0.02676433988627331 0.036916569019439724 0 0.026589321455764661 0.036979987050202064 0 0.02676433988627331 0.036916569019439724 0 0.026520570983285974 0.036845706966020166 0 0.026976657490053742 0.036659664652691645 0 0.02676433988627331 0.036916569019439724 0 0.026589321455764661 0.036979987050202064 0 0.026520570983285974 0.036845706966020166 0 0.026420125610790945 0.036942545068444202 0 0.026589321455764661 0.036979987050202064 0 0.026520570983285974 0.036845706966020166 0 0.026975048576727625 0.037134753754136322 0 0.02676433988627331 0.036916569019439724 0 0.026976657490053742 0.036659664652691645 0 0.03109437771154825 0.0269200152689953 0 0.0309344252391105 0.02692152004538451 0 0.031783013338624204 0.026520821762326157 0 0.026975048576727625 0.037134753754136322 0 0.026976657490053742 0.036659664652691645 0 0.027639121505819438 0.036296235910067323 0 0.03109437771154825 0.0269200152689953 0 0.031585336649148255 0.026968985578337587 0 0.031783013338624204 0.026520821762326157 0 0.02888555955808092 0.030986411190653228 0 0.029733668651462184 0.031581605527099467 0 0.03109437771154825 0.0269200152689953 0 0.031585336649148255 0.026968985578337587 0 0.031158564922858376 0.027015889470918947 0 0.031308734256526645 0.027239605564891987 0 0.031585336649148255 0.026968985578337587 0 0.031158564922858376 0.027015889470918947 0 0.031308734256526645 0.027239605564891987 0 0.031585336649148255 0.026968985578337587 0 0.031797662146912022 0.027276522344008496 0 0.027144009678822762 0.036080998879674891 0 0.02711328080822184 0.036271180050452538 0 0.026593116995035127 0.036124951040577336 0 0.027144009678822762 0.036080998879674891 0 0.02711328080822184 0.036271180050452538 0 0.027478978935719996 0.036139289292218685 0 0.026976657490053742 0.036659664652691645 0 0.02711328080822184 0.036271180050452538 0 0.027639121505819438 0.036296235910067323 0 0.02711328080822184 0.036271180050452538 0 0.027639121505819438 0.036296235910067323 0 0.027478978935719996 0.036139289292218685 0 0.026976657490053742 0.036659664652691645 0 0.02711328080822184 0.036271180050452538 0 0.026660204112787918 0.036512211926617903 0 0.026520570983285974 0.036845706966020166 0 0.026976657490053742 0.036659664652691645 0 0.026660204112787918 0.036512211926617903 0 0.026520570983285974 0.036845706966020166 0 0.026660204112787918 0.036512211926617903 0 0.026363464438891586 0.036687113046818619 0 0.026660204112787918 0.036512211926617903 0 0.026228558268138878 0.036368609279126281 0 0.026363464438891586 0.036687113046818619 0 0.02711328080822184 0.036271180050452538 0 0.026660204112787918 0.036512211926617903 0 0.026593116995035127 0.036124951040577336 0 0.026660204112787918 0.036512211926617903 0 0.026593116995035127 0.036124951040577336 0 0.026228558268138878 0.036368609279126281 0 0.026228558268138878 0.036368609279126281 0 0.025709185559273574 0.036306695923386971 0 0.025941050710076966 0.0359917384523816 0 0.026593116995035127 0.036124951040577336 0 0.026228558268138878 0.036368609279126281 0 0.025941050710076966 0.0359917384523816 0 0.026228558268138878 0.036368609279126281 0 0.026363464438891586 0.036687113046818619 0 0.026036209415929972 0.036653812543619303 0 0.026228558268138878 0.036368609279126281 0 0.026036209415929972 0.036653812543619303 0 0.025709185559273574 0.036306695923386971 0 0.02615462262001414 0.036836050879379155 0 0.026363464438891586 0.036687113046818619 0 0.026036209415929972 0.036653812543619303 0 0.025975881991704843 0.036888296305243803 0 0.026036209415929972 0.036653812543619303 0 0.025660607229617584 0.036841096415955066 0 0.025975881991704843 0.036888296305243803 0 0.02615462262001414 0.036836050879379155 0 0.026036209415929972 0.036653812543619303 0 0.026036209415929972 0.036653812543619303 0 0.025526530384527624 0.036623574159343822 0 0.025709185559273574 0.036306695923386971 0 0.025526530384527624 0.036623574159343822 0 0.025161785500847404 0.036400809840200242 0 0.024847032534639102 0.036913433373620221 0 0.025526530384527624 0.036623574159343822 0 0.025660607229617584 0.036841096415955066 0 0.024847032534639102 0.036913433373620221 0 0.026036209415929972 0.036653812543619303 0 0.025526530384527624 0.036623574159343822 0 0.025660607229617584 0.036841096415955066 0 0.025161785500847404 0.036400809840200242 0 0.025709185559273574 0.036306695923386971 0 0.025167514525892075 0.035933907413528955 0 0.025526530384527624 0.036623574159343822 0 0.025161785500847404 0.036400809840200242 0 0.025709185559273574 0.036306695923386971 0 0.025167514525892075 0.035933907413528955 0 0.025686982812976395 0.035490665653449334 0 0.025941050710076966 0.0359917384523816 0 0.025709185559273574 0.036306695923386971 0 0.025167514525892075 0.035933907413528955 0 0.025941050710076966 0.0359917384523816 0 0.025832706367812659 0.035594229153257273 0 0.021332143153051111 0.039517583741424334 0 0.025167514525892075 0.035933907413528955 0 0.025686982812976395 0.035490665653449334 0 0.024872175764505604 0.035287747375713246 0 0.025219001418941477 0.036120193924234677 0 0.026289266820575894 0.035947199125076289 0 0.025956177682901826 0.035708188354191969 0 0.025832706367812659 0.035594229153257273 0 0.026046040305276658 0.035948050869062748 0 0.025686982812976395 0.035490665653449334 0 0.025941050710076966 0.0359917384523816 0 0.026289266820575894 0.035947199125076289 0 0.026593116995035127 0.036124951040577336 0 0.025941050710076966 0.0359917384523816 0 0.026289266820575894 0.035947199125076289 0 0.026593116995035127 0.036124951040577336 0 0.026289266820575894 0.035947199125076289 0 0.026774492474506022 0.03597811215291654 0 0.026289266820575894 0.035947199125076289 0 0.026671297759207867 0.035752224924496236 0 0.026774492474506022 0.03597811215291654 0 0.026289266820575894 0.035947199125076289 0 0.026671297759207867 0.035752224924496236 0 0.025956177682901826 0.035708188354191969 0 0.026671297759207867 0.035752224924496236 0 0.026774492474506022 0.03597811215291654 0 0.027171528672565309 0.035943607968511558 0 0.026671297759207867 0.035752224924496236 0 0.027251316290636977 0.035727679604333484 0 0.027171528672565309 0.035943607968511558 0 0.027144009678822762 0.036080998879674891 0 0.026593116995035127 0.036124951040577336 0 0.026774492474506022 0.03597811215291654 0 0.027144009678822762 0.036080998879674891 0 0.026774492474506022 0.03597811215291654 0 0.027171528672565309 0.035943607968511558 0 0.013157485618802672 0.033018541763107721 0 0.012575042162908896 0.033488552924324136 0 0.013510068460819848 0.033839001482811902 0 0.0073336614259006125 0.029749419938142164 0 0.017183661339380117 0.030495681328275782 0 0.015688561876515007 0.039494925511108878 0 0.017183661339380117 0.030495681328275782 0 0.023698104100770154 0.036181719838897355 0 0.0238691572220858 0.036626087061494617 0 0.024162230291301427 0.036277920722942086 0 0.015688561876515007 0.039494925511108878 0 0.0073336614259006125 0.029749419938142164 0 0.0099108632455059149 0.022976105944016879 0 0.010711556193323516 0.022280934818638558 0 0.014062679088292307 0.023587597310649046 0 0.0081029077994891844 0.042850906061682778 0 0.007954281211946709 0.04293939032485778 0 0.007868892783403485 0.042797336702634921 0 0.0076008715841142209 0.042941845790950506 0 0.007954281211946709 0.04293939032485778 0 0.007868892783403485 0.042797336702634921 0 0.00090258422978120069 0.022830944673771808 0 0.0012547630969608626 0.023072260825332636 0 0.001569854133550042 0.022793006633443455 0 0.0035703492246339993 0.02141531420728494 0 0.0058406283828251245 0.02198595724641669 0 0.0058406283828251245 0.02198595724641669 0 0.0073336614259006125 0.029749419938142164 0 0.0063598639090030199 0.015375453979399649 0 0.0063781679433935305 0.013908564444429127 0 0.0078470745274672338 0.014812010459981977 0 0.0058406283828251245 0.02198595724641669 0 0.011325188041077763 0.019939944810951571 0 0.0099108632455059149 0.022976105944016879 0 0.014062679088292307 0.023587597310649046 0 0.013934154208520946 0.025582112485094365 0 0.014062679088292307 0.023587597310649046 0 0.014453701614299312 0.024554621407335126 0 0.013934154208520946 0.025582112485094365 0 0.014095068276765434 0.023649168017394782 0 0.014453701614299312 0.024554621407335126 0 0.015862695594306486 0.025480071614353863 0 0.017183661339380117 0.030495681328275782 0 0.015466619590564222 0.026354164448880068 0 0.014453701614299312 0.024554621407335126 0 0.013934154208520946 0.025582112485094365 0 0.015862695594306486 0.025480071614353863 0 0.014095068276765434 0.023649168017394782 0 0.015862695594306486 0.025480071614353863 0 0.019117727581072583 0.025603992637261968 0 0.017183661339380117 0.030495681328275782 0 0.021920029106775981 0.031447114261137638 0 0.0238691572220858 0.036626087061494617 0 0.024847032534639102 0.036913433373620221 0 0.024379340107308765 0.036526615948853466 0 0.024847032534639102 0.036913433373620221 0 0.024639848427285917 0.036293774323737482 0 0.024379340107308765 0.036526615948853466 0 0.025161785500847404 0.036400809840200242 0 0.024847032534639102 0.036913433373620221 0 0.024639848427285917 0.036293774323737482 0 0.025161785500847404 0.036400809840200242 0 0.025167514525892075 0.035933907413528955 0 0.024639848427285917 0.036293774323737482 0 0.0238691572220858 0.036626087061494617 0 0.024379340107308765 0.036526615948853466 0 0.024162230291301427 0.036277920722942086 0 0.024639848427285917 0.036293774323737482 0 0.024379340107308765 0.036526615948853466 0 0.024162230291301427 0.036277920722942086 0 0.023698104100770154 0.036181719838897355 0 0.024162230291301427 0.036277920722942086 0 0.024267666845570121 0.035766611458223359 0 0.024639848427285917 0.036293774323737482 0 0.024162230291301427 0.036277920722942086 0 0.024267666845570121 0.035766611458223359 0 0.025167514525892075 0.035933907413528955 0 0.024639848427285917 0.036293774323737482 0 0.024267666845570121 0.035766611458223359 0 0.017635232054232754 0.043064244823912162 0 0.017604760746849985 0.042962701818167602 0 0.017961074030774144 0.042874962168149948 0 0.021807396482718351 0.039129900250323577 0 0.021332143153051111 0.039517583741424334 0 0.025167514525892075 0.035933907413528955 0 0.024267666845570121 0.035766611458223359 0 0.024872175764505604 0.035287747375713246 0 0.017635232054232754 0.043064244823912162 0 0.017441117103006654 0.043081210689088927 0 0.017604760746849985 0.042962701818167602 0 0.017441117103006654 0.043081210689088927 0 0.017480363115506482 0.043073611530733483 0 0.017438195400623434 0.043072532887969806 0 0.017635232054232754 0.043064244823912162 0 0.017441117103006654 0.043081210689088927 0 0.017480363115506482 0.043073611530733483 0 0.017448325507488149 0.043118371927522138 0 0.017635232054232754 0.043064244823912162 0 0.017480363115506482 0.043073611530733483 0 0.015688561876515007 0.039494925511108878 0 0.012619326993430451 0.043198352281498181 0 0.017448325507488149 0.043118371927522138 0 0.017480363115506482 0.043073611530733483 0 0.017438195400623434 0.043072532887969806 0 0.015688561876515007 0.039494925511108878 0 0.021807396482718351 0.039129900250323577 0 0.0081029077994891844 0.042850906061682778 0 0.007868892783403485 0.042797336702634921 0 0.0079771296748265327 0.042597313129173239 0 0.0076880282812185879 0.042719600740943268 0 0.007868892783403485 0.042797336702634921 0 0.0079771296748265327 0.042597313129173239 0 0.017438195400623434 0.043072532887969806 0 0.017466143662826158 0.043268517488040788 0 0.017402907039489286 0.04319407570705721 0 0.012619326993430451 0.043198352281498181 0 0.010808206264179054 0.044305172850690397 0 0.017466143662826158 0.043268517488040788 0 0.017330732946457938 0.043308612078836163 0 0.017402907039489286 0.04319407570705721 0 0.010808206264179054 0.044305172850690397 0 0.015899399712095145 0.045538502412629162 0 0.017466143662826158 0.043268517488040788 0 0.017330732946457938 0.043308612078836163 0 0.017282654626486593 0.043449069809765345 0 0.017330732946457938 0.043308612078836163 0 0.017338215880907611 0.043283312533555579 0 0.017162748617217824 0.043383911823754708 0 0.017330732946457938 0.043308612078836163 0 0.017338215880907611 0.043283312533555579 0 0.017402907039489286 0.04319407570705721 0 0.017441117103006654 0.043081210689088927 0 0.017338215880907611 0.043283312533555579 0 0.017402907039489286 0.04319407570705721 0 0.017441117103006654 0.043081210689088927 0 0.017438195400623434 0.043072532887969806 0 0.017402907039489286 0.04319407570705721 0 0.017441117103006654 0.043081210689088927 0 0.017338215880907611 0.043283312533555579 0 0.017604760746849985 0.042962701818167602 0 0.017488056909064562 0.04333454253772568 0 0.017471836826102937 0.043165074194921736 0 0.017528112291944339 0.043749154404885325 0 0.018063026781043157 0.044010458190315946 0 0.017936499345609216 0.043537122706876034 0 0.017471836826102937 0.043165074194921736 0 0.021332143153051111 0.039517583741424334 0 0.017936499345609216 0.043537122706876034 0 0.017413132653770307 0.043445415388151679 0 0.017404206776707603 0.043344872042549262 0 0.017528112291944339 0.043749154404885325 0 0.017936499345609216 0.043537122706876034 0 0.017413132653770307 0.043445415388151679 0 0.017338215880907611 0.043283312533555579 0 0.017413132653770307 0.043445415388151679 0 0.017162748617217824 0.043383911823754708 0 0.017338215880907611 0.043283312533555579 0 0.017528112291944339 0.043749154404885325 0 0.017413132653770307 0.043445415388151679 0 0.017162748617217824 0.043383911823754708 0 0.017404206776707603 0.043344872042549262 0 0.01638972980749142 0.043596334703978626 0 0.017413132653770307 0.043445415388151679 0 0.017162748617217824 0.043383911823754708 0 0.017404206776707603 0.043344872042549262 0 0.017936499345609216 0.043537122706876034 0 0.017404206776707603 0.043344872042549262 0 0.018466774165043904 0.042979318243052976 0 0.017404206776707603 0.043344872042549262 0 0.017506944187082991 0.042925710741319241 0 0.018466774165043904 0.042979318243052976 0 0.017404206776707603 0.043344872042549262 0 0.017506944187082991 0.042925710741319241 0 0.01638972980749142 0.043596334703978626 0 0.016283718790256772 0.043681745656718361 0 0.015899399712095145 0.045538502412629162 0 0.01638972980749142 0.043596334703978626 0 0.013666152920371696 0.047236557801582556 0 0.012360442543359527 0.043530013727612879 0 0.011006301831255465 0.045422978398059921 0 0.013666152920371696 0.047236557801582556 0 0.012360442543359527 0.043530013727612879 0 0.011006301831255465 0.045422978398059921 0 0.012360442543359527 0.043530013727612879 0 0.010382992453748843 0.04401383216609981 0 0.011094178705153371 0.050209781855015616 0 0.013666152920371696 0.047236557801582556 0 0.0099588678678029646 0.047451116484050392 0 0.011006301831255465 0.045422978398059921 0 0.013666152920371696 0.047236557801582556 0 0.0099588678678029646 0.047451116484050392 0 0.017162748617217824 0.043383911823754708 0 0.01638972980749142 0.043596334703978626 0 0.017282654626486593 0.043449069809765345 0 0.017330732946457938 0.043308612078836163 0 0.017162748617217824 0.043383911823754708 0 0.017282654626486593 0.043449069809765345 0 0.026762015768437588 0.034916550889988893 0 0.026332820084145125 0.035302560492439648 0 0.025727713034688241 0.03465459003222264 0 0.026762015768437588 0.034916550889988893 0 0.026332820084145125 0.035302560492439648 0 0.026894168820755224 0.035441894927098365 0 0.026671297759207867 0.035752224924496236 0 0.026332820084145125 0.035302560492439648 0 0.026894168820755224 0.035441894927098365 0 0.026671297759207867 0.035752224924496236 0 0.026894168820755224 0.035441894927098365 0 0.027251316290636977 0.035727679604333484 0 0.026671297759207867 0.035752224924496236 0 0.026332820084145125 0.035302560492439648 0 0.025956177682901826 0.035708188354191969 0 0.026332820084145125 0.035302560492439648 0 0.025956177682901826 0.035708188354191969 0 0.025062787216765997 0.03530565372144838 0 0.026332820084145125 0.035302560492439648 0 0.025062787216765997 0.03530565372144838 0 0.025727713034688241 0.03465459003222264 0 0.021945498557876284 0.039496930880142986 0 0.022785661372598746 0.038796631394262739 0 0.025219001418941477 0.036120193924234677 0 0.025956177682901826 0.035708188354191969 0 0.025062787216765997 0.03530565372144838 0 0.018063026781043157 0.044010458190315946 0 0.017936499345609216 0.043537122706876034 0 0.018921349684689438 0.04352164532312551 0 0.025219001418941477 0.036120193924234677 0 0.024272705966844825 0.035985749471090206 0 0.025062787216765997 0.03530565372144838 0 0.021332143153051111 0.039517583741424334 0 0.021945498557876284 0.039496930880142986 0 0.017936499345609216 0.043537122706876034 0 0.018921349684689438 0.04352164532312551 0 0.018466774165043904 0.042979318243052976 0 0.018466774165043904 0.042979318243052976 0 0.019805337380013298 0.043005957210994893 0 0.019472716837874063 0.041869056879619594 0 0.017506944187082991 0.042925710741319241 0 0.018466774165043904 0.042979318243052976 0 0.018310630887659603 0.042122754948014131 0 0.018921349684689438 0.04352164532312551 0 0.018466774165043904 0.042979318243052976 0 0.019805337380013298 0.043005957210994893 0 0.019805337380013298 0.043005957210994893 0 0.020666921909087404 0.042383787612819981 0 0.019472716837874063 0.041869056879619594 0 0.022785661372598746 0.038796631394262739 0 0.023591538253886685 0.038102758367350414 0 0.025727713034688241 0.03465459003222264 0 0.026493580226167348 0.033809871991926026 0 0.026719668203711515 0.034376015164807865 0 0.026762015768437588 0.034916550889988893 0 0.025727713034688241 0.03465459003222264 0 0.026719668203711515 0.034376015164807865 0 0.020631069992687705 0.041666326935239077 0 0.020040368161868521 0.04091765005494271 0 0.021085558421626925 0.040601675393311373 0 0.020631069992687705 0.041666326935239077 0 0.019472716837874063 0.041869056879619594 0 0.020040368161868521 0.04091765005494271 0 0.020666921909087404 0.042383787612819981 0 0.020631069992687705 0.041666326935239077 0 0.019472716837874063 0.041869056879619594 0 0.019472716837874063 0.041869056879619594 0 0.019222483423610052 0.040558851861605856 0 0.020040368161868521 0.04091765005494271 0 0.019472716837874063 0.041869056879619594 0 0.018540990275256589 0.040861301870852539 0 0.019222483423610052 0.040558851861605856 0 0.019472716837874063 0.041869056879619594 0 0.018310630887659603 0.042122754948014131 0 0.018540990275256589 0.040861301870852539 0 0.018466774165043904 0.042979318243052976 0 0.019472716837874063 0.041869056879619594 0 0.018310630887659603 0.042122754948014131 0 0.018322307607521654 0.04202938810115623 0 0.018685299947367385 0.040694531843349764 0 0.018310630887659603 0.042122754948014131 0 0.018846654160002033 0.040499601426276954 0 0.017350477907020961 0.040341662550027808 0 0.018347681876366227 0.03906652164640418 0 0.018846654160002033 0.040499601426276954 0 0.017350477907020961 0.040341662550027808 0 0.018347681876366227 0.03906652164640418 0 0.01909278913449099 0.039136308723949416 0 0.018846654160002033 0.040499601426276954 0 0.018742294083102073 0.03973454879886084 0 0.018540990275256589 0.040861301870852539 0 0.019222483423610052 0.040558851861605856 0 0.018897576830626133 0.039453509673747209 0 0.018685299947367385 0.040694531843349764 0 0.019222483423610052 0.040558851861605856 0 0.019622913959177025 0.040036991740051021 0 0.020040368161868521 0.04091765005494271 0 0.018742294083102073 0.03973454879886084 0 0.019622913959177025 0.040036991740051021 0 0.019189663038024728 0.039361406897460524 0 0.018742294083102073 0.03973454879886084 0 0.019222483423610052 0.040558851861605856 0 0.019622913959177025 0.040036991740051021 0 0.019622913959177025 0.040036991740051021 0 0.020044298468791796 0.039277329047976851 0 0.019189663038024728 0.039361406897460524 0 0.019622913959177025 0.040036991740051021 0 0.021085558421626925 0.040601675393311373 0 0.020044298468791796 0.039277329047976851 0 0.019622913959177025 0.040036991740051021 0 0.020040368161868521 0.04091765005494271 0 0.021085558421626925 0.040601675393311373 0 0.014026346230904563 0.041795297741004836 0 0.015685308652368567 0.040688860447725683 0 0.013654134786913342 0.040094991371927603 0 0.014026346230904563 0.041795297741004836 0 0.011515318477410422 0.041248927434574818 0 0.013654134786913342 0.040094991371927603 0 0.011515318477410422 0.041248927434574818 0 0.012360442543359527 0.043530013727612879 0 0.0096924099307183244 0.04281455169431727 0 0.014026346230904563 0.041795297741004836 0 0.011515318477410422 0.041248927434574818 0 0.012360442543359527 0.043530013727612879 0 0.01638972980749142 0.043596334703978626 0 0.014026346230904563 0.041795297741004836 0 0.012360442543359527 0.043530013727612879 0 0.017506944187082991 0.042925710741319241 0 0.01638972980749142 0.043596334703978626 0 0.016813257374163972 0.042015677471242824 0 0.01638972980749142 0.043596334703978626 0 0.014026346230904563 0.041795297741004836 0 0.016813257374163972 0.042015677471242824 0 0.017506944187082991 0.042925710741319241 0 0.018310630887659603 0.042122754948014131 0 0.016813257374163972 0.042015677471242824 0 0.018310630887659603 0.042122754948014131 0 0.016813257374163972 0.042015677471242824 0 0.017350477907020961 0.040341662550027808 0 0.016813257374163972 0.042015677471242824 0 0.015685308652368567 0.040688860447725683 0 0.017350477907020961 0.040341662550027808 0 0.014026346230904563 0.041795297741004836 0 0.016813257374163972 0.042015677471242824 0 0.015685308652368567 0.040688860447725683 0 0.015685308652368567 0.040688860447725683 0 0.017350477907020961 0.040341662550027808 0 0.015486915122046687 0.0392787388670751 0 0.018347681876366227 0.03906652164640418 0 0.017350477907020961 0.040341662550027808 0 0.016902090884246657 0.038736013913289916 0 0.017350477907020961 0.040341662550027808 0 0.015486915122046687 0.0392787388670751 0 0.016902090884246657 0.038736013913289916 0 0.015486915122046687 0.0392787388670751 0 0.015101198903636462 0.037726846919792716 0 0.016902090884246657 0.038736013913289916 0 0.015486915122046687 0.0392787388670751 0 0.013809172616035491 0.038314365240465983 0 0.015101198903636462 0.037726846919792716 0 0.015486915122046687 0.0392787388670751 0 0.013654134786913342 0.040094991371927603 0 0.013809172616035491 0.038314365240465983 0 0.015685308652368567 0.040688860447725683 0 0.015486915122046687 0.0392787388670751 0 0.013654134786913342 0.040094991371927603 0 0.011515318477410422 0.041248927434574818 0 0.013654134786913342 0.040094991371927603 0 0.010478986625937423 0.039298331908034237 0 0.013654134786913342 0.040094991371927603 0 0.013809172616035491 0.038314365240465983 0 0.010478986625937423 0.039298331908034237 0 0.013809172616035491 0.038314365240465983 0 0.010198516971961119 0.03649096032023888 0 0.010478986625937423 0.039298331908034237 0 0.013607640119438527 0.038184413524346456 0 0.011307214460280639 0.037430440225790722 0 0.010198516971961119 0.03649096032023888 0 0.0068115850091023103 0.038632158478965402 0 0.010478986625937423 0.039298331908034237 0 0.010198516971961119 0.03649096032023888 0 0.0068115850091023103 0.038632158478965402 0 0.0066016214731341493 0.035446236355454026 0 0.0068115850091023103 0.038632158478965402 0 0.0085441078386840584 0.04091753488402762 0 0.0059021127735277221 0.041016073036965556 0 0.0068115850091023103 0.038632158478965402 0 0.010478986625937423 0.039298331908034237 0 0.0085441078386840584 0.04091753488402762 0 0.011515318477410422 0.041248927434574818 0 0.010478986625937423 0.039298331908034237 0 0.0085441078386840584 0.04091753488402762 0 0.011515318477410422 0.041248927434574818 0 0.0085441078386840584 0.04091753488402762 0 0.0096924099307183244 0.04281455169431727 0 0.0085441078386840584 0.04091753488402762 0 0.0071318652347687646 0.042311818814744752 0 0.0096924099307183244 0.04281455169431727 0 0.0085441078386840584 0.04091753488402762 0 0.0071318652347687646 0.042311818814744752 0 0.0059021127735277221 0.041016073036965556 0 0.0076559151267785418 0.04398151596198744 0 0.0096924099307183244 0.04281455169431727 0 0.0084980576061096328 0.044521880495537236 0 0.0071318652347687646 0.042311818814744752 0 0.0076559151267785418 0.04398151596198744 0 0.0096924099307183244 0.04281455169431727 0 0.0071318652347687646 0.042311818814744752 0 0.0076559151267785418 0.04398151596198744 0 0.0049451366913859634 0.043932382545933304 0 0.012360442543359527 0.043530013727612879 0 0.0096924099307183244 0.04281455169431727 0 0.010382992453748843 0.04401383216609981 0 0.0096924099307183244 0.04281455169431727 0 0.0084980576061096328 0.044521880495537236 0 0.010382992453748843 0.04401383216609981 0 0.0026874298794360625 0.042768057938794631 0 -0.00043110099639400134 0.0429056611578192 0 0.0025267952664200003 0.044082538060895057 0 0.0026874298794360625 0.042768057938794631 0 0.0049451366913859634 0.043932382545933304 0 0.0025267952664200003 0.044082538060895057 0 0.0071318652347687646 0.042311818814744752 0 0.0049451366913859634 0.043932382545933304 0 0.0048632335604677441 0.042417233533401773 0 0.0026874298794360625 0.042768057938794631 0 0.0049451366913859634 0.043932382545933304 0 0.0048632335604677441 0.042417233533401773 0 0.0048632335604677441 0.042417233533401773 0 0.0059021127735277221 0.041016073036965556 0 0.0036047493834575157 0.041489351635517847 0 0.0071318652347687646 0.042311818814744752 0 0.0048632335604677441 0.042417233533401773 0 0.0059021127735277221 0.041016073036965556 0 0.0059021127735277221 0.041016073036965556 0 0.0036047493834575157 0.041489351635517847 0 0.0043212875078642212 0.040218339635723258 0 0.0036047493834575157 0.041489351635517847 0 0.0023156496079190371 0.040636620811192015 0 0.0043212875078642212 0.040218339635723258 0 0.0026874298794360625 0.042768057938794631 0 0.0036047493834575157 0.041489351635517847 0 0.0017306700881776662 0.041869848057792591 0 0.0026874298794360625 0.042768057938794631 0 0.0048632335604677441 0.042417233533401773 0 0.0036047493834575157 0.041489351635517847 0 0.0036047493834575157 0.041489351635517847 0 0.0017306700881776662 0.041869848057792591 0 0.0023156496079190371 0.040636620811192015 0 0.0017306700881776662 0.041869848057792591 0 0.0023156496079190371 0.040636620811192015 0 0.00039883042059655864 0.041151819473069597 0 0.0023156496079190371 0.040636620811192015 0 0.0028243338141749736 0.039217112884936782 0 0.0010460302591150405 0.039787577890849017 0 0.0023156496079190371 0.040636620811192015 0 0.0028243338141749736 0.039217112884936782 0 0.0043212875078642212 0.040218339635723258 0 0.0028243338141749736 0.039217112884936782 0 0.0043212875078642212 0.040218339635723258 0 0.0045281825349392001 0.038608531929478669 0 0.0028243338141749736 0.039217112884936782 0 0.0017486832694198894 0.03819307077104702 0 0.0010460302591150405 0.039787577890849017 0 0.0068115850091023103 0.038632158478965402 0 0.0059021127735277221 0.041016073036965556 0 0.0043212875078642212 0.040218339635723258 0 0.0068115850091023103 0.038632158478965402 0 0.0043212875078642212 0.040218339635723258 0 0.0045281825349392001 0.038608531929478669 0 0.0068115850091023103 0.038632158478965402 0 0.0051999279422877027 0.037234655181629432 0 0.0066016214731341493 0.035446236355454026 0 0.0068115850091023103 0.038632158478965402 0 0.0045281825349392001 0.038608531929478669 0 0.0051999279422877027 0.037234655181629432 0 0.0045281825349392001 0.038608531929478669 0 0.0051999279422877027 0.037234655181629432 0 0.0034987882687191828 0.037659705371493282 0 0.0051999279422877027 0.037234655181629432 0 0.0041911486739816314 0.036292383149696988 0 0.0034987882687191828 0.037659705371493282 0 0.0051999279422877027 0.037234655181629432 0 0.0041911486739816314 0.036292383149696988 0 0.0066016214731341493 0.035446236355454026 0 0.0028243338141749736 0.039217112884936782 0 0.0017486832694198894 0.03819307077104702 0 0.0034987882687191828 0.037659705371493282 0 0.0028243338141749736 0.039217112884936782 0 0.0045281825349392001 0.038608531929478669 0 0.0034987882687191828 0.037659705371493282 0 0.0041911486739816314 0.036292383149696988 0 0.0034987882687191828 0.037659705371493282 0 0.0025849900241693841 0.036584802549636197 0 0.0017486832694198894 0.03819307077104702 0 0.0034987882687191828 0.037659705371493282 0 0.0025849900241693841 0.036584802549636197 0 0.0017486832694198894 0.03819307077104702 0 0.0025849900241693841 0.036584802549636197 0 0.00043598221630190988 0.036669574172236923 0 0.0017486832694198894 0.03819307077104702 0 0.00043598221630190988 0.036669574172236923 0 2.207352221806776e-05 0.039059176483375306 0 0.0017486832694198894 0.03819307077104702 0 2.207352221806776e-05 0.039059176483375306 0 0.0010460302591150405 0.039787577890849017 0 -0.0023426573184143584 0.039361411146987116 0 -0.001903306346930987 0.039598340503618587 0 0.00043598221630190988 0.036669574172236923 0 2.207352221806776e-05 0.039059176483375306 0 -0.0021533153862306918 0.039963656746120076 0 -0.0038734976593025701 0.041276291192012163 0 -0.0027081295015012204 0.0408071483833371 0 -0.0021533153862306918 0.039963656746120076 0 -0.0027081295015012204 0.0408071483833371 0 -0.0025622873613617776 0.04127694225948688 0 -0.0028499302742244787 0.041538539665510903 0 -0.0027081295015012204 0.0408071483833371 0 -0.0025622873613617776 0.04127694225948688 0 -0.0023396877488028635 0.040743976364696573 0 -0.0025622873613617776 0.04127694225948688 0 -0.0023396877488028635 0.040743976364696573 0 -0.0023383686151324003 0.041143117931225999 0 -0.0025622873613617776 0.04127694225948688 0 -0.0023383686151324003 0.041143117931225999 0 -0.0025337405008457373 0.041722874106366124 0 -0.0022550807052064857 0.040681435612266108 0 -0.0021533153862306918 0.039963656746120076 0 -0.0022430732516013881 0.040655224656406336 0 -0.0022550807052064857 0.040681435612266108 0 -0.0023396877488028635 0.040743976364696573 0 -0.0021533153862306918 0.039963656746120076 0 -0.0022550807052064857 0.040681435612266108 0 -0.0023396877488028635 0.040743976364696573 0 -0.0023383686151324003 0.041143117931225999 0 -0.0027081295015012204 0.0408071483833371 0 -0.0023396877488028635 0.040743976364696573 0 -0.0021533153862306918 0.039963656746120076 0 -0.0021533153862306918 0.039963656746120076 0 -0.0018842264342616131 0.040668273692988775 0 -0.00076100040592495897 0.040345898432347385 0 -0.0021533153862306918 0.039963656746120076 0 -0.0018842264342616131 0.040668273692988775 0 -0.0022430732516013881 0.040655224656406336 0 -0.0018842264342616131 0.040668273692988775 0 -0.00076100040592495897 0.040345898432347385 0 -0.0011531373913370941 0.041237708349528668 0 -0.00076100040592495897 0.040345898432347385 0 0.00039883042059655864 0.041151819473069597 0 -0.0011531373913370941 0.041237708349528668 0 0.0023156496079190371 0.040636620811192015 0 0.0010460302591150405 0.039787577890849017 0 0.00039883042059655864 0.041151819473069597 0 0.0010460302591150405 0.039787577890849017 0 -0.00076100040592495897 0.040345898432347385 0 0.00039883042059655864 0.041151819473069597 0 2.207352221806776e-05 0.039059176483375306 0 0.0010460302591150405 0.039787577890849017 0 -0.00076100040592495897 0.040345898432347385 0 2.207352221806776e-05 0.039059176483375306 0 -0.0021533153862306918 0.039963656746120076 0 -0.00076100040592495897 0.040345898432347385 0 -0.0019506562492669721 0.04127616566894058 0 -0.00196354519899701 0.041023180430453873 0 -0.0017291915816951807 0.041318424755534058 0 -0.0019506562492669721 0.04127616566894058 0 -0.002095934974068066 0.041036437272046783 0 -0.00196354519899701 0.041023180430453873 0 -0.0019506562492669721 0.04127616566894058 0 -0.0017100893514503379 0.041669381906823358 0 -0.0017291915816951807 0.041318424755534058 0 -0.0017100893514503379 0.041669381906823358 0 -0.0020500823031170162 0.041534887367360128 0 -0.0019075899063953339 0.041894968107439493 0 -0.0019506562492669721 0.04127616566894058 0 -0.0017100893514503379 0.041669381906823358 0 -0.0020500823031170162 0.041534887367360128 0 -0.0020500823031170162 0.041534887367360128 0 -0.0021824554158681457 0.041208796450389669 0 -0.0022266679410318261 0.041621313780716311 0 -0.0020500823031170162 0.041534887367360128 0 -0.002142906569791274 0.041942304837132183 0 -0.0019075899063953339 0.041894968107439493 0 -0.0020500823031170162 0.041534887367360128 0 -0.0022266679410318261 0.041621313780716311 0 -0.002142906569791274 0.041942304837132183 0 -0.0019506562492669721 0.04127616566894058 0 -0.0021824554158681457 0.041208796450389669 0 -0.002095934974068066 0.041036437272046783 0 -0.0019506562492669721 0.04127616566894058 0 -0.0020500823031170162 0.041534887367360128 0 -0.0021824554158681457 0.041208796450389669 0 -0.0021824554158681457 0.041208796450389669 0 -0.0022785267482038339 0.040881162105339514 0 -0.002095934974068066 0.041036437272046783 0 -0.0021824554158681457 0.041208796450389669 0 -0.0022910549113200522 0.041331936472708643 0 -0.0022741501969929588 0.040949491768648448 0 -0.0021824554158681457 0.041208796450389669 0 -0.0022741501969929588 0.040949491768648448 0 -0.0022785267482038339 0.040881162105339514 0 -0.0021824554158681457 0.041208796450389669 0 -0.0022266679410318261 0.041621313780716311 0 -0.0022910549113200522 0.041331936472708643 0 -0.0022266679410318261 0.041621313780716311 0 -0.0022910549113200522 0.041331936472708643 0 -0.0023639169763291102 0.041660624986001531 0 -0.0022910549113200522 0.041331936472708643 0 -0.0023383686151324003 0.041143117931225999 0 -0.0022741501969929588 0.040949491768648448 0 -0.0022910549113200522 0.041331936472708643 0 -0.0023383686151324003 0.041143117931225999 0 -0.0023639169763291102 0.041660624986001531 0 -0.0022550807052064857 0.040681435612266108 0 -0.0023383686151324003 0.041143117931225999 0 -0.0022741501969929588 0.040949491768648448 0 -0.0022550807052064857 0.040681435612266108 0 -0.0022741501969929588 0.040949491768648448 0 -0.0022430732516013881 0.040655224656406336 0 -0.0018842264342616131 0.040668273692988775 0 -0.0022430732516013881 0.040655224656406336 0 -0.002547660544802972 0.041174475329904897 0 -0.0022785267482038339 0.040881162105339514 0 -0.0021727500631156848 0.040900632402993013 0 -0.002547660544802972 0.041174475329904897 0 -0.0022430732516013881 0.040655224656406336 0 -0.0022785267482038339 0.040881162105339514 0 -0.002547660544802972 0.041174475329904897 0 -0.0022741501969929588 0.040949491768648448 0 -0.0022430732516013881 0.040655224656406336 0 -0.0022785267482038339 0.040881162105339514 0 -0.0092421235944557516 0.036352352821078751 0 -0.015796243056229321 0.039590531222271914 0 -0.0021727500631156848 0.040900632402993013 0 -0.002547660544802972 0.041174475329904897 0 -0.0019290032953049119 0.040737482260642617 0 -0.0022785267482038339 0.040881162105339514 0 -0.002095934974068066 0.041036437272046783 0 -0.0021727500631156848 0.040900632402993013 0 -0.002095934974068066 0.041036437272046783 0 -0.0021727500631156848 0.040900632402993013 0 -0.0020538293650760372 0.040960254369876839 0 -0.0021727500631156848 0.040900632402993013 0 -0.0020145488622842229 0.040850500821967506 0 -0.0019290032953049119 0.040737482260642617 0 -0.0020145488622842229 0.040850500821967506 0 -0.00196354519899701 0.041023180430453873 0 -0.0019290032953049119 0.040737482260642617 0 -0.00196354519899701 0.041023180430453873 0 -0.0017291915816951807 0.041318424755534058 0 -0.0019290032953049119 0.040737482260642617 0 -0.0021727500631156848 0.040900632402993013 0 -0.0020145488622842229 0.040850500821967506 0 -0.0020538293650760372 0.040960254369876839 0 -0.002095934974068066 0.041036437272046783 0 -0.0020538293650760372 0.040960254369876839 0 -0.00196354519899701 0.041023180430453873 0 -0.0020145488622842229 0.040850500821967506 0 -0.0020538293650760372 0.040960254369876839 0 -0.00196354519899701 0.041023180430453873 0 -0.022107291048627773 0.033189975608127885 0 -0.017022586845611819 0.032305102599983357 0 -0.020200308691319932 0.03963759836611197 0 -0.022107291048627773 0.033189975608127885 0 -0.024847815599831236 0.031613048388981664 0 -0.024407936428061092 0.03033268441578741 0 -0.022107291048627773 0.033189975608127885 0 -0.017022586845611819 0.032305102599983357 0 -0.024407936428061092 0.03033268441578741 0 -0.022107291048627773 0.033189975608127885 0 -0.020200308691319932 0.03963759836611197 0 -0.025862989868733099 0.032090062566794392 0 -0.017022586845611819 0.032305102599983357 0 -0.020200308691319932 0.03963759836611197 0 -0.013125020859056329 0.039207887562903068 0 -0.023968497820671571 0.034494544950320713 0 -0.025713046475780266 0.032471533427863568 0 0.0026874298794360625 0.042768057938794631 0 0.0017306700881776662 0.041869848057792591 0 -0.00043110099639400134 0.0429056611578192 0 0.0017306700881776662 0.041869848057792591 0 0.00039883042059655864 0.041151819473069597 0 -0.00043110099639400134 0.0429056611578192 0 0.00039883042059655864 0.041151819473069597 0 -0.0011531373913370941 0.041237708349528668 0 -0.00043110099639400134 0.0429056611578192 0 -0.0018842264342616131 0.040668273692988775 0 -0.002547660544802972 0.041174475329904897 0 -0.0011531373913370941 0.041237708349528668 0 -0.0092421235944557516 0.036352352821078751 0 -0.0037717021701910319 0.04025318172869953 0 -0.002547660544802972 0.041174475329904897 0 -0.0011531373913370941 0.041237708349528668 0 -0.00043110099639400134 0.0429056611578192 0 -0.017022586845611819 0.032305102599983357 0 -0.013125020859056329 0.039207887562903068 0 -0.0070237480141007325 0.037370787559776027 0 -0.013125020859056329 0.039207887562903068 0 -0.0070237480141007325 0.037370787559776027 0 -0.0071177893195166868 0.043301448488052528 0 -0.0070237480141007325 0.037370787559776027 0 -0.0015860884176261652 0.043489966751263903 0 -0.0071177893195166868 0.043301448488052528 0 -0.0070237480141007325 0.037370787559776027 0 -0.0015860884176261652 0.043489966751263903 0 0.0025267952664200003 0.044082538060895057 0 -0.0037717021701910319 0.04025318172869953 0 0.002167487834575401 0.043755896887161451 0 -0.0015860884176261652 0.043489966751263903 0 -0.0036046267294892694 0.048520116404708338 0 -0.0015877397140994069 0.050275621759731104 0 -0.0036046267294892694 0.048520116404708338 0 -0.0071177893195166868 0.043301448488052528 0 -0.010553086759111489 0.04731468595004925 0 -0.0015860884176261652 0.043489966751263903 0 -0.0036046267294892694 0.048520116404708338 0 -0.0071177893195166868 0.043301448488052528 0 -0.013125020859056329 0.039207887562903068 0 -0.0071177893195166868 0.043301448488052528 0 -0.010553086759111489 0.04731468595004925 0 -0.02904641929121702 0.028191700711311649 0 -0.029152216719846958 0.02721664276580768 0 -0.028468086346605179 0.027594941823279991 0 -0.029152216719846958 0.02721664276580768 0 -0.028468086346605179 0.027594941823279991 0 -0.028631524162609712 0.026618224574127016 0 -0.02904641929121702 0.028191700711311649 0 -0.029152216719846958 0.02721664276580768 0 -0.030093936526335553 0.02718059482930954 0 -0.019867090640119826 0.038727640011321326 0 -0.013920436998895541 0.034209172549729529 0 -0.0036046267294892694 0.048520116404708338 0 -0.010553086759111489 0.04731468595004925 0 -0.0010061820015578311 0.053458868296338231 0 -0.0036046267294892694 0.048520116404708338 0 -0.0015877397140994069 0.050275621759731104 0 -0.0010061820015578311 0.053458868296338231 0 -0.028053561329518573 0.029682180768632126 0 -0.027643317788511833 0.028153672181728456 0 -0.026431046021850778 0.028643984726882423 0 -0.028053561329518573 0.029682180768632126 0 -0.02904641929121702 0.028191700711311649 0 -0.028468086346605179 0.027594941823279991 0 -0.020200308691319932 0.03963759836611197 0 -0.013125020859056329 0.039207887562903068 0 -0.010553086759111489 0.04731468595004925 0 -0.028053561329518573 0.029682180768632126 0 -0.027643317788511833 0.028153672181728456 0 -0.028468086346605179 0.027594941823279991 0 -0.023968497820671571 0.034494544950320713 0 -0.019867090640119826 0.038727640011321326 0 -0.028468086346605179 0.027594941823279991 0 -0.028041804569918262 0.026766980324280626 0 -0.028631524162609712 0.026618224574127016 0 -0.027643317788511833 0.028153672181728456 0 -0.028468086346605179 0.027594941823279991 0 -0.028041804569918262 0.026766980324280626 0 -0.027643317788511833 0.028153672181728456 0 -0.027297008804021267 0.027032841057899198 0 -0.026431046021850778 0.028643984726882423 0 -0.027643317788511833 0.028153672181728456 0 -0.027297008804021267 0.027032841057899198 0 -0.028041804569918262 0.026766980324280626 0 -0.027297008804021267 0.027032841057899198 0 -0.027138909236957567 0.026142400942275462 0 -0.028041804569918262 0.026766980324280626 0 -0.027138909236957567 0.026142400942275462 0 -0.028041804569918262 0.026766980324280626 0 -0.027975250113418233 0.02574363860724772 0 -0.028041804569918262 0.026766980324280626 0 -0.028441712722574806 0.02593765215362958 0 -0.027975250113418233 0.02574363860724772 0 -0.028041804569918262 0.026766980324280626 0 -0.028441712722574806 0.02593765215362958 0 -0.028631524162609712 0.026618224574127016 0 -0.028441712722574806 0.02593765215362958 0 -0.028955883187477226 0.025587521722914511 0 -0.028197357806527733 0.025506267749783148 0 -0.027957876426463909 0.024625578574405931 0 -0.028955883187477226 0.025587521722914511 0 -0.027975250113418233 0.02574363860724772 0 -0.028441712722574806 0.02593765215362958 0 -0.028955883187477226 0.025587521722914511 0 -0.027975250113418233 0.02574363860724772 0 -0.027957876426463909 0.024625578574405931 0 -0.027975250113418233 0.02574363860724772 0 -0.027075886295442667 0.025099730562962018 0 -0.027138909236957567 0.026142400942275462 0 -0.027975250113418233 0.02574363860724772 0 -0.027075886295442667 0.025099730562962018 0 -0.029152216719846958 0.02721664276580768 0 -0.029489565661750618 0.026449216380126542 0 -0.030093936526335553 0.02718059482930954 0 -0.025207195554777972 0.022483913905632303 0 -0.022832033752554701 0.022747007685053517 0 -0.025252444625451977 0.025524459087017434 0 -0.027687495699495069 0.024612436165186869 0 -0.013920436998895541 0.034209172549729529 0 -0.025207195554777972 0.022483913905632303 0 -0.022832033752554701 0.022747007685053517 0 -0.022010913453650739 0.019781638682528968 0 -0.029152216719846958 0.02721664276580768 0 -0.029489565661750618 0.026449216380126542 0 -0.028631524162609712 0.026618224574127016 0 -0.028441712722574806 0.02593765215362958 0 -0.028631524162609712 0.026618224574127016 0 -0.028197357806527733 0.025506267749783148 0 -0.029489565661750618 0.026449216380126542 0 -0.028631524162609712 0.026618224574127016 0 -0.028197357806527733 0.025506267749783148 0 -0.027687495699495069 0.024612436165186869 0 -0.028039801645707661 0.025279095555111888 0 -0.025207195554777972 0.022483913905632303 0 -0.028197357806527733 0.025506267749783148 0 -0.025252444625451977 0.025524459087017434 0 -0.028955883187477226 0.025587521722914511 0 -0.028197357806527733 0.025506267749783148 0 -0.026895233779836731 0.026879499603769952 0 -0.028197357806527733 0.025506267749783148 0 -0.026895233779836731 0.026879499603769952 0 -0.025252444625451977 0.025524459087017434 0 -0.026895233779836731 0.026879499603769952 0 -0.025574374354539551 0.026828946252465211 0 -0.025252444625451977 0.025524459087017434 0 -0.024339906642426246 0.027236360074847817 0 -0.025574374354539551 0.026828946252465211 0 -0.025252444625451977 0.025524459087017434 0 -0.022832033752554701 0.022747007685053517 0 -0.025252444625451977 0.025524459087017434 0 -0.021973510501187201 0.024745085764845756 0 -0.024339906642426246 0.027236360074847817 0 -0.025252444625451977 0.025524459087017434 0 -0.022494048059774306 0.026726691740457477 0 -0.025252444625451977 0.025524459087017434 0 -0.022494048059774306 0.026726691740457477 0 -0.021973510501187201 0.024745085764845756 0 -0.021112934743477758 0.02809149590010971 0 -0.022494048059774306 0.026726691740457477 0 -0.020329029400887186 0.025806733912005032 0 -0.020329029400887186 0.025806733912005032 0 -0.019794351882844667 0.021238149272936411 0 -0.017530120463358386 0.027194660778816809 0 -0.022494048059774306 0.026726691740457477 0 -0.020329029400887186 0.025806733912005032 0 -0.021973510501187201 0.024745085764845756 0 -0.020329029400887186 0.025806733912005032 0 -0.021973510501187201 0.024745085764845756 0 -0.019794351882844667 0.021238149272936411 0 -0.021112934743477758 0.02809149590010971 0 -0.020329029400887186 0.025806733912005032 0 -0.017530120463358386 0.027194660778816809 0 -0.022832033752554701 0.022747007685053517 0 -0.021973510501187201 0.024745085764845756 0 -0.019794351882844667 0.021238149272936411 0 -0.0059422097302323932 0.032049763582253622 0 -0.013920436998895541 0.034209172549729529 0 -0.022832033752554701 0.022747007685053517 0 -0.019794351882844667 0.021238149272936411 0 -0.022010913453650739 0.019781638682528968 0 -0.0059422097302323932 0.032049763582253622 0 0.0079329515630326922 0.040827251208130085 0 0.0081507942468431686 0.043704778139597819 0 0.0077153354962949195 0.04361111952000795 0 0.0078290979093818703 0.043925249632736307 0 0.0081507942468431686 0.043704778139597819 0 0.0076119051730192799 0.04320210183697154 0 0.0077153354962949195 0.04361111952000795 0 -0.0033831213708619247 0.032176008602027774 0 -0.00068253805584566805 0.039844663048154032 0 0.0031093889702606715 0.036497511449314457 0 -0.0059422097302323932 0.032049763582253622 0 -0.0022870486545955369 0.036006617029437749 0 -0.0022870486545955369 0.036006617029437749 0 0.0079329515630326922 0.040827251208130085 0 0.0073854404041664989 0.042880172373253013 0 0.0073806110544047485 0.042828438009617262 0 0.0076119051730192799 0.04320210183697154 0 0.0073854404041664989 0.042880172373253013 0 0.007468856583331439 0.043174588724627781 0 0.0076119051730192799 0.04320210183697154 0 0.0073854404041664989 0.042880172373253013 0 0.007468856583331439 0.043174588724627781 0 0.0073223224442051935 0.042972283704250269 0 0.007468856583331439 0.043174588724627781 0 0.0076119051730192799 0.04320210183697154 0 0.0075408453011108646 0.043441605517404627 0 0.0070538840201263102 0.043447195592254302 0 0.0073223224442051935 0.042972283704250269 0 0.007349812094774027 0.043427739950388136 0 0.007468856583331439 0.043174588724627781 0 0.0073223224442051935 0.042972283704250269 0 0.007349812094774027 0.043427739950388136 0 0.010808206264179054 0.044305172850690397 0 0.0071190159188370301 0.042730285806061266 0 0.0079771296748265327 0.042597313129173239 0 0.0078482475522276274 0.0422482474246565 0 0.007609419253439006 0.042466054533202138 0 0.010808206264179054 0.044305172850690397 0 0.0087052988509442597 0.046049055966636797 0 0.007349812094774027 0.043427739950388136 0 0.0075789570498964159 0.043706663075597736 0 0.0074417469325539845 0.044033486204183368 0 0.0070538840201263102 0.043447195592254302 0 0.007349812094774027 0.043427739950388136 0 0.0074417469325539845 0.044033486204183368 0 0.0076119051730192799 0.04320210183697154 0 0.0076172913887743972 0.043375916859006595 0 0.0077153354962949195 0.04361111952000795 0 0.0076172913887743972 0.043375916859006595 0 0.0075408453011108646 0.043441605517404627 0 0.0077153354962949195 0.04361111952000795 0 0.0076119051730192799 0.04320210183697154 0 0.0076172913887743972 0.043375916859006595 0 0.0075408453011108646 0.043441605517404627 0 0.007468856583331439 0.043174588724627781 0 0.007349812094774027 0.043427739950388136 0 0.0075408453011108646 0.043441605517404627 0 0.007349812094774027 0.043427739950388136 0 0.0075408453011108646 0.043441605517404627 0 0.0075789570498964159 0.043706663075597736 0 0.0075408453011108646 0.043441605517404627 0 0.0075789570498964159 0.043706663075597736 0 0.0077153354962949195 0.04361111952000795 0 0.0075789570498964159 0.043706663075597736 0 0.0077305168327076032 0.043827480207287342 0 0.0077153354962949195 0.04361111952000795 0 0.0077305168327076032 0.043827480207287342 0 0.0077153354962949195 0.04361111952000795 0 0.0078290979093818703 0.043925249632736307 0 0.0077305168327076032 0.043827480207287342 0 0.0077727365806872298 0.044044272422071103 0 0.0078290979093818703 0.043925249632736307 0 0.0075789570498964159 0.043706663075597736 0 0.0077305168327076032 0.043827480207287342 0 0.0077727365806872298 0.044044272422071103 0 0.0077727365806872298 0.044044272422071103 0 0.0078797294798088075 0.044275412402286947 0 0.0078290979093818703 0.043925249632736307 0 0.0077727365806872298 0.044044272422071103 0 0.0074417469325539845 0.044033486204183368 0 0.0084980576061096328 0.044521880495537236 0 0.0075789570498964159 0.043706663075597736 0 0.0077727365806872298 0.044044272422071103 0 0.0074417469325539845 0.044033486204183368 0 0.011006301831255465 0.045422978398059921 0 0.0099588678678029646 0.047451116484050392 0 0.0084980576061096328 0.044521880495537236 0 0.0087052988509442597 0.046049055966636797 0 0.0084093841998669483 0.044446301345562503 0 0.011006301831255465 0.045422978398059921 0 0.0084980576061096328 0.044521880495537236 0 0.010382992453748843 0.04401383216609981 0 0.0076559151267785418 0.04398151596198744 0 0.0078797294798088075 0.044275412402286947 0 0.0078846960060414469 0.044239112179607097 0 0.0077727365806872298 0.044044272422071103 0 0.0084980576061096328 0.044521880495537236 0 0.0078797294798088075 0.044275412402286947 0 0.0076559151267785418 0.04398151596198744 0 0.0084980576061096328 0.044521880495537236 0 0.0078797294798088075 0.044275412402286947 0 0.0076559151267785418 0.04398151596198744 0 0.0049451366913859634 0.043932382545933304 0 0.0051912313556942632 0.046461276961630195 0 0.0074374796682557965 0.04423813469754892 0 0.0071253138031806993 0.045208917836720236 0 0.0078797294798088075 0.044275412402286947 0 0.0078846960060414469 0.044239112179607097 0 0.0079000869148005536 0.044131919243865989 0 0.0049451366913859634 0.043932382545933304 0 0.0051912313556942632 0.046461276961630195 0 0.0025267952664200003 0.044082538060895057 0 -0.00051969673085852761 0.046403368203598867 0 -0.0010066175716185229 0.044971831468214742 0 0.0051912313556942632 0.046461276961630195 0 0.0025267952664200003 0.044082538060895057 0 0.0022264482981487021 0.046502147431269868 0 -0.0015860884176261652 0.043489966751263903 0 0.0022264482981487021 0.046502147431269868 0 0.0015258790315474625 0.050650458581040135 0 -0.0015860884176261652 0.043489966751263903 0 -0.0015877397140994069 0.050275621759731104 0 0.00093034162942201213 0.051567015631624941 0 -0.0015860884176261652 0.043489966751263903 0 0.0025267952664200003 0.044082538060895057 0 0.0022264482981487021 0.046502147431269868 0 0.0051912313556942632 0.046461276961630195 0 0.0022264482981487021 0.046502147431269868 0 0.0015258790315474625 0.050650458581040135 0 0.0071253138031806993 0.045208917836720236 0 -0.0010066175716185229 0.044971831468214742 0 -0.0068935220331307716 0.034715612478463581 0 -0.0058039839538636673 0.037880765879498277 0 -0.0042822760616992106 0.036491215379348414 0 -0.0015877397140994069 0.050275621759731104 0 0.00093034162942201213 0.051567015631624941 0 -0.0010061820015578311 0.053458868296338231 0 -0.0010066175716185229 0.044971831468214742 0 -0.013920436998895541 0.034209172549729529 0 -0.0059422097302323932 0.032049763582253622 0 -0.0010066175716185229 0.044971831468214742 0 0.0081507942468431686 0.043704778139597819 0 0.0081961162192809509 0.043990939999418895 0 0.0079921010996194201 0.044015423883348913 0 0.0081507942468431686 0.043704778139597819 0 0.0078290979093818703 0.043925249632736307 0 0.0079921010996194201 0.044015423883348913 0 0.0078290979093818703 0.043925249632736307 0 0.0079000869148005536 0.044131919243865989 0 0.0079921010996194201 0.044015423883348913 0 0.0078797294798088075 0.044275412402286947 0 0.0078290979093818703 0.043925249632736307 0 0.0079000869148005536 0.044131919243865989 0 0.0078846960060414469 0.044239112179607097 0 0.0079000869148005536 0.044131919243865989 0 0.0079921010996194201 0.044015423883348913 0 0.0078846960060414469 0.044239112179607097 0 0.0081961162192809509 0.043990939999418895 0 0.0079921010996194201 0.044015423883348913 0 0.052529684099228258 0.010057770726029897 0 0.049999965901960361 0.011536677510026091 0 0.049999963046188936 0.0089262322044871157 0 0.052529684099228258 0.010057770726029897 0 0.049999965901960361 0.011536677510026091 0 0.052484633333548109 0.01280655711196557 0 0.05058427170273444 0.011292643913321776 0 0.053146306473716189 0.01313111485953416 0 0.05322476617849279 0.013215931420614797 0 0.054195851264357726 0.012665292882982897 0 0.052326067059350861 0.013486369969847483 0 0.052529684099228258 0.010057770726029897 0 0.054941224403847778 0.011496128181503135 0 0.052484633333548109 0.01280655711196557 0 0.05322476617849279 0.013215931420614797 0 0.054206580625603414 0.013213359590953757 0 0.054195851264357726 0.012665292882982897 0 0.05473889164408436 0.013807069574234656 0 0.049256037790113054 0.017377063137439735 0 0.049256037790113054 0.017377063137439735 0 0.05058427170273444 0.011292643913321776 0 0.05058427170273444 0.011292643913321776 0 0.047900075339539175 0.010384098548370087 0 0.046700986043752168 0.015351579708887219 0 0.046723758999890626 0.015687677795853464 0 0.046013733900734724 0.0160241516593424 0 0.05058427170273444 0.011292643913321776 0 0.051057248695445201 0.0058760092092973995 0 0.047258050567126661 0.0033150032306339967 0 0.049442618774360132 0.002653662424835489 0 0.049340714986654585 0.0049588365417512397 0 0.047388523660001 0.0060062979621076269 0 0.047258050567126661 0.0033150032306339967 0 0.049340714986654585 0.0049588365417512397 0 0.052529684099228258 0.010057770726029897 0 0.054941224403847778 0.011496128181503135 0 0.054842020038868892 0.0094914998494347938 0 0.054842020038868892 0.0094914998494347938 0 0.053488919708962343 0.0083149362653385482 0 0.054731357504166814 0.007482456057145829 0 0.052529684099228258 0.010057770726029897 0 0.054842020038868892 0.0094914998494347938 0 0.053488919708962343 0.0083149362653385482 0 0.047175408822010288 0.00065682385710069528 0 0.049819752802270099 0.00036004015957903228 0 0.049442618774360132 0.002653662424835489 0 0.051057248695445201 0.0058760092092973995 0 0.051004904233577675 0.0043964780402681479 0 0.047258050567126661 0.0033150032306339967 0 0.047175408822010288 0.00065682385710069528 0 0.049442618774360132 0.002653662424835489 0 0.051004904233577675 0.0043964780402681479 0 0.049982382420557754 0.00066334047631372013 0 0.048941267567733912 -0.0018289321141936141 0 0.049650500155750191 -0.00098246512617053026 0 0.049819752802270099 0.00036004015957903228 0 0.047175408822010288 0.00065682385710069528 0 0.047077859340025063 -0.0018617951700440546 0 0.049819752802270099 0.00036004015957903228 0 0.049982382420557754 0.00066334047631372013 0 0.048908901919812779 -0.00073886138113843163 0 0.054731357504166814 0.007482456057145829 0 0.053289366746337885 0.006475354354314203 0 0.05460750623355496 0.0054867384550007781 0 0.053488919708962343 0.0083149362653385482 0 0.054731357504166814 0.007482456057145829 0 0.053289366746337885 0.006475354354314203 0 0.053289366746337885 0.006475354354314203 0 0.051818762551064039 0.0075746474367476037 0 0.051659206808153654 0.0053658603140553296 0 0.053488919708962343 0.0083149362653385482 0 0.053289366746337885 0.006475354354314203 0 0.051818762551064039 0.0075746474367476037 0 0.052529684099228258 0.010057770726029897 0 0.053488919708962343 0.0083149362653385482 0 0.051818762551064039 0.0075746474367476037 0 0.052529684099228258 0.010057770726029897 0 0.051818762551064039 0.0075746474367476037 0 0.049999963046188936 0.0089262322044871157 0 0.051818762551064039 0.0075746474367476037 0 0.049999949963822371 0.0063158920556876282 0 0.051659206808153654 0.0053658603140553296 0 0.051818762551064039 0.0075746474367476037 0 0.049999963046188936 0.0089262322044871157 0 0.049999949963822371 0.0063158920556876282 0 0.050000426495426159 0.0063155744203098278 0 0.051725280133429509 0.0054616031362667147 0 0.049999990972294475 0.0063158106008375046 0 0.05170420186021886 0.0053338331262787085 0 0.049999989192340895 0.0038917277262857509 0 0.051725280133429509 0.0054616031362667147 0 0.052029240312014891 0.0018214995250164028 0 0.053289366746337885 0.006475354354314203 0 0.051659206808153654 0.0053658603140553296 0 0.05331995947410105 0.0043990193988030874 0 0.05170420186021886 0.0053338331262787085 0 0.051702620273808252 0.0029298093085120824 0 0.05338960730475717 0.0043647462265499317 0 0.051086844953967002 0.00054895144436617341 0 0.050818150289078858 -1.7666648543520926e-05 0 0.050768687540992424 -0.00092015704624409428 0 0.051291262666644737 0.0016754738428027308 0 0.052029240312014891 0.0018214995250164028 0 0.05170420186021886 0.0053338331262787085 0 0.049999989192340895 0.0038917277262857509 0 0.051702620273808252 0.0029298093085120824 0 0.051086844953967002 0.00054895144436617341 0 0.05095788459659048 0.00029773722954731395 0 0.050000694497444452 0.0014642104067594526 0 0.049999989192340895 0.0038917277262857509 0 0.051702620273808252 0.0029298093085120824 0 0.049999992265220866 0.0014676620996611691 0 0.051291262666644737 0.0016754738428027308 0 0.050000257796669278 0.0014674477738778975 0 0.051086844953967002 0.00054895144436617341 0 0.051133921624828563 0.0004197906467763359 0 0.050818150289078858 -1.7666648543520926e-05 0 0.051086844953967002 0.00054895144436617341 0 0.051133921624828563 0.0004197906467763359 0 0.05095788459659048 0.00029773722954731395 0 0.051133921624828563 0.0004197906467763359 0 0.051284490443870949 5.854924121734864e-06 0 0.05095788459659048 0.00029773722954731395 0 0.049999110566211605 -0.0014117832136590141 0 0.05095788459659048 0.00029773722954731395 0 0.050000694497444452 0.0014642104067594526 0 0.05201801042886757 0.00071318898494620783 0 0.049112567146255004 0.00058586675567156156 0 0.04905501398088509 0.00077929702728387197 0 0.051260975156688621 0.00064773290670515371 0 0.048460797038893784 0.0020896002374411909 0 0.051908810370667489 -0.00048017758033343005 0 0.051260975156688621 0.00064773290670515371 0 0.053837597559328133 2.6409204739192743e-06 0 0.04905501398088509 0.00077929702728387197 0 0.051260975156688621 0.00064773290670515371 0 0.050413846211201319 9.2702546357373061e-05 0 0.048779115838579086 0.0013481689609385983 0 0.049112567146255004 0.00058586675567156156 0 0.051133921624828563 0.0004197906467763359 0 0.051284490443870949 5.854924121734864e-06 0 0.051260975156688621 0.00064773290670515371 0 0.051908810370667489 -0.00048017758033343005 0 0.051284490443870949 5.854924121734864e-06 0 0.051260975156688621 0.00064773290670515371 0 0.051133921624828563 0.0004197906467763359 0 0.051260975156688621 0.00064773290670515371 0 0.050413846211201319 9.2702546357373061e-05 0 0.050413846211201319 9.2702546357373061e-05 0 0.050818150289078858 -1.7666648543520926e-05 0 0.049770075514760335 -0.00098202407900642116 0 0.051133921624828563 0.0004197906467763359 0 0.050413846211201319 9.2702546357373061e-05 0 0.050818150289078858 -1.7666648543520926e-05 0 0.050413846211201319 9.2702546357373061e-05 0 0.048937076502872191 -0.00039458545010128912 0 0.049770075514760335 -0.00098202407900642116 0 0.04905501398088509 0.00077929702728387197 0 0.050413846211201319 9.2702546357373061e-05 0 0.048937076502872191 -0.00039458545010128912 0 0.04905501398088509 0.00077929702728387197 0 0.048937076502872191 -0.00039458545010128912 0 0.048122436680935562 7.609983257800085e-05 0 0.048937076502872191 -0.00039458545010128912 0 0.049770075514760335 -0.00098202407900642116 0 0.048542398794220794 -0.0012917368836089787 0 0.049770075514760335 -0.00098202407900642116 0 0.049302895948000178 -0.001680821782697603 0 0.049361553740410041 -0.0019057239280633874 0 0.049302895948000178 -0.001680821782697603 0 0.04909116380785529 -0.0020864973979442961 0 0.048542398794220794 -0.0012917368836089787 0 0.049770075514760335 -0.00098202407900642116 0 0.049302895948000178 -0.001680821782697603 0 0.048542398794220794 -0.0012917368836089787 0 0.050818150289078858 -1.7666648543520926e-05 0 0.049770075514760335 -0.00098202407900642116 0 0.050768687540992424 -0.00092015704624409428 0 0.049770075514760335 -0.00098202407900642116 0 0.050353920542454494 -0.0014405300172330678 0 0.049361553740410041 -0.0019057239280633874 0 0.04997505990218197 -0.00079560272527508084 0 0.052029240312014891 0.0018214995250164028 0 0.053289366746337885 0.006475354354314203 0 0.05331995947410105 0.0043990193988030874 0 0.05460750623355496 0.0054867384550007781 0 0.052029240312014891 0.0018214995250164028 0 0.049982382420557754 0.00066334047631372013 0 0.050353920542454494 -0.0014405300172330678 0 0.049361553740410041 -0.0019057239280633874 0 0.049340973068594814 -0.0022082595880331866 0 0.04914438029324264 -0.001898480517268368 0 0.048941267567733912 -0.0018289321141936141 0 0.049650500155750191 -0.00098246512617053026 0 0.04909116380785529 -0.0020864973979442961 0 0.04914438029324264 -0.001898480517268368 0 0.049650500155750191 -0.00098246512617053026 0 0.049302895948000178 -0.001680821782697603 0 0.04909116380785529 -0.0020864973979442961 0 0.04914438029324264 -0.001898480517268368 0 0.049302895948000178 -0.001680821782697603 0 0.049361553740410041 -0.0019057239280633874 0 0.04914438029324264 -0.001898480517268368 0 0.049361553740410041 -0.0019057239280633874 0 0.04914438029324264 -0.001898480517268368 0 0.048941267567733912 -0.0018289321141936141 0 0.049824570188936719 -0.00058222969260473677 0 0.049982382420557754 0.00066334047631372013 0 0.04909116380785529 -0.0020864973979442961 0 0.049650500155750191 -0.00098246512617053026 0 0.050604522486299465 -0.0017244858188356356 0 0.048822856330119027 -0.0022325992910793451 0 0.04956319641927022 -0.0021090342231636886 0 0.049650500155750191 -0.00098246512617053026 0 0.050604522486299465 -0.0017244858188356356 0 0.050879871180327066 -0.00054191743491839074 0 0.04956319641927022 -0.0021090342231636886 0 0.043912430951620701 -0.00010118500552963282 0 0.050604522486299465 -0.0017244858188356356 0 0.052226044885583391 -0.00134116093656001 0 0.050879871180327066 -0.00054191743491839074 0 0.047175743181332649 -0.0029954557474010427 0 0.045450863262229281 -0.0034950835261766291 0 0.046511456327753289 -0.0016880858481352634 0 0.045450863262229281 -0.0034950835261766291 0 0.046511456327753289 -0.0016880858481352634 0 0.044785265885513549 -0.0014473380143118274 0 0.046511456327753289 -0.0016880858481352634 0 0.045775189694607664 -0.00029483485046568361 0 0.044785265885513549 -0.0014473380143118274 0 0.046511456327753289 -0.0016880858481352634 0 0.048542398794220794 -0.0012917368836089787 0 0.047434336279847618 -0.00063518972189314518 0 0.04909116380785529 -0.0020864973979442961 0 0.047175743181332649 -0.0029954557474010427 0 0.048542398794220794 -0.0012917368836089787 0 0.047175743181332649 -0.0029954557474010427 0 0.046511456327753289 -0.0016880858481352634 0 0.048542398794220794 -0.0012917368836089787 0 0.048937076502872191 -0.00039458545010128912 0 0.048122436680935562 7.609983257800085e-05 0 0.047434336279847618 -0.00063518972189314518 0 0.048937076502872191 -0.00039458545010128912 0 0.048542398794220794 -0.0012917368836089787 0 0.047434336279847618 -0.00063518972189314518 0 0.048122436680935562 7.609983257800085e-05 0 0.047434336279847618 -0.00063518972189314518 0 0.047023663622287007 0.00061846428069995448 0 0.047434336279847618 -0.00063518972189314518 0 0.045775189694607664 -0.00029483485046568361 0 0.047023663622287007 0.00061846428069995448 0 0.046511456327753289 -0.0016880858481352634 0 0.047434336279847618 -0.00063518972189314518 0 0.045775189694607664 -0.00029483485046568361 0 0.045775189694607664 -0.00029483485046568361 0 0.04561696078593673 0.0012437127205596145 0 0.047023663622287007 0.00061846428069995448 0 0.045775189694607664 -0.00029483485046568361 0 0.04561696078593673 0.0012437127205596145 0 0.043662983639866801 0.0004720875524548959 0 0.045421711748525696 0.0029276290619089694 0 0.04561696078593673 0.0012437127205596145 0 0.048374956742046553 0.0021709869384461977 0 0.045421711748525696 0.0029276290619089694 0 0.04561696078593673 0.0012437127205596145 0 0.043930652433276228 0.0017689478886384576 0 0.04561696078593673 0.0012437127205596145 0 0.048374956742046553 0.0021709869384461977 0 0.047023663622287007 0.00061846428069995448 0 0.04905501398088509 0.00077929702728387197 0 0.048374956742046553 0.0021709869384461977 0 0.047023663622287007 0.00061846428069995448 0 0.04905501398088509 0.00077929702728387197 0 0.048122436680935562 7.609983257800085e-05 0 0.047023663622287007 0.00061846428069995448 0 0.039924399477817021 0.00025845173382108195 0 0.041426153220780651 -0.0004005828812807931 0 0.039027374720320182 -0.0010123804701193978 0 0.039924399477817021 0.00025845173382108195 0 0.039027374720320182 -0.0010123804701193978 0 0.038771084035295673 0.00028461038153418166 0 0.03858456076749113 0.0012658194318479711 0 0.039537421690512081 0.001169924462508632 0 0.038771084035295673 0.00028461038153418166 0 0.039924399477817021 0.00025845173382108195 0 0.039537421690512081 0.001169924462508632 0 0.038771084035295673 0.00028461038153418166 0 0.040587597038976062 0.0013402978273964828 0 0.039924399477817021 0.00025845173382108195 0 0.041426153220780651 -0.0004005828812807931 0 0.040587597038976062 0.0013402978273964828 0 0.039924399477817021 0.00025845173382108195 0 0.039537421690512081 0.001169924462508632 0 0.041747671260477778 0.0025072931408748819 0 0.042466025073398563 0.00035465372297870161 0 0.041660693512810355 0.0026239615518545058 0 0.040587597038976062 0.0013402978273964828 0 0.041426153220780651 -0.0004005828812807931 0 0.04561696078593673 0.0012437127205596145 0 0.043930652433276228 0.0017689478886384576 0 0.043662983639866801 0.0004720875524548959 0 0.041660693512810355 0.0026239615518545058 0 0.043930652433276228 0.0017689478886384576 0 0.043662983639866801 0.0004720875524548959 0 0.041426153220780651 -0.0004005828812807931 0 0.039999363374101649 -0.0024203540442019902 0 0.041717351565738199 -0.0024801356792205124 0 0.045775189694607664 -0.00029483485046568361 0 0.043662983639866801 0.0004720875524548959 0 0.044785265885513549 -0.0014473380143118274 0 0.042466025073398563 0.00035465372297870161 0 0.043345558133396092 -0.0027473243236436819 0 0.039027374720320182 -0.0010123804701193978 0 0.039999363374101649 -0.0024203540442019902 0 0.038149169164495053 -0.002700224400309714 0 0.041426153220780651 -0.0004005828812807931 0 0.039027374720320182 -0.0010123804701193978 0 0.039999363374101649 -0.0024203540442019902 0 0.039999363374101649 -0.0024203540442019902 0 0.039126061025063254 -0.0038047010696739508 0 0.038149169164495053 -0.002700224400309714 0 0.039999363374101649 -0.0024203540442019902 0 0.040529470070579533 -0.0037603295103275942 0 0.039126061025063254 -0.0038047010696739508 0 0.043912430951620701 -0.00010118500552963282 0 0.043345558133396092 -0.0027473243236436819 0 0.042226803721477531 -0.0046072865730724666 0 0.041717351565738199 -0.0024801356792205124 0 0.040529470070579533 -0.0037603295103275942 0 0.039999363374101649 -0.0024203540442019902 0 0.041717351565738199 -0.0024801356792205124 0 0.040529470070579533 -0.0037603295103275942 0 0.043912430951620701 -0.00010118500552963282 0 0.039046035502823061 0.00011003642124170962 0 0.042226803721477531 -0.0046072865730724666 0 0.040529470070579533 -0.0037603295103275942 0 0.039709288058449421 -0.005279845145916208 0 0.039126061025063254 -0.0038047010696739508 0 0.039709288058449421 -0.005279845145916208 0 0.037549938402392007 -0.0044050316124522801 0 0.040529470070579533 -0.0037603295103275942 0 0.039126061025063254 -0.0038047010696739508 0 0.039709288058449421 -0.005279845145916208 0 0.039550738196531134 0.0072683174258485082 0 0.039613768548699746 0.0069292981167280113 0 0.039326484580264394 0.0070462616525251726 0 0.038646216076722036 0.013656749733220506 0 0.036988672550731287 0.013395242750139601 0 0.034094194107768386 0.020110303516715677 0 0.035610313652187781 0.019733253930241602 0 0.035386891495511039 0.019438269160160639 0 0.034094194107768386 0.020110303516715677 0 0.035086754886743336 0.021512732764917584 0 0.035610313652187781 0.019733253930241602 0 0.038646216076722036 0.013656749733220506 0 0.034480446511261025 0.024544400250510665 0 0.040053422262574509 0.0073553117100958769 0 0.039940372274405861 0.0074196287892772557 0 0.039935579684482421 0.0072859947233677993 0 0.038646216076722036 0.013656749733220506 0 0.038799994664885262 0.014301485347724588 0 0.039257256552905337 0.020386680200545525 0 0.038982829701420488 0.020544821958859739 0 0.039201237733205108 0.020695644459861773 0 0.039935579684482421 0.0072859947233677993 0 0.039889291533350656 0.0071702580898326557 0 0.039867934190780663 0.0072224686089096572 0 0.040053422262574509 0.0073553117100958769 0 0.039935579684482421 0.0072859947233677993 0 0.039889291533350656 0.0071702580898326557 0 0.039550738196531134 0.0072683174258485082 0 0.039613768548699746 0.0069292981167280113 0 0.039889291533350656 0.0071702580898326557 0 0.038646216076722036 0.013656749733220506 0 0.039428530112760325 0.0052964312915335411 0 0.039959023476049953 0.0071828489959129532 0 0.039550738196531134 0.0072683174258485082 0 0.039889291533350656 0.0071702580898326557 0 0.043912430951620701 -0.00010118500552963282 0 0.04623885700415753 0.0035991433165479597 0 0.052226044885583391 -0.00134116093656001 0 0.050879871180327066 -0.00054191743491839074 0 0.051839662251903819 0.0010595219891565309 0 0.039959023476049953 0.0071828489959129532 0 0.039889291533350656 0.0071702580898326557 0 0.039867934190780663 0.0072224686089096572 0 0.050879871180327066 -0.00054191743491839074 0 0.049819752802270099 0.00036004015957903228 0 0.051839662251903819 0.0010595219891565309 0 0.049650500155750191 -0.00098246512617053026 0 0.050879871180327066 -0.00054191743491839074 0 0.049819752802270099 0.00036004015957903228 0 0.049819752802270099 0.00036004015957903228 0 0.049442618774360132 0.002653662424835489 0 0.051839662251903819 0.0010595219891565309 0 0.049442618774360132 0.002653662424835489 0 0.051839662251903819 0.0010595219891565309 0 0.051236473146556653 0.0039336900452067967 0 0.039940372274405861 0.0074196287892772557 0 0.039867934190780663 0.0072224686089096572 0 0.039818486354040193 0.0075250563431970121 0 0.04623885700415753 0.0035991433165479597 0 0.0437882989122646 0.011158088460137681 0 0.039940372274405861 0.0074196287892772557 0 0.039935579684482421 0.0072859947233677993 0 0.039867934190780663 0.0072224686089096572 0 0.038799994664885262 0.014301485347724588 0 0.0437882989122646 0.011158088460137681 0 0.038982829701420488 0.020544821958859739 0 0.038719794950533321 0.020681604978812593 0 0.03883232975297659 0.02091738300270329 0 0.049442618774360132 0.002653662424835489 0 0.051236473146556653 0.0039336900452067967 0 0.049340714986654585 0.0049588365417512397 0 0.0437882989122646 0.011158088460137681 0 0.047900075339539175 0.010384098548370087 0 0.049256037790113054 0.017377063137439735 0 0.041034842617317387 0.02491753840581212 0 0.045340618953782427 0.016328309092217629 0 0.046013733900734724 0.0160241516593424 0 0.045562887006638908 0.015439138022062248 0 0.046700986043752168 0.015351579708887219 0 0.046013733900734724 0.0160241516593424 0 0.045562887006638908 0.015439138022062248 0 0.0437882989122646 0.011158088460137681 0 0.041034842617317387 0.02491753840581212 0 0.041034842617317387 0.02491753840581212 0 0.038267805944492847 0.027728441755984542 0 0.038613119023057155 0.021178375111155164 0 0.03883232975297659 0.02091738300270329 0 0.038908304489029259 0.021163848402633193 0 0.038719794950533321 0.020681604978812593 0 0.038613119023057155 0.021178375111155164 0 0.03883232975297659 0.02091738300270329 0 0.03883232975297659 0.02091738300270329 0 0.038908304489029259 0.021163848402633193 0 0.039035055203895781 0.020883410991912068 0 0.038267805944492847 0.027728441755984542 0 0.037775785395680946 0.029839936401586779 0 0.038908304489029259 0.021163848402633193 0 0.03919316235532596 0.021173933973974039 0 0.039035055203895781 0.020883410991912068 0 0.036116580164917429 0.036915194968516578 0 0.033570539196451907 0.036973408407937704 0 0.034633993472698583 0.035896884928815945 0 0.037775785395680946 0.029839936401586779 0 0.031668522907734496 0.031491945859139593 0 0.035208074200759394 0.028333450002207723 0 0.03468410933410207 0.028999236177558604 0 0.034184038639833582 0.028388122445032811 0 0.037775785395680946 0.029839936401586779 0 0.034480446511261025 0.024544400250510665 0 0.03919316235532596 0.021173933973974039 0 0.039474499531798268 0.020746082439115188 0 0.039201237733205108 0.020695644459861773 0 0.039257256552905337 0.020386680200545525 0 0.039474499531798268 0.020746082439115188 0 0.039201237733205108 0.020695644459861773 0 0.03919316235532596 0.021173933973974039 0 0.039201237733205108 0.020695644459861773 0 0.039035055203895781 0.020883410991912068 0 0.038982829701420488 0.020544821958859739 0 0.03883232975297659 0.02091738300270329 0 0.039035055203895781 0.020883410991912068 0 0.038982829701420488 0.020544821958859739 0 0.039201237733205108 0.020695644459861773 0 0.039035055203895781 0.020883410991912068 0 0.029638220320379473 0.027991518765867477 0 0.028918312837857826 0.028709946312670806 0 0.02951894660408803 0.028952228291258691 0 0.029638220320379473 0.027991518765867477 0 0.02951894660408803 0.028952228291258691 0 0.030175398691904991 0.028532845400209707 0 0.02951894660408803 0.028952228291258691 0 0.030100061372091692 0.0291454522521612 0 0.030175398691904991 0.028532845400209707 0 0.029638220320379473 0.027991518765867477 0 0.030175398691904991 0.028532845400209707 0 0.03036376629622535 0.027979663082175074 0 0.029638220320379473 0.027991518765867477 0 0.028918312837857826 0.028709946312670806 0 0.028930920678115268 0.0277624900554534 0 0.027748319858483243 0.028251814935913899 0 0.028918312837857826 0.028709946312670806 0 0.028638224981045346 0.02967458430583992 0 0.027748319858483243 0.028251814935913899 0 0.028918312837857826 0.028709946312670806 0 0.028930920678115268 0.0277624900554534 0 0.028918312837857826 0.028709946312670806 0 0.028638224981045346 0.02967458430583992 0 0.029056356720950912 0.029685697321921136 0 0.034480446511261025 0.024544400250510665 0 0.031668522907734496 0.031491945859139593 0 0.031668522907734496 0.031491945859139593 0 0.029364257592826924 0.030890459069999005 0 0.029056356720950912 0.029685697321921136 0 0.029635539901255514 0.029555580450885899 0 0.02951894660408803 0.028952228291258691 0 0.028918312837857826 0.028709946312670806 0 0.029056356720950912 0.029685697321921136 0 0.02951894660408803 0.028952228291258691 0 0.029635539901255514 0.029555580450885899 0 0.02951894660408803 0.028952228291258691 0 0.030100061372091692 0.0291454522521612 0 0.029635539901255514 0.029555580450885899 0 0.029909077033967026 0.030214021108277908 0 0.030100061372091692 0.0291454522521612 0 0.029056356720950912 0.029685697321921136 0 0.029635539901255514 0.029555580450885899 0 0.029909077033967026 0.030214021108277908 0 0.029909077033967026 0.030214021108277908 0 0.030729752096401546 0.029595293655711119 0 0.030899697136016698 0.03056662835530348 0 0.029909077033967026 0.030214021108277908 0 0.030729752096401546 0.029595293655711119 0 0.030100061372091692 0.0291454522521612 0 0.030729752096401546 0.029595293655711119 0 0.031448977837590507 0.029680033157315815 0 0.030899697136016698 0.03056662835530348 0 0.030729752096401546 0.029595293655711119 0 0.030625651405114498 0.028966638512924723 0 0.031172421759020633 0.028933031332274092 0 0.030729752096401546 0.029595293655711119 0 0.031448977837590507 0.029680033157315815 0 0.031172421759020633 0.028933031332274092 0 0.030729752096401546 0.029595293655711119 0 0.030625651405114498 0.028966638512924723 0 0.030100061372091692 0.0291454522521612 0 0.03221107071373059 0.029615749810320145 0 0.031448977837590507 0.029680033157315815 0 0.031865903066777571 0.030714207296762212 0 0.031448977837590507 0.029680033157315815 0 0.031172421759020633 0.028933031332274092 0 0.031863601696570772 0.028833057083337509 0 0.03221107071373059 0.029615749810320145 0 0.031448977837590507 0.029680033157315815 0 0.031863601696570772 0.028833057083337509 0 0.031863601696570772 0.028833057083337509 0 0.031476249637981304 0.02812440081750181 0 0.032218102840290551 0.027942910317282174 0 0.031172421759020633 0.028933031332274092 0 0.031863601696570772 0.028833057083337509 0 0.031476249637981304 0.02812440081750181 0 0.031172421759020633 0.028933031332274092 0 0.031476249637981304 0.02812440081750181 0 0.030788712060068123 0.028342607995240986 0 0.030625651405114498 0.028966638512924723 0 0.030100061372091692 0.0291454522521612 0 0.030175398691904991 0.028532845400209707 0 0.030625651405114498 0.028966638512924723 0 0.030175398691904991 0.028532845400209707 0 0.030788712060068123 0.028342607995240986 0 0.030625651405114498 0.028966638512924723 0 0.031172421759020633 0.028933031332274092 0 0.030788712060068123 0.028342607995240986 0 0.030788712060068123 0.028342607995240986 0 0.03036376629622535 0.027979663082175074 0 0.030927635285014101 0.027621777188027188 0 0.031476249637981304 0.02812440081750181 0 0.030788712060068123 0.028342607995240986 0 0.030927635285014101 0.027621777188027188 0 0.030175398691904991 0.028532845400209707 0 0.030788712060068123 0.028342607995240986 0 0.03036376629622535 0.027979663082175074 0 0.030271993935361629 0.027428311913650472 0 0.030873652627540549 0.02661016190167111 0 0.029659992995421842 0.027246007634830021 0 0.03036376629622535 0.027979663082175074 0 0.030271993935361629 0.027428311913650472 0 0.030927635285014101 0.027621777188027188 0 0.029638220320379473 0.027991518765867477 0 0.03036376629622535 0.027979663082175074 0 0.030271993935361629 0.027428311913650472 0 0.030271993935361629 0.027428311913650472 0 0.030927635285014101 0.027621777188027188 0 0.030873652627540549 0.02661016190167111 0 0.030927635285014101 0.027621777188027188 0 0.031750782853577214 0.027189905893341432 0 0.030873652627540549 0.02661016190167111 0 0.031476249637981304 0.02812440081750181 0 0.031750782853577214 0.027189905893341432 0 0.032218102840290551 0.027942910317282174 0 0.031476249637981304 0.02812440081750181 0 0.030927635285014101 0.027621777188027188 0 0.031750782853577214 0.027189905893341432 0 0.037419297548108722 0.02432874224687635 0 0.037203452432511622 0.02576096302378858 0 0.035255962929442317 0.024885714988221262 0 0.031750782853577214 0.027189905893341432 0 0.030873652627540549 0.02661016190167111 0 0.032467878218347596 0.026567090271542689 0 0.034140743425325151 0.02575056256733247 0 0.033874693637030974 0.02570213736569318 0 0.037419297548108722 0.02432874224687635 0 0.038367251363216726 0.024410517662964953 0 0.037203452432511622 0.02576096302378858 0 0.038670041654825661 0.024766803157576286 0 0.038367251363216726 0.024410517662964953 0 0.037203452432511622 0.02576096302378858 0 0.037419297548108722 0.02432874224687635 0 0.038367251363216726 0.024410517662964953 0 0.039186344159702076 0.023976759796219941 0 0.034140743425325151 0.02575056256733247 0 0.033919702931192945 0.023435868097915032 0 0.036422361747737247 -0.0055876962005699735 0 0.037097384411033447 -0.0059129802136393857 0 0.037549938402392007 -0.0044050316124522801 0 0.038670041654825661 0.024766803157576286 0 0.03887009884749263 0.024485433401196962 0 0.038367251363216726 0.024410517662964953 0 0.036898334614862902 0.006924776330309133 0 0.037482549519717641 0.015427927118781109 0 0.03492895114192781 0.010285795555060815 0 0.036744129512561598 0.0093756904692006027 0 0.035790490101805995 0.0091246604182000472 0 0.036898334614862902 0.006924776330309133 0 0.03717775160373607 0.0092382145410080958 0 0.037482549519717641 0.015427927118781109 0 0.033919702931192945 0.023435868097915032 0 0.038818627635336507 0.024501334106207071 0 0.038367251363216726 0.024410517662964953 0 0.039186344159702076 0.023976759796219941 0 0.036896593125294558 0.018580460756731618 0 0.037243670717231642 0.018669520526040845 0 0.036602275431051844 0.019571018049254103 0 0.03717775160373607 0.0092382145410080958 0 0.037482549519717641 0.015427927118781109 0 0.037482549519717641 0.015427927118781109 0 0.039526016487807021 0.019764271872457211 0 0.030873652627540549 0.02661016190167111 0 0.029659992995421842 0.027246007634830021 0 0.028862330060600148 0.026763632241910074 0 0.029659992995421842 0.027246007634830021 0 0.028930920678115268 0.0277624900554534 0 0.028862330060600148 0.026763632241910074 0 0.029638220320379473 0.027991518765867477 0 0.029659992995421842 0.027246007634830021 0 0.028930920678115268 0.0277624900554534 0 0.029638220320379473 0.027991518765867477 0 0.030271993935361629 0.027428311913650472 0 0.029659992995421842 0.027246007634830021 0 0.035086754886743336 0.021512732764917584 0 0.036441029077193085 0.01964687138990617 0 0.035610313652187781 0.019733253930241602 0 0.027748319858483243 0.028251814935913899 0 0.028930920678115268 0.0277624900554534 0 0.028862330060600148 0.026763632241910074 0 0.034480446511261025 0.024544400250510665 0 0.033919702931192945 0.023435868097915032 0 0.033919702931192945 0.023435868097915032 0 0.036293164881088635 0.021074995327946468 0 0.036602275431051844 0.019571018049254103 0 0.035610313652187781 0.019733253930241602 0 0.035386891495511039 0.019438269160160639 0 0.039046035502823061 0.00011003642124170962 0 0.03717775160373607 0.0092382145410080958 0 0.039550738196531134 0.0072683174258485082 0 0.038990363499570052 0.0072138870790859119 0 0.039326484580264394 0.0070462616525251726 0 0.039709288058449421 -0.005279845145916208 0 0.037097384411033447 -0.0059129802136393857 0 0.037549938402392007 -0.0044050316124522801 0 0.036896593125294558 0.018580460756731618 0 0.036602275431051844 0.019571018049254103 0 0.035386891495511039 0.019438269160160639 0 0.03717775160373607 0.0092382145410080958 0 0.036988672550731287 0.013395242750139601 0 0.039126061025063254 -0.0038047010696739508 0 0.037549938402392007 -0.0044050316124522801 0 0.038149169164495053 -0.002700224400309714 0 0.036422361747737247 -0.0055876962005699735 0 0.036414815360154409 -0.0043268885348639839 0 0.035334577321773093 -0.0042218145719615623 0 0.036898334614862902 0.006924776330309133 0 0.035810690942338103 -0.0046929465201576677 0 0.036422361747737247 -0.0055876962005699735 0 0.037549938402392007 -0.0044050316124522801 0 0.036414815360154409 -0.0043268885348639839 0 0.037549938402392007 -0.0044050316124522801 0 0.036414815360154409 -0.0043268885348639839 0 0.036350096120575923 -0.0030688454681272988 0 0.036414815360154409 -0.0043268885348639839 0 0.036350096120575923 -0.0030688454681272988 0 0.035334577321773093 -0.0042218145719615623 0 0.036350096120575923 -0.0030688454681272988 0 0.037246409760398606 -0.0014981517504743457 0 0.035526657662306796 -0.0014683376455949528 0 0.036350096120575923 -0.0030688454681272988 0 0.038149169164495053 -0.002700224400309714 0 0.037246409760398606 -0.0014981517504743457 0 0.037549938402392007 -0.0044050316124522801 0 0.036350096120575923 -0.0030688454681272988 0 0.038149169164495053 -0.002700224400309714 0 0.039027374720320182 -0.0010123804701193978 0 0.038149169164495053 -0.002700224400309714 0 0.037246409760398606 -0.0014981517504743457 0 0.039027374720320182 -0.0010123804701193978 0 0.037246409760398606 -0.0014981517504743457 0 0.037849796133510964 -0.00037525796184455061 0 0.037246409760398606 -0.0014981517504743457 0 0.036620914603770163 -0.00026035137270026797 0 0.037849796133510964 -0.00037525796184455061 0 0.037246409760398606 -0.0014981517504743457 0 0.035526657662306796 -0.0014683376455949528 0 0.036620914603770163 -0.00026035137270026797 0 0.035526657662306796 -0.0014683376455949528 0 0.036620914603770163 -0.00026035137270026797 0 0.035442860149412753 -0.00025207713682986235 0 0.036620914603770163 -0.00026035137270026797 0 0.035860991691441531 0.00059528365285814824 0 0.035442860149412753 -0.00025207713682986235 0 0.036620914603770163 -0.00026035137270026797 0 0.036725629219671936 0.00080641239012851408 0 0.037655075996229546 0.00064240450406134395 0 0.036620914603770163 -0.00026035137270026797 0 0.035860991691441531 0.00059528365285814824 0 0.036725629219671936 0.00080641239012851408 0 0.03858456076749113 0.0012658194318479711 0 0.037655075996229546 0.00064240450406134395 0 0.038771084035295673 0.00028461038153418166 0 0.037655075996229546 0.00064240450406134395 0 0.038771084035295673 0.00028461038153418166 0 0.037849796133510964 -0.00037525796184455061 0 0.039027374720320182 -0.0010123804701193978 0 0.038771084035295673 0.00028461038153418166 0 0.037849796133510964 -0.00037525796184455061 0 0.036620914603770163 -0.00026035137270026797 0 0.037655075996229546 0.00064240450406134395 0 0.037849796133510964 -0.00037525796184455061 0 0.033454320146614903 0.00031324319918901792 0 0.034364441766504356 -0.00056211888418690762 0 0.033270667258609693 -0.00070526640919393825 0 0.033454320146614903 0.00031324319918901792 0 0.033270667258609693 -0.00070526640919393825 0 0.032220132438123252 -0.00019948452687854838 0 0.033454320146614903 0.00031324319918901792 0 0.03476386831887647 0.00041947308963297835 0 0.034364441766504356 -0.00056211888418690762 0 0.035860991691441531 0.00059528365285814824 0 0.03476386831887647 0.00041947308963297835 0 0.035442860149412753 -0.00025207713682986235 0 0.03525969766828211 0.0012726574158597058 0 0.035860991691441531 0.00059528365285814824 0 0.03476386831887647 0.00041947308963297835 0 0.03476386831887647 0.00041947308963297835 0 0.035442860149412753 -0.00025207713682986235 0 0.034364441766504356 -0.00056211888418690762 0 0.034364441766504356 -0.00056211888418690762 0 0.034267191493444281 -0.0015131578065037501 0 0.033270667258609693 -0.00070526640919393825 0 0.035526657662306796 -0.0014683376455949528 0 0.034364441766504356 -0.00056211888418690762 0 0.034267191493444281 -0.0015131578065037501 0 0.035526657662306796 -0.0014683376455949528 0 0.035442860149412753 -0.00025207713682986235 0 0.034364441766504356 -0.00056211888418690762 0 0.034267191493444281 -0.0015131578065037501 0 0.033270667258609693 -0.00070526640919393825 0 0.033018102081468978 -0.0015956256905201591 0 0.033270667258609693 -0.00070526640919393825 0 0.033018102081468978 -0.0015956256905201591 0 0.03187195316670708 -0.0012255285533258106 0 0.033018102081468978 -0.0015956256905201591 0 0.034186864510041007 -0.00257363547593572 0 0.031802611601731867 -0.0024226799776725341 0 0.034186864510041007 -0.00257363547593572 0 0.033771911989887937 -0.0032634072586064395 0 0.031802611601731867 -0.0024226799776725341 0 0.034267191493444281 -0.0015131578065037501 0 0.033018102081468978 -0.0015956256905201591 0 0.034186864510041007 -0.00257363547593572 0 0.036350096120575923 -0.0030688454681272988 0 0.035526657662306796 -0.0014683376455949528 0 0.034186864510041007 -0.00257363547593572 0 0.036350096120575923 -0.0030688454681272988 0 0.034186864510041007 -0.00257363547593572 0 0.035334577321773093 -0.0042218145719615623 0 0.035526657662306796 -0.0014683376455949528 0 0.034267191493444281 -0.0015131578065037501 0 0.034186864510041007 -0.00257363547593572 0 0.033983697802197239 -0.0023519750099339977 0 0.035810690942338103 -0.0046929465201576677 0 0.03480944836337764 -0.0034265558394181283 0 0.034389886617369449 -0.0031171413365497082 0 0.033771911989887937 -0.0032634072586064395 0 0.036898334614862902 0.006924776330309133 0 0.035264141391237167 0.011818739418627319 0 0.034186864510041007 -0.00257363547593572 0 0.034389886617369449 -0.0031171413365497082 0 0.033771911989887937 -0.0032634072586064395 0 0.035264141391237167 0.011818739418627319 0 0.03370308523130975 0.012097100818228412 0 0.037203452432511622 0.02576096302378858 0 0.035484586001556205 0.026817809691689107 0 0.035255962929442317 0.024885714988221262 0 0.033896893593321396 0.026481231967800296 0 0.035484586001556205 0.026817809691689107 0 0.035255962929442317 0.024885714988221262 0 0.03370308523130975 0.012097100818228412 0 0.031839127721374205 0.012923089776680483 0 0.031802611601731867 -0.0024226799776725341 0 0.03187195316670708 -0.0012255285533258106 0 0.030113964862398979 -0.0016045447606602462 0 0.033896893593321396 0.026481231967800296 0 0.035484586001556205 0.026817809691689107 0 0.033570795171299274 0.027469677291641209 0 0.033018102081468978 -0.0015956256905201591 0 0.031802611601731867 -0.0024226799776725341 0 0.03187195316670708 -0.0012255285533258106 0 0.033270667258609693 -0.00070526640919393825 0 0.03187195316670708 -0.0012255285533258106 0 0.032220132438123252 -0.00019948452687854838 0 0.03187195316670708 -0.0012255285533258106 0 0.031018050440628404 -0.00069827202587327379 0 0.032220132438123252 -0.00019948452687854838 0 0.031018050440628404 -0.00069827202587327379 0 0.029793404445456903 -0.00061545148210224152 0 0.030113964862398979 -0.0016045447606602462 0 0.03187195316670708 -0.0012255285533258106 0 0.031018050440628404 -0.00069827202587327379 0 0.030113964862398979 -0.0016045447606602462 0 0.031190511197195347 0.00029986762583317759 0 0.031018050440628404 -0.00069827202587327379 0 0.032220132438123252 -0.00019948452687854838 0 0.031190511197195347 0.00029986762583317759 0 0.031018050440628404 -0.00069827202587327379 0 0.029793404445456903 -0.00061545148210224152 0 0.032214358101225263 0.00074540128859975545 0 0.031190511197195347 0.00029986762583317759 0 0.032220132438123252 -0.00019948452687854838 0 0.032214358101225263 0.00074540128859975545 0 0.033454320146614903 0.00031324319918901792 0 0.032220132438123252 -0.00019948452687854838 0 0.02862487259429004 0.00023089582658629952 0 0.027803472389264373 -0.00029918892002528998 0 0.028592307304661061 -0.0010632040444775042 0 0.02862487259429004 0.00023089582658629952 0 0.029793404445456903 -0.00061545148210224152 0 0.028592307304661061 -0.0010632040444775042 0 0.029978969493436668 0.00046118452493858799 0 0.02862487259429004 0.00023089582658629952 0 0.029793404445456903 -0.00061545148210224152 0 0.029978969493436668 0.00046118452493858799 0 0.031190511197195347 0.00029986762583317759 0 0.029793404445456903 -0.00061545148210224152 0 0.033570795171299274 0.027469677291641209 0 0.032022482260574706 0.027680597853167201 0 0.032207918390955326 0.027013861154354543 0 0.029793404445456903 -0.00061545148210224152 0 0.030113964862398979 -0.0016045447606602462 0 0.028592307304661061 -0.0010632040444775042 0 0.031839127721374205 0.012923089776680483 0 0.03033373630030127 0.01329779922562244 0 0.032022482260574706 0.027680597853167201 0 0.031797662146912022 0.027276522344008496 0 0.032207918390955326 0.027013861154354543 0 0.031585336649148255 0.026968985578337587 0 0.031797662146912022 0.027276522344008496 0 0.032207918390955326 0.027013861154354543 0 0.033896893593321396 0.026481231967800296 0 0.033570795171299274 0.027469677291641209 0 0.032817111067990845 0.026608257403417993 0 0.033570795171299274 0.027469677291641209 0 0.032207918390955326 0.027013861154354543 0 0.032817111067990845 0.026608257403417993 0 0.033896893593321396 0.026481231967800296 0 0.032817111067990845 0.026608257403417993 0 0.033021180942698472 0.026190493583446148 0 0.031783013338624204 0.026520821762326157 0 0.032817111067990845 0.026608257403417993 0 0.033021180942698472 0.026190493583446148 0 0.031585336649148255 0.026968985578337587 0 0.031783013338624204 0.026520821762326157 0 0.032207918390955326 0.027013861154354543 0 0.031783013338624204 0.026520821762326157 0 0.032207918390955326 0.027013861154354543 0 0.032817111067990845 0.026608257403417993 0 0.031783013338624204 0.026520821762326157 0 0.032852596567027652 0.026494885823237089 0 0.033021180942698472 0.026190493583446148 0 0.029733668651462184 0.031581605527099467 0 0.029993630215774669 0.031586310602399678 0 0.031783013338624204 0.026520821762326157 0 0.032755513982099568 0.026600795080531731 0 0.032852596567027652 0.026494885823237089 0 0.027639121505819438 0.036296235910067323 0 0.027478978935719996 0.036139289292218685 0 0.027847101107142305 0.036029022067137428 0 0.027478978935719996 0.036139289292218685 0 0.027847101107142305 0.036029022067137428 0 0.027577764615899818 0.036048141455881998 0 0.027144009678822762 0.036080998879674891 0 0.027478978935719996 0.036139289292218685 0 0.027577764615899818 0.036048141455881998 0 0.032852596567027652 0.026494885823237089 0 0.033067314639817227 0.026821128134976131 0 0.032985044655618287 0.026554511584915397 0 0.03330297358656107 0.027282092205499087 0 0.032852596567027652 0.026494885823237089 0 0.033067314639817227 0.026821128134976131 0 0.032329823960541355 0.026914189873453571 0 0.032755513982099568 0.026600795080531731 0 0.032852596567027652 0.026494885823237089 0 0.033044637068155462 0.026783389354086171 0 0.032788778186169182 0.026802086031992859 0 0.032852596567027652 0.026494885823237089 0 0.032985044655618287 0.026554511584915397 0 0.033021180942698472 0.026190493583446148 0 0.032985044655618287 0.026554511584915397 0 0.033021180942698472 0.026190493583446148 0 0.032862420373685745 0.026677088776208047 0 0.033124157721303296 0.026130620146810758 0 0.033874693637030974 0.02570213736569318 0 0.033896893593321396 0.026481231967800296 0 0.033021180942698472 0.026190493583446148 0 0.035255962929442317 0.024885714988221262 0 0.033021180942698472 0.026190493583446148 0 0.032862420373685745 0.026677088776208047 0 0.032467878218347596 0.026567090271542689 0 0.032862420373685745 0.026677088776208047 0 0.032467878218347596 0.026567090271542689 0 0.032429148379890693 0.027186398229570526 0 0.032429148379890693 0.027186398229570526 0 0.032903423150540304 0.027447194797407534 0 0.032218102840290551 0.027942910317282174 0 0.031750782853577214 0.027189905893341432 0 0.032467878218347596 0.026567090271542689 0 0.032429148379890693 0.027186398229570526 0 0.031750782853577214 0.027189905893341432 0 0.032429148379890693 0.027186398229570526 0 0.032218102840290551 0.027942910317282174 0 0.032862420373685745 0.026677088776208047 0 0.032429148379890693 0.027186398229570526 0 0.032903423150540304 0.027447194797407534 0 0.033067314639817227 0.026821128134976131 0 0.032985044655618287 0.026554511584915397 0 0.032862420373685745 0.026677088776208047 0 0.033067314639817227 0.026821128134976131 0 0.032862420373685745 0.026677088776208047 0 0.032903423150540304 0.027447194797407534 0 0.03330297358656107 0.027282092205499087 0 0.033067314639817227 0.026821128134976131 0 0.032903423150540304 0.027447194797407534 0 0.033044637068155462 0.026783389354086171 0 0.031370563581395873 0.030533938060682893 0 0.03330297358656107 0.027282092205499087 0 0.032903423150540304 0.027447194797407534 0 0.033309068614113826 0.02827371910114301 0 0.032903423150540304 0.027447194797407534 0 0.033309068614113826 0.02827371910114301 0 0.03278508663838902 0.028263507131649979 0 0.033309068614113826 0.02827371910114301 0 0.03278508663838902 0.028263507131649979 0 0.033114755818692193 0.029147894865402226 0 0.032903423150540304 0.027447194797407534 0 0.032218102840290551 0.027942910317282174 0 0.03278508663838902 0.028263507131649979 0 0.031863601696570772 0.028833057083337509 0 0.032218102840290551 0.027942910317282174 0 0.032532717016342978 0.028946556503623055 0 0.032218102840290551 0.027942910317282174 0 0.03278508663838902 0.028263507131649979 0 0.032532717016342978 0.028946556503623055 0 0.03221107071373059 0.029615749810320145 0 0.033071321854238223 0.030105455949219016 0 0.031865903066777571 0.030714207296762212 0 0.03221107071373059 0.029615749810320145 0 0.031863601696570772 0.028833057083337509 0 0.032532717016342978 0.028946556503623055 0 0.03278508663838902 0.028263507131649979 0 0.032532717016342978 0.028946556503623055 0 0.033114755818692193 0.029147894865402226 0 0.032532717016342978 0.028946556503623055 0 0.033114755818692193 0.029147894865402226 0 0.033071321854238223 0.030105455949219016 0 0.03221107071373059 0.029615749810320145 0 0.032532717016342978 0.028946556503623055 0 0.033071321854238223 0.030105455949219016 0 0.028199090616841442 0.03612297204851056 0 0.0282104264943824 0.035920928607166717 0 0.028490738808696035 0.0358315923239814 0 0.028199090616841442 0.03612297204851056 0 0.028490738808696035 0.0358315923239814 0 0.029006434110366786 0.035827153124782199 0 0.031370563581395873 0.030533938060682893 0 0.030881147093951417 0.033307809955946011 0 0.033536686056359434 0.028327706543016706 0 0.033114755818692193 0.029147894865402226 0 0.033071321854238223 0.030105455949219016 0 0.028199090616841442 0.03612297204851056 0 0.0282104264943824 0.035920928607166717 0 0.02795618127489146 0.035957767416057884 0 0.031370563581395873 0.030533938060682893 0 0.03358575957360771 0.028457253142519793 0 0.0282104264943824 0.035920928607166717 0 0.028490738808696035 0.0358315923239814 0 0.028141346716406234 0.035748421187633932 0 0.0282104264943824 0.035920928607166717 0 0.028141346716406234 0.035748421187633932 0 0.02795618127489146 0.035957767416057884 0 0.028141346716406234 0.035748421187633932 0 0.02795618127489146 0.035957767416057884 0 0.027675220572385514 0.035742477727207518 0 0.02795618127489146 0.035957767416057884 0 0.027675220572385514 0.035742477727207518 0 0.02759740201316822 0.035945601866537946 0 0.027675220572385514 0.035742477727207518 0 0.027251316290636977 0.035727679604333484 0 0.02759740201316822 0.035945601866537946 0 0.027251316290636977 0.035727679604333484 0 0.02759740201316822 0.035945601866537946 0 0.027171528672565309 0.035943607968511558 0 0.02759740201316822 0.035945601866537946 0 0.027171528672565309 0.035943607968511558 0 0.027577764615899818 0.036048141455881998 0 0.027144009678822762 0.036080998879674891 0 0.027171528672565309 0.035943607968511558 0 0.027577764615899818 0.036048141455881998 0 0.028199090616841442 0.03612297204851056 0 0.02795618127489146 0.035957767416057884 0 0.027851450250731661 0.036042621657083329 0 0.027847101107142305 0.036029022067137428 0 0.028199090616841442 0.03612297204851056 0 0.027851450250731661 0.036042621657083329 0 0.029993630215774669 0.031586310602399678 0 0.031370563581395873 0.030533938060682893 0 0.032329823960541355 0.026914189873453571 0 0.032755513982099568 0.026600795080531731 0 0.032004195161017157 0.027533514622880652 0 0.027847101107142305 0.036029022067137428 0 0.027577764615899818 0.036048141455881998 0 0.027851450250731661 0.036042621657083329 0 0.02795618127489146 0.035957767416057884 0 0.02759740201316822 0.035945601866537946 0 0.027851450250731661 0.036042621657083329 0 0.02759740201316822 0.035945601866537946 0 0.027577764615899818 0.036048141455881998 0 0.027851450250731661 0.036042621657083329 0 0.027558937822195654 0.034773364340028715 0 0.028015721141568719 0.0353837939755356 0 0.028375482293913394 0.034919572922378066 0 0.027558937822195654 0.034773364340028715 0 0.027482176032824972 0.035412797195752847 0 0.028015721141568719 0.0353837939755356 0 0.026762015768437588 0.034916550889988893 0 0.027558937822195654 0.034773364340028715 0 0.027482176032824972 0.035412797195752847 0 0.026762015768437588 0.034916550889988893 0 0.026894168820755224 0.035441894927098365 0 0.027482176032824972 0.035412797195752847 0 0.026894168820755224 0.035441894927098365 0 0.027251316290636977 0.035727679604333484 0 0.027482176032824972 0.035412797195752847 0 0.027675220572385514 0.035742477727207518 0 0.027251316290636977 0.035727679604333484 0 0.027482176032824972 0.035412797195752847 0 0.027675220572385514 0.035742477727207518 0 0.027482176032824972 0.035412797195752847 0 0.028015721141568719 0.0353837939755356 0 0.028141346716406234 0.035748421187633932 0 0.027675220572385514 0.035742477727207518 0 0.028015721141568719 0.0353837939755356 0 0.028490738808696035 0.0358315923239814 0 0.028141346716406234 0.035748421187633932 0 0.028737041000281589 0.035418517072922533 0 0.028141346716406234 0.035748421187633932 0 0.028015721141568719 0.0353837939755356 0 0.028737041000281589 0.035418517072922533 0 0.028490738808696035 0.0358315923239814 0 0.028737041000281589 0.035418517072922533 0 0.029006434110366786 0.035827153124782199 0 0.028737041000281589 0.035418517072922533 0 0.029006434110366786 0.035827153124782199 0 0.030060250713891949 0.03516803585601691 0 0.033071321854238223 0.030105455949219016 0 0.0324303851408132 0.03224577276140151 0 0.031865903066777571 0.030714207296762212 0 0.030881147093951417 0.033307809955946011 0 0.031268202869219094 0.033607423184919778 0 0.028737041000281589 0.035418517072922533 0 0.029283340996105144 0.034688003209057502 0 0.030060250713891949 0.03516803585601691 0 0.029283340996105144 0.034688003209057502 0 0.030199061259468904 0.034238874162236532 0 0.030060250713891949 0.03516803585601691 0 0.028737041000281589 0.035418517072922533 0 0.029283340996105144 0.034688003209057502 0 0.028375482293913394 0.034919572922378066 0 0.028015721141568719 0.0353837939755356 0 0.028737041000281589 0.035418517072922533 0 0.028375482293913394 0.034919572922378066 0 0.029283340996105144 0.034688003209057502 0 0.028375482293913394 0.034919572922378066 0 0.028603306940939141 0.034104441814636635 0 0.029283340996105144 0.034688003209057502 0 0.028603306940939141 0.034104441814636635 0 0.029618243448138674 0.033946027105169994 0 0.028603306940939141 0.034104441814636635 0 0.029618243448138674 0.033946027105169994 0 0.029613803610381587 0.033170010979508967 0 0.029618243448138674 0.033946027105169994 0 0.030639774950153572 0.033299199230909224 0 0.030199061259468904 0.034238874162236532 0 0.029283340996105144 0.034688003209057502 0 0.029618243448138674 0.033946027105169994 0 0.030199061259468904 0.034238874162236532 0 0.029618243448138674 0.033946027105169994 0 0.029613803610381587 0.033170010979508967 0 0.030639774950153572 0.033299199230909224 0 0.028603306940939141 0.034104441814636635 0 0.029613803610381587 0.033170010979508967 0 0.028717722909550301 0.032737313892612876 0 0.028603306940939141 0.034104441814636635 0 0.027225122357164511 0.034047539699263725 0 0.028717722909550301 0.032737313892612876 0 0.027302480925491587 0.033987631356723079 0 0.028520818222504477 0.033210500587923047 0 0.027225122357164511 0.034047539699263725 0 0.027235063216379172 0.033036888077630625 0 0.028299786149254488 0.03365933646663314 0 0.027558937822195654 0.034773364340028715 0 0.028603306940939141 0.034104441814636635 0 0.027225122357164511 0.034047539699263725 0 0.027558937822195654 0.034773364340028715 0 0.028375482293913394 0.034919572922378066 0 0.028603306940939141 0.034104441814636635 0 0.026762015768437588 0.034916550889988893 0 0.027558937822195654 0.034773364340028715 0 0.026719668203711515 0.034376015164807865 0 0.027558937822195654 0.034773364340028715 0 0.026719668203711515 0.034376015164807865 0 0.027225122357164511 0.034047539699263725 0 0.026493580226167348 0.033809871991926026 0 0.026719668203711515 0.034376015164807865 0 0.027225122357164511 0.034047539699263725 0 0.026493580226167348 0.033809871991926026 0 0.027225122357164511 0.034047539699263725 0 0.027235063216379172 0.033036888077630625 0 0.023591538253886685 0.038102758367350414 0 0.024509034124441768 0.037423979983088745 0 0.020666921909087404 0.042383787612819981 0 0.020631069992687705 0.041666326935239077 0 0.021730763539158836 0.041863641812351249 0 0.024509034124441768 0.037423979983088745 0 0.02584032994719691 0.03639562093039854 0 0.021730763539158836 0.041863641812351249 0 0.021085558421626925 0.040601675393311373 0 0.023254806684860619 0.041073778438049477 0 0.020631069992687705 0.041666326935239077 0 0.021730763539158836 0.041863641812351249 0 0.021085558421626925 0.040601675393311373 0 0.021085558421626925 0.040601675393311373 0 0.022367758679369909 0.039462794572594044 0 0.023254806684860619 0.041073778438049477 0 0.021085558421626925 0.040601675393311373 0 0.022367758679369909 0.039462794572594044 0 0.020044298468791796 0.039277329047976851 0 0.022367758679369909 0.039462794572594044 0 0.023254806684860619 0.041073778438049477 0 0.024099222958543096 0.03888235224148523 0 0.025058111214658865 0.03984598934536282 0 0.023254806684860619 0.041073778438049477 0 0.024099222958543096 0.03888235224148523 0 0.029990132779155881 0.030294985974065103 0 0.028368199327908548 0.031762411808349725 0 0.030106400120577571 0.032722328142998532 0 0.027508724303310739 0.035078945077410204 0 0.02584032994719691 0.03639562093039854 0 0.028368199327908548 0.031762411808349725 0 0.028299786149254488 0.03365933646663314 0 0.030106400120577571 0.032722328142998532 0 0.027235063216379172 0.033036888077630625 0 0.028368199327908548 0.031762411808349725 0 0.028299786149254488 0.03365933646663314 0 0.028520818222504477 0.033210500587923047 0 0.030313281290836446 0.032260538292190874 0 0.029613803610381587 0.033170010979508967 0 0.03050399314357399 0.031811436125941124 0 0.030639774950153572 0.033299199230909224 0 0.029613803610381587 0.033170010979508967 0 0.028717722909550301 0.032737313892612876 0 0.03050399314357399 0.031811436125941124 0 0.031528399000194295 0.032624621160709258 0 0.03050399314357399 0.031811436125941124 0 0.030639774950153572 0.033299199230909224 0 0.031528399000194295 0.032624621160709258 0 0.032898054245808397 0.032180641347366951 0 0.032455963056836061 0.033252156203958903 0 0.031528399000194295 0.032624621160709258 0 0.03211963486346954 0.031295832077160343 0 0.032898054245808397 0.032180641347366951 0 0.030313281290836446 0.032260538292190874 0 0.032001979591416985 0.031344077287658832 0 0.031528399000194295 0.032624621160709258 0 0.03050399314357399 0.031811436125941124 0 0.03211963486346954 0.031295832077160343 0 0.029990132779155881 0.030294985974065103 0 0.03211963486346954 0.031295832077160343 0 0.032497436892144127 0.030178841885267677 0 0.029990132779155881 0.030294985974065103 0 0.030106400120577571 0.032722328142998532 0 0.03211963486346954 0.031295832077160343 0 0.025058111214658865 0.03984598934536282 0 0.026678328173511793 0.038550312762131181 0 0.024099222958543096 0.03888235224148523 0 0.029990132779155881 0.030294985974065103 0 0.032497436892144127 0.030178841885267677 0 0.031655108221572192 0.029083612456354078 0 0.027508724303310739 0.035078945077410204 0 0.029240869539978398 0.033808198318829689 0 0.034290671948689101 0.029709990544684775 0 0.034633388670070826 0.030208004840659681 0 0.035094866590560339 0.029484820041895836 0 0.033844481512057947 0.03030554467334317 0 0.034290671948689101 0.029709990544684775 0 0.033439303617297009 0.029350675515316123 0 0.033844481512057947 0.03030554467334317 0 0.034290671948689101 0.029709990544684775 0 0.034633388670070826 0.030208004840659681 0 0.032497436892144127 0.030178841885267677 0 0.033439303617297009 0.029350675515316123 0 0.031655108221572192 0.029083612456354078 0 0.033844481512057947 0.03030554467334317 0 0.032497436892144127 0.030178841885267677 0 0.033439303617297009 0.029350675515316123 0 0.033844481512057947 0.03030554467334317 0 0.032497436892144127 0.030178841885267677 0 0.033375056956325609 0.031196215321751555 0 0.03211963486346954 0.031295832077160343 0 0.032497436892144127 0.030178841885267677 0 0.033375056956325609 0.031196215321751555 0 0.033844481512057947 0.03030554467334317 0 0.033375056956325609 0.031196215321751555 0 0.034343069011847312 0.030811717384351438 0 0.033844481512057947 0.03030554467334317 0 0.034343069011847312 0.030811717384351438 0 0.034633388670070826 0.030208004840659681 0 0.033375056956325609 0.031196215321751555 0 0.034343069011847312 0.030811717384351438 0 0.034424453817320212 0.031754317652249286 0 0.033375056956325609 0.031196215321751555 0 0.034424453817320212 0.031754317652249286 0 0.032898054245808397 0.032180641347366951 0 0.03211963486346954 0.031295832077160343 0 0.033375056956325609 0.031196215321751555 0 0.032898054245808397 0.032180641347366951 0 0.034424453817320212 0.031754317652249286 0 0.032898054245808397 0.032180641347366951 0 0.033679406093221544 0.032846891409630943 0 0.033679406093221544 0.032846891409630943 0 0.034012350254694748 0.03383217646152218 0 0.032455963056836061 0.033252156203958903 0 0.033679406093221544 0.032846891409630943 0 0.034012350254694748 0.03383217646152218 0 0.035344083776839105 0.033127964620076111 0 0.034012350254694748 0.03383217646152218 0 0.034320778504456646 0.034797997644347663 0 0.032663668241971158 0.03427091660837444 0 0.034012350254694748 0.03383217646152218 0 0.032455963056836061 0.033252156203958903 0 0.032663668241971158 0.03427091660837444 0 0.032455963056836061 0.033252156203958903 0 0.031739338374791322 0.033704185475233607 0 0.032663668241971158 0.03427091660837444 0 0.032898054245808397 0.032180641347366951 0 0.033679406093221544 0.032846891409630943 0 0.032455963056836061 0.033252156203958903 0 0.031528399000194295 0.032624621160709258 0 0.032455963056836061 0.033252156203958903 0 0.03155948354317873 0.033381038631782781 0 0.032455963056836061 0.033252156203958903 0 0.03155948354317873 0.033381038631782781 0 0.031739338374791322 0.033704185475233607 0 0.031528399000194295 0.032624621160709258 0 0.03155948354317873 0.033381038631782781 0 0.030639774950153572 0.033299199230909224 0 0.03155948354317873 0.033381038631782781 0 0.030639774950153572 0.033299199230909224 0 0.031352427390213239 0.033988092625030865 0 0.030199061259468904 0.034238874162236532 0 0.031352427390213239 0.033988092625030865 0 0.030060250713891949 0.03516803585601691 0 0.031352427390213239 0.033988092625030865 0 0.031223250911504522 0.033762532583901418 0 0.0324303851408132 0.03224577276140151 0 0.030639774950153572 0.033299199230909224 0 0.030199061259468904 0.034238874162236532 0 0.031352427390213239 0.033988092625030865 0 0.031739338374791322 0.033704185475233607 0 0.031223250911504522 0.033762532583901418 0 0.032663668241971158 0.03427091660837444 0 0.03155948354317873 0.033381038631782781 0 0.031739338374791322 0.033704185475233607 0 0.031352427390213239 0.033988092625030865 0 0.031739338374791322 0.033704185475233607 0 0.031352427390213239 0.033988092625030865 0 0.031223250911504522 0.033762532583901418 0 0.031223250911504522 0.033762532583901418 0 0.031092273411847629 0.031896863332131889 0 0.029514925067094057 0.03151571033052062 0 0.031165803802720448 0.03364960337614091 0 0.031041311923294151 0.033823280136663289 0 0.031315926885257146 0.033965378694411151 0 0.031268202869219094 0.033607423184919778 0 0.031223250911504522 0.033762532583901418 0 0.031092273411847629 0.031896863332131889 0 0.0324303851408132 0.03224577276140151 0 0.031092273411847629 0.031896863332131889 0 0.0324303851408132 0.03224577276140151 0 0.031865903066777571 0.030714207296762212 0 0.031448977837590507 0.029680033157315815 0 0.031865903066777571 0.030714207296762212 0 0.030899697136016698 0.03056662835530348 0 0.031092273411847629 0.031896863332131889 0 0.030899697136016698 0.03056662835530348 0 0.029514925067094057 0.03151571033052062 0 0.029909077033967026 0.030214021108277908 0 0.030899697136016698 0.03056662835530348 0 0.029514925067094057 0.03151571033052062 0 0.031092273411847629 0.031896863332131889 0 0.031865903066777571 0.030714207296762212 0 0.030899697136016698 0.03056662835530348 0 0.028482833302657676 0.029709609178983253 0 0.029056356720950912 0.029685697321921136 0 0.029514925067094057 0.03151571033052062 0 0.031668522907734496 0.031491945859139593 0 0.031041311923294151 0.033823280136663289 0 0.029056356720950912 0.029685697321921136 0 0.029909077033967026 0.030214021108277908 0 0.029514925067094057 0.03151571033052062 0 0.033570539196451907 0.036973408407937704 0 0.032479832249884551 0.035526844357108289 0 0.033563971407245242 0.035824509285511771 0 0.033570539196451907 0.036973408407937704 0 0.033563971407245242 0.035824509285511771 0 0.034633993472698583 0.035896884928815945 0 0.033563971407245242 0.035824509285511771 0 0.034320778504456646 0.034797997644347663 0 0.034633993472698583 0.035896884928815945 0 0.033563971407245242 0.035824509285511771 0 0.034320778504456646 0.034797997644347663 0 0.032663668241971158 0.03427091660837444 0 0.032479832249884551 0.035526844357108289 0 0.033563971407245242 0.035824509285511771 0 0.032663668241971158 0.03427091660837444 0 0.031223250911504522 0.033762532583901418 0 0.032479832249884551 0.035526844357108289 0 0.032663668241971158 0.03427091660837444 0 0.036405867603787272 0.033526805330409575 0 0.035770641884316327 0.035059644869068526 0 0.038008545522587839 0.034144225366595393 0 0.034320778504456646 0.034797997644347663 0 0.036405867603787272 0.033526805330409575 0 0.035770641884316327 0.035059644869068526 0 0.034448837244475332 0.034754220712003014 0 0.036267770361777509 0.034100140259992077 0 0.034320778504456646 0.034797997644347663 0 0.035770641884316327 0.035059644869068526 0 0.034633993472698583 0.035896884928815945 0 0.036116580164917429 0.036915194968516578 0 0.035770641884316327 0.035059644869068526 0 0.034633993472698583 0.035896884928815945 0 0.037775785395680946 0.029839936401586779 0 0.037008998687692626 0.035519342940826232 0 0.035770641884316327 0.035059644869068526 0 0.037060705473912131 0.035724501654838793 0 0.038008545522587839 0.034144225366595393 0 0.038139669693231917 0.03430216766285759 0 0.038007783798932826 0.034270613116803877 0 0.038074131390743511 0.03420407969436428 0 0.036116580164917429 0.036915194968516578 0 0.035770641884316327 0.035059644869068526 0 0.037060705473912131 0.035724501654838793 0 0.038139669693231917 0.03430216766285759 0 0.038074131390743511 0.03420407969436428 0 0.038204700426949796 0.034201320994443639 0 0.038415116667467837 0.034320923319717256 0 0.038139669693231917 0.03430216766285759 0 0.038204700426949796 0.034201320994443639 0 0.038074131390743511 0.03420407969436428 0 0.038204700426949796 0.034201320994443639 0 0.038008545522587839 0.034144225366595393 0 0.037008998687692626 0.035519342940826232 0 0.038104901396402088 0.034082900435052778 0 0.04441951463897597 0.02526224656218427 0 0.043458840794010897 0.025469792057287163 0 0.043714682136251966 0.024541173621400538 0 0.041034842617317387 0.02491753840581212 0 0.041159435367595761 0.029993582861478105 0 0.038415116667467837 0.034320923319717256 0 0.038204700426949796 0.034201320994443639 0 0.038797545101078218 0.033850225378039958 0 0.038797545101078218 0.033850225378039958 0 0.038515117196853743 0.033437523741378906 0 0.038008545522587839 0.034144225366595393 0 0.036405867603787272 0.033526805330409575 0 0.038008545522587839 0.034144225366595393 0 0.038144137273656745 0.032963335691239576 0 0.038204700426949796 0.034201320994443639 0 0.038797545101078218 0.033850225378039958 0 0.038008545522587839 0.034144225366595393 0 0.038515117196853743 0.033437523741378906 0 0.038008545522587839 0.034144225366595393 0 0.038144137273656745 0.032963335691239576 0 0.037790682793658978 0.034394679665768445 0 0.037752845036253029 0.033616231425949133 0 0.036558602258196841 0.033937047176516459 0 0.038797545101078218 0.033850225378039958 0 0.038515117196853743 0.033437523741378906 0 0.039264318399668104 0.032595486774923264 0 0.037790682793658978 0.034394679665768445 0 0.038942385870068624 0.033897005387073048 0 0.0384599491790708 0.033542126773942083 0 0.037291846923567691 0.034156314243507402 0 0.041569094317096413 0.029074606087543794 0 0.038515117196853743 0.033437523741378906 0 0.038144137273656745 0.032963335691239576 0 0.039264318399668104 0.032595486774923264 0 0.041159435367595761 0.029993582861478105 0 0.041569094317096413 0.029074606087543794 0 0.038942385870068624 0.033897005387073048 0 0.0384599491790708 0.033542126773942083 0 0.039001930122060137 0.033298915389805624 0 0.0384599491790708 0.033542126773942083 0 0.037752845036253029 0.033616231425949133 0 0.038527551812665033 0.033212548139793151 0 0.037790682793658978 0.034394679665768445 0 0.0384599491790708 0.033542126773942083 0 0.037752845036253029 0.033616231425949133 0 0.037752845036253029 0.033616231425949133 0 0.03643882766679242 0.033112747458699771 0 0.03616616233596371 0.031794547018921752 0 0.03643882766679242 0.033112747458699771 0 0.036558602258196841 0.033937047176516459 0 0.035344083776839105 0.033127964620076111 0 0.037752845036253029 0.033616231425949133 0 0.03643882766679242 0.033112747458699771 0 0.036558602258196841 0.033937047176516459 0 0.036267770361777509 0.034100140259992077 0 0.037291846923567691 0.034156314243507402 0 0.035789276419424275 0.03479089380256372 0 0.036558602258196841 0.033937047176516459 0 0.035344083776839105 0.033127964620076111 0 0.035789276419424275 0.03479089380256372 0 0.037790682793658978 0.034394679665768445 0 0.036558602258196841 0.033937047176516459 0 0.034012350254694748 0.03383217646152218 0 0.034320778504456646 0.034797997644347663 0 0.035789276419424275 0.03479089380256372 0 0.034012350254694748 0.03383217646152218 0 0.035789276419424275 0.03479089380256372 0 0.035344083776839105 0.033127964620076111 0 0.034424453817320212 0.031754317652249286 0 0.035344083776839105 0.033127964620076111 0 0.03616616233596371 0.031794547018921752 0 0.034424453817320212 0.031754317652249286 0 0.033679406093221544 0.032846891409630943 0 0.035344083776839105 0.033127964620076111 0 0.03643882766679242 0.033112747458699771 0 0.035344083776839105 0.033127964620076111 0 0.03616616233596371 0.031794547018921752 0 0.037234765599740198 0.032605292999465553 0 0.036356671857756116 0.031628523934980203 0 0.038319139318465423 0.033284902011742661 0 0.037486980544519551 0.032864978219936468 0 0.038825180931019047 0.032997646428122196 0 0.034424453817320212 0.031754317652249286 0 0.03616616233596371 0.031794547018921752 0 0.035288666950731587 0.030592705681013275 0 0.034343069011847312 0.030811717384351438 0 0.035288666950731587 0.030592705681013275 0 0.034633388670070826 0.030208004840659681 0 0.034343069011847312 0.030811717384351438 0 0.034424453817320212 0.031754317652249286 0 0.035288666950731587 0.030592705681013275 0 0.037486980544519551 0.032864978219936468 0 0.039268957860239505 0.032677038839429809 0 0.038825180931019047 0.032997646428122196 0 0.037486980544519551 0.032864978219936468 0 0.038020055201568231 0.031198837037687166 0 0.039268957860239505 0.032677038839429809 0 0.038020055201568231 0.031198837037687166 0 0.039526373874369247 0.030820728063898347 0 0.03862148428900556 0.029795789636054341 0 0.037486980544519551 0.032864978219936468 0 0.038020055201568231 0.031198837037687166 0 0.035094866590560339 0.029484820041895836 0 0.036356671857756116 0.031628523934980203 0 0.035166183069414568 0.029546021469466433 0 0.035288666950731587 0.030592705681013275 0 0.034633388670070826 0.030208004840659681 0 0.035094866590560339 0.029484820041895836 0 0.043029556129080132 0.031829193422550583 0 0.039268957860239505 0.032677038839429809 0 0.042471051755202646 0.034057304872931148 0 0.043029556129080132 0.031829193422550583 0 0.039268957860239505 0.032677038839429809 0 0.041747361503426776 0.030340355189476854 0 0.043029556129080132 0.031829193422550583 0 0.042471051755202646 0.034057304872931148 0 0.04399830357003947 0.033138052508384121 0 0.043029556129080132 0.031829193422550583 0 0.04399830357003947 0.033138052508384121 0 0.045092818014981495 0.031810256670476156 0 0.039526373874369247 0.030820728063898347 0 0.039268957860239505 0.032677038839429809 0 0.041747361503426776 0.030340355189476854 0 0.038020055201568231 0.031198837037687166 0 0.039526373874369247 0.030820728063898347 0 0.039268957860239505 0.032677038839429809 0 0.039268957860239505 0.032677038839429809 0 0.039011963852498423 0.032768392335488651 0 0.038825180931019047 0.032997646428122196 0 0.03962711967346557 0.032879816065132829 0 0.040238005922296698 0.033069028419761989 0 0.039011963852498423 0.032768392335488651 0 0.038926967871953502 0.032894321443218383 0 0.038825180931019047 0.032997646428122196 0 0.042471051755202646 0.034057304872931148 0 0.04399830357003947 0.033138052508384121 0 0.045242146515548171 0.034890265295596107 0 0.039011963852498423 0.032768392335488651 0 0.038926967871953502 0.032894321443218383 0 0.039147598753552885 0.032699800697218846 0 0.040238005922296698 0.033069028419761989 0 0.047095840169632655 0.029408099241886677 0 0.038926967871953502 0.032894321443218383 0 0.038825180931019047 0.032997646428122196 0 0.038527551812665033 0.033212548139793151 0 0.038926967871953502 0.032894321443218383 0 0.038527551812665033 0.033212548139793151 0 0.039147246702836654 0.032937665821105667 0 0.038319139318465423 0.033284902011742661 0 0.038825180931019047 0.032997646428122196 0 0.038527551812665033 0.033212548139793151 0 0.037752845036253029 0.033616231425949133 0 0.038319139318465423 0.033284902011742661 0 0.038527551812665033 0.033212548139793151 0 0.037759602792086407 0.033624529061101201 0 0.037234765599740198 0.032605292999465553 0 0.0384599491790708 0.033542126773942083 0 0.038527551812665033 0.033212548139793151 0 0.039001930122060137 0.033298915389805624 0 0.038527551812665033 0.033212548139793151 0 0.039001930122060137 0.033298915389805624 0 0.039147246702836654 0.032937665821105667 0 0.054076760976886018 0.019277164650601895 0 0.055121882394174877 0.020678089045177428 0 0.054941658514775081 0.017768216189783349 0 0.049027709426784978 0.025152467486723746 0 0.050945424245813296 0.020762949584066544 0 0.042550136097343448 0.030530001261001714 0 0.049027709426784978 0.025152467486723746 0 0.054076760976886018 0.019277164650601895 0 0.053669252788085993 0.02099316739275528 0 0.055121882394174877 0.020678089045177428 0 0.046555309769004537 0.025784335770719261 0 0.046754951098916968 0.025135256364999015 0 0.046760548477498096 0.026283092616143641 0 0.054076760976886018 0.019277164650601895 0 0.053669252788085993 0.02099316739275528 0 0.052538523249803556 0.01855653734475474 0 0.053669252788085993 0.02099316739275528 0 0.052348285595206226 0.021465030849743667 0 0.052538523249803556 0.01855653734475474 0 0.053669252788085993 0.02099316739275528 0 0.054751534816175958 0.022440198576703613 0 0.052348285595206226 0.021465030849743667 0 0.051403342577803247 0.026159021175987951 0 0.052907834567188845 0.021169099023391695 0 0.049027709426784978 0.025152467486723746 0 0.047095840169632655 0.029408099241886677 0 0.054832163677665934 0.021447985181760849 0 0.05483160538504387 0.021859071069699084 0 0.054917196998633802 0.022502990847576565 0 0.038926967871953502 0.032894321443218383 0 0.039147246702836654 0.032937665821105667 0 0.039147598753552885 0.032699800697218846 0 0.053669252788085993 0.02099316739275528 0 0.055121882394174877 0.020678089045177428 0 0.05472420047045732 0.022129352644425188 0 0.054145239325640505 0.021352768400003105 0 0.051403342577803247 0.026159021175987951 0 0.049027709426784978 0.025152467486723746 0 0.054291793117496344 0.020447332572869091 0 0.05472420047045732 0.022129352644425188 0 0.05483160538504387 0.021859071069699084 0 0.054751534816175958 0.022440198576703613 0 0.054832163677665934 0.021447985181760849 0 0.05472420047045732 0.022129352644425188 0 0.05483160538504387 0.021859071069699084 0 0.053669252788085993 0.02099316739275528 0 0.05472420047045732 0.022129352644425188 0 0.054751534816175958 0.022440198576703613 0 0.05483160538504387 0.021859071069699084 0 0.054917196998633802 0.022502990847576565 0 0.054664438275618787 0.02243224641256366 0 0.047095840169632655 0.029408099241886677 0 0.045555627210340462 0.032282786923848499 0 0.04399830357003947 0.033138052508384121 0 0.045242146515548171 0.034890265295596107 0 0.045092818014981495 0.031810256670476156 0 0.051403342577803247 0.026159021175987951 0 0.050534869929955803 0.028190108400491784 0 0.046182238508685594 0.03288801147438461 0 0.046570986819072194 0.033008058406762811 0 0.045986696051863778 0.031312807688243065 0 0.047095840169632655 0.029408099241886677 0 0.051403342577803247 0.026159021175987951 0 0.054598781300114127 0.022646227551893477 0 0.053106852328377148 0.023258245320472718 0 0.053989606451232304 0.024753184663077427 0 0.054598781300114127 0.022646227551893477 0 0.053106852328377148 0.023258245320472718 0 0.052315914773412492 0.021682110168333629 0 0.053106852328377148 0.023258245320472718 0 0.053989606451232304 0.024753184663077427 0 0.052607178697140121 0.024415414274574266 0 0.053989606451232304 0.024753184663077427 0 0.052607178697140121 0.024415414274574266 0 0.05274873507544163 0.025552996957907363 0 0.047357125960671577 0.030972636231743227 0 0.045986696051863778 0.031312807688243065 0 0.045377382952206474 0.029083975375762454 0 0.043029556129080132 0.031829193422550583 0 0.045092818014981495 0.031810256670476156 0 0.045377382952206474 0.029083975375762454 0 0.046570986819072194 0.033008058406762811 0 0.047357125960671577 0.030972636231743227 0 0.045986696051863778 0.031312807688243065 0 0.051675294654486066 0.025023437503616471 0 0.051595452615306583 0.023267540449755261 0 0.049999809850776733 0.023307665523053512 0 0.051675294654486066 0.025023437503616471 0 0.049999809850776733 0.023307665523053512 0 0.049999784497010417 0.026024505082083066 0 0.053106852328377148 0.023258245320472718 0 0.052607178697140121 0.024415414274574266 0 0.051595452615306583 0.023267540449755261 0 0.051675294654486066 0.025023437503616471 0 0.052607178697140121 0.024415414274574266 0 0.051595452615306583 0.023267540449755261 0 0.051675294654486066 0.025023437503616471 0 0.052607178697140121 0.024415414274574266 0 0.05274873507544163 0.025552996957907363 0 0.053106852328377148 0.023258245320472718 0 0.051595452615306583 0.023267540449755261 0 0.052315914773412492 0.021682110168333629 0 0.051595452615306583 0.023267540449755261 0 0.049999809850776733 0.023307665523053512 0 0.049999953015420893 0.020591226574634129 0 0.04999959633273951 0.020591054129506486 0 0.052907834567188845 0.021169099023391695 0 0.049999849719806838 0.020590589942060707 0 0.052348285595206226 0.021465030849743667 0 0.051257687290177989 0.019552163761060514 0 0.051595452615306583 0.023267540449755261 0 0.049999953015420893 0.020591226574634129 0 0.052315914773412492 0.021682110168333629 0 0.052348285595206226 0.021465030849743667 0 0.051257687290177989 0.019552163761060514 0 0.052538523249803556 0.01855653734475474 0 0.049999849719806838 0.020590589942060707 0 0.051257687290177989 0.019552163761060514 0 0.04999991277737998 0.018443062852998772 0 0.051257687290177989 0.019552163761060514 0 0.051279770445223881 0.017515544759172962 0 0.04999991277737998 0.018443062852998772 0 0.051279770445223881 0.017515544759172962 0 0.04999991277737998 0.018443062852998772 0 0.049999928471610985 0.016294990039493043 0 0.051279770445223881 0.017515544759172962 0 0.049999928471610985 0.016294990039493043 0 0.052455650956701287 0.015964919614887736 0 0.051279770445223881 0.017515544759172962 0 0.052455650956701287 0.015964919614887736 0 0.052538523249803556 0.01855653734475474 0 0.051257687290177989 0.019552163761060514 0 0.051279770445223881 0.017515544759172962 0 0.052538523249803556 0.01855653734475474 0 0.054076760976886018 0.019277164650601895 0 0.052538523249803556 0.01855653734475474 0 0.054941658514775081 0.017768216189783349 0 0.054414499978876575 0.017447884710455865 0 0.050945424245813296 0.020762949584066544 0 0.052455650956701287 0.015964919614887736 0 0.052538523249803556 0.01855653734475474 0 0.054794140660830243 0.017609602831315529 0 0.046348364587183735 0.026440163905200761 0 0.046555309769004537 0.025784335770719261 0 0.046760548477498096 0.026283092616143641 0 0.041569094317096413 0.029074606087543794 0 0.042550136097343448 0.030530001261001714 0 0.041569094317096413 0.029074606087543794 0 0.050945424245813296 0.020762949584066544 0 0.050945424245813296 0.020762949584066544 0 0.049337139563430749 0.020210357499762858 0 0.043981428770211127 0.023664917316478889 0 0.044342106116455692 0.02352650954898345 0 0.044357541973933115 0.02438564243758409 0 0.052455650956701287 0.015964919614887736 0 0.054794140660830243 0.017609602831315529 0 0.054580575831054925 0.015324510898389848 0 0.052455650956701287 0.015964919614887736 0 0.054580575831054925 0.015324510898389848 0 0.053084625137049812 0.014258822151206123 0 0.043714682136251966 0.024541173621400538 0 0.043981428770211127 0.023664917316478889 0 0.044357541973933115 0.02438564243758409 0 0.049256037790113054 0.017377063137439735 0 0.049337139563430749 0.020210357499762858 0 0.04441951463897597 0.02526224656218427 0 0.043714682136251966 0.024541173621400538 0 0.044357541973933115 0.02438564243758409 0 0.054344997675287131 0.013233083378777967 0 0.054580575831054925 0.015324510898389848 0 0.053084625137049812 0.014258822151206123 0 0.05322476617849279 0.013215931420614797 0 0.054344997675287131 0.013233083378777967 0 0.053084625137049812 0.014258822151206123 0 0.05322476617849279 0.013215931420614797 0 0.053084625137049812 0.014258822151206123 0 0.052326067059350861 0.013486369969847483 0 0.053084625137049812 0.014258822151206123 0 0.052326067059350861 0.013486369969847483 0 0.051583207505670664 0.014700263437465569 0 0.053146306473716189 0.01313111485953416 0 0.049999202978233119 0.014147413572118505 0 0.049999965901960361 0.011536677510026091 0 0.052484633333548109 0.01280655711196557 0 0.049999993605113521 0.014147078283267948 0 0.052326067059350861 0.013486369969847483 0 0.050000038506955086 0.01414796936778615 0 0.051583207505670664 0.014700263437465569 0 0.049999928471610985 0.016294990039493043 0 0.050000038506955086 0.01414796936778615 0 0.051583207505670664 0.014700263437465569 0 0.049999928471610985 0.016294990039493043 0 0.052455650956701287 0.015964919614887736 0 0.051583207505670664 0.014700263437465569 0 0.052455650956701287 0.015964919614887736 0 0.053084625137049812 0.014258822151206123 0 0.051583207505670664 0.014700263437465569 0 0.052458167940400084 0.035631319034323275 0 0.053524471218677164 0.034368829495761838 0 0.05193622826558985 0.034105180726492157 0 0.052458167940400084 0.035631319034323275 0 0.051318651732729731 0.03560136379966998 0 0.05193622826558985 0.034105180726492157 0 0.051318651732729731 0.03560136379966998 0 0.049999944669458424 0.03689129616172325 0 0.049999958120939443 0.034174612743781085 0 0.051318651732729731 0.03560136379966998 0 0.05193622826558985 0.034105180726492157 0 0.049999958120939443 0.034174612743781085 0 0.051318651732729731 0.03560136379966998 0 0.049999944669458424 0.03689129616172325 0 0.051956560053469839 0.037078917398455272 0 0.052458167940400084 0.035631319034323275 0 0.051318651732729731 0.03560136379966998 0 0.051956560053469839 0.037078917398455272 0 0.052369779181262087 0.035874762519981215 0 0.051962007215578962 0.036923176915299408 0 0.052458167940400084 0.035631319034323275 0 0.051876077809419073 0.037040093728612486 0 0.05328218559098935 0.036986668925819852 0 0.050405973005532484 0.040492519885090852 0 0.050530702158665501 0.040272207674642672 0 0.05039633599601552 0.040549027571743633 0 0.05328218559098935 0.036986668925819852 0 0.055189228902961136 0.035562424245126262 0 0.053612815397206227 0.035634666360998726 0 0.049673719103453577 0.039272082596447787 0 0.04894082980788042 0.043687864626732104 0 0.052408788647790638 0.038461497034167874 0 0.049673719103453577 0.039272082596447787 0 0.052458167940400084 0.035631319034323275 0 0.05328218559098935 0.036986668925819852 0 0.053612815397206227 0.035634666360998726 0 0.047314780482519664 0.045236519820586643 0 0.047376460761386303 0.045743713378485706 0 0.048308336069720646 0.045016253100323068 0 0.047314780482519664 0.045236519820586643 0 0.047435691834719886 0.044753363719593528 0 0.048308336069720646 0.045016253100323068 0 0.047314780482519664 0.045236519820586643 0 0.046932452436738673 0.044951828696783769 0 0.047435691834719886 0.044753363719593528 0 0.047314780482519664 0.045236519820586643 0 0.047143526432410876 0.045574352879219335 0 0.047376460761386303 0.045743713378485706 0 0.047314780482519664 0.045236519820586643 0 0.047143526432410876 0.045574352879219335 0 0.046781886386159786 0.045389345303962131 0 0.055189228902961136 0.035562424245126262 0 0.053524471218677164 0.034368829495761838 0 0.054709214215128893 0.033254256130201824 0 0.049673719103453577 0.039272082596447787 0 0.048166128766890144 0.032554437487658745 0 0.04731296157170916 0.045804423931215768 0 0.047058007664253464 0.046049093429967519 0 0.046925786652642916 0.045747944697538033 0 0.047143526432410876 0.045574352879219335 0 0.04731296157170916 0.045804423931215768 0 0.046925786652642916 0.045747944697538033 0 0.048251222560894057 0.040365697811917844 0 0.046480217452567994 0.041610897875970825 0 0.047143526432410876 0.045574352879219335 0 0.04731296157170916 0.045804423931215768 0 0.047376460761386303 0.045743713378485706 0 0.048251222560894057 0.040365697811917844 0 0.049673719103453577 0.039272082596447787 0 0.045808398804514171 0.03698274456607073 0 0.045705578962013695 0.037056098954373437 0 0.045738130006917913 0.037173977206493555 0 0.045808398804514171 0.03698274456607073 0 0.045834057707117314 0.036963122856899559 0 0.045738130006917913 0.037173977206493555 0 0.055189228902961136 0.035562424245126262 0 0.053612815397206227 0.035634666360998726 0 0.053524471218677164 0.034368829495761838 0 0.052458167940400084 0.035631319034323275 0 0.053612815397206227 0.035634666360998726 0 0.053524471218677164 0.034368829495761838 0 0.048166128766890144 0.032554437487658745 0 0.055381815787064116 0.033234796182354899 0 0.053524471218677164 0.034368829495761838 0 0.054709214215128893 0.033254256130201824 0 0.05265964508246971 0.032898319731841222 0 0.045834057707117314 0.036963122856899559 0 0.045911943417101822 0.037294330723022309 0 0.045738130006917913 0.037173977206493555 0 0.039133792084988343 0.028782726136554044 0 0.039115051604278014 0.027798174078896367 0 0.04084124387170069 0.0290897488877301 0 0.048166128766890144 0.032554437487658745 0 0.040941315561954801 0.034144917178542976 0 0.045911943417101822 0.037294330723022309 0 0.045738130006917913 0.037173977206493555 0 0.045511614271844969 0.037281718446736133 0 0.039115051604278014 0.027798174078896367 0 0.039255281174291383 0.027792130560393022 0 0.039411525915371427 0.028150625867954086 0 0.038404561703221596 0.026005264472063767 0 0.040941315561954801 0.034144917178542976 0 0.039133792084988343 0.028782726136554044 0 0.039115051604278014 0.027798174078896367 0 0.038949850231682556 0.027429083313481862 0 0.048166128766890144 0.032554437487658745 0 0.046525278032909151 0.028915766406778082 0 0.039115051604278014 0.027798174078896367 0 0.038949850231682556 0.027429083313481862 0 0.039122376651050748 0.0274869112920311 0 0.039255281174291383 0.027792130560393022 0 0.039122376651050748 0.0274869112920311 0 0.039225913852432404 0.027591327281112181 0 0.039115051604278014 0.027798174078896367 0 0.039255281174291383 0.027792130560393022 0 0.039122376651050748 0.0274869112920311 0 0.054869285303863723 0.03315004644716716 0 0.05322059147917356 0.031615027453000204 0 0.05265964508246971 0.032898319731841222 0 0.054869285303863723 0.03315004644716716 0 0.05445866514093288 0.031027929899119212 0 0.05322059147917356 0.031615027453000204 0 0.05322059147917356 0.031615027453000204 0 0.051648707330380454 0.031869674489684224 0 0.053048522652666352 0.030355419602561381 0 0.05322059147917356 0.031615027453000204 0 0.051648707330380454 0.031869674489684224 0 0.05265964508246971 0.032898319731841222 0 0.053524471218677164 0.034368829495761838 0 0.05265964508246971 0.032898319731841222 0 0.05193622826558985 0.034105180726492157 0 0.051648707330380454 0.031869674489684224 0 0.05265964508246971 0.032898319731841222 0 0.05193622826558985 0.034105180726492157 0 0.051648707330380454 0.031869674489684224 0 0.05193622826558985 0.034105180726492157 0 0.049999958120939443 0.034174612743781085 0 0.051648707330380454 0.031869674489684224 0 0.049999958120939443 0.034174612743781085 0 0.049999707329337062 0.03145745494324434 0 0.049999707329337062 0.03145745494324434 0 0.051587855511554544 0.029623771622453839 0 0.049999865626243319 0.028740541106952466 0 0.051648707330380454 0.031869674489684224 0 0.049999707329337062 0.03145745494324434 0 0.051587855511554544 0.029623771622453839 0 0.051648707330380454 0.031869674489684224 0 0.051587855511554544 0.029623771622453839 0 0.053048522652666352 0.030355419602561381 0 0.051587855511554544 0.029623771622453839 0 0.054003935632138025 0.028831071736614224 0 0.053048522652666352 0.030355419602561381 0 0.051587855511554544 0.029623771622453839 0 0.051774258009693472 0.028186349756214511 0 0.051722469619601356 0.028397555979725323 0 0.053242929448721651 0.029265887051141741 0 0.048325505870346681 0.028068699017181217 0 0.051587855511554544 0.029623771622453839 0 0.051497424416155714 0.028446276832286017 0 0.051722469619601356 0.028397555979725323 0 0.051497424416155714 0.028446276832286017 0 0.05195727919774 0.027664429717986203 0 0.051722469619601356 0.028397555979725323 0 0.051497424416155714 0.028446276832286017 0 0.049999865626243319 0.028740541106952466 0 0.051223627037079729 0.027553099966900158 0 0.051587855511554544 0.029623771622453839 0 0.051497424416155714 0.028446276832286017 0 0.049999865626243319 0.028740541106952466 0 0.049999865626243319 0.028740541106952466 0 0.051223627037079729 0.027553099966900158 0 0.049999784497010417 0.026024505082083066 0 0.051223627037079729 0.027553099966900158 0 0.052119830856845434 0.026540169536613124 0 0.049999784497010417 0.026024505082083066 0 0.051497424416155714 0.028446276832286017 0 0.051223627037079729 0.027553099966900158 0 0.05195727919774 0.027664429717986203 0 0.05195727919774 0.027664429717986203 0 0.052119830856845434 0.026540169536613124 0 0.053135738279486998 0.026963468399486858 0 0.051223627037079729 0.027553099966900158 0 0.05195727919774 0.027664429717986203 0 0.052119830856845434 0.026540169536613124 0 0.051675294654486066 0.025023437503616471 0 0.052119830856845434 0.026540169536613124 0 0.05274873507544163 0.025552996957907363 0 0.051675294654486066 0.025023437503616471 0 0.052119830856845434 0.026540169536613124 0 0.049999784497010417 0.026024505082083066 0 0.047357125960671577 0.030972636231743227 0 0.045377382952206474 0.029083975375762454 0 0.046945304576387181 0.028216297819856625 0 0.045555627210340462 0.032282786923848499 0 0.045383670609781913 0.02900208948573095 0 0.053989606451232304 0.024753184663077427 0 0.05274873507544163 0.025552996957907363 0 0.053135738279486998 0.026963468399486858 0 0.050534869929955803 0.028190108400491784 0 0.051106816823877993 0.02718070574634926 0 0.047357125960671577 0.030972636231743227 0 0.048761635417769747 0.027591624929560257 0 0.046945304576387181 0.028216297819856625 0 0.052119830856845434 0.026540169536613124 0 0.05274873507544163 0.025552996957907363 0 0.053135738279486998 0.026963468399486858 0 0.048761635417769747 0.027591624929560257 0 0.047945233387910131 0.027408964413411237 0 0.046945304576387181 0.028216297819856625 0 0.048761635417769747 0.027591624929560257 0 0.049793890707334088 0.027776445061930874 0 0.047945233387910131 0.027408964413411237 0 0.05195727919774 0.027664429717986203 0 0.053135738279486998 0.026963468399486858 0 0.051722469619601356 0.028397555979725323 0 0.051106816823877993 0.02718070574634926 0 0.051571986113206007 0.028051141491676097 0 0.048761635417769747 0.027591624929560257 0 0.049793890707334088 0.027776445061930874 0 0.051722469619601356 0.028397555979725323 0 0.049793890707334088 0.027776445061930874 0 0.047945233387910131 0.027408964413411237 0 0.047473037348834422 0.026123034657846867 0 0.047945233387910131 0.027408964413411237 0 0.046271822170368064 0.026881532447106719 0 0.047473037348834422 0.026123034657846867 0 0.046271822170368064 0.026881532447106719 0 0.047473037348834422 0.026123034657846867 0 0.043844602943139133 0.025394060563679099 0 0.047945233387910131 0.027408964413411237 0 0.046271822170368064 0.026881532447106719 0 0.046945304576387181 0.028216297819856625 0 0.046271822170368064 0.026881532447106719 0 0.046945304576387181 0.028216297819856625 0 0.044562700336827091 0.027325210417533011 0 0.045377382952206474 0.029083975375762454 0 0.046945304576387181 0.028216297819856625 0 0.044562700336827091 0.027325210417533011 0 0.046271822170368064 0.026881532447106719 0 0.043844602943139133 0.025394060563679099 0 0.044562700336827091 0.027325210417533011 0 0.047473037348834422 0.026123034657846867 0 0.048963037739841855 0.023926881811823529 0 0.043844602943139133 0.025394060563679099 0 0.039333092724632347 0.027465605069656614 0 0.039126027293590784 0.02735627981768976 0 0.038743236413114494 0.027854269704683909 0 0.039126027293590784 0.02735627981768976 0 0.03897167296212449 0.027287299792342127 0 0.038743236413114494 0.027854269704683909 0 0.048325505870346681 0.028068699017181217 0 0.040448089264941346 0.026427495596769608 0 0.049793890707334088 0.027776445061930874 0 0.051774258009693472 0.028186349756214511 0 0.051722469619601356 0.028397555979725323 0 0.049856804193951075 0.027279267430492058 0 0.048325505870346681 0.028068699017181217 0 0.049793890707334088 0.027776445061930874 0 0.047473037348834422 0.026123034657846867 0 0.048963037739841855 0.023926881811823529 0 0.038949850231682556 0.027429083313481862 0 0.039333092724632347 0.027465605069656614 0 0.039126027293590784 0.02735627981768976 0 0.046525278032909151 0.028915766406778082 0 0.048325505870346681 0.028068699017181217 0 0.05445866514093288 0.031027929899119212 0 0.054003935632138025 0.028831071736614224 0 0.053048522652666352 0.030355419602561381 0 0.05445866514093288 0.031027929899119212 0 0.05322059147917356 0.031615027453000204 0 0.053048522652666352 0.030355419602561381 0 0.039126027293590784 0.02735627981768976 0 0.039122376651050748 0.0274869112920311 0 0.03897167296212449 0.027287299792342127 0 0.038949850231682556 0.027429083313481862 0 0.039126027293590784 0.02735627981768976 0 0.039122376651050748 0.0274869112920311 0 0.039122376651050748 0.0274869112920311 0 0.039225913852432404 0.027591327281112181 0 0.03897167296212449 0.027287299792342127 0 0.038208829736694122 0.026380296867602487 0 0.03919368937941603 0.027420200875756216 0 0.037967000580694549 0.026385388838896798 0 0.03897167296212449 0.027287299792342127 0 0.037637585742212959 0.027374385441908882 0 0.039225913852432404 0.027591327281112181 0 0.039563287718569623 0.027580403899323747 0 0.03897167296212449 0.027287299792342127 0 0.037967000580694549 0.026385388838896798 0 0.037026673556913178 0.02662403646146011 0 0.037637585742212959 0.027374385441908882 0 0.037026673556913178 0.02662403646146011 0 0.037637585742212959 0.027374385441908882 0 0.036384326097372084 0.027332429444308456 0 0.037637585742212959 0.027374385441908882 0 0.037066624598314932 0.028323544996311924 0 0.036384326097372084 0.027332429444308456 0 0.037637585742212959 0.027374385441908882 0 0.038743236413114494 0.027854269704683909 0 0.037066624598314932 0.028323544996311924 0 0.03897167296212449 0.027287299792342127 0 0.037637585742212959 0.027374385441908882 0 0.038743236413114494 0.027854269704683909 0 0.043844602943139133 0.025394060563679099 0 0.042418131367809198 0.027876787468461593 0 0.044562700336827091 0.027325210417533011 0 0.043844602943139133 0.025394060563679099 0 0.042418131367809198 0.027876787468461593 0 0.039309855495089134 0.026825162443621643 0 0.045377382952206474 0.029083975375762454 0 0.042418131367809198 0.027876787468461593 0 0.044562700336827091 0.027325210417533011 0 0.040448089264941346 0.026427495596769608 0 0.038364181557058299 0.027592234338875376 0 0.042418131367809198 0.027876787468461593 0 0.039309855495089134 0.026825162443621643 0 0.040343487180786938 0.029188747978393621 0 0.042418131367809198 0.027876787468461593 0 0.040343487180786938 0.029188747978393621 0 0.041747361503426776 0.030340355189476854 0 0.039309855495089134 0.026825162443621643 0 0.040343487180786938 0.029188747978393621 0 0.03862148428900556 0.029795789636054341 0 0.039526373874369247 0.030820728063898347 0 0.040343487180786938 0.029188747978393621 0 0.03862148428900556 0.029795789636054341 0 0.039526373874369247 0.030820728063898347 0 0.040343487180786938 0.029188747978393621 0 0.041747361503426776 0.030340355189476854 0 0.043029556129080132 0.031829193422550583 0 0.045377382952206474 0.029083975375762454 0 0.041747361503426776 0.030340355189476854 0 0.045377382952206474 0.029083975375762454 0 0.042418131367809198 0.027876787468461593 0 0.041747361503426776 0.030340355189476854 0 0.038020055201568231 0.031198837037687166 0 0.035094866590560339 0.029484820041895836 0 0.037099083207026103 0.029400595120334865 0 0.035458047698519596 0.028575545122135757 0 0.035094866590560339 0.029484820041895836 0 0.037099083207026103 0.029400595120334865 0 0.035458047698519596 0.028575545122135757 0 0.035094866590560339 0.029484820041895836 0 0.034368224538635091 0.028745187843500452 0 0.039309855495089134 0.026825162443621643 0 0.037099083207026103 0.029400595120334865 0 0.03862148428900556 0.029795789636054341 0 0.039309855495089134 0.026825162443621643 0 0.035458047698519596 0.028575545122135757 0 0.037099083207026103 0.029400595120334865 0 0.038020055201568231 0.031198837037687166 0 0.037099083207026103 0.029400595120334865 0 0.03862148428900556 0.029795789636054341 0 0.038364181557058299 0.027592234338875376 0 0.035556284516168567 0.02851651713014736 0 0.037066624598314932 0.028323544996311924 0 0.035458047698519596 0.028575545122135757 0 0.035487156965043357 0.027820614327714682 0 0.035458047698519596 0.028575545122135757 0 0.035487156965043357 0.027820614327714682 0 0.034368224538635091 0.028745187843500452 0 0.035487156965043357 0.027820614327714682 0 0.036384326097372084 0.027332429444308456 0 0.035201959835396354 0.027214658355135975 0 0.034661979687369296 0.02640783564303794 0 0.035015887142290161 0.032386578535672624 0 0.037066624598314932 0.028323544996311924 0 0.035487156965043357 0.027820614327714682 0 0.036384326097372084 0.027332429444308456 0 0.037026673556913178 0.02662403646146011 0 0.036088657100588867 0.026524406825197838 0 0.037032667503159943 0.025759993543206162 0 0.037026673556913178 0.02662403646146011 0 0.036384326097372084 0.027332429444308456 0 0.036088657100588867 0.026524406825197838 0 0.036384326097372084 0.027332429444308456 0 0.036088657100588867 0.026524406825197838 0 0.035201959835396354 0.027214658355135975 0 0.036553772932031103 0.039325552473181695 0 0.038001225988380384 0.040092848683563914 0 0.038497418599072811 0.03753529684568651 0 0.036231528566513356 0.032917630164113747 0 0.035015887142290161 0.032386578535672624 0 0.036553772932031103 0.039325552473181695 0 0.038001225988380384 0.040092848683563914 0 0.036995809994612799 0.041151971673793794 0 0.038001225988380384 0.040092848683563914 0 0.036995809994612799 0.041151971673793794 0 0.038677120724051189 0.041887934329592612 0 0.041915453214318721 0.039683194071324965 0 0.04200529922207008 0.039763727617809448 0 0.04146083448979157 0.039654444490495794 0 0.042505428669831917 0.047042474084244529 0 0.044449367805196378 0.046940831498994764 0 0.043270190407288377 0.046530986985730584 0 0.037366671940528819 0.043221209180358509 0 0.037800150199221026 0.043559689905956163 0 0.039532597228928962 0.04342246852605354 0 0.036995809994612799 0.041151971673793794 0 0.037366671940528819 0.043221209180358509 0 0.038677120724051189 0.041887934329592612 0 0.040114005055030585 0.043033470768945516 0 0.041197048506549323 0.043575783029756489 0 0.041915453214318721 0.039683194071324965 0 0.04146083448979157 0.039654444490495794 0 0.041328223293401717 0.039177081746586122 0 0.040114005055030585 0.043033470768945516 0 0.038508602758240411 0.033851551418215539 0 0.041197048506549323 0.043575783029756489 0 0.043223985713925453 0.043670431695149899 0 0.036231528566513356 0.032917630164113747 0 0.038508602758240411 0.033851551418215539 0 0.036553772932031103 0.039325552473181695 0 0.036995809994612799 0.041151971673793794 0 0.034623610330600692 0.041032954796434207 0 0.036995809994612799 0.041151971673793794 0 0.037366671940528819 0.043221209180358509 0 0.034623610330600692 0.041032954796434207 0 0.039563287718569623 0.027580403899323747 0 0.039904229048584858 0.027904214203545989 0 0.039511006207839192 0.027933802881169228 0 0.039904229048584858 0.027904214203545989 0 0.039511006207839192 0.027933802881169228 0 0.039534907907536013 0.028191723558804647 0 0.037967000580694549 0.026385388838896798 0 0.037026673556913178 0.02662403646146011 0 0.037032667503159943 0.025759993543206162 0 0.038208829736694122 0.026380296867602487 0 0.038508602758240411 0.033851551418215539 0 0.039255281174291383 0.027792130560393022 0 0.039373324130380007 0.027819599349761016 0 0.039411525915371427 0.028150625867954086 0 0.039255281174291383 0.027792130560393022 0 0.039225913852432404 0.027591327281112181 0 0.039373324130380007 0.027819599349761016 0 0.039225913852432404 0.027591327281112181 0 0.039563287718569623 0.027580403899323747 0 0.039373324130380007 0.027819599349761016 0 0.039563287718569623 0.027580403899323747 0 0.039373324130380007 0.027819599349761016 0 0.039511006207839192 0.027933802881169228 0 0.039373324130380007 0.027819599349761016 0 0.039511006207839192 0.027933802881169228 0 0.039411525915371427 0.028150625867954086 0 0.039511006207839192 0.027933802881169228 0 0.039411525915371427 0.028150625867954086 0 0.039534907907536013 0.028191723558804647 0 0.040941315561954801 0.034144917178542976 0 0.043330323578910562 0.038015298960854961 0 0.043376492035068583 0.036108531578565722 0 0.043431572051755837 0.036127055571786366 0 0.043412461454510436 0.036141226090345327 0 0.043330323578910562 0.038015298960854961 0 0.044681102649687922 0.04033234899117643 0 0.040941315561954801 0.034144917178542976 0 0.044681102649687922 0.04033234899117643 0 0.045705578962013695 0.037056098954373437 0 0.045738130006917913 0.037173977206493555 0 0.045454151492487466 0.037245829250870437 0 0.045738130006917913 0.037173977206493555 0 0.045511614271844969 0.037281718446736133 0 0.045454151492487466 0.037245829250870437 0 0.046480217452567994 0.041610897875970825 0 0.044681102649687922 0.04033234899117643 0 0.043223985713925453 0.043670431695149899 0 0.043330323578910562 0.038015298960854961 0 0.04146083448979157 0.039654444490495794 0 0.041328223293401717 0.039177081746586122 0 0.040939971196595711 0.039546777438717179 0 0.038508602758240411 0.033851551418215539 0 0.043330323578910562 0.038015298960854961 0 0.045832885817440577 0.047004249926339343 0 0.045958292856849409 0.04688869166980817 0 0.044814264821461156 0.04606387125118587 0 0.044449367805196378 0.046940831498994764 0 0.045832885817440577 0.047004249926339343 0 0.044814264821461156 0.04606387125118587 0 0.044681102649687922 0.04033234899117643 0 0.045810678698531289 0.046949218352346042 0 0.045566128897690447 0.046155498779086 0 0.045910092927460747 0.045687535176435 0 0.04640187774529534 0.045979351808139758 0 0.046447713523050445 0.046602900317633207 0 0.045566128897690447 0.046155498779086 0 0.04640187774529534 0.045979351808139758 0 0.045910092927460747 0.045687535176435 0 0.04640187774529534 0.045979351808139758 0 0.046333536973135525 0.045487587284727161 0 0.045566128897690447 0.046155498779086 0 0.045910092927460747 0.045687535176435 0 0.045283441818002645 0.045466541001886164 0 0.047058007664253464 0.046049093429967519 0 0.046447713523050445 0.046602900317633207 0 0.046686852143860126 0.046015360976736613 0 0.046447713523050445 0.046602900317633207 0 0.046686852143860126 0.046015360976736613 0 0.04640187774529534 0.045979351808139758 0 0.04640187774529534 0.045979351808139758 0 0.046617433002588721 0.045704165368733188 0 0.046333536973135525 0.045487587284727161 0 0.046686852143860126 0.046015360976736613 0 0.04640187774529534 0.045979351808139758 0 0.046617433002588721 0.045704165368733188 0 0.046617433002588721 0.045704165368733188 0 0.046925786652642916 0.045747944697538033 0 0.046781886386159786 0.045389345303962131 0 0.047058007664253464 0.046049093429967519 0 0.046686852143860126 0.046015360976736613 0 0.046925786652642916 0.045747944697538033 0 0.046686852143860126 0.046015360976736613 0 0.046617433002588721 0.045704165368733188 0 0.046925786652642916 0.045747944697538033 0 0.047143526432410876 0.045574352879219335 0 0.046925786652642916 0.045747944697538033 0 0.046781886386159786 0.045389345303962131 0 0.046617433002588721 0.045704165368733188 0 0.046781886386159786 0.045389345303962131 0 0.046333536973135525 0.045487587284727161 0 0.046781886386159786 0.045389345303962131 0 0.046333536973135525 0.045487587284727161 0 0.046336388178455153 0.044981442329803348 0 0.046781886386159786 0.045389345303962131 0 0.046336388178455153 0.044981442329803348 0 0.046932452436738673 0.044951828696783769 0 0.047314780482519664 0.045236519820586643 0 0.046781886386159786 0.045389345303962131 0 0.046932452436738673 0.044951828696783769 0 0.045910092927460747 0.045687535176435 0 0.04575836826227847 0.045262585739237651 0 0.045283441818002645 0.045466541001886164 0 0.045910092927460747 0.045687535176435 0 0.046333536973135525 0.045487587284727161 0 0.04575836826227847 0.045262585739237651 0 0.046333536973135525 0.045487587284727161 0 0.046336388178455153 0.044981442329803348 0 0.04575836826227847 0.045262585739237651 0 0.046336388178455153 0.044981442329803348 0 0.04575836826227847 0.045262585739237651 0 0.04563672932488335 0.044608532450037111 0 0.044790494509862833 0.045046808956893038 0 0.044571398517016983 0.043116330963402755 0 0.044721212829288329 0.044991189891384724 0 0.043185431405233683 0.043846294986401517 0 0.044048019739533546 0.042537137965581298 0 0.04575836826227847 0.045262585739237651 0 0.044721212829288329 0.044991189891384724 0 0.04563672932488335 0.044608532450037111 0 0.04575836826227847 0.045262585739237651 0 0.044721212829288329 0.044991189891384724 0 0.045283441818002645 0.045466541001886164 0 0.044721212829288329 0.044991189891384724 0 0.043185431405233683 0.043846294986401517 0 0.043610069518174109 0.044926207957823872 0 0.044721212829288329 0.044991189891384724 0 0.043610069518174109 0.044926207957823872 0 0.045283441818002645 0.045466541001886164 0 0.043185431405233683 0.043846294986401517 0 0.04206142432829621 0.044115953944802951 0 0.042650393782411963 0.04473756664178042 0 0.04206142432829621 0.044115953944802951 0 0.042650393782411963 0.04473756664178042 0 0.041711497068572662 0.044854823462385326 0 0.042650393782411963 0.04473756664178042 0 0.042958572711859114 0.045392686137451441 0 0.042196534468422468 0.04525940794813503 0 0.042650393782411963 0.04473756664178042 0 0.042196534468422468 0.04525940794813503 0 0.041711497068572662 0.044854823462385326 0 0.043185431405233683 0.043846294986401517 0 0.042650393782411963 0.04473756664178042 0 0.043610069518174109 0.044926207957823872 0 0.042650393782411963 0.04473756664178042 0 0.043610069518174109 0.044926207957823872 0 0.042958572711859114 0.045392686137451441 0 0.042958572711859114 0.045392686137451441 0 0.042609973436032414 0.045887014438582015 0 0.043555240980583457 0.045918281559086276 0 0.043610069518174109 0.044926207957823872 0 0.042958572711859114 0.045392686137451441 0 0.043555240980583457 0.045918281559086276 0 0.042196534468422468 0.04525940794813503 0 0.042609973436032414 0.045887014438582015 0 0.041628091588200841 0.045414789886566796 0 0.042196534468422468 0.04525940794813503 0 0.041628091588200841 0.045414789886566796 0 0.041711497068572662 0.044854823462385326 0 0.042958572711859114 0.045392686137451441 0 0.042196534468422468 0.04525940794813503 0 0.042609973436032414 0.045887014438582015 0 0.042505428669831917 0.047042474084244529 0 0.042609973436032414 0.045887014438582015 0 0.041628091588200841 0.045414789886566796 0 0.042505428669831917 0.047042474084244529 0 0.042609973436032414 0.045887014438582015 0 0.043270190407288377 0.046530986985730584 0 0.042609973436032414 0.045887014438582015 0 0.043270190407288377 0.046530986985730584 0 0.043555240980583457 0.045918281559086276 0 0.044814264821461156 0.04606387125118587 0 0.043610069518174109 0.044926207957823872 0 0.043555240980583457 0.045918281559086276 0 0.045810678698531289 0.046949218352346042 0 0.04341107064540748 0.044723184030079827 0 0.043270190407288377 0.046530986985730584 0 0.044007729925282082 0.046391346047207856 0 0.043555240980583457 0.045918281559086276 0 0.044814264821461156 0.04606387125118587 0 0.044007729925282082 0.046391346047207856 0 0.043555240980583457 0.045918281559086276 0 0.044449367805196378 0.046940831498994764 0 0.043270190407288377 0.046530986985730584 0 0.044007729925282082 0.046391346047207856 0 0.045566128897690447 0.046155498779086 0 0.043610069518174109 0.044926207957823872 0 0.045283441818002645 0.045466541001886164 0 0.044449367805196378 0.046940831498994764 0 0.044814264821461156 0.04606387125118587 0 0.044007729925282082 0.046391346047207856 0 0.034444587727507782 0.040336793590151916 0 0.03432145098612039 0.037597035708500426 0 0.040946538094656856 0.044877297874517025 0 0.040613336262169536 0.044410261650260116 0 0.040846723727599892 0.04286997119441769 0 0.040557269430469209 0.04490503086308132 0 0.040613336262169536 0.044410261650260116 0 0.040256385987771356 0.045150186434611009 0 0.040557269430469209 0.04490503086308132 0 0.040256385987771356 0.045150186434611009 0 0.040433370783140694 0.044976663224212531 0 0.040557269430469209 0.04490503086308132 0 0.040946538094656856 0.044877297874517025 0 0.040694615044385721 0.044933343254236903 0 0.040557269430469209 0.04490503086308132 0 0.040946538094656856 0.044877297874517025 0 0.040613336262169536 0.044410261650260116 0 0.040613336262169536 0.044410261650260116 0 0.040256385987771356 0.045150186434611009 0 0.039532597228928962 0.04342246852605354 0 0.037800150199221026 0.043559689905956163 0 0.040256385987771356 0.045150186434611009 0 0.039532597228928962 0.04342246852605354 0 0.041197048506549323 0.043575783029756489 0 0.040073200325647089 0.045526246430032766 0 0.042505428669831917 0.047042474084244529 0 0.041628091588200841 0.045414789886566796 0 0.040256385987771356 0.045150186434611009 0 0.041628091588200841 0.045414789886566796 0 0.040256385987771356 0.045150186434611009 0 0.040578186502082392 0.044766364979327719 0 0.040579071161128438 0.044806156925950198 0 0.041218324027466613 0.043451127949842648 0 0.040256385987771356 0.045150186434611009 0 0.040578186502082392 0.044766364979327719 0 0.040433370783140694 0.044976663224212531 0 0.040578186502082392 0.044766364979327719 0 0.040543495758911641 0.044883366941229505 0 0.040346110814140114 0.044943345443185803 0 0.04206142432829621 0.044115953944802951 0 0.040578186502082392 0.044766364979327719 0 0.042079001142436241 0.042550492105506973 0 0.04206142432829621 0.044115953944802951 0 0.040578186502082392 0.044766364979327719 0 0.041711497068572662 0.044854823462385326 0 0.041628091588200841 0.045414789886566796 0 0.040578186502082392 0.044766364979327719 0 0.041711497068572662 0.044854823462385326 0 0.040578186502082392 0.044766364979327719 0 0.040543495758911641 0.044883366941229505 0 0.040531208496022181 0.044953086791515148 0 0.040543495758911641 0.044883366941229505 0 0.040531208496022181 0.044953086791515148 0 0.040558938288190925 0.044947662468892091 0 0.040578186502082392 0.044766364979327719 0 0.040531208496022181 0.044953086791515148 0 0.040433370783140694 0.044976663224212531 0 0.040557269430469209 0.04490503086308132 0 0.040694615044385721 0.044933343254236903 0 0.040531208496022181 0.044953086791515148 0 0.040557269430469209 0.04490503086308132 0 0.040531208496022181 0.044953086791515148 0 0.040433370783140694 0.044976663224212531 0 0.040946538094656856 0.044877297874517025 0 0.040694615044385721 0.044933343254236903 0 0.040617720350056105 0.044972661761186729 0 0.040694615044385721 0.044933343254236903 0 0.040531208496022181 0.044953086791515148 0 0.040617720350056105 0.044972661761186729 0 0.040531208496022181 0.044953086791515148 0 0.040617720350056105 0.044972661761186729 0 0.040558938288190925 0.044947662468892091 0 0.040617720350056105 0.044972661761186729 0 0.040558938288190925 0.044947662468892091 0 0.040525955775599996 0.044980278348736281 0 0.040558938288190925 0.044947662468892091 0 0.040525955775599996 0.044980278348736281 0 0.040469485048188349 0.044947603794210422 0 0.040525955775599996 0.044980278348736281 0 0.040375685253336395 0.045005816868009377 0 0.040469485048188349 0.044947603794210422 0 0.040525955775599996 0.044980278348736281 0 0.040375685253336395 0.045005816868009377 0 0.040351077178240373 0.045110971872585615 0 0.034444587727507782 0.040336793590151916 0 0.040507097283692631 0.04658355142239453 0 0.040946538094656856 0.044877297874517025 0 0.040617720350056105 0.044972661761186729 0 0.040525955775599996 0.044980278348736281 0 0.040349687829140869 0.04494154202603088 0 0.040375685253336395 0.045005816868009377 0 0.040095293994382671 0.04511276566515298 0 0.027000505260497399 0.046295749620586961 0 0.026806639324095067 0.046542786225009729 0 0.026801039457905008 0.04648154206093269 0 0.027000505260497399 0.046295749620586961 0 0.026801039457905008 0.04648154206093269 0 0.026696032247755949 0.046324683697683833 0 0.033910899461882818 0.046539864403237874 0 0.029505992784552685 0.040310487146547697 0 0.040349687829140869 0.04494154202603088 0 0.040375685253336395 0.045005816868009377 0 0.040469485048188349 0.044947603794210422 0 0.040375685253336395 0.045005816868009377 0 0.040095293994382671 0.04511276566515298 0 0.040351077178240373 0.045110971872585615 0 0.029505992784552685 0.040310487146547697 0 0.033921618413976388 0.0386833339051912 0 0.025422927023145525 0.032296425941589865 0 0.026508113952219907 0.032168094944098433 0 0.026065222983961168 0.033040361067503715 0 0.034444587727507782 0.040336793590151916 0 0.033921618413976388 0.0386833339051912 0 0.04051999517817597 0.045064056363600849 0 0.040525955775599996 0.044980278348736281 0 0.040351077178240373 0.045110971872585615 0 0.026508113952219907 0.032168094944098433 0 0.027127338207739247 0.03292136273151279 0 0.026065222983961168 0.033040361067503715 0 0.027564740336054182 0.032066523336527007 0 0.026508113952219907 0.032168094944098433 0 0.027127338207739247 0.03292136273151279 0 0.027127338207739247 0.03292136273151279 0 0.026748162929874416 0.033771142544161241 0 0.028223192621803981 0.033379005526668552 0 0.027127338207739247 0.03292136273151279 0 0.026065222983961168 0.033040361067503715 0 0.026748162929874416 0.033771142544161241 0 0.025422927023145525 0.032296425941589865 0 0.026065222983961168 0.033040361067503715 0 0.024959747636272567 0.033272497553022931 0 0.026065222983961168 0.033040361067503715 0 0.025795039127481666 0.033823516170137242 0 0.026748162929874416 0.033771142544161241 0 0.026065222983961168 0.033040361067503715 0 0.025795039127481666 0.033823516170137242 0 0.024959747636272567 0.033272497553022931 0 0.025795039127481666 0.033823516170137242 0 0.026146125502780102 0.034523082777387019 0 0.026748162929874416 0.033771142544161241 0 0.025795039127481666 0.033823516170137242 0 0.026146125502780102 0.034523082777387019 0 0.025065080401059984 0.034505278207855455 0 0.026146125502780102 0.034523082777387019 0 0.026748162929874416 0.033771142544161241 0 0.027374218782618722 0.03485527914100562 0 0.026748162929874416 0.033771142544161241 0 0.028223192621803981 0.033379005526668552 0 0.027374218782618722 0.03485527914100562 0 0.028223192621803981 0.033379005526668552 0 0.028920928736595339 0.034685172841385149 0 0.027374218782618722 0.03485527914100562 0 0.03432145098612039 0.037597035708500426 0 0.034482173164409505 0.03824125150628898 0 0.027564740336054182 0.032066523336527007 0 0.027127338207739247 0.03292136273151279 0 0.028223192621803981 0.033379005526668552 0 0.040613336262169536 0.044410261650260116 0 0.040846723727599892 0.04286997119441769 0 0.039532597228928962 0.04342246852605354 0 0.037366671940528819 0.043221209180358509 0 0.039532597228928962 0.04342246852605354 0 0.038677120724051189 0.041887934329592612 0 0.040846723727599892 0.04286997119441769 0 0.039532597228928962 0.04342246852605354 0 0.038677120724051189 0.041887934329592612 0 0.040846723727599892 0.04286997119441769 0 0.038677120724051189 0.041887934329592612 0 0.039759525017618189 0.040140799214238916 0 0.038001225988380384 0.040092848683563914 0 0.038677120724051189 0.041887934329592612 0 0.039759525017618189 0.040140799214238916 0 0.028920928736595339 0.034685172841385149 0 0.028254792035025962 0.035829112206621216 0 0.029649612489132796 0.036000906835435456 0 0.038001225988380384 0.040092848683563914 0 0.039759525017618189 0.040140799214238916 0 0.038497418599072811 0.03753529684568651 0 0.034482173164409505 0.03824125150628898 0 0.035015887142290161 0.032386578535672624 0 0.028920928736595339 0.034685172841385149 0 0.028254792035025962 0.035829112206621216 0 0.027374218782618722 0.03485527914100562 0 0.028254792035025962 0.035829112206621216 0 0.027073303666816113 0.036520534916316981 0 0.027374218782618722 0.03485527914100562 0 0.028254792035025962 0.035829112206621216 0 0.028183475062373883 0.037260265381955905 0 0.027073303666816113 0.036520534916316981 0 0.035487156965043357 0.027820614327714682 0 0.034902169808816649 0.026713803389395347 0 0.033226435540182751 0.027969369597841621 0 0.035015887142290161 0.032386578535672624 0 0.03023938368280402 0.032568959247170202 0 0.028254792035025962 0.035829112206621216 0 0.029649612489132796 0.036000906835435456 0 0.028183475062373883 0.037260265381955905 0 0.035487156965043357 0.027820614327714682 0 0.033226435540182751 0.027969369597841621 0 0.034368224538635091 0.028745187843500452 0 0.033226435540182751 0.027969369597841621 0 0.033439303617297009 0.029350675515316123 0 0.031655108221572192 0.029083612456354078 0 0.033226435540182751 0.027969369597841621 0 0.033439303617297009 0.029350675515316123 0 0.034368224538635091 0.028745187843500452 0 0.034290671948689101 0.029709990544684775 0 0.033439303617297009 0.029350675515316123 0 0.034368224538635091 0.028745187843500452 0 0.034290671948689101 0.029709990544684775 0 0.035094866590560339 0.029484820041895836 0 0.034368224538635091 0.028745187843500452 0 0.026678328173511793 0.038550312762131181 0 0.025907204222123864 0.037159031769869649 0 0.024099222958543096 0.03888235224148523 0 0.03023938368280402 0.032568959247170202 0 0.029240869539978398 0.033808198318829689 0 0.026678328173511793 0.038550312762131181 0 0.025907204222123864 0.037159031769869649 0 0.027073303666816113 0.036520534916316981 0 0.028183475062373883 0.037260265381955905 0 0.026678328173511793 0.038550312762131181 0 0.027073303666816113 0.036520534916316981 0 0.025907204222123864 0.037159031769869649 0 0.027073303666816113 0.036520534916316981 0 0.026026604643853698 0.035551675295801201 0 0.025907204222123864 0.037159031769869649 0 0.026026604643853698 0.035551675295801201 0 0.024399739093477858 0.035955841776659996 0 0.027073303666816113 0.036520534916316981 0 0.027374218782618722 0.03485527914100562 0 0.026026604643853698 0.035551675295801201 0 0.026146125502780102 0.034523082777387019 0 0.027374218782618722 0.03485527914100562 0 0.026026604643853698 0.035551675295801201 0 0.026146125502780102 0.034523082777387019 0 0.026026604643853698 0.035551675295801201 0 0.025065080401059984 0.034505278207855455 0 0.024399739093477858 0.035955841776659996 0 0.022757652968270248 0.03785457459851288 0 0.022731657473870945 0.035407777399375596 0 0.024046556942894416 0.03492347744723609 0 0.024399739093477858 0.035955841776659996 0 0.025065080401059984 0.034505278207855455 0 0.026026604643853698 0.035551675295801201 0 0.024399739093477858 0.035955841776659996 0 0.025065080401059984 0.034505278207855455 0 0.024046556942894416 0.03492347744723609 0 0.022731657473870945 0.035407777399375596 0 0.023967676503408697 0.033853556051890533 0 0.024046556942894416 0.03492347744723609 0 0.024399739093477858 0.035955841776659996 0 0.022731657473870945 0.035407777399375596 0 0.025907204222123864 0.037159031769869649 0 0.024399739093477858 0.035955841776659996 0 0.024285812838903229 0.037430164028938201 0 0.025907204222123864 0.037159031769869649 0 0.024285812838903229 0.037430164028938201 0 0.024099222958543096 0.03888235224148523 0 0.024399739093477858 0.035955841776659996 0 0.024285812838903229 0.037430164028938201 0 0.022757652968270248 0.03785457459851288 0 0.022367758679369909 0.039462794572594044 0 0.024099222958543096 0.03888235224148523 0 0.022757652968270248 0.03785457459851288 0 0.024285812838903229 0.037430164028938201 0 0.024099222958543096 0.03888235224148523 0 0.022757652968270248 0.03785457459851288 0 0.02067981444174256 0.037975120448146285 0 0.020038442302052161 0.039234280004737825 0 0.022367758679369909 0.039462794572594044 0 0.022757652968270248 0.03785457459851288 0 0.020044298468791796 0.039277329047976851 0 0.01990807093924369 0.038823340227559941 0 0.020044298468791796 0.039277329047976851 0 0.019511013690071608 0.038694269284772931 0 0.022757652968270248 0.03785457459851288 0 0.021411549521527531 0.037127449506072795 0 0.020044298468791796 0.039277329047976851 0 0.022757652968270248 0.03785457459851288 0 0.021411549521527531 0.037127449506072795 0 0.022731657473870945 0.035407777399375596 0 0.01990807093924369 0.038823340227559941 0 0.019767884478754574 0.038194302215756017 0 0.019511013690071608 0.038694269284772931 0 0.02067981444174256 0.037975120448146285 0 0.021497889975680751 0.037022390444101098 0 0.01990807093924369 0.038823340227559941 0 0.020311173737470038 0.038261284438533098 0 0.019767884478754574 0.038194302215756017 0 0.020311173737470038 0.038261284438533098 0 0.019767884478754574 0.038194302215756017 0 0.020146977409615685 0.037787581456617349 0 0.019767884478754574 0.038194302215756017 0 0.019774431727134594 0.037656604544514721 0 0.019448770597456089 0.037880090362271399 0 0.019767884478754574 0.038194302215756017 0 0.019774431727134594 0.037656604544514721 0 0.020146977409615685 0.037787581456617349 0 0.019774431727134594 0.037656604544514721 0 0.020146977409615685 0.037787581456617349 0 0.020054546146963954 0.03728896459023525 0 0.019774431727134594 0.037656604544514721 0 0.020054546146963954 0.03728896459023525 0 0.019550381793117362 0.037392071463099294 0 0.023448917166987642 0.041857743063532821 0 0.0207159590266714 0.04348011656090732 0 0.020415415169156469 0.037525180338747827 0 0.020146977409615685 0.037787581456617349 0 0.020054546146963954 0.03728896459023525 0 0.020415415169156469 0.037525180338747827 0 0.020603849735281034 0.037196365425170033 0 0.020054546146963954 0.03728896459023525 0 0.020311173737470038 0.038261284438533098 0 0.020146977409615685 0.037787581456617349 0 0.020736816502986914 0.037718214675705922 0 0.021497889975680751 0.037022390444101098 0 0.022219791897196906 0.034857843186783671 0 0.020415415169156469 0.037525180338747827 0 0.020146977409615685 0.037787581456617349 0 0.020736816502986914 0.037718214675705922 0 0.023967676503408697 0.033853556051890533 0 0.025065080401059984 0.034505278207855455 0 0.024959747636272567 0.033272497553022931 0 0.024046556942894416 0.03492347744723609 0 0.023967676503408697 0.033853556051890533 0 0.025065080401059984 0.034505278207855455 0 0.025795039127481666 0.033823516170137242 0 0.025065080401059984 0.034505278207855455 0 0.024959747636272567 0.033272497553022931 0 0.023967676503408697 0.033853556051890533 0 0.024959747636272567 0.033272497553022931 0 0.025026352988675338 0.032493715591831257 0 0.022219791897196906 0.034857843186783671 0 0.025243673616783587 0.039886836915073998 0 0.029505992784552685 0.040310487146547697 0 0.026079962549944078 0.031652764001804438 0 0.020415415169156469 0.037525180338747827 0 0.020736816502986914 0.037718214675705922 0 0.020603849735281034 0.037196365425170033 0 0.020736816502986914 0.037718214675705922 0 0.020603849735281034 0.037196365425170033 0 0.021186814373943073 0.037133790158445854 0 0.026306090021806817 0.046665309419516472 0 0.026596708068257872 0.046497070270100499 0 0.026483804592942795 0.046408686568150948 0 0.026306090021806817 0.046665309419516472 0 0.026705298524148095 0.046618620935689165 0 0.026596708068257872 0.046497070270100499 0 0.023092622282571952 0.04208674196775132 0 0.025243673616783587 0.039886836915073998 0 0.02534676964434664 0.032467851177135326 0 0.024959747636272567 0.033272497553022931 0 0.025026352988675338 0.032493715591831257 0 0.029505992784552685 0.040310487146547697 0 0.025243673616783587 0.039886836915073998 0 0.026705298524148095 0.046618620935689165 0 0.026596708068257872 0.046497070270100499 0 0.026801039457905008 0.04648154206093269 0 0.025243673616783587 0.039886836915073998 0 0.024720945343997824 0.045159589057652015 0 0.026806639324095067 0.046542786225009729 0 0.026753211921040361 0.04652724077230954 0 0.026801039457905008 0.04648154206093269 0 0.026596708068257872 0.046497070270100499 0 0.026801039457905008 0.04648154206093269 0 0.026696032247755949 0.046324683697683833 0 0.026596708068257872 0.046497070270100499 0 0.026696032247755949 0.046324683697683833 0 0.026483804592942795 0.046408686568150948 0 0.026696032247755949 0.046324683697683833 0 0.026483804592942795 0.046408686568150948 0 0.026476365925821411 0.046192797563403984 0 0.026306090021806817 0.046665309419516472 0 0.026289119004606124 0.04632828805514002 0 0.026050769176620841 0.046387072934589046 0 0.026306090021806817 0.046665309419516472 0 0.026483804592942795 0.046408686568150948 0 0.026289119004606124 0.04632828805514002 0 0.026483804592942795 0.046408686568150948 0 0.026289119004606124 0.04632828805514002 0 0.026476365925821411 0.046192797563403984 0 0.026289119004606124 0.04632828805514002 0 0.026050769176620841 0.046387072934589046 0 0.026159645451564153 0.046148276456540765 0 0.026050769176620841 0.046387072934589046 0 0.025952416733952415 0.046171746147285787 0 0.025688803679613938 0.046369276622913375 0 0.026050769176620841 0.046387072934589046 0 0.025944872534631583 0.04668941689887704 0 0.025688803679613938 0.046369276622913375 0 0.025944872534631583 0.04668941689887704 0 0.025593382086770009 0.04671665568130029 0 0.025688803679613938 0.046369276622913375 0 0.026306090021806817 0.046665309419516472 0 0.026050769176620841 0.046387072934589046 0 0.025944872534631583 0.04668941689887704 0 0.023092622282571952 0.04208674196775132 0 0.023448917166987642 0.041857743063532821 0 0.020896109649809376 0.04721394882426224 0 0.020593746845606255 0.047985914215174251 0 0.025995730239548244 0.045963379132878283 0 0.025836989941400622 0.046069824462321739 0 0.025991312110158406 0.046080981380222943 0 0.020896109649809376 0.04721394882426224 0 0.020911125954946756 0.046797131860310696 0 0.025995730239548244 0.045963379132878283 0 0.025836989941400622 0.046069824462321739 0 0.025952416733952415 0.046171746147285787 0 0.025836989941400622 0.046069824462321739 0 0.025952416733952415 0.046171746147285787 0 0.025688803679613938 0.046369276622913375 0 0.026050769176620841 0.046387072934589046 0 0.025952416733952415 0.046171746147285787 0 0.026159645451564153 0.046148276456540765 0 0.025995730239548244 0.045963379132878283 0 0.025952416733952415 0.046171746147285787 0 0.026159645451564153 0.046148276456540765 0 0.026289119004606124 0.04632828805514002 0 0.026159645451564153 0.046148276456540765 0 0.026476365925821411 0.046192797563403984 0 0.026159645451564153 0.046148276456540765 0 0.026476365925821411 0.046192797563403984 0 0.02645351355467418 0.045886781889024363 0 0.027000505260497399 0.046295749620586961 0 0.026696032247755949 0.046324683697683833 0 0.026777949138922359 0.046059477508541523 0 0.026696032247755949 0.046324683697683833 0 0.026476365925821411 0.046192797563403984 0 0.026777949138922359 0.046059477508541523 0 0.026476365925821411 0.046192797563403984 0 0.026777949138922359 0.046059477508541523 0 0.02645351355467418 0.045886781889024363 0 0.02645351355467418 0.045886781889024363 0 0.026842921397877396 0.045718762139554614 0 0.026562682433293513 0.045666036662458283 0 0.026777949138922359 0.046059477508541523 0 0.02645351355467418 0.045886781889024363 0 0.026842921397877396 0.045718762139554614 0 0.025995730239548244 0.045963379132878283 0 0.026159645451564153 0.046148276456540765 0 0.02645351355467418 0.045886781889024363 0 0.025995730239548244 0.045963379132878283 0 0.02645351355467418 0.045886781889024363 0 0.026325868505548557 0.045688835097594895 0 0.026325868505548557 0.045688835097594895 0 0.026469212469072741 0.045500724973156749 0 0.026189952744789663 0.045505283832416588 0 0.02645351355467418 0.045886781889024363 0 0.026325868505548557 0.045688835097594895 0 0.026562682433293513 0.045666036662458283 0 0.026325868505548557 0.045688835097594895 0 0.026469212469072741 0.045500724973156749 0 0.026562682433293513 0.045666036662458283 0 0.026469212469072741 0.045500724973156749 0 0.026750429365569102 0.045528565465352444 0 0.026914068711885345 0.045258267822964257 0 0.026842921397877396 0.045718762139554614 0 0.026562682433293513 0.045666036662458283 0 0.026750429365569102 0.045528565465352444 0 0.026469212469072741 0.045500724973156749 0 0.026562682433293513 0.045666036662458283 0 0.026750429365569102 0.045528565465352444 0 0.026750429365569102 0.045528565465352444 0 0.026914068711885345 0.045258267822964257 0 0.026929965513839169 0.045478532013004447 0 0.026842921397877396 0.045718762139554614 0 0.026750429365569102 0.045528565465352444 0 0.026929965513839169 0.045478532013004447 0 0.026469212469072741 0.045500724973156749 0 0.026513713401547939 0.045379584196827978 0 0.026641873021507837 0.045393574955671111 0 0.026290659132119903 0.045465047430435779 0 0.027527166610225706 0.045672739196410017 0 0.026469212469072741 0.045500724973156749 0 0.026915728182548986 0.045151301463546789 0 0.026914068711885345 0.045258267822964257 0 0.026513713401547939 0.045379584196827978 0 0.026577244478216605 0.045330963150385067 0 0.026641873021507837 0.045393574955671111 0 0.026469212469072741 0.045500724973156749 0 0.026406741830763497 0.045383508301249008 0 0.026189952744789663 0.045505283832416588 0 0.026406741830763497 0.045383508301249008 0 0.026189952744789663 0.045505283832416588 0 0.026321434932198649 0.045292724122322311 0 0.026469212469072741 0.045500724973156749 0 0.026513713401547939 0.045379584196827978 0 0.026406741830763497 0.045383508301249008 0 0.026513713401547939 0.045379584196827978 0 0.026406741830763497 0.045383508301249008 0 0.026496450708191892 0.045274185120213514 0 0.025810114944767783 0.046180158343925998 0 0.025992650721563055 0.046408588084117616 0 0.02572922060260658 0.046486189431014242 0 0.026001155180973505 0.045214744146287456 0 0.02716847723501005 0.049152574201917015 0 0.025995730239548244 0.045963379132878283 0 0.026325868505548557 0.045688835097594895 0 0.026189952744789663 0.045505283832416588 0 0.025955438369816963 0.046212266089502935 0 0.026001155180973505 0.045214744146287456 0 0.025995730239548244 0.045963379132878283 0 0.025810114944767783 0.046180158343925998 0 0.025991312110158406 0.046080981380222943 0 0.025810114944767783 0.046180158343925998 0 0.025991312110158406 0.046080981380222943 0 0.025992650721563055 0.046408588084117616 0 0.020593746845606255 0.047985914215174251 0 0.023136957466650648 0.051637014421571904 0 0.023136957466650648 0.051637014421571904 0 0.025202473167050717 0.053708101418739711 0 0.025414343357049639 0.055931827769871996 0 0.026767611696896784 0.054527018667362155 0 0.025640376593264243 0.05393595409172787 0 0.024118624198863996 0.053366420383319534 0 0.024561487458264739 0.052451995145036817 0 0.023425503090892912 0.052541504287665311 0 0.025414343357049639 0.055931827769871996 0 0.026767611696896784 0.054527018667362155 0 0.027871546247347119 0.055405912257881176 0 0.026767611696896784 0.054527018667362155 0 0.027987516581640781 0.053764907008519956 0 0.027871546247347119 0.055405912257881176 0 0.023136957466650648 0.051637014421571904 0 0.02716847723501005 0.049152574201917015 0 0.026767611696896784 0.054527018667362155 0 0.026752870654669567 0.05333487975692372 0 0.027987516581640781 0.053764907008519956 0 0.026767611696896784 0.054527018667362155 0 0.026752870654669567 0.05333487975692372 0 0.025640376593264243 0.05393595409172787 0 0.026752870654669567 0.05333487975692372 0 0.027513210731391465 0.052578540960642961 0 0.027987516581640781 0.053764907008519956 0 0.026752870654669567 0.05333487975692372 0 0.025640376593264243 0.05393595409172787 0 0.025727983953340309 0.051682862798006622 0 0.024561487458264739 0.052451995145036817 0 0.025727983953340309 0.051682862798006622 0 0.024165812346759508 0.051977023182629561 0 0.024561487458264739 0.052451995145036817 0 0.023425503090892912 0.052541504287665311 0 0.024165812346759508 0.051977023182629561 0 0.025202473167050717 0.053708101418739711 0 0.025618451683081123 0.051498036438917309 0 0.025727983953340309 0.051682862798006622 0 0.024165812346759508 0.051977023182629561 0 0.023933455462564202 0.05127896154161854 0 0.025727983953340309 0.051682862798006622 0 0.027513210731391465 0.052578540960642961 0 0.027704203315156196 0.051498166128009282 0 0.026752870654669567 0.05333487975692372 0 0.025727983953340309 0.051682862798006622 0 0.027513210731391465 0.052578540960642961 0 0.025727983953340309 0.051682862798006622 0 0.027704203315156196 0.051498166128009282 0 0.0272040461442337 0.049999627366538027 0 0.025727983953340309 0.051682862798006622 0 0.0272040461442337 0.049999627366538027 0 0.024424491642295862 0.049999647115325029 0 0.029982923143198899 0.049999934585160673 0 0.029214035161002509 0.051016580498451397 0 0.029990736288085768 0.051617885611712995 0 0.029983511262401244 0.05000021212624662 0 0.031425847111609992 0.051628221784785475 0 0.029982923143198899 0.049999934585160673 0 0.029990736288085768 0.051617885611712995 0 0.031073977170811371 0.051458742156855405 0 0.029983412266430563 0.049999998935823721 0 0.031465116491165117 0.051694082950513844 0 0.031496761746753935 0.049999997151440753 0 0.0272040461442337 0.049999627366538027 0 0.029982923143198899 0.049999934585160673 0 0.029214035161002509 0.051016580498451397 0 0.027704203315156196 0.051498166128009282 0 0.0272040461442337 0.049999627366538027 0 0.029214035161002509 0.051016580498451397 0 0.029214035161002509 0.051016580498451397 0 0.028987886096360566 0.052256610255824669 0 0.029990736288085768 0.051617885611712995 0 0.029158424374443437 0.051164066904039233 0 0.028850724702054794 0.052342538175678716 0 0.027704203315156196 0.051498166128009282 0 0.029214035161002509 0.051016580498451397 0 0.028731092253583362 0.0523722430083646 0 0.027513210731391465 0.052578540960642961 0 0.027704203315156196 0.051498166128009282 0 0.028731092253583362 0.0523722430083646 0 0.028987886096360566 0.052256610255824669 0 0.029900379548215113 0.052386466620246971 0 0.029700239367804557 0.053041096003329714 0 0.029900379548215113 0.052386466620246971 0 0.029990736288085768 0.051617885611712995 0 0.030604816758688438 0.052481176946546977 0 0.028987886096360566 0.052256610255824669 0 0.029900379548215113 0.052386466620246971 0 0.029990736288085768 0.051617885611712995 0 0.029990736288085768 0.051617885611712995 0 0.030604816758688438 0.052481176946546977 0 0.031073977170811371 0.051458742156855405 0 0.029900379548215113 0.052386466620246971 0 0.030604816758688438 0.052481176946546977 0 0.030437919309613273 0.052990281240700592 0 0.030721780704031011 0.052682484968209937 0 0.030947271278889785 0.053062578791558949 0 0.028522794308825029 0.053154052366812914 0 0.029665869999059482 0.05103665447620865 0 0.030437919309613273 0.052990281240700592 0 0.029700239367804557 0.053041096003329714 0 0.030982114153718224 0.053833808902102279 0 0.030604816758688438 0.052481176946546977 0 0.030437919309613273 0.052990281240700592 0 0.03099468729135272 0.053198806682231856 0 0.029700239367804557 0.053041096003329714 0 0.02872745259148379 0.05344357810549611 0 0.030982114153718224 0.053833808902102279 0 0.029900379548215113 0.052386466620246971 0 0.030437919309613273 0.052990281240700592 0 0.029700239367804557 0.053041096003329714 0 0.030437919309613273 0.052990281240700592 0 0.030982114153718224 0.053833808902102279 0 0.03099468729135272 0.053198806682231856 0 0.028293403720190999 0.053817430701311453 0 0.027987516581640781 0.053764907008519956 0 0.027871546247347119 0.055405912257881176 0 0.027513210731391465 0.052578540960642961 0 0.028731092253583362 0.0523722430083646 0 0.027987516581640781 0.053764907008519956 0 0.028731092253583362 0.0523722430083646 0 0.028309742757649317 0.05382390456653053 0 0.027987516581640781 0.053764907008519956 0 0.028850724702054794 0.052342538175678716 0 0.028522794308825029 0.053154052366812914 0 0.028987886096360566 0.052256610255824669 0 0.029700239367804557 0.053041096003329714 0 0.02872745259148379 0.05344357810549611 0 0.028522794308825029 0.053154052366812914 0 0.028412233518845462 0.053202211358847028 0 0.026406741830763497 0.045383508301249008 0 0.026321434932198649 0.045292724122322311 0 0.026496450708191892 0.045274185120213514 0 0.028167600719448495 0.050273178543543171 0 0.02809532116814947 0.05055162676827147 0 0.028383729285334284 0.050490226184218369 0 0.02716847723501005 0.049152574201917015 0 0.027381187647860829 0.047937445892599392 0 0.028522794308825029 0.053154052366812914 0 0.02716847723501005 0.049152574201917015 0 0.027381187647860829 0.047937445892599392 0 0.028530880570714554 0.048344671743737244 0 0.028167600719448495 0.050273178543543171 0 0.028383729285334284 0.050490226184218369 0 0.028680499008911051 0.050347803828935403 0 0.026577244478216605 0.045330963150385067 0 0.026653298118069407 0.045263156900255737 0 0.026641873021507837 0.045393574955671111 0 0.028383729285334284 0.050490226184218369 0 0.028678425272922834 0.050422823630814205 0 0.028680499008911051 0.050347803828935403 0 0.026496450708191892 0.045274185120213514 0 0.026577244478216605 0.045330963150385067 0 0.026653298118069407 0.045263156900255737 0 0.026513713401547939 0.045379584196827978 0 0.026496450708191892 0.045274185120213514 0 0.026577244478216605 0.045330963150385067 0 0.028975412662833908 0.047265174792042702 0 0.029248558806322596 0.047608178513943375 0 0.029257366831873747 0.046635209630612094 0 0.028975412662833908 0.047265174792042702 0 0.02856406337860538 0.047130936028381899 0 0.029257366831873747 0.046635209630612094 0 0.028530880570714554 0.048344671743737244 0 0.027527166610225706 0.045672739196410017 0 0.028975412662833908 0.047265174792042702 0 0.02856406337860538 0.047130936028381899 0 0.028876803912677506 0.047692908751252559 0 0.02976007536835179 0.046341535275354465 0 0.030302120770889653 0.04959490827274253 0 0.031314070170118086 0.049088409706264928 0 0.031218418385728638 0.048122621001396804 0 0.030818820438518739 0.048212408949715124 0 0.031611663389766946 0.0506645174414391 0 0.030860772473932888 0.051030940010824324 0 0.031611663389766946 0.0506645174414391 0 0.030302120770889653 0.04959490827274253 0 0.031416732239172934 0.050675221889116565 0 0.030275241107952894 0.050931235719227162 0 0.029986198946561182 0.050418320301060728 0 0.030860772473932888 0.051030940010824324 0 0.029665869999059482 0.05103665447620865 0 0.030302120770889653 0.04959490827274253 0 0.028530880570714554 0.048344671743737244 0 0.030357000088962666 0.049881908337815833 0 0.029571971037277125 0.049709262424737083 0 0.028965433457762837 0.05019006008856966 0 0.030122081707904209 0.049465011773695951 0 0.029571971037277125 0.049709262424737083 0 0.028983803722721677 0.049260213765595036 0 0.030357000088962666 0.049881908337815833 0 0.030122081707904209 0.049465011773695951 0 0.029571971037277125 0.049709262424737083 0 0.030302120770889653 0.04959490827274253 0 0.030860772473932888 0.051030940010824324 0 0.028530880570714554 0.048344671743737244 0 0.029665869999059482 0.05103665447620865 0 0.029571971037277125 0.049709262424737083 0 0.028965433457762837 0.05019006008856966 0 0.028983803722721677 0.049260213765595036 0 0.028975412662833908 0.047265174792042702 0 0.028876803912677506 0.047692908751252559 0 0.029248558806322596 0.047608178513943375 0 0.032246362925696929 0.050608820236389913 0 0.033761928580924798 0.050888752041205833 0 0.035055765145936717 0.050000401509678424 0 0.034762691470382537 0.046263245663476629 0 0.034743204684028535 0.045978943800391039 0 0.035107315183739496 0.046044128643710908 0 0.034435492522581698 0.046180787974271387 0 0.034762691470382537 0.046263245663476629 0 0.034743204684028535 0.045978943800391039 0 0.02976007536835179 0.046341535275354465 0 0.034143074920192591 0.048488431905558682 0 0.031314070170118086 0.049088409706264928 0 0.031218418385728638 0.048122621001396804 0 0.032415136109607758 0.048334637878179765 0 0.031611663389766946 0.0506645174414391 0 0.034143074920192591 0.048488431905558682 0 0.034143074920192591 0.048488431905558682 0 0.03531918185685938 0.051304990301469636 0 0.031611663389766946 0.0506645174414391 0 0.03531918185685938 0.051304990301469636 0 0.032505114916713047 0.054622476980699282 0 0.033178691484584029 0.053482216998593547 0 0.034773114106824696 0.054141941727200833 0 0.033178691484584029 0.053482216998593547 0 0.034499648860874151 0.052939775439909402 0 0.034773114106824696 0.054141941727200833 0 0.032310363778427137 0.053720091601177335 0 0.031511029409776417 0.053675754677368924 0 0.031545978825367381 0.051605136233632165 0 0.031995427756264724 0.054527995627353325 0 0.032310363778427137 0.053720091601177335 0 0.031511029409776417 0.053675754677368924 0 0.029665869999059482 0.05103665447620865 0 0.030947271278889785 0.053062578791558949 0 0.030096069619330274 0.051120184601504984 0 0.030812757873003978 0.051251989438598503 0 0.030792339321101009 0.052367900305778044 0 0.030860772473932888 0.051030940010824324 0 0.030947271278889785 0.053062578791558949 0 0.032505114916713047 0.054622476980699282 0 0.033178691484584029 0.053482216998593547 0 0.032310363778427137 0.053720091601177335 0 0.032505114916713047 0.054622476980699282 0 0.031995427756264724 0.054527995627353325 0 0.032310363778427137 0.053720091601177335 0 0.030604816758688438 0.052481176946546977 0 0.031015142350307549 0.053223041883561813 0 0.031073977170811371 0.051458742156855405 0 0.033178691484584029 0.053482216998593547 0 0.032310363778427137 0.053720091601177335 0 0.031545978825367381 0.051605136233632165 0 0.033178691484584029 0.053482216998593547 0 0.031515064118585352 0.05165095432111446 0 0.032957988921424652 0.052042911355120909 0 0.030947271278889785 0.053062578791558949 0 0.031425847111609992 0.051628221784785475 0 0.033117203713785758 0.053391629092770274 0 0.031425847111609992 0.051628221784785475 0 0.031515064118585352 0.05165095432111446 0 0.032957988921424652 0.052042911355120909 0 0.032851574969547444 0.051063637960376836 0 0.034196379142649294 0.051600624995948675 0 0.032957988921424652 0.052042911355120909 0 0.034499648860874151 0.052939775439909402 0 0.033178691484584029 0.053482216998593547 0 0.032957988921424652 0.052042911355120909 0 0.034499648860874151 0.052939775439909402 0 0.034196379142649294 0.051600624995948675 0 0.032957988921424652 0.052042911355120909 0 0.032851574969547444 0.051063637960376836 0 0.034196379142649294 0.051600624995948675 0 0.032851574969547444 0.051063637960376836 0 0.034092921344688241 0.049999949166839412 0 0.031425847111609992 0.051628221784785475 0 0.031496777710159136 0.050000514746947916 0 0.032851574969547444 0.051063637960376836 0 0.034092921344688241 0.049999949166839412 0 0.031496881972995078 0.049999983250171909 0 0.031515064118585352 0.05165095432111446 0 0.032851574969547444 0.051063637960376836 0 0.031496881972995078 0.049999983250171909 0 0.03668908475736804 0.049999994030957264 0 0.037303310935671699 0.052541453177872711 0 0.037925201747374362 0.050943882724243557 0 0.036688914587826353 0.049999993987369096 0 0.035355243110331336 0.051138154639636696 0 0.036469512776861973 0.05158996158917345 0 0.036688914587826353 0.049999993987369096 0 0.037199768937390985 0.052436547606767941 0 0.036469512776861973 0.05158996158917345 0 0.036688808660545441 0.050001697486645617 0 0.038253181577813038 0.051511824740684803 0 0.034092921344688241 0.049999949166839412 0 0.036688914587826353 0.049999993987369096 0 0.035355243110331336 0.051138154639636696 0 0.034196379142649294 0.051600624995948675 0 0.034092921344688241 0.049999949166839412 0 0.035355243110331336 0.051138154639636696 0 0.035275647616562773 0.052210005006858497 0 0.036469512776861973 0.05158996158917345 0 0.035673666937371611 0.053534047221939801 0 0.035355243110331336 0.051138154639636696 0 0.035275647616562773 0.052210005006858497 0 0.036469512776861973 0.05158996158917345 0 0.034196379142649294 0.051600624995948675 0 0.035355243110331336 0.051138154639636696 0 0.035275647616562773 0.052210005006858497 0 0.034196379142649294 0.051600624995948675 0 0.035275647616562773 0.052210005006858497 0 0.034499648860874151 0.052939775439909402 0 0.035275647616562773 0.052210005006858497 0 0.034499648860874151 0.052939775439909402 0 0.035673666937371611 0.053534047221939801 0 0.037199768937390985 0.052436547606767941 0 0.036469512776861973 0.05158996158917345 0 0.035773400912995877 0.053413971986929799 0 0.036188113659794172 0.052272513185926163 0 0.036357681361580158 0.052086872744440092 0 0.038253181577813038 0.051511824740684803 0 0.036357681361580158 0.052086872744440092 0 0.03813378372782969 0.050523747818528482 0 0.038169912352737805 0.050407031097626009 0 0.038239918981152102 0.050427114586409215 0 0.038253181577813038 0.051511824740684803 0 0.039475875905014494 0.050834322906534807 0 0.03813378372782969 0.050523747818528482 0 0.038169912352737805 0.050407031097626009 0 0.038093558186201255 0.05036908448608958 0 0.038169912352737805 0.050407031097626009 0 0.038239918981152102 0.050427114586409215 0 0.038248181116226958 0.050398513819380826 0 0.038481654891679422 0.050320930539693692 0 0.037034281403351757 0.050568495698171984 0 0.038169912352737805 0.050407031097626009 0 0.038310148542477954 0.050365510558900498 0 0.03836016676166968 0.050230384462125417 0 0.034499648860874151 0.052939775439909402 0 0.035673666937371611 0.053534047221939801 0 0.034773114106824696 0.054141941727200833 0 0.036491793190119491 0.051113634908395843 0 0.036380758920696601 0.051389758730909355 0 0.035947061367628319 0.051481449230488308 0 0.036357681361580158 0.052086872744440092 0 0.03531918185685938 0.051304990301469636 0 0.036357681361580158 0.052086872744440092 0 0.037034281403351757 0.050568495698171984 0 0.037034281403351757 0.050568495698171984 0 0.03531918185685938 0.051304990301469636 0 0.036390391192632016 0.049006044361437483 0 0.0360972144366613 0.049065845363004276 0 0.036212147168533881 0.049452601444498395 0 0.034143074920192591 0.048488431905558682 0 0.037869741164795967 0.047516975649457054 0 0.035662476386688562 0.049352982488641159 0 0.0360972144366613 0.049065845363004276 0 0.036212147168533881 0.049452601444498395 0 0.037034281403351757 0.050568495698171984 0 0.037869741164795967 0.047516975649457054 0 0.037869741164795967 0.047516975649457054 0 0.037817223282520795 0.045658315364344879 0 0.034762691470382537 0.046263245663476629 0 0.035107315183739496 0.046044128643710908 0 0.034948203274737979 0.046406396174021577 0 0.040504083000043649 0.045592980217259722 0 0.040394919332669109 0.045441362048737929 0 0.040230027950622985 0.045548995744744705 0 0.037869741164795967 0.047516975649457054 0 0.040296418388130154 0.049600117916548794 0 0.038169912352737805 0.050407031097626009 0 0.03836016676166968 0.050230384462125417 0 0.038063865332030225 0.050187271649833783 0 0.040394919332669109 0.045441362048737929 0 0.040404045075046136 0.045258625145640254 0 0.040206664720614953 0.045332585738628008 0 0.040404045075046136 0.045258625145640254 0 0.040417059287038003 0.045067139087030084 0 0.040308577038823241 0.045195063999048914 0 0.040404045075046136 0.045258625145640254 0 0.040308577038823241 0.045195063999048914 0 0.040206664720614953 0.045332585738628008 0 0.040511783915877439 0.045299392547365064 0 0.040630708825672331 0.045250209233359845 0 0.04051938411860944 0.045053659105111367 0 0.040404045075046136 0.045258625145640254 0 0.040511783915877439 0.045299392547365064 0 0.04051938411860944 0.045053659105111367 0 0.040394919332669109 0.045441362048737929 0 0.040511783915877439 0.045299392547365064 0 0.040567761246133378 0.045428327199129412 0 0.040511783915877439 0.045299392547365064 0 0.040567761246133378 0.045428327199129412 0 0.040630708825672331 0.045250209233359845 0 0.040504083000043649 0.045592980217259722 0 0.040394919332669109 0.045441362048737929 0 0.040567761246133378 0.045428327199129412 0 0.040394919332669109 0.045441362048737929 0 0.040404045075046136 0.045258625145640254 0 0.040511783915877439 0.045299392547365064 0 0.027206898230100609 0.044981930849690634 0 0.027137230751540852 0.045506412922972854 0 0.027500934185241008 0.045501586982487623 0 0.034435492522581698 0.046180787974271387 0 0.034762691470382537 0.046263245663476629 0 0.034805473368173079 0.046765995686859928 0 0.034762691470382537 0.046263245663476629 0 0.034948203274737979 0.046406396174021577 0 0.034805473368173079 0.046765995686859928 0 0.02976007536835179 0.046341535275354465 0 0.035761853822767926 0.045404234966857311 0 0.037817223282520795 0.045658315364344879 0 0.035761853822767926 0.045404234966857311 0 0.027206898230100609 0.044981930849690634 0 0.026914068711885345 0.045258267822964257 0 0.027137230751540852 0.045506412922972854 0 0.02976007536835179 0.046341535275354465 0 0.027527166610225706 0.045672739196410017 0 0.027206898230100609 0.044981930849690634 0 0.026920787376616139 0.045162095396621825 0 0.026914068711885345 0.045258267822964257 0 0.027527166610225706 0.045672739196410017 0 0.027426951850857924 0.045451602153529995 0 0.026842921397877396 0.045718762139554614 0 0.027137230751540852 0.045506412922972854 0 0.027247183569674614 0.04593536048335102 0 0.026842921397877396 0.045718762139554614 0 0.026929965513839169 0.045478532013004447 0 0.027137230751540852 0.045506412922972854 0 0.026914068711885345 0.045258267822964257 0 0.026929965513839169 0.045478532013004447 0 0.027137230751540852 0.045506412922972854 0 0.027137230751540852 0.045506412922972854 0 0.027500934185241008 0.045501586982487623 0 0.027247183569674614 0.04593536048335102 0 0.035761853822767926 0.045404234966857311 0 0.040845651130755958 0.045694936555507715 0 0.035761853822767926 0.045404234966857311 0 0.03368256699069401 0.045335844881192557 0 0.040473847028614965 0.04505227063657409 0 0.040492282268774847 0.044991707686444941 0 0.04051938411860944 0.045053659105111367 0 0.040492282268774847 0.044991707686444941 0 0.04051938411860944 0.045053659105111367 0 0.040519216496567291 0.044991271795901087 0 0.026777949138922359 0.046059477508541523 0 0.026842921397877396 0.045718762139554614 0 0.027247183569674614 0.04593536048335102 0 0.027000505260497399 0.046295749620586961 0 0.026777949138922359 0.046059477508541523 0 0.027247183569674614 0.04593536048335102 0 0.033910899461882818 0.046539864403237874 0 0.03368256699069401 0.045335844881192557 0 0.040492282268774847 0.044991707686444941 0 0.040469485048188349 0.044947603794210422 0 0.040515216067689978 0.044957393763947077 0 0.040492282268774847 0.044991707686444941 0 0.040515216067689978 0.044957393763947077 0 0.040519216496567291 0.044991271795901087 0 0.040349687829140869 0.04494154202603088 0 0.040492282268774847 0.044991707686444941 0 0.040469485048188349 0.044947603794210422 0 0.040558938288190925 0.044947662468892091 0 0.040469485048188349 0.044947603794210422 0 0.040515216067689978 0.044957393763947077 0 0.040558938288190925 0.044947662468892091 0 0.040515216067689978 0.044957393763947077 0 0.04052176141086089 0.0449521244212404 0 0.040515216067689978 0.044957393763947077 0 0.04052176141086089 0.0449521244212404 0 0.040519216496567291 0.044991271795901087 0 0.040543495758911641 0.044883366941229505 0 0.040558938288190925 0.044947662468892091 0 0.04052176141086089 0.0449521244212404 0 0.040543495758911641 0.044883366941229505 0 0.04052176141086089 0.0449521244212404 0 0.040346110814140114 0.044943345443185803 0 0.04052176141086089 0.0449521244212404 0 0.040417059287038003 0.045067139087030084 0 0.040346110814140114 0.044943345443185803 0 0.04052176141086089 0.0449521244212404 0 0.040417059287038003 0.045067139087030084 0 0.040519216496567291 0.044991271795901087 0 0.040404045075046136 0.045258625145640254 0 0.040417059287038003 0.045067139087030084 0 0.04051938411860944 0.045053659105111367 0 0.040417059287038003 0.045067139087030084 0 0.04051938411860944 0.045053659105111367 0 0.040519216496567291 0.044991271795901087 0 0.045606260187393832 0.044074860739678909 0 0.045150162676208257 0.043931631671806318 0 0.045153463584648952 0.044485883275351655 0 0.042762515995209173 0.044856114333041285 0 0.044571398517016983 0.043116330963402755 0 0.040417059287038003 0.045067139087030084 0 0.040196710670785653 0.045115690528277956 0 0.040346110814140114 0.044943345443185803 0 0.040417059287038003 0.045067139087030084 0 0.040196710670785653 0.045115690528277956 0 0.040308577038823241 0.045195063999048914 0 0.042762515995209173 0.044856114333041285 0 0.041218324027466613 0.043451127949842648 0 0.043516668006279895 0.040391563228456905 0 0.042079001142436241 0.042550492105506973 0 0.044048019739533546 0.042537137965581298 0 0.043185431405233683 0.043846294986401517 0 0.042079001142436241 0.042550492105506973 0 0.044048019739533546 0.042537137965581298 0 0.043185431405233683 0.043846294986401517 0 0.04206142432829621 0.044115953944802951 0 0.042079001142436241 0.042550492105506973 0 0.045606260187393832 0.044074860739678909 0 0.045153463584648952 0.044485883275351655 0 0.04563672932488335 0.044608532450037111 0 0.044721212829288329 0.044991189891384724 0 0.045153463584648952 0.044485883275351655 0 0.04563672932488335 0.044608532450037111 0 0.045606260187393832 0.044074860739678909 0 0.04563672932488335 0.044608532450037111 0 0.046032010881746688 0.044198793534629112 0 0.046336388178455153 0.044981442329803348 0 0.04563672932488335 0.044608532450037111 0 0.046198093566739963 0.044544232137355477 0 0.04563672932488335 0.044608532450037111 0 0.046198093566739963 0.044544232137355477 0 0.046032010881746688 0.044198793534629112 0 0.046336388178455153 0.044981442329803348 0 0.046198093566739963 0.044544232137355477 0 0.046777703940848715 0.044432225766202225 0 0.046336388178455153 0.044981442329803348 0 0.046932452436738673 0.044951828696783769 0 0.046777703940848715 0.044432225766202225 0 0.046198093566739963 0.044544232137355477 0 0.046777703940848715 0.044432225766202225 0 0.046032010881746688 0.044198793534629112 0 0.046777703940848715 0.044432225766202225 0 0.046032010881746688 0.044198793534629112 0 0.046958310663920443 0.043817158048874906 0 0.046032010881746688 0.044198793534629112 0 0.046218019019459461 0.043645899268941878 0 0.046958310663920443 0.043817158048874906 0 0.045606260187393832 0.044074860739678909 0 0.046032010881746688 0.044198793534629112 0 0.046218019019459461 0.043645899268941878 0 0.045606260187393832 0.044074860739678909 0 0.046218019019459461 0.043645899268941878 0 0.045673976324246933 0.043339465745603704 0 0.046218019019459461 0.043645899268941878 0 0.046958310663920443 0.043817158048874906 0 0.047029452564424597 0.043055164079365882 0 0.046218019019459461 0.043645899268941878 0 0.047029452564424597 0.043055164079365882 0 0.046214137449307406 0.042758000169785162 0 0.046218019019459461 0.043645899268941878 0 0.045673976324246933 0.043339465745603704 0 0.046214137449307406 0.042758000169785162 0 0.041510715528353052 0.051347170870421073 0 0.041497757976275793 0.050781453045734073 0 0.041477345541548569 0.051463328292371699 0 0.043605830727874363 0.047343912355965245 0 0.043863962034615817 0.047077177189724741 0 0.041510715528353052 0.051347170870421073 0 0.04192210288267445 0.051101402209259635 0 0.041497757976275793 0.050781453045734073 0 0.041510715528353052 0.051347170870421073 0 0.04192210288267445 0.051101402209259635 0 0.042394894717586035 0.051512265144136982 0 0.04192210288267445 0.051101402209259635 0 0.041497757976275793 0.050781453045734073 0 0.042283766375260892 0.050718308823357303 0 0.042762515995209173 0.044856114333041285 0 0.043605830727874363 0.047343912355965245 0 0.045606260187393832 0.044074860739678909 0 0.045150162676208257 0.043931631671806318 0 0.045673976324246933 0.043339465745603704 0 0.042089352472899022 0.049679664296355092 0 0.041497757976275793 0.050781453045734073 0 0.042283766375260892 0.050718308823357303 0 0.040196710670785653 0.045115690528277956 0 0.040308577038823241 0.045195063999048914 0 0.040206664720614953 0.045332585738628008 0 0.042762515995209173 0.044856114333041285 0 0.041257186712125013 0.048261750896604984 0 0.040394919332669109 0.045441362048737929 0 0.040206664720614953 0.045332585738628008 0 0.040230027950622985 0.045548995744744705 0 0.04192210288267445 0.051101402209259635 0 0.042283766375260892 0.050718308823357303 0 0.042394894717586035 0.051512265144136982 0 0.041257186712125013 0.048261750896604984 0 0.040296418388130154 0.049600117916548794 0 0.040968525653714775 0.051459721495592609 0 0.041207353193751559 0.051289170451074881 0 0.040828593034789334 0.051161621482281754 0 0.040296418388130154 0.049600117916548794 0 0.039475875905014494 0.050834322906534807 0 0.041510715528353052 0.051347170870421073 0 0.040968525653714775 0.051459721495592609 0 0.041207353193751559 0.051289170451074881 0 0.042130354653124265 0.05178331931864727 0 0.040296418388130154 0.049600117916548794 0 0.041510715528353052 0.051347170870421073 0 0.041207353193751559 0.051289170451074881 0 0.041428066812900018 0.051336702974055827 0 0.041207353193751559 0.051289170451074881 0 0.041307091598769989 0.051159416911335277 0 0.041010670593071348 0.050985461348919757 0 0.041428066812900018 0.051336702974055827 0 0.041307091598769989 0.051159416911335277 0 0.04157158587681458 0.051209036370984173 0 0.041207353193751559 0.051289170451074881 0 0.041428066812900018 0.051336702974055827 0 0.041307091598769989 0.051159416911335277 0 0.041307091598769989 0.051159416911335277 0 0.041010670593071348 0.050985461348919757 0 0.041285210695197937 0.050959670991944914 0 0.041307091598769989 0.051159416911335277 0 0.041285210695197937 0.050959670991944914 0 0.04157158587681458 0.051209036370984173 0 0.041207353193751559 0.051289170451074881 0 0.040828593034789334 0.051161621482281754 0 0.041010670593071348 0.050985461348919757 0 0.040693756647402483 0.050860508032291786 0 0.040828593034789334 0.051161621482281754 0 0.041010670593071348 0.050985461348919757 0 0.038169912352737805 0.050407031097626009 0 0.038063865332030225 0.050187271649833783 0 0.038093558186201255 0.05036908448608958 0 0.040693756647402483 0.050860508032291786 0 0.041010670593071348 0.050985461348919757 0 0.040942120244468735 0.050537799941311475 0 0.037303310935671699 0.052541453177872711 0 0.039129110684660504 0.051275711437013871 0 0.037925201747374362 0.050943882724243557 0 0.038253181577813038 0.051511824740684803 0 0.040151993353051953 0.050861407405162928 0 0.041010670593071348 0.050985461348919757 0 0.041285210695197937 0.050959670991944914 0 0.040942120244468735 0.050537799941311475 0 0.041285210695197937 0.050959670991944914 0 0.040942120244468735 0.050537799941311475 0 0.041574020154439381 0.050829883470608864 0 0.039129110684660504 0.051275711437013871 0 0.038833369980548288 0.049999986116492097 0 0.040977709054142233 0.050000000883971552 0 0.040942120244468735 0.050537799941311475 0 0.040981353248943156 0.050000297411566488 0 0.041574020154439381 0.050829883470608864 0 0.040151993353051953 0.050861407405162928 0 0.040977491686573692 0.050000256139068777 0 0.039129110684660504 0.051275711437013871 0 0.038833369980548288 0.049999986116492097 0 0.037925201747374362 0.050943882724243557 0 0.03668908475736804 0.049999994030957264 0 0.038833369980548288 0.049999986116492097 0 0.037925201747374362 0.050943882724243557 0 0.043069468970463792 0.050002753848529799 0 0.045632456829193521 0.04788508807723129 0 0.042310867805298323 0.050630479628446343 0 0.04306565098569045 0.049999200786012617 0 0.042815040845155014 0.050760638705354279 0 0.042310867805298323 0.050630479628446343 0 0.04306565098569045 0.049999200786012617 0 0.040981353248943156 0.050000297411566488 0 0.042310867805298323 0.050630479628446343 0 0.040981353248943156 0.050000297411566488 0 0.041574020154439381 0.050829883470608864 0 0.042310867805298323 0.050630479628446343 0 0.041574020154439381 0.050829883470608864 0 0.042088939612085187 0.051241794036715395 0 0.041285210695197937 0.050959670991944914 0 0.041574020154439381 0.050829883470608864 0 0.04157158587681458 0.051209036370984173 0 0.042310867805298323 0.050630479628446343 0 0.042088939612085187 0.051241794036715395 0 0.042815040845155014 0.050760638705354279 0 0.044402089103993236 0.046460420650898275 0 0.045632456829193521 0.04788508807723129 0 0.041574020154439381 0.050829883470608864 0 0.042088939612085187 0.051241794036715395 0 0.04157158587681458 0.051209036370984173 0 0.042088939612085187 0.051241794036715395 0 0.04157158587681458 0.051209036370984173 0 0.041477345541548569 0.051463328292371699 0 0.044402089103993236 0.046460420650898275 0 0.043863962034615817 0.047077177189724741 0 0.041428066812900018 0.051336702974055827 0 0.04157158587681458 0.051209036370984173 0 0.041477345541548569 0.051463328292371699 0 0.041510715528353052 0.051347170870421073 0 0.041428066812900018 0.051336702974055827 0 0.041477345541548569 0.051463328292371699 0 0.047029452564424597 0.043055164079365882 0 0.04670338863152524 0.042189089061399086 0 0.046214137449307406 0.042758000169785162 0 0.047029452564424597 0.043055164079365882 0 0.047524209189624585 0.04232063856199169 0 0.048258904198945775 0.043276964631988615 0 0.047029452564424597 0.043055164079365882 0 0.04670338863152524 0.042189089061399086 0 0.047524209189624585 0.04232063856199169 0 0.048317926072005447 0.044398572020330006 0 0.04805744627216111 0.043895336702019921 0 0.048258904198945775 0.043276964631988615 0 0.048174920156887013 0.042733005366304325 0 0.048170398347961704 0.043526281270742484 0 0.048317926072005447 0.044398572020330006 0 0.046804291774015169 0.045896811357033863 0 0.04805744627216111 0.043895336702019921 0 0.04670338863152524 0.042189089061399086 0 0.047524209189624585 0.04232063856199169 0 0.047059265652704081 0.041740893532459411 0 0.048174920156887013 0.042733005366304325 0 0.045632456829193521 0.04788508807723129 0 0.048317926072005447 0.044398572020330006 0 0.049007802984328545 0.047461368372790927 0 0.047454091287238591 0.04664398956867611 0 0.049007802984328545 0.047461368372790927 0 0.047454091287238591 0.04664398956867611 0 0.046130574020566577 0.049462355927754102 0 0.04659005037164448 0.049074641333680225 0 0.047732300929667765 0.047458272894964723 0 0.048317926072005447 0.044398572020330006 0 0.047454091287238591 0.04664398956867611 0 0.046804291774015169 0.045896811357033863 0 0.047454091287238591 0.04664398956867611 0 0.046130574020566577 0.049462355927754102 0 0.046804291774015169 0.045896811357033863 0 0.045632456829193521 0.04788508807723129 0 0.045137713579908499 0.050000984054748558 0 0.049007802984328545 0.047461368372790927 0 0.046130574020566577 0.049462355927754102 0 0.045149825319562617 0.049995570705508641 0 0.043069265913974593 0.049999963286049776 0 0.043942550621719381 0.051820327322155177 0 0.045137159707543353 0.049999978734910855 0 0.046130574020566577 0.049462355927754102 0 0.049995339266771327 0.049998598268583494 0 0.048782894605964792 0.048926311258270933 0 0.046130574020566577 0.049462355927754102 0 0.045149825319562617 0.049995570705508641 0 0.049995339266771327 0.049998598268583494 0 0.049995339266771327 0.049998598268583494 0 0.048782894605964792 0.048926311258270933 0 0.050123667609855392 0.046673691472646418 0 0.049995339266771327 0.049998598268583494 0 0.050123667609855392 0.046673691472646418 0 0.049999456773864526 0.044119192685845139 0 0.047732300929667765 0.047458272894964723 0 0.048999686399193249 0.045428038723405659 0 0.046804291774015169 0.045896811357033863 0 0.048003451792699825 0.04408784016376531 0 0.04805744627216111 0.043895336702019921 0 0.04805744627216111 0.043895336702019921 0 0.048922777834266795 0.043551939108830602 0 0.048258904198945775 0.043276964631988615 0 0.048003451792699825 0.04408784016376531 0 0.04805744627216111 0.043895336702019921 0 0.048922777834266795 0.043551939108830602 0 0.048003451792699825 0.04408784016376531 0 0.049996579399139596 0.044106725827325201 0 0.048922777834266795 0.043551939108830602 0 0.048999686399193249 0.045428038723405659 0 0.049999539528801484 0.044114365055994122 0 0.049996579399139596 0.044106725827325201 0 0.049999851026784864 0.042206820501174795 0 0.048922777834266795 0.043551939108830602 0 0.049999851026784864 0.042206820501174795 0 0.048820774419022647 0.04330338670911673 0 0.048922777834266795 0.043551939108830602 0 0.050000025223015922 0.042197989905999198 0 0.051075048397279263 0.039447497270376206 0 0.049999956282456758 0.040393624590812173 0 0.04999979152363318 0.04219901077546924 0 0.050204106548983538 0.041287867170468125 0 0.049999851026784864 0.042206820501174795 0 0.048820774419022647 0.04330338670911673 0 0.049317358234100384 0.044289530373020969 0 0.048820774419022647 0.04330338670911673 0 0.048922777834266795 0.043551939108830602 0 0.048258904198945775 0.043276964631988615 0 0.047029452564424597 0.043055164079365882 0 0.048258904198945775 0.043276964631988615 0 0.047546536380526042 0.043549479665621553 0 0.046958310663920443 0.043817158048874906 0 0.047546536380526042 0.043549479665621553 0 0.047898772435586739 0.04399012240465075 0 0.046958310663920443 0.043817158048874906 0 0.047029452564424597 0.043055164079365882 0 0.047546536380526042 0.043549479665621553 0 0.048820774419022647 0.04330338670911673 0 0.048258904198945775 0.043276964631988615 0 0.047898772435586739 0.04399012240465075 0 0.048258904198945775 0.043276964631988615 0 0.047546536380526042 0.043549479665621553 0 0.047898772435586739 0.04399012240465075 0 0.046777703940848715 0.044432225766202225 0 0.046958310663920443 0.043817158048874906 0 0.047898772435586739 0.04399012240465075 0 0.046777703940848715 0.044432225766202225 0 0.047898772435586739 0.04399012240465075 0 0.047435691834719886 0.044753363719593528 0 0.046932452436738673 0.044951828696783769 0 0.046777703940848715 0.044432225766202225 0 0.047435691834719886 0.044753363719593528 0 0.047898772435586739 0.04399012240465075 0 0.047435691834719886 0.044753363719593528 0 0.048308336069720646 0.045016253100323068 0 0.048820774419022647 0.04330338670911673 0 0.047898772435586739 0.04399012240465075 0 0.049317358234100384 0.044289530373020969 0 0.047898772435586739 0.04399012240465075 0 0.048308336069720646 0.045016253100323068 0 0.049317358234100384 0.044289530373020969 0 0.04894082980788042 0.043687864626732104 0 0.050204106548983538 0.041287867170468125 0 0.05039633599601552 0.040549027571743633 0 0.050240871913287459 0.040676997674043244 0 0.050214189187872703 0.040779268493989704 0 0.051876077809419073 0.037040093728612486 0 0.05328218559098935 0.036986668925819852 0 0.051315961647909678 0.038467261883582016 0 0.050405973005532484 0.040492519885090852 0 0.05039633599601552 0.040549027571743633 0 0.050240871913287459 0.040676997674043244 0 0.052408788647790638 0.038461497034167874 0 0.050925038693417482 0.039134280135351959 0 0.051962007215578962 0.036923176915299408 0 0.050925038693417482 0.039134280135351959 0 0.049999944669458424 0.03689129616172325 0 0.051415328354819025 0.03852667191174558 0 0.050000001766980079 0.039608112015956411 0 0.049999944669458424 0.03689129616172325 0 0.051956560053469839 0.037078917398455272 0 0.051415328354819025 0.03852667191174558 0 0.050925038693417482 0.039134280135351959 0 0.050204106548983538 0.041287867170468125 0 0.051359556775068989 0.0386224207801154 0 0.051029910656543401 0.039453892791469242 0 0.049999958603128732 0.039608256882240005 0 0.051029910656543401 0.039453892791469242 0 0.049999958603128732 0.039608256882240005 0 0.050000024872165698 0.040393422712903505 0 0.050925038693417482 0.039134280135351959 0 0.05000088977557042 0.039607454082054801 0 0.050204106548983538 0.041287867170468125 0 0.050001328560510275 0.040392576127649564 0 0.023662897250694034 0.045475838551219505 0 0.024045105878800759 0.045290397447255722 0 0.023481116362509845 0.045103639321644566 0 0.0025709969100370261 0.043574848923430151 0 0.0024102300086466777 0.043912222745433202 0 0.002845884802919195 0.043989075709943919 0 0.0025709969100370261 0.043574848923430151 0 0.0025879178100051844 0.043650311293814269 0 0.002845884802919195 0.043989075709943919 0 0.0025709969100370261 0.043574848923430151 0 0.0020910107176539414 0.043633094582356015 0 0.0024102300086466777 0.043912222745433202 0 0.023662897250694034 0.045475838551219505 0 0.024045105878800759 0.045290397447255722 0 0.02386057389407293 0.04573248160872017 0 0.024045105878800759 0.045290397447255722 0 0.024266674431880346 0.045557740837988144 0 0.02386057389407293 0.04573248160872017 0 0.013318233392274054 0.045048951379338398 0 0.012773320854245995 0.046112164881528722 0 0.0025709969100370261 0.043574848923430151 0 0.0015787970672181224 0.043224385146571162 0 0.0010479509845524708 0.042084654390425275 0 0.0025709969100370261 0.043574848923430151 0 0.0025879178100051844 0.043650311293814269 0 0.003948150464794564 0.044639617164427839 0 0.002640329182758376 0.043714556358468819 0 0.0024511845358559576 0.042983273194490683 0 0.0015787970672181224 0.043224385146571162 0 0.0011392617047700283 0.04345822312526449 0 0.00081625804289334842 0.042743448775362701 0 0.0015787970672181224 0.043224385146571162 0 0.0011392617047700283 0.04345822312526449 0 0.0017934358565291648 0.043805280455519638 0 0.0025709969100370261 0.043574848923430151 0 0.0015787970672181224 0.043224385146571162 0 0.0020910107176539414 0.043633094582356015 0 0.0017934358565291648 0.043805280455519638 0 0.0020910107176539414 0.043633094582356015 0 0.0024102300086466777 0.043912222745433202 0 0.0015787970672181224 0.043224385146571162 0 0.0017934358565291648 0.043805280455519638 0 0.0020910107176539414 0.043633094582356015 0 0.0017934358565291648 0.043805280455519638 0 0.0023055531294755858 0.044429360666529367 0 0.00060310382063467536 0.044104743263048134 0 0.0025397359005388757 0.043694409652759544 0 0.00060310382063467536 0.044104743263048134 0 0.0016802043821610936 0.044729523269719573 0 0.0017934358565291648 0.043805280455519638 0 0.0023055531294755858 0.044429360666529367 0 0.0024102300086466777 0.043912222745433202 0 0.00070467371858495256 0.043971676733054625 0 0.0014671806771499381 0.044126125334339419 0 0.0011392617047700283 0.04345822312526449 0 0.0017934358565291648 0.043805280455519638 0 0.00060310382063467536 0.044104743263048134 0 0.0025397359005388757 0.043694409652759544 0 0.0051919315680590619 0.043675253644242962 0 0.0044907656006869029 0.044550462099281506 0 0.00070467371858495256 0.043971676733054625 0 0.012681933897808159 0.043355259771023301 0 0.013318233392274054 0.045048951379338398 0 0.012681933897808159 0.043355259771023301 0 0.0023055531294755858 0.044429360666529367 0 0.002845884802919195 0.043989075709943919 0 0.0035015315127993377 0.044255414933202127 0 0.0025879178100051844 0.043650311293814269 0 0.002845884802919195 0.043989075709943919 0 0.0035015315127993377 0.044255414933202127 0 0.0023055531294755858 0.044429360666529367 0 0.0024102300086466777 0.043912222745433202 0 0.002845884802919195 0.043989075709943919 0 0.023401076511508398 0.04448527037536204 0 0.023290826661037108 0.044852231559320603 0 0.023481116362509845 0.045103639321644566 0 0.012681933897808159 0.043355259771023301 0 0.013326874148690063 0.041933764970658496 0 0.023401076511508398 0.04448527037536204 0 0.023290826661037108 0.044852231559320603 0 0.023091661441858584 0.04478356141122336 0 0.023401076511508398 0.04448527037536204 0 0.023091661441858584 0.04478356141122336 0 0.022922796551789464 0.044606660643475196 0 0.023401076511508398 0.04448527037536204 0 0.022770967144045862 0.044324152596071566 0 0.022922796551789464 0.044606660643475196 0 0.015528268490878397 0.039626767804229898 0 0.018649262460359823 0.039753428711915367 0 0.016796829158806606 0.040255673841153812 0 0.012681933897808159 0.043355259771023301 0 0.022107819149848076 0.0419978838342678 0 0.023091661441858584 0.04478356141122336 0 0.022922796551789464 0.044606660643475196 0 0.022902647205830979 0.044941080242802994 0 0.022922796551789464 0.044606660643475196 0 0.022902647205830979 0.044941080242802994 0 0.022691642365381952 0.044683164224696766 0 0.022770967144045862 0.044324152596071566 0 0.022922796551789464 0.044606660643475196 0 0.022691642365381952 0.044683164224696766 0 0.022902647205830979 0.044941080242802994 0 0.022677972338032412 0.045092856049191665 0 0.022691642365381952 0.044683164224696766 0 0.023091661441858584 0.04478356141122336 0 0.022902647205830979 0.044941080242802994 0 0.023158597181767826 0.045121732726748118 0 0.022902647205830979 0.044941080242802994 0 0.022940933164514832 0.045467008711681606 0 0.023158597181767826 0.045121732726748118 0 0.022940933164514832 0.045467008711681606 0 0.023158597181767826 0.045121732726748118 0 0.023306872756576585 0.045536529067983986 0 0.022940933164514832 0.045467008711681606 0 0.022677972338032412 0.045092856049191665 0 0.022532436497017503 0.045567623984073026 0 0.022902647205830979 0.044941080242802994 0 0.022940933164514832 0.045467008711681606 0 0.022677972338032412 0.045092856049191665 0 0.024045105878800759 0.045290397447255722 0 0.023401076511508398 0.04448527037536204 0 0.023481116362509845 0.045103639321644566 0 0.023290826661037108 0.044852231559320603 0 0.023481116362509845 0.045103639321644566 0 0.023158597181767826 0.045121732726748118 0 0.023290826661037108 0.044852231559320603 0 0.023091661441858584 0.04478356141122336 0 0.023158597181767826 0.045121732726748118 0 0.023481116362509845 0.045103639321644566 0 0.023158597181767826 0.045121732726748118 0 0.023306872756576585 0.045536529067983986 0 0.023662897250694034 0.045475838551219505 0 0.023481116362509845 0.045103639321644566 0 0.023306872756576585 0.045536529067983986 0 0.023662897250694034 0.045475838551219505 0 0.023306872756576585 0.045536529067983986 0 0.023571218402551615 0.045822184989326865 0 0.023571218402551615 0.045822184989326865 0 0.023138383637321833 0.04605748972637843 0 0.023772880881207541 0.046547779049238701 0 0.023306872756576585 0.045536529067983986 0 0.023571218402551615 0.045822184989326865 0 0.023138383637321833 0.04605748972637843 0 0.022940933164514832 0.045467008711681606 0 0.023306872756576585 0.045536529067983986 0 0.023138383637321833 0.04605748972637843 0 0.022940933164514832 0.045467008711681606 0 0.022773104217057947 0.045930606402399807 0 0.022532436497017503 0.045567623984073026 0 0.022940933164514832 0.045467008711681606 0 0.023138383637321833 0.04605748972637843 0 0.022773104217057947 0.045930606402399807 0 0.023138383637321833 0.04605748972637843 0 0.022773104217057947 0.045930606402399807 0 0.02271430701464636 0.046452452241804235 0 0.022773104217057947 0.045930606402399807 0 0.02271430701464636 0.046452452241804235 0 0.022507561999808034 0.046149574714507799 0 0.023138383637321833 0.04605748972637843 0 0.02271430701464636 0.046452452241804235 0 0.023068251544692615 0.046737023351286759 0 0.02271430701464636 0.046452452241804235 0 0.023068251544692615 0.046737023351286759 0 0.022602535100252081 0.047063511759868344 0 0.02271430701464636 0.046452452241804235 0 0.022318731410468435 0.046706635592579947 0 0.022602535100252081 0.047063511759868344 0 0.023068251544692615 0.046737023351286759 0 0.023772880881207541 0.046547779049238701 0 0.023154101873646984 0.047483140731262592 0 0.023138383637321833 0.04605748972637843 0 0.023068251544692615 0.046737023351286759 0 0.023772880881207541 0.046547779049238701 0 0.019082283197150666 0.049327393261479363 0 0.01808514260151501 0.049860746699921812 0 0.013155688281589214 0.051864200336381908 0 0.013866454119735035 0.052202053010947297 0 0.013467513037677759 0.052878073976859105 0 0.013155688281589214 0.051864200336381908 0 0.013842831654204657 0.051501478790366616 0 0.013866454119735035 0.052202053010947297 0 0.023571218402551615 0.045822184989326865 0 0.023772880881207541 0.046547779049238701 0 0.02386057389407293 0.04573248160872017 0 0.012773320854245995 0.046112164881528722 0 0.019082283197150666 0.049327393261479363 0 0.013760953200885597 0.050693480581541002 0 0.013155688281589214 0.051864200336381908 0 0.013842831654204657 0.051501478790366616 0 0.024266674431880346 0.045557740837988144 0 0.023772880881207541 0.046547779049238701 0 0.02386057389407293 0.04573248160872017 0 0.023662897250694034 0.045475838551219505 0 0.023571218402551615 0.045822184989326865 0 0.02386057389407293 0.04573248160872017 0 0.0015787970672181224 0.043224385146571162 0 0.0010479509845524708 0.042084654390425275 0 0.00081625804289334842 0.042743448775362701 0 0.0025879178100051844 0.043650311293814269 0 0.0029357175541512679 0.044019430917429075 0 0.003948150464794564 0.044639617164427839 0 0.012773320854245995 0.046112164881528722 0 0.0093027715641679116 0.047944764690056034 0 0.013760953200885597 0.050693480581541002 0 0.013842831654204657 0.051501478790366616 0 0.014435544536801922 0.051554614785824425 0 0.0029357175541512679 0.044019430917429075 0 0.0037321452832571435 0.04502080842529349 0 0.003948150464794564 0.044639617164427839 0 0.014435544536801922 0.051554614785824425 0 0.014362987350494516 0.052132907801462111 0 0.014724932647945794 0.052419141206255071 0 0.014435544536801922 0.051554614785824425 0 0.014125658635908915 0.051847992483911816 0 0.014362987350494516 0.052132907801462111 0 0.013842831654204657 0.051501478790366616 0 0.014435544536801922 0.051554614785824425 0 0.014125658635908915 0.051847992483911816 0 0.013842831654204657 0.051501478790366616 0 0.014125658635908915 0.051847992483911816 0 0.013866454119735035 0.052202053010947297 0 0.014125658635908915 0.051847992483911816 0 0.013866454119735035 0.052202053010947297 0 0.014362987350494516 0.052132907801462111 0 0.013866454119735035 0.052202053010947297 0 0.014362987350494516 0.052132907801462111 0 0.014227952687794027 0.05244926581892452 0 0.013866454119735035 0.052202053010947297 0 0.014227952687794027 0.05244926581892452 0 0.014069722590848118 0.052860287333485856 0 0.014227952687794027 0.05244926581892452 0 0.014468447460641893 0.052491414468154564 0 0.014364666381112143 0.052734662872427368 0 0.014362987350494516 0.052132907801462111 0 0.014227952687794027 0.05244926581892452 0 0.014468447460641893 0.052491414468154564 0 0.014362987350494516 0.052132907801462111 0 0.014468447460641893 0.052491414468154564 0 0.014724932647945794 0.052419141206255071 0 0.014468447460641893 0.052491414468154564 0 0.014724932647945794 0.052419141206255071 0 0.014611526040466324 0.052769494443211024 0 0.014435544536801922 0.051554614785824425 0 0.014724932647945794 0.052419141206255071 0 0.015389215259199831 0.052847859863099658 0 0.0037321452832571435 0.04502080842529349 0 0.0047278831342711927 0.045882816965153603 0 0.0053604336511245592 0.04714824313989225 0 0.0093027715641679116 0.047944764690056034 0 0.007028506047510253 0.051985766854773553 0 0.0024511845358559576 0.042983273194490683 0 0.0025350715964673923 0.046026818438592881 0 0.003948150464794564 0.044639617164427839 0 0.0047278831342711927 0.045882816965153603 0 0.0058572331919726833 0.04667666355984032 0 0.0010479509845524708 0.042084654390425275 0 0.0002554133300681414 0.041489188677612275 0 -0.00018712231115897024 0.040906252894214956 0 0.0037321452832571435 0.04502080842529349 0 0.003948150464794564 0.044639617164427839 0 0.0047278831342711927 0.045882816965153603 0 0.0002554133300681414 0.041489188677612275 0 -9.1551038605513688e-05 0.04143198174989722 0 0.00012301445702122174 0.041831643563368534 0 0.0002554133300681414 0.041489188677612275 0 0.00050930491796382694 0.041889275360916405 0 0.00012301445702122174 0.041831643563368534 0 0.0002554133300681414 0.041489188677612275 0 -3.4605484644739472e-05 0.041246245235987682 0 -9.1551038605513688e-05 0.04143198174989722 0 0.0047278831342711927 0.045882816965153603 0 0.0058572331919726833 0.04667666355984032 0 0.0053604336511245592 0.04714824313989225 0 0.0002554133300681414 0.041489188677612275 0 -0.00018712231115897024 0.040906252894214956 0 -3.4605484644739472e-05 0.041246245235987682 0 -0.00018712231115897024 0.040906252894214956 0 -0.00032625367136834171 0.041037202996212455 0 -0.00015857022268800472 0.041154369318377418 0 0.00038840931953356436 0.044374881239024312 0 0.00095157023346453915 0.043880795408661827 0 0.00081515974655956133 0.045083886750883845 0 -0.00018712231115897024 0.040906252894214956 0 -0.00015857022268800472 0.041154369318377418 0 -3.4605484644739472e-05 0.041246245235987682 0 0.0013768953051077663 0.045642447746451376 0 0.0016398971608121218 0.045399883444802815 0 0.0016219025431840569 0.045909313998530869 0 0.0014447822117725363 0.043950239615660948 0 0.0023313375270678717 0.047008217932702476 0 0.0025350715964673923 0.046026818438592881 0 0.0014447822117725363 0.043950239615660948 0 -0.00032625367136834171 0.041037202996212455 0 -0.00015857022268800472 0.041154369318377418 0 -9.1551038605513688e-05 0.04143198174989722 0 -0.00015857022268800472 0.041154369318377418 0 -3.4605484644739472e-05 0.041246245235987682 0 -9.1551038605513688e-05 0.04143198174989722 0 0.0014447822117725363 0.043950239615660948 0 -0.00038919290189981884 0.04295456976390364 0 -0.0003661347123909417 0.040910804659034634 0 -0.00083523453203554617 0.041854762766641275 0 -0.0012219121064178729 0.041598117042683645 0 -0.0003661347123909417 0.040910804659034634 0 -0.00040853557766247386 0.041916715328032733 0 -0.00083523453203554617 0.041854762766641275 0 -0.00032625367136834171 0.041037202996212455 0 -9.1551038605513688e-05 0.04143198174989722 0 -0.00040853557766247386 0.041916715328032733 0 0.0014447822117725363 0.043950239615660948 0 -0.00016418543339530994 0.040969169655529651 0 -9.1551038605513688e-05 0.04143198174989722 0 -0.00040853557766247386 0.041916715328032733 0 0.00012301445702122174 0.041831643563368534 0 -0.00040853557766247386 0.041916715328032733 0 -0.00014296402158901016 0.042400415308676588 0 0.00012301445702122174 0.041831643563368534 0 -0.00083523453203554617 0.041854762766641275 0 -0.0006955150597424721 0.042765059225817123 0 -0.0012677250670049076 0.041872947200579332 0 -0.00040853557766247386 0.041916715328032733 0 -0.00083523453203554617 0.041854762766641275 0 -0.0006955150597424721 0.042765059225817123 0 -0.0006955150597424721 0.042765059225817123 0 -0.00014296402158901016 0.042400415308676588 0 6.0163754827154821e-05 0.042878746217150765 0 -0.00040853557766247386 0.041916715328032733 0 -0.0006955150597424721 0.042765059225817123 0 -0.00014296402158901016 0.042400415308676588 0 -0.00014296402158901016 0.042400415308676588 0 0.00035086439126026989 0.042265449811883092 0 6.0163754827154821e-05 0.042878746217150765 0 0.00081625804289334842 0.042743448775362701 0 0.00035086439126026989 0.042265449811883092 0 6.0163754827154821e-05 0.042878746217150765 0 0.0010479509845524708 0.042084654390425275 0 0.00081625804289334842 0.042743448775362701 0 0.00068596637708445403 0.042184637945705393 0 0.00081625804289334842 0.042743448775362701 0 0.00068596637708445403 0.042184637945705393 0 0.00035086439126026989 0.042265449811883092 0 0.00068596637708445403 0.042184637945705393 0 0.00050930491796382694 0.041889275360916405 0 0.00035086439126026989 0.042265449811883092 0 0.0010479509845524708 0.042084654390425275 0 0.00068596637708445403 0.042184637945705393 0 0.00050930491796382694 0.041889275360916405 0 0.0010479509845524708 0.042084654390425275 0 0.0002554133300681414 0.041489188677612275 0 0.00050930491796382694 0.041889275360916405 0 0.00050930491796382694 0.041889275360916405 0 0.00012301445702122174 0.041831643563368534 0 0.00035086439126026989 0.042265449811883092 0 -0.00014296402158901016 0.042400415308676588 0 0.00012301445702122174 0.041831643563368534 0 0.00035086439126026989 0.042265449811883092 0 -0.0022379794963156572 0.04318936743295404 0 -0.002078733002464082 0.043334558684280093 0 -0.0023879648224917958 0.043325801679464669 0 -0.0023876742352528821 0.043026794868684701 0 -0.0023879648224917958 0.043325801679464669 0 -0.0027263818695867051 0.043292244992071766 0 -0.0023876742352528821 0.043026794868684701 0 -0.0022379794963156572 0.04318936743295404 0 -0.0023879648224917958 0.043325801679464669 0 -0.0023876742352528821 0.043026794868684701 0 -0.0024248001787133154 0.042744080322388231 0 -0.002723082663800639 0.04296415182896221 0 -0.0023876742352528821 0.043026794868684701 0 -0.0024248001787133154 0.042744080322388231 0 -0.002137023523366241 0.042775517116365874 0 -0.002137023523366241 0.042775517116365874 0 -0.0020836668953065664 0.04306329732104331 0 -0.0018884263429803871 0.042847718173015185 0 -0.0023876742352528821 0.043026794868684701 0 -0.002137023523366241 0.042775517116365874 0 -0.0020836668953065664 0.04306329732104331 0 -0.0020836668953065664 0.04306329732104331 0 -0.0019472408931150761 0.043209409654711088 0 -0.002078733002464082 0.043334558684280093 0 -0.0023876742352528821 0.043026794868684701 0 -0.0020836668953065664 0.04306329732104331 0 -0.0022379794963156572 0.04318936743295404 0 -0.0020836668953065664 0.04306329732104331 0 -0.0022379794963156572 0.04318936743295404 0 -0.002078733002464082 0.043334558684280093 0 -0.00038919290189981884 0.04295456976390364 0 0.00024499590572852985 0.044753589542037307 0 -0.0016996267884955491 0.04291314902253586 0 -0.0015406384282619255 0.043213055791101337 0 -0.0014765175987643262 0.042389792878959026 0 -0.001742243911134268 0.043192095444435731 0 -0.0018320747269476632 0.043068405715891614 0 -0.0016996267884955491 0.04291314902253586 0 -0.0019472408931150761 0.043209409654711088 0 -0.001742243911134268 0.043192095444435731 0 -0.0018354177127577712 0.043328204828303761 0 -0.0019472408931150761 0.043209409654711088 0 -0.0018354177127577712 0.043328204828303761 0 -0.002078733002464082 0.043334558684280093 0 -0.0019472408931150761 0.043209409654711088 0 -0.001742243911134268 0.043192095444435731 0 -0.0018320747269476632 0.043068405715891614 0 -0.0020836668953065664 0.04306329732104331 0 -0.0019472408931150761 0.043209409654711088 0 -0.0018320747269476632 0.043068405715891614 0 -0.0018884263429803871 0.042847718173015185 0 -0.0016996267884955491 0.04291314902253586 0 -0.0017209547990896467 0.042644898913077829 0 -0.0020836668953065664 0.04306329732104331 0 -0.0018320747269476632 0.043068405715891614 0 -0.0018884263429803871 0.042847718173015185 0 -0.0018320747269476632 0.043068405715891614 0 -0.0018884263429803871 0.042847718173015185 0 -0.0016996267884955491 0.04291314902253586 0 -0.001742243911134268 0.043192095444435731 0 -0.001561270280598539 0.043355238835943423 0 -0.0018354177127577712 0.043328204828303761 0 -0.0016996267884955491 0.04291314902253586 0 -0.0015406384282619255 0.043213055791101337 0 -0.001561270280598539 0.043355238835943423 0 -0.001742243911134268 0.043192095444435731 0 -0.0016996267884955491 0.04291314902253586 0 -0.001561270280598539 0.043355238835943423 0 -0.00083523453203554617 0.041854762766641275 0 -0.0012219121064178729 0.041598117042683645 0 -0.0012677250670049076 0.041872947200579332 0 -0.00038919290189981884 0.04295456976390364 0 -0.00092675087609624227 0.042773325333121295 0 -0.0006955150597424721 0.042765059225817123 0 -0.0012677250670049076 0.041872947200579332 0 -0.0015207165370026139 0.044065645082277158 0 -0.001561270280598539 0.043355238835943423 0 -0.0018970807897147211 0.04371588874182792 0 -0.0015207165370026139 0.044065645082277158 0 -0.001561270280598539 0.043355238835943423 0 -0.0019165068691787096 0.043490095524798378 0 -0.0018354177127577712 0.043328204828303761 0 -0.001561270280598539 0.043355238835943423 0 -0.0019165068691787096 0.043490095524798378 0 -0.0018970807897147211 0.04371588874182792 0 -0.0019165068691787096 0.043490095524798378 0 -0.0018354177127577712 0.043328204828303761 0 -0.002078733002464082 0.043334558684280093 0 -0.002078733002464082 0.043334558684280093 0 -0.0021245260456830856 0.043519313048637764 0 -0.0023879648224917958 0.043325801679464669 0 -0.0019165068691787096 0.043490095524798378 0 -0.002078733002464082 0.043334558684280093 0 -0.0021245260456830856 0.043519313048637764 0 -0.0021245260456830856 0.043519313048637764 0 -0.0018970807897147211 0.04371588874182792 0 -0.0023725775794958314 0.043708828014473886 0 -0.0019165068691787096 0.043490095524798378 0 -0.0021245260456830856 0.043519313048637764 0 -0.0018970807897147211 0.04371588874182792 0 -0.0023725775794958314 0.043708828014473886 0 -0.0023879648224917958 0.043325801679464669 0 -0.002684657140054599 0.043591023847719464 0 -0.0021245260456830856 0.043519313048637764 0 -0.0023725775794958314 0.043708828014473886 0 -0.0023879648224917958 0.043325801679464669 0 -0.0018970807897147211 0.04371588874182792 0 -0.0022993800326572972 0.044191122014401903 0 -0.0015207165370026139 0.044065645082277158 0 -0.0018970807897147211 0.04371588874182792 0 -0.0023725775794958314 0.043708828014473886 0 -0.0022993800326572972 0.044191122014401903 0 -0.00092675087609624227 0.042773325333121295 0 -0.0016599700854153148 0.043952162181094476 0 -0.0015207165370026139 0.044065645082277158 0 -0.002060166605708561 0.04460576118085046 0 -0.0015896860656489402 0.044860908055800827 0 -0.0015207165370026139 0.044065645082277158 0 -0.00053136144558979591 0.044621297189261652 0 -0.0015896860656489402 0.044860908055800827 0 -0.0022993800326572972 0.044191122014401903 0 -0.0015207165370026139 0.044065645082277158 0 -0.002060166605708561 0.04460576118085046 0 -0.002060166605708561 0.04460576118085046 0 -0.002242515552517184 0.045032053835201577 0 -0.0024942629543076556 0.044701768559363246 0 -0.0022993800326572972 0.044191122014401903 0 -0.002060166605708561 0.04460576118085046 0 -0.0024942629543076556 0.044701768559363246 0 0.00047260371938820904 0.043393882331363848 0 -0.00026505029877373656 0.043672304620320276 0 0.00060310382063467536 0.044104743263048134 0 0.0011392617047700283 0.04345822312526449 0 0.00047260371938820904 0.043393882331363848 0 0.00060310382063467536 0.044104743263048134 0 0.0011392617047700283 0.04345822312526449 0 0.00081625804289334842 0.042743448775362701 0 0.00047260371938820904 0.043393882331363848 0 0.00081625804289334842 0.042743448775362701 0 0.00047260371938820904 0.043393882331363848 0 6.0163754827154821e-05 0.042878746217150765 0 0.00047260371938820904 0.043393882331363848 0 6.0163754827154821e-05 0.042878746217150765 0 -0.00026505029877373656 0.043672304620320276 0 -0.0006955150597424721 0.042765059225817123 0 6.0163754827154821e-05 0.042878746217150765 0 -0.00026505029877373656 0.043672304620320276 0 -0.0006955150597424721 0.042765059225817123 0 -0.0015207165370026139 0.044065645082277158 0 -0.00026505029877373656 0.043672304620320276 0 -0.0015207165370026139 0.044065645082277158 0 -0.00026505029877373656 0.043672304620320276 0 -0.00053136144558979591 0.044621297189261652 0 -0.00053136144558979591 0.044621297189261652 0 0.00060310382063467536 0.044104743263048134 0 0.00045172406175022394 0.045175151983352799 0 -0.00026505029877373656 0.043672304620320276 0 -0.00053136144558979591 0.044621297189261652 0 0.00060310382063467536 0.044104743263048134 0 -0.00053136144558979591 0.044621297189261652 0 0.00045172406175022394 0.045175151983352799 0 -0.000581242718864074 0.045859106236767408 0 0.00060310382063467536 0.044104743263048134 0 0.00045172406175022394 0.045175151983352799 0 0.0016802043821610936 0.044729523269719573 0 -0.00053136144558979591 0.044621297189261652 0 -0.000581242718864074 0.045859106236767408 0 -0.0015896860656489402 0.044860908055800827 0 0.00021587788872268535 0.044065029287856584 0 -0.0019331112617025977 0.045033313245157996 0 -0.00042878020970629809 0.045180546822400962 0 0.00017623167983804236 0.044831070086213176 0 0.0013818486291012943 0.045023341265845111 0 0.00045172406175022394 0.045175151983352799 0 -0.000581242718864074 0.045859106236767408 0 0.0018434434834747951 0.046009465679579684 0 0.00021587788872268535 0.044065029287856584 0 0.0025130274304210587 0.044845668139129873 0 0.0033180691555196942 0.043057322035175746 0 -0.002242515552517184 0.045032053835201577 0 -0.0015896860656489402 0.044860908055800827 0 -0.001798533485350647 0.045121363847364863 0 -0.002242515552517184 0.045032053835201577 0 -0.001798533485350647 0.045121363847364863 0 -0.0021031834494270761 0.045079631426089686 0 -0.002060166605708561 0.04460576118085046 0 -0.002242515552517184 0.045032053835201577 0 -0.0015896860656489402 0.044860908055800827 0 -0.002242515552517184 0.045032053835201577 0 -0.0021031834494270761 0.045079631426089686 0 -0.0022801707983621418 0.045149582648690373 0 -0.000581242718864074 0.045859106236767408 0 -0.0015896860656489402 0.044860908055800827 0 -0.001798533485350647 0.045121363847364863 0 -0.000581242718864074 0.045859106236767408 0 -0.001798533485350647 0.045121363847364863 0 -0.0019331112617025977 0.045033313245157996 0 0.00017623167983804236 0.044831070086213176 0 -0.0019179080090592408 0.04509309096538533 0 -0.001798533485350647 0.045121363847364863 0 -0.0019331112617025977 0.045033313245157996 0 -0.0021031834494270761 0.045079631426089686 0 -0.0019331112617025977 0.045033313245157996 0 -0.0021031834494270761 0.045079631426089686 0 -0.0021125333029762207 0.044540610433239543 0 -0.0021031834494270761 0.045079631426089686 0 -0.0021125333029762207 0.044540610433239543 0 -0.0020502681699025131 0.044933008385041134 0 -0.0019523024029537877 0.044493521424936254 0 -0.0019243256162963722 0.044278325083920433 0 -0.0019331112617025977 0.045033313245157996 0 -0.0021125333029762207 0.044540610433239543 0 -0.0014416114892483443 0.045522570327812616 0 -0.0021125333029762207 0.044540610433239543 0 -0.0022456294005700132 0.043216573064810027 0 -0.0026179066368816825 0.042945703910970655 0 -0.0019087204130704008 0.043279238974943936 0 -0.0021125333029762207 0.044540610433239543 0 -0.0016193026623775183 0.044099187893997437 0 -0.0019087204130704008 0.043279238974943936 0 -0.0021125333029762207 0.044540610433239543 0 -0.0022456294005700132 0.043216573064810027 0 -0.0019087204130704008 0.043279238974943936 0 -0.0022456294005700132 0.043216573064810027 0 -0.0021552035235692032 0.042691314858786703 0 -0.0019331112617025977 0.045033313245157996 0 -0.0014416114892483443 0.045522570327812616 0 -0.00042878020970629809 0.045180546822400962 0 -0.0022456294005700132 0.043216573064810027 0 -0.0026179066368816825 0.042945703910970655 0 -0.0023975960861690416 0.042663714970548598 0 -0.0026179066368816825 0.042945703910970655 0 -0.0024972668753417276 0.042245171352695468 0 -0.0023975960861690416 0.042663714970548598 0 -0.0024972668753417276 0.042245171352695468 0 -0.0026953758382291465 0.042203725981341859 0 -0.0025337405008457373 0.041722874106366124 0 -0.0026179066368816825 0.042945703910970655 0 -0.0024972668753417276 0.042245171352695468 0 -0.0026953758382291465 0.042203725981341859 0 -0.0024972668753417276 0.042245171352695468 0 -0.0023639169763291102 0.041660624986001531 0 -0.0025337405008457373 0.041722874106366124 0 -0.0023383686151324003 0.041143117931225999 0 -0.0023639169763291102 0.041660624986001531 0 -0.0025337405008457373 0.041722874106366124 0 -0.0022266679410318261 0.041621313780716311 0 -0.0023639169763291102 0.041660624986001531 0 -0.0023162146155634024 0.042153669967539116 0 -0.0024972668753417276 0.042245171352695468 0 -0.0023639169763291102 0.041660624986001531 0 -0.0023162146155634024 0.042153669967539116 0 -0.0024972668753417276 0.042245171352695468 0 -0.0023162146155634024 0.042153669967539116 0 -0.0023975960861690416 0.042663714970548598 0 -0.0022456294005700132 0.043216573064810027 0 -0.0023975960861690416 0.042663714970548598 0 -0.0021552035235692032 0.042691314858786703 0 -0.0023162146155634024 0.042153669967539116 0 -0.0023975960861690416 0.042663714970548598 0 -0.0021552035235692032 0.042691314858786703 0 -0.0023162146155634024 0.042153669967539116 0 -0.0021552035235692032 0.042691314858786703 0 -0.002142906569791274 0.041942304837132183 0 -0.0021552035235692032 0.042691314858786703 0 -0.002142906569791274 0.041942304837132183 0 -0.0017986582297139849 0.042320657332027355 0 -0.0022266679410318261 0.041621313780716311 0 -0.0023162146155634024 0.042153669967539116 0 -0.002142906569791274 0.041942304837132183 0 -0.0017100893514503379 0.041669381906823358 0 -0.0017986582297139849 0.042320657332027355 0 -0.0019075899063953339 0.041894968107439493 0 -0.002142906569791274 0.041942304837132183 0 -0.0017986582297139849 0.042320657332027355 0 -0.0019075899063953339 0.041894968107439493 0 -0.0019087204130704008 0.043279238974943936 0 -0.0017986582297139849 0.042320657332027355 0 -0.00142109885623053 0.04299092282969226 0 -0.0019087204130704008 0.043279238974943936 0 -0.0021552035235692032 0.042691314858786703 0 -0.0017986582297139849 0.042320657332027355 0 0.0012972255645132965 0.045560772893726162 0 0.00025619771820735812 0.046041933137936829 0 0.0022662559886233377 0.046665244231246461 0 -0.0013719266893536296 0.04438402722954736 0 -0.00049808438133813727 0.042280415433778661 0 0.00021587788872268535 0.044065029287856584 0 0.0012972255645132965 0.045560772893726162 0 0.0025130274304210587 0.044845668139129873 0 0.0012972255645132965 0.045560772893726162 0 0.0022662559886233377 0.046665244231246461 0 0.0025130274304210587 0.044845668139129873 0 -0.0026179066368816825 0.042945703910970655 0 -0.0029349649957558063 0.042433004942077877 0 -0.0026953758382291465 0.042203725981341859 0 -0.0019243256162963722 0.044278325083920433 0 -0.0013719266893536296 0.04438402722954736 0 0.0012972255645132965 0.045560772893726162 0 -0.00042878020970629809 0.045180546822400962 0 0.00025619771820735812 0.046041933137936829 0 -0.0014416114892483443 0.045522570327812616 0 -0.00042878020970629809 0.045180546822400962 0 0.00025619771820735812 0.046041933137936829 0 0.00021587788872268535 0.044065029287856584 0 0.0012972255645132965 0.045560772893726162 0 -0.00042878020970629809 0.045180546822400962 0 -0.0029349649957558063 0.042433004942077877 0 -0.0029212366932879091 0.041997204173374464 0 -0.0026953758382291465 0.042203725981341859 0 -0.0029212366932879091 0.041997204173374464 0 -0.0026953758382291465 0.042203725981341859 0 -0.0027300704515671281 0.041730962858646102 0 -0.0029349649957558063 0.042433004942077877 0 -0.0029212366932879091 0.041997204173374464 0 -0.0033499372114524396 0.041831935888014281 0 -0.0026953758382291465 0.042203725981341859 0 -0.0025337405008457373 0.041722874106366124 0 -0.0027300704515671281 0.041730962858646102 0 -0.0025622873613617776 0.04127694225948688 0 -0.0025337405008457373 0.041722874106366124 0 -0.0027300704515671281 0.041730962858646102 0 -0.0027081295015012204 0.0408071483833371 0 -0.0028499302742244787 0.041538539665510903 0 -0.0033499372114524396 0.041831935888014281 0 -0.0029212366932879091 0.041997204173374464 0 -0.0028499302742244787 0.041538539665510903 0 -0.0033499372114524396 0.041831935888014281 0 -0.0029212366932879091 0.041997204173374464 0 -0.0027300704515671281 0.041730962858646102 0 -0.0028499302742244787 0.041538539665510903 0 -0.0025622873613617776 0.04127694225948688 0 -0.0027300704515671281 0.041730962858646102 0 -0.0028499302742244787 0.041538539665510903 0 -0.0040992733498119533 0.041265010762387498 0 -0.00049808438133813727 0.042280415433778661 0 -0.0038734976593025701 0.041276291192012163 0 -0.0027081295015012204 0.0408071483833371 0 -0.0044478228239448062 0.042605756720217589 0 -0.0027081295015012204 0.0408071483833371 0 -0.0033499372114524396 0.041831935888014281 0 -0.0041966713822531717 0.042240069354725955 0 -0.0029349649957558063 0.042433004942077877 0 -0.0033499372114524396 0.041831935888014281 0 -0.0041966713822531717 0.042240069354725955 0 -0.0038734976593025701 0.041276291192012163 0 -0.0051427352836460518 0.042404101941015036 0 -0.0044478228239448062 0.042605756720217589 0 0.0025849900241693841 0.036584802549636197 0 0.00043598221630190988 0.036669574172236923 0 0.0030167317649732388 0.034532650994114004 0 -0.0023426573184143584 0.039361411146987116 0 0.0040847454896014244 0.03896393395339702 0 0.0041911486739816314 0.036292383149696988 0 0.0025849900241693841 0.036584802549636197 0 0.0030167317649732388 0.034532650994114004 0 0.0063627942277459278 0.04045637620864307 0 0.0048147129434495178 0.040049572422646923 0 0.0072042531272562297 0.038784182776886972 0 0.0040847454896014244 0.03896393395339702 0 -0.00049808438133813727 0.042280415433778661 0 0.0092448641112159707 0.037628865539744823 0 0.010577905586235259 0.036602017140799352 0 0.010934056263341568 0.038008812321099254 0 0.0041911486739816314 0.036292383149696988 0 0.0030167317649732388 0.034532650994114004 0 0.0066016214731341493 0.035446236355454026 0 0.0040847454896014244 0.03896393395339702 0 0.0090863266530863494 0.036507878834509386 0 0.0063627942277459278 0.04045637620864307 0 0.0093712281163089196 0.037916870955090894 0 0.0072042531272562297 0.038784182776886972 0 0.0040847454896014244 0.03896393395339702 0 0.010570115725217367 0.037010592133410077 0 0.0093712281163089196 0.037916870955090894 0 0.0072042531272562297 0.038784182776886972 0 0.0082128703059234 0.036709210475118277 0 0.0048147129434495178 0.040049572422646923 0 0.0072042531272562297 0.038784182776886972 0 0.0082128703059234 0.036709210475118277 0 0.0022662559886233377 0.046665244231246461 0 0.0025130274304210587 0.044845668139129873 0 0.0044980681384210455 0.04457492063968279 0 -0.00049808438133813727 0.042280415433778661 0 0.0066912353855749698 0.040216268108747247 0 0.0025130274304210587 0.044845668139129873 0 0.0033180691555196942 0.043057322035175746 0 0.0044980681384210455 0.04457492063968279 0 0.0082128703059234 0.036709210475118277 0 0.011155582275336947 0.0341854122485995 0 0.010234315055142641 0.03596630147544657 0 0.0033180691555196942 0.043057322035175746 0 0.0044980681384210455 0.04457492063968279 0 0.0070274969927909981 0.042030399792022326 0 0.0066912353855749698 0.040216268108747247 0 0.011356138633616373 0.041120998206136058 0 0.0093712281163089196 0.037916870955090894 0 0.0082128703059234 0.036709210475118277 0 0.010234315055142641 0.03596630147544657 0 0.0025397359005388757 0.043694409652759544 0 0.0035736566401704953 0.044914027703745696 0 0.0044907656006869029 0.044550462099281506 0 0.0025397359005388757 0.043694409652759544 0 0.0035736566401704953 0.044914027703745696 0 0.0016802043821610936 0.044729523269719573 0 0.0018434434834747951 0.046009465679579684 0 0.0035736566401704953 0.044914027703745696 0 0.0054739374183669365 0.045318426235417035 0 0.0013818486291012943 0.045023341265845111 0 0.011356138633616373 0.041120998206136058 0 0.0035736566401704953 0.044914027703745696 0 0.0044907656006869029 0.044550462099281506 0 0.0050287180104333883 0.044940611734986834 0 0.0018434434834747951 0.046009465679579684 0 0.0035736566401704953 0.044914027703745696 0 0.0016802043821610936 0.044729523269719573 0 0.00045172406175022394 0.045175151983352799 0 0.0018434434834747951 0.046009465679579684 0 0.0016802043821610936 0.044729523269719573 0 0.018649262460359823 0.039753428711915367 0 0.016796829158806606 0.040255673841153812 0 0.016434236838196295 0.040689475281351452 0 0.011155582275336947 0.0341854122485995 0 0.011311079276365994 0.035039393983373517 0 0.013208165635582815 0.035251738337876024 0 0.018649262460359823 0.039753428711915367 0 0.016434236838196295 0.040689475281351452 0 0.019381323063107341 0.04014305322678223 0 0.017861900462754307 0.040390662836180292 0 0.019381323063107341 0.04014305322678223 0 0.019158091492037978 0.040825307160128457 0 0.011356138633616373 0.041120998206136058 0 0.021635315642768434 0.039958116150609423 0 0.011356138633616373 0.041120998206136058 0 0.016668775472643914 0.037650098150538207 0 0.016434236838196295 0.040689475281351452 0 0.015859019026248651 0.041376145984954378 0 0.019381323063107341 0.04014305322678223 0 0.0051919315680590619 0.043675253644242962 0 0.0061540322413927559 0.044657266203404995 0 0.0053223738302581305 0.044683871702568032 0 0.015528268490878397 0.039626767804229898 0 0.016796829158806606 0.040255673841153812 0 0.016423733752549352 0.040646966212305798 0 0.014584569467074754 0.040916848885155434 0 0.013326874148690063 0.041933764970658496 0 0.0056439839212935727 0.044838759722179197 0 0.0061540322413927559 0.044657266203404995 0 0.0053223738302581305 0.044683871702568032 0 0.0055395066219457384 0.045073472633047146 0 0.0061540322413927559 0.044657266203404995 0 0.0054739374183669365 0.045318426235417035 0 0.0056439839212935727 0.044838759722179197 0 0.0055395066219457384 0.045073472633047146 0 0.0061540322413927559 0.044657266203404995 0 0.013326874148690063 0.041933764970658496 0 0.011356138633616373 0.041120998206136058 0 0.0056439839212935727 0.044838759722179197 0 0.0055395066219457384 0.045073472633047146 0 0.0053223738302581305 0.044683871702568032 0 0.0055395066219457384 0.045073472633047146 0 0.0052600053039919686 0.045069117821094754 0 0.0054739374183669365 0.045318426235417035 0 0.0035736566401704953 0.044914027703745696 0 0.0050287180104333883 0.044940611734986834 0 0.0054739374183669365 0.045318426235417035 0 0.0051919315680590619 0.043675253644242962 0 0.0044907656006869029 0.044550462099281506 0 0.0053223738302581305 0.044683871702568032 0 0.0044907656006869029 0.044550462099281506 0 0.0053223738302581305 0.044683871702568032 0 0.0050287180104333883 0.044940611734986834 0 0.0053223738302581305 0.044683871702568032 0 0.0052600053039919686 0.045069117821094754 0 0.0050287180104333883 0.044940611734986834 0 0.0055395066219457384 0.045073472633047146 0 0.0053223738302581305 0.044683871702568032 0 0.0052600053039919686 0.045069117821094754 0 0.0052600053039919686 0.045069117821094754 0 0.0050287180104333883 0.044940611734986834 0 0.0054739374183669365 0.045318426235417035 0 0.0093712281163089196 0.037916870955090894 0 0.011714971680168088 0.035686966439387555 0 0.010234315055142641 0.03596630147544657 0 0.010570115725217367 0.037010592133410077 0 0.011383834498086861 0.035952499345472719 0 0.011714971680168088 0.035686966439387555 0 0.011311079276365994 0.035039393983373517 0 0.010234315055142641 0.03596630147544657 0 0.011155582275336947 0.0341854122485995 0 0.011311079276365994 0.035039393983373517 0 0.010234315055142641 0.03596630147544657 0 0.011714971680168088 0.035686966439387555 0 0.011311079276365994 0.035039393983373517 0 0.013208165635582815 0.035251738337876024 0 0.011714971680168088 0.035686966439387555 0 0.013056177571062226 0.036243236218164838 0 0.013208165635582815 0.035251738337876024 0 0.013056177571062226 0.036243236218164838 0 0.01196752673908221 0.037028661677025794 0 0.01354850868777153 0.037282634594428071 0 0.011714971680168088 0.035686966439387555 0 0.013056177571062226 0.036243236218164838 0 0.01196752673908221 0.037028661677025794 0 0.010577905586235259 0.036602017140799352 0 0.01196752673908221 0.037028661677025794 0 0.010934056263341568 0.038008812321099254 0 0.010577905586235259 0.036602017140799352 0 0.011714971680168088 0.035686966439387555 0 0.01196752673908221 0.037028661677025794 0 0.011307214460280639 0.037430440225790722 0 0.0090863266530863494 0.036507878834509386 0 0.012567687853781333 0.038271857025076905 0 0.01196752673908221 0.037028661677025794 0 0.010934056263341568 0.038008812321099254 0 0.012567687853781333 0.038271857025076905 0 0.01196752673908221 0.037028661677025794 0 0.01354850868777153 0.037282634594428071 0 0.013809172616035491 0.038314365240465983 0 0.012567687853781333 0.038271857025076905 0 0.01354850868777153 0.037282634594428071 0 0.013056177571062226 0.036243236218164838 0 0.01354850868777153 0.037282634594428071 0 0.014766405656242517 0.035879052441843542 0 0.01354850868777153 0.037282634594428071 0 0.015101198903636462 0.037726846919792716 0 0.014766405656242517 0.035879052441843542 0 0.013809172616035491 0.038314365240465983 0 0.01354850868777153 0.037282634594428071 0 0.015101198903636462 0.037726846919792716 0 0.015101198903636462 0.037726846919792716 0 0.016902090884246657 0.038736013913289916 0 0.016622558815633341 0.03670720164485497 0 0.018347681876366227 0.03906652164640418 0 0.016902090884246657 0.038736013913289916 0 0.018911767002766741 0.038484910662064567 0 0.016902090884246657 0.038736013913289916 0 0.016622558815633341 0.03670720164485497 0 0.018911767002766741 0.038484910662064567 0 0.020493332420889344 0.03983850027885303 0 0.018911767002766741 0.038484910662064567 0 0.019718455277600001 0.040153928817134484 0 0.018487474830066273 0.038291461285928176 0 0.018808680959892094 0.03842119220519058 0 0.015101198903636462 0.037726846919792716 0 0.016622558815633341 0.03670720164485497 0 0.014766405656242517 0.035879052441843542 0 0.018487474830066273 0.038291461285928176 0 0.017452594994449025 0.038256393155536542 0 0.020493332420889344 0.03983850027885303 0 0.020435936683983049 0.040871388850091776 0 0.020546113446784763 0.04050930209186876 0 0.020493332420889344 0.03983850027885303 0 0.020546113446784763 0.04050930209186876 0 0.020400886891759035 0.040649641880180047 0 0.020493332420889344 0.03983850027885303 0 0.020435936683983049 0.040871388850091776 0 0.019718455277600001 0.040153928817134484 0 0.021357763920741357 0.042891032734952296 0 0.019682940541896638 0.041463691456918403 0 0.020141648782053604 0.043068083403657649 0 0.020435936683983049 0.040871388850091776 0 0.019718455277600001 0.040153928817134484 0 0.019682940541896638 0.041463691456918403 0 0.020836265113512782 0.041843825964035269 0 0.019638783277001953 0.041524618287367081 0 0.020836265113512782 0.041843825964035269 0 0.020943915548281504 0.041982486052700649 0 0.020435936683983049 0.040871388850091776 0 0.020546113446784763 0.04050930209186876 0 0.020469553258665896 0.040194501825676396 0 0.020546113446784763 0.04050930209186876 0 0.020103963081771467 0.040494058827178638 0 0.020469553258665896 0.040194501825676396 0 0.020103963081771467 0.040494058827178638 0 0.019381323063107341 0.04014305322678223 0 0.019158091492037978 0.040825307160128457 0 0.018649262460359823 0.039753428711915367 0 0.020469553258665896 0.040194501825676396 0 0.019381323063107341 0.04014305322678223 0 0.020103963081771467 0.040494058827178638 0 0.020469553258665896 0.040194501825676396 0 0.019381323063107341 0.04014305322678223 0 0.020103963081771467 0.040494058827178638 0 0.019158091492037978 0.040825307160128457 0 0.020400886891759035 0.040649641880180047 0 0.013056177571062226 0.036243236218164838 0 0.013208165635582815 0.035251738337876024 0 0.014766405656242517 0.035879052441843542 0 0.016668775472643914 0.037650098150538207 0 0.017452594994449025 0.038256393155536542 0 0.020546113446784763 0.04050930209186876 0 0.020103963081771467 0.040494058827178638 0 0.020400886891759035 0.040649641880180047 0 0.018897269440035013 0.039007105426784081 0 0.020044298468791796 0.039277329047976851 0 0.019511013690071608 0.038694269284772931 0 0.018897269440035013 0.039007105426784081 0 0.020044298468791796 0.039277329047976851 0 0.019189663038024728 0.039361406897460524 0 0.018742294083102073 0.03973454879886084 0 0.019189663038024728 0.039361406897460524 0 0.018740710985126221 0.039081229968348785 0 0.018897269440035013 0.039007105426784081 0 0.018740710985126221 0.039081229968348785 0 0.018422000890867592 0.039802722448774981 0 0.018897269440035013 0.039007105426784081 0 0.019189663038024728 0.039361406897460524 0 0.018740710985126221 0.039081229968348785 0 0.018740710985126221 0.039081229968348785 0 0.018881050444862598 0.038816284164717767 0 0.018901396764050078 0.039703778773468833 0 0.01909278913449099 0.039136308723949416 0 0.018740710985126221 0.039081229968348785 0 0.018881050444862598 0.038816284164717767 0 0.018347681876366227 0.03906652164640418 0 0.01909278913449099 0.039136308723949416 0 0.018881050444862598 0.038816284164717767 0 0.018897576830626133 0.039453509673747209 0 0.018786008362128813 0.039110274600952448 0 0.018347681876366227 0.03906652164640418 0 0.018881050444862598 0.038816284164717767 0 0.018911767002766741 0.038484910662064567 0 0.018881050444862598 0.038816284164717767 0 0.018911767002766741 0.038484910662064567 0 0.018901396764050078 0.039703778773468833 0 0.018911767002766741 0.038484910662064567 0 0.019718455277600001 0.040153928817134484 0 0.018901396764050078 0.039703778773468833 0 0.019718455277600001 0.040153928817134484 0 0.019682940541896638 0.041463691456918403 0 0.018901396764050078 0.039703778773468833 0 0.019682940541896638 0.041463691456918403 0 0.018401117747724974 0.041232721217754453 0 0.019092986902041795 0.042653111529647167 0 0.019682940541896638 0.041463691456918403 0 0.018901396764050078 0.039703778773468833 0 0.018401117747724974 0.041232721217754453 0 0.018740710985126221 0.039081229968348785 0 0.018901396764050078 0.039703778773468833 0 0.018422000890867592 0.039802722448774981 0 0.018901396764050078 0.039703778773468833 0 0.018422000890867592 0.039802722448774981 0 0.018401117747724974 0.041232721217754453 0 0.018422000890867592 0.039802722448774981 0 0.018401117747724974 0.041232721217754453 0 0.017277489562580538 0.040433199506170567 0 0.018340429042117874 0.039572003750139133 0 0.017845601847518201 0.039662410241104562 0 0.018401117747724974 0.041232721217754453 0 0.017277489562580538 0.040433199506170567 0 0.016624505237648718 0.042405674245213319 0 0.019767884478754574 0.038194302215756017 0 0.019290471994630333 0.038358649557375481 0 0.019448770597456089 0.037880090362271399 0 0.019767884478754574 0.038194302215756017 0 0.019290471994630333 0.038358649557375481 0 0.019511013690071608 0.038694269284772931 0 0.018748836049841965 0.039086750992681087 0 0.018340429042117874 0.039572003750139133 0 0.018897269440035013 0.039007105426784081 0 0.019290471994630333 0.038358649557375481 0 0.019511013690071608 0.038694269284772931 0 0.018897269440035013 0.039007105426784081 0 0.018422000890867592 0.039802722448774981 0 0.017277489562580538 0.040433199506170567 0 0.019774431727134594 0.037656604544514721 0 0.019550381793117362 0.037392071463099294 0 0.019448770597456089 0.037880090362271399 0 0.0207159590266714 0.04348011656090732 0 0.017845601847518201 0.039662410241104562 0 0.016304667350532653 0.044416186037360993 0 0.017160050523382951 0.043383157227149367 0 0.016624505237648718 0.042405674245213319 0 0.0207159590266714 0.04348011656090732 0 0.01905630361252874 0.043747571059357969 0 0.016304667350532653 0.044416186037360993 0 0.016613499098098668 0.044379848820744222 0 0.017007912253165683 0.0439610540087714 0 0.016613499098098668 0.044379848820744222 0 0.01716523780932391 0.044445091218355749 0 0.017007912253165683 0.0439610540087714 0 0.016304667350532653 0.044416186037360993 0 0.017007912253165683 0.0439610540087714 0 0.017160050523382951 0.043383157227149367 0 0.017160050523382951 0.043383157227149367 0 0.016624505237648718 0.042405674245213319 0 0.018030554448276379 0.042689947201531984 0 0.018401117747724974 0.041232721217754453 0 0.016624505237648718 0.042405674245213319 0 0.018030554448276379 0.042689947201531984 0 0.017160050523382951 0.043383157227149367 0 0.018030554448276379 0.042689947201531984 0 0.018024814170846604 0.043600620309424042 0 0.018030554448276379 0.042689947201531984 0 0.018024814170846604 0.043600620309424042 0 0.018721259302676107 0.043595503906893145 0 0.017007912253165683 0.0439610540087714 0 0.017160050523382951 0.043383157227149367 0 0.017737612347659366 0.044285310442579863 0 0.017160050523382951 0.043383157227149367 0 0.018024814170846604 0.043600620309424042 0 0.017737612347659366 0.044285310442579863 0 0.01716523780932391 0.044445091218355749 0 0.017737612347659366 0.044285310442579863 0 0.017143926428978912 0.045079755828777351 0 0.01716523780932391 0.044445091218355749 0 0.017007912253165683 0.0439610540087714 0 0.017737612347659366 0.044285310442579863 0 0.017737612347659366 0.044285310442579863 0 0.018431333304284411 0.044306259497990948 0 0.018299739593622941 0.045296806778531866 0 0.018024814170846604 0.043600620309424042 0 0.017737612347659366 0.044285310442579863 0 0.018431333304284411 0.044306259497990948 0 0.018431333304284411 0.044306259497990948 0 0.018721259302676107 0.043595503906893145 0 0.019197666337617925 0.044807814121342819 0 0.018721259302676107 0.043595503906893145 0 0.019727232077030955 0.043905844160987313 0 0.019197666337617925 0.044807814121342819 0 0.018024814170846604 0.043600620309424042 0 0.018431333304284411 0.044306259497990948 0 0.018721259302676107 0.043595503906893145 0 0.018030554448276379 0.042689947201531984 0 0.018721259302676107 0.043595503906893145 0 0.019092986902041795 0.042653111529647167 0 0.018401117747724974 0.041232721217754453 0 0.018030554448276379 0.042689947201531984 0 0.019092986902041795 0.042653111529647167 0 0.018721259302676107 0.043595503906893145 0 0.019092986902041795 0.042653111529647167 0 0.019727232077030955 0.043905844160987313 0 0.019092986902041795 0.042653111529647167 0 0.020141648782053604 0.043068083403657649 0 0.019727232077030955 0.043905844160987313 0 0.019682940541896638 0.041463691456918403 0 0.019092986902041795 0.042653111529647167 0 0.020141648782053604 0.043068083403657649 0 0.020141648782053604 0.043068083403657649 0 0.019727232077030955 0.043905844160987313 0 0.020762328102997114 0.044136294921176523 0 0.020218814144917153 0.044839406264511432 0 0.019727232077030955 0.043905844160987313 0 0.020762328102997114 0.044136294921176523 0 0.020218814144917153 0.044839406264511432 0 0.019727232077030955 0.043905844160987313 0 0.019197666337617925 0.044807814121342819 0 0.020218814144917153 0.044839406264511432 0 0.019982832050573843 0.045674038723670776 0 0.020903773128224508 0.045448435482684596 0 0.020218814144917153 0.044839406264511432 0 0.019982832050573843 0.045674038723670776 0 0.019197666337617925 0.044807814121342819 0 0.019982832050573843 0.045674038723670776 0 0.020042921461304541 0.046647389634123661 0 0.020806992149554275 0.046403735558652064 0 0.020042921461304541 0.046647389634123661 0 0.020806992149554275 0.046403735558652064 0 0.020704953950867026 0.047380670399704269 0 0.020042921461304541 0.046647389634123661 0 0.019152427402046378 0.047015952741348579 0 0.019984658551801263 0.047554501323055255 0 0.019982832050573843 0.045674038723670776 0 0.020042921461304541 0.046647389634123661 0 0.019213102272463388 0.045972257442322806 0 0.020042921461304541 0.046647389634123661 0 0.019152427402046378 0.047015952741348579 0 0.019213102272463388 0.045972257442322806 0 0.019152427402046378 0.047015952741348579 0 0.019213102272463388 0.045972257442322806 0 0.018423257221550644 0.046359564641601264 0 0.019213102272463388 0.045972257442322806 0 0.018299739593622941 0.045296806778531866 0 0.018423257221550644 0.046359564641601264 0 0.019213102272463388 0.045972257442322806 0 0.019197666337617925 0.044807814121342819 0 0.018299739593622941 0.045296806778531866 0 0.019982832050573843 0.045674038723670776 0 0.019213102272463388 0.045972257442322806 0 0.019197666337617925 0.044807814121342819 0 0.018431333304284411 0.044306259497990948 0 0.019197666337617925 0.044807814121342819 0 0.018299739593622941 0.045296806778531866 0 0.017737612347659366 0.044285310442579863 0 0.018299739593622941 0.045296806778531866 0 0.017143926428978912 0.045079755828777351 0 0.018299739593622941 0.045296806778531866 0 0.017580603340262013 0.046161559050171067 0 0.017143926428978912 0.045079755828777351 0 0.019152427402046378 0.047015952741348579 0 0.018423257221550644 0.046359564641601264 0 0.017823684757435381 0.047378085187611219 0 0.018299739593622941 0.045296806778531866 0 0.018423257221550644 0.046359564641601264 0 0.017580603340262013 0.046161559050171067 0 0.018423257221550644 0.046359564641601264 0 0.017580603340262013 0.046161559050171067 0 0.017823684757435381 0.047378085187611219 0 0.017580603340262013 0.046161559050171067 0 0.016144086877292647 0.046374225239729623 0 0.017823684757435381 0.047378085187611219 0 0.0207159590266714 0.04348011656090732 0 0.020911125954946756 0.046797131860310696 0 0.017580603340262013 0.046161559050171067 0 0.016144086877292647 0.046374225239729623 0 0.017143926428978912 0.045079755828777351 0 0.016329376557709677 0.044422922264498774 0 0.016144086877292647 0.046374225239729623 0 0.017143926428978912 0.045079755828777351 0 0.016329376557709677 0.044422922264498774 0 0.016613499098098668 0.044379848820744222 0 0.017143926428978912 0.045079755828777351 0 0.016613499098098668 0.044379848820744222 0 0.01716523780932391 0.044445091218355749 0 0.017143926428978912 0.045079755828777351 0 0.022113911799158118 0.04457951508794053 0 0.02218339586514529 0.04531386899573412 0 0.022444589348241291 0.044931090161083348 0 0.022113911799158118 0.04457951508794053 0 0.02218339586514529 0.04531386899573412 0 0.021777789078985688 0.045030914350404669 0 0.02218339586514529 0.04531386899573412 0 0.022444589348241291 0.044931090161083348 0 0.022532436497017503 0.045567623984073026 0 0.022677972338032412 0.045092856049191665 0 0.022444589348241291 0.044931090161083348 0 0.022532436497017503 0.045567623984073026 0 0.022677972338032412 0.045092856049191665 0 0.022444589348241291 0.044931090161083348 0 0.022691642365381952 0.044683164224696766 0 0.022113911799158118 0.04457951508794053 0 0.022444589348241291 0.044931090161083348 0 0.022450528372755768 0.044427660838383141 0 0.022444589348241291 0.044931090161083348 0 0.022450528372755768 0.044427660838383141 0 0.022691642365381952 0.044683164224696766 0 0.022107819149848076 0.0419978838342678 0 0.020943915548281504 0.041982486052700649 0 0.022770967144045862 0.044324152596071566 0 0.022184128442371939 0.043803038256446054 0 0.022450528372755768 0.044427660838383141 0 0.022770967144045862 0.044324152596071566 0 0.022450528372755768 0.044427660838383141 0 0.022691642365381952 0.044683164224696766 0 0.022184128442371939 0.043803038256446054 0 0.022113911799158118 0.04457951508794053 0 0.022450528372755768 0.044427660838383141 0 0.022184128442371939 0.043803038256446054 0 0.022113911799158118 0.04457951508794053 0 0.021558453130242759 0.044077572640954792 0 0.021357763920741357 0.042891032734952296 0 0.022184128442371939 0.043803038256446054 0 0.021558453130242759 0.044077572640954792 0 0.021357763920741357 0.042891032734952296 0 0.020141648782053604 0.043068083403657649 0 0.020762328102997114 0.044136294921176523 0 0.021357763920741357 0.042891032734952296 0 0.021558453130242759 0.044077572640954792 0 0.020762328102997114 0.044136294921176523 0 0.020218814144917153 0.044839406264511432 0 0.020762328102997114 0.044136294921176523 0 0.020903773128224508 0.045448435482684596 0 0.021558453130242759 0.044077572640954792 0 0.020762328102997114 0.044136294921176523 0 0.021310549843571124 0.044850843419272098 0 0.020762328102997114 0.044136294921176523 0 0.021310549843571124 0.044850843419272098 0 0.020903773128224508 0.045448435482684596 0 0.022113911799158118 0.04457951508794053 0 0.021558453130242759 0.044077572640954792 0 0.021777789078985688 0.045030914350404669 0 0.021558453130242759 0.044077572640954792 0 0.021310549843571124 0.044850843419272098 0 0.021777789078985688 0.045030914350404669 0 0.021310549843571124 0.044850843419272098 0 0.021777789078985688 0.045030914350404669 0 0.021563107115148677 0.045630073963601143 0 0.021777789078985688 0.045030914350404669 0 0.021563107115148677 0.045630073963601143 0 0.021938752929788863 0.045674443375483723 0 0.021310549843571124 0.044850843419272098 0 0.021563107115148677 0.045630073963601143 0 0.020903773128224508 0.045448435482684596 0 0.021563107115148677 0.045630073963601143 0 0.020903773128224508 0.045448435482684596 0 0.021445811362349524 0.046426751635989673 0 0.021563107115148677 0.045630073963601143 0 0.021445811362349524 0.046426751635989673 0 0.0218738851192763 0.046299908528364485 0 0.021563107115148677 0.045630073963601143 0 0.0218738851192763 0.046299908528364485 0 0.021938752929788863 0.045674443375483723 0 0.019982832050573843 0.045674038723670776 0 0.020903773128224508 0.045448435482684596 0 0.020806992149554275 0.046403735558652064 0 0.020903773128224508 0.045448435482684596 0 0.020806992149554275 0.046403735558652064 0 0.021445811362349524 0.046426751635989673 0 0.020806992149554275 0.046403735558652064 0 0.021269021403050613 0.046942032129655073 0 0.021445811362349524 0.046426751635989673 0 0.020806992149554275 0.046403735558652064 0 0.021269021403050613 0.046942032129655073 0 0.020704953950867026 0.047380670399704269 0 0.021445811362349524 0.046426751635989673 0 0.021737822649701394 0.046776125240726822 0 0.0218738851192763 0.046299908528364485 0 0.021445811362349524 0.046426751635989673 0 0.021737822649701394 0.046776125240726822 0 0.021641724613484854 0.047243403449068307 0 0.021269021403050613 0.046942032129655073 0 0.021445811362349524 0.046426751635989673 0 0.021641724613484854 0.047243403449068307 0 0.021737822649701394 0.046776125240726822 0 0.021901317983104407 0.047028746927443417 0 0.021641724613484854 0.047243403449068307 0 0.021901317983104407 0.047028746927443417 0 0.022087125385601172 0.046644124859222751 0 0.0218738851192763 0.046299908528364485 0 0.021737822649701394 0.046776125240726822 0 0.021901317983104407 0.047028746927443417 0 0.0218738851192763 0.046299908528364485 0 0.021901317983104407 0.047028746927443417 0 0.022087125385601172 0.046644124859222751 0 0.022026373916839984 0.047257304668558799 0 0.022087125385601172 0.046644124859222751 0 0.0218738851192763 0.046299908528364485 0 0.022215221133827557 0.04607019346561067 0 0.0218738851192763 0.046299908528364485 0 0.022215221133827557 0.04607019346561067 0 0.021938752929788863 0.045674443375483723 0 0.02218339586514529 0.04531386899573412 0 0.022215221133827557 0.04607019346561067 0 0.021938752929788863 0.045674443375483723 0 0.02218339586514529 0.04531386899573412 0 0.021777789078985688 0.045030914350404669 0 0.021938752929788863 0.045674443375483723 0 0.02218339586514529 0.04531386899573412 0 0.022215221133827557 0.04607019346561067 0 0.022532436497017503 0.045567623984073026 0 0.022215221133827557 0.04607019346561067 0 0.022532436497017503 0.045567623984073026 0 0.022507561999808034 0.046149574714507799 0 0.022773104217057947 0.045930606402399807 0 0.022532436497017503 0.045567623984073026 0 0.022507561999808034 0.046149574714507799 0 0.02271430701464636 0.046452452241804235 0 0.022507561999808034 0.046149574714507799 0 0.022318731410468435 0.046706635592579947 0 0.022087125385601172 0.046644124859222751 0 0.022215221133827557 0.04607019346561067 0 0.022318731410468435 0.046706635592579947 0 0.022215221133827557 0.04607019346561067 0 0.022507561999808034 0.046149574714507799 0 0.022318731410468435 0.046706635592579947 0 0.022087125385601172 0.046644124859222751 0 0.022318731410468435 0.046706635592579947 0 0.022026373916839984 0.047257304668558799 0 0.022318731410468435 0.046706635592579947 0 0.022215236653889681 0.047388783210558706 0 0.022602535100252081 0.047063511759868344 0 0.022318731410468435 0.046706635592579947 0 0.022215236653889681 0.047388783210558706 0 0.022026373916839984 0.047257304668558799 0 0.022215236653889681 0.047388783210558706 0 0.021938050632660834 0.047774623090749431 0 0.022026373916839984 0.047257304668558799 0 0.022026928529194297 0.047933760302185505 0 0.021938050632660834 0.047774623090749431 0 0.02164605269566754 0.048155996325204224 0 0.022215236653889681 0.047388783210558706 0 0.022026928529194297 0.047933760302185505 0 0.021938050632660834 0.047774623090749431 0 0.021938050632660834 0.047774623090749431 0 0.021738977769057418 0.048008711504216199 0 0.02164605269566754 0.048155996325204224 0 0.022026928529194297 0.047933760302185505 0 0.02164605269566754 0.048155996325204224 0 0.022202502623902651 0.048230732840972484 0 0.021826784248574458 0.047783772248349322 0 0.021808467653907104 0.047634966266471693 0 0.021733648431463547 0.048001865046739575 0 0.021738977769057418 0.048008711504216199 0 0.021826784248574458 0.047783772248349322 0 0.021733648431463547 0.048001865046739575 0 0.021938050632660834 0.047774623090749431 0 0.021738977769057418 0.048008711504216199 0 0.021826784248574458 0.047783772248349322 0 0.021938050632660834 0.047774623090749431 0 0.021826784248574458 0.047783772248349322 0 0.022026373916839984 0.047257304668558799 0 0.021826784248574458 0.047783772248349322 0 0.022026373916839984 0.047257304668558799 0 0.021808467653907104 0.047634966266471693 0 0.021901317983104407 0.047028746927443417 0 0.022026373916839984 0.047257304668558799 0 0.021808467653907104 0.047634966266471693 0 0.021901317983104407 0.047028746927443417 0 0.021641724613484854 0.047243403449068307 0 0.021808467653907104 0.047634966266471693 0 0.021641724613484854 0.047243403449068307 0 0.021351938190357779 0.047612316549764749 0 0.021802447163545898 0.048032560215153321 0 0.021641724613484854 0.047243403449068307 0 0.021808467653907104 0.047634966266471693 0 0.021802447163545898 0.048032560215153321 0 0.021269021403050613 0.046942032129655073 0 0.021641724613484854 0.047243403449068307 0 0.021351938190357779 0.047612316549764749 0 0.021269021403050613 0.046942032129655073 0 0.021351938190357779 0.047612316549764749 0 0.020704953950867026 0.047380670399704269 0 0.021351938190357779 0.047612316549764749 0 0.021242443935532342 0.048346682429619474 0 0.021802447163545898 0.048032560215153321 0 0.021351938190357779 0.047612316549764749 0 0.021242443935532342 0.048346682429619474 0 0.020704953950867026 0.047380670399704269 0 0.021242443935532342 0.048346682429619474 0 0.021075981498005426 0.049192540591529707 0 0.020514406858278163 0.048395094811829756 0 0.021242443935532342 0.048346682429619474 0 0.021802447163545898 0.048032560215153321 0 0.021994198548587071 0.049625035098970767 0 0.021075981498005426 0.049192540591529707 0 0.021994198548587071 0.049625035098970767 0 0.021169304622871192 0.050063118844674105 0 0.021242443935532342 0.048346682429619474 0 0.021075981498005426 0.049192540591529707 0 0.021994198548587071 0.049625035098970767 0 0.021802447163545898 0.048032560215153321 0 0.021733648431463547 0.048001865046739575 0 0.021681558150638564 0.048041109359720995 0 0.021808467653907104 0.047634966266471693 0 0.021802447163545898 0.048032560215153321 0 0.021733648431463547 0.048001865046739575 0 0.021790023652790542 0.048372974437134904 0 0.021972356153312601 0.048435636620000326 0 0.018437082056223904 0.052166676097325317 0 0.019817500174494917 0.051902146868968269 0 0.021723497030243132 0.048070407813387006 0 0.021681558150638564 0.048041109359720995 0 0.021614611531584168 0.04815891249186089 0 0.021733648431463547 0.048001865046739575 0 0.021723497030243132 0.048070407813387006 0 0.021681558150638564 0.048041109359720995 0 0.015468925681792681 0.056189424676525927 0 0.017249892165524288 0.055865155581630702 0 0.016298567186762897 0.055441053739888557 0 0.021994198548587071 0.049625035098970767 0 0.021430677422704998 0.050634066177249547 0 0.021169304622871192 0.050063118844674105 0 0.021994198548587071 0.049625035098970767 0 0.021756899155597371 0.051143865011896529 0 0.021430677422704998 0.050634066177249547 0 0.021972356153312601 0.048435636620000326 0 0.019817500174494917 0.051902146868968269 0 0.021756899155597371 0.051143865011896529 0 0.021430677422704998 0.050634066177249547 0 0.02147374004861444 0.051235340948857837 0 0.019817500174494917 0.051902146868968269 0 0.019477636630479356 0.053629642063206459 0 0.017249892165524288 0.055865155581630702 0 0.017079833385841649 0.055000765106147001 0 0.018069303426220245 0.054227188550078638 0 0.021647540736463564 0.051188347053536795 0 0.02147374004861444 0.051235340948857837 0 0.021164990620808444 0.052410039611701383 0 0.019817500174494917 0.051902146868968269 0 0.020476935423687368 0.051705774029409193 0 0.017249892165524288 0.055865155581630702 0 0.017079833385841649 0.055000765106147001 0 0.016298567186762897 0.055441053739888557 0 0.017079833385841649 0.055000765106147001 0 0.016298567186762897 0.055441053739888557 0 0.016692280530162917 0.054476489820061078 0 0.015468925681792681 0.056189424676525927 0 0.016298567186762897 0.055441053739888557 0 0.01533947681404328 0.055121952467937101 0 0.016298567186762897 0.055441053739888557 0 0.01533947681404328 0.055121952467937101 0 0.016692280530162917 0.054476489820061078 0 0.01533947681404328 0.055121952467937101 0 0.014328258258289603 0.055644859028000572 0 0.013387853351778856 0.05492556738632403 0 0.015468925681792681 0.056189424676525927 0 0.01533947681404328 0.055121952467937101 0 0.014328258258289603 0.055644859028000572 0 0.013387853351778856 0.05492556738632403 0 0.013477201780843398 0.055665753630115576 0 0.012740507131890568 0.055584003223279714 0 0.014328258258289603 0.055644859028000572 0 0.013387853351778856 0.05492556738632403 0 0.013477201780843398 0.055665753630115576 0 0.013477201780843398 0.055665753630115576 0 0.014036794646777682 0.056203333854978561 0 0.013020583303933256 0.055791005580208414 0 0.014328258258289603 0.055644859028000572 0 0.013477201780843398 0.055665753630115576 0 0.014036794646777682 0.056203333854978561 0 0.018437082056223904 0.052166676097325317 0 0.018340261412517933 0.052047743230792087 0 0.021738977769057418 0.048008711504216199 0 0.021723497030243132 0.048070407813387006 0 0.02164605269566754 0.048155996325204224 0 0.015468925681792681 0.056189424676525927 0 0.014328258258289603 0.055644859028000572 0 0.014036794646777682 0.056203333854978561 0 0.021738977769057418 0.048008711504216199 0 0.021733648431463547 0.048001865046739575 0 0.021723497030243132 0.048070407813387006 0 0.015912872931751094 0.048356644332326199 0 0.018197755765791739 0.048746791085941529 0 0.017798199268171156 0.05029492861379177 0 0.015912872931751094 0.048356644332326199 0 0.015627548704914763 0.050594337843256496 0 0.017798199268171156 0.05029492861379177 0 0.015912872931751094 0.048356644332326199 0 0.016144086877292647 0.046374225239729623 0 0.017823684757435381 0.047378085187611219 0 0.015912872931751094 0.048356644332326199 0 0.017823684757435381 0.047378085187611219 0 0.018197755765791739 0.048746791085941529 0 0.017823684757435381 0.047378085187611219 0 0.018197755765791739 0.048746791085941529 0 0.019424460751368413 0.048365247738979079 0 0.018197755765791739 0.048746791085941529 0 0.019634369847715702 0.049972403263435446 0 0.017798199268171156 0.05029492861379177 0 0.019424460751368413 0.048365247738979079 0 0.020515068042263256 0.049587016792308244 0 0.019634369847715702 0.049972403263435446 0 0.018197755765791739 0.048746791085941529 0 0.019424460751368413 0.048365247738979079 0 0.019634369847715702 0.049972403263435446 0 0.019152427402046378 0.047015952741348579 0 0.019424460751368413 0.048365247738979079 0 0.019984658551801263 0.047554501323055255 0 0.019152427402046378 0.047015952741348579 0 0.017823684757435381 0.047378085187611219 0 0.019424460751368413 0.048365247738979079 0 0.019424460751368413 0.048365247738979079 0 0.019984658551801263 0.047554501323055255 0 0.020514406858278163 0.048395094811829756 0 0.020042921461304541 0.046647389634123661 0 0.019984658551801263 0.047554501323055255 0 0.020704953950867026 0.047380670399704269 0 0.019984658551801263 0.047554501323055255 0 0.020704953950867026 0.047380670399704269 0 0.020514406858278163 0.048395094811829756 0 0.021242443935532342 0.048346682429619474 0 0.020704953950867026 0.047380670399704269 0 0.020514406858278163 0.048395094811829756 0 0.021075981498005426 0.049192540591529707 0 0.020514406858278163 0.048395094811829756 0 0.020515068042263256 0.049587016792308244 0 0.019424460751368413 0.048365247738979079 0 0.020514406858278163 0.048395094811829756 0 0.020515068042263256 0.049587016792308244 0 0.021075981498005426 0.049192540591529707 0 0.020515068042263256 0.049587016792308244 0 0.021169304622871192 0.050063118844674105 0 0.020515068042263256 0.049587016792308244 0 0.020877886261685651 0.051112288896188782 0 0.019634369847715702 0.049972403263435446 0 0.020515068042263256 0.049587016792308244 0 0.021169304622871192 0.050063118844674105 0 0.020877886261685651 0.051112288896188782 0 0.021430677422704998 0.050634066177249547 0 0.02147374004861444 0.051235340948857837 0 0.020877886261685651 0.051112288896188782 0 0.021430677422704998 0.050634066177249547 0 0.021169304622871192 0.050063118844674105 0 0.020877886261685651 0.051112288896188782 0 0.02147374004861444 0.051235340948857837 0 0.020877886261685651 0.051112288896188782 0 0.021164990620808444 0.052410039611701383 0 0.020877886261685651 0.051112288896188782 0 0.020363031092330015 0.052110803108953274 0 0.021164990620808444 0.052410039611701383 0 0.020363031092330015 0.052110803108953274 0 0.019634369847715702 0.049972403263435446 0 0.017798199268171156 0.05029492861379177 0 0.020877886261685651 0.051112288896188782 0 0.020363031092330015 0.052110803108953274 0 0.019634369847715702 0.049972403263435446 0 0.020363031092330015 0.052110803108953274 0 0.022425151829036628 0.053296663023637732 0 0.021309385167791909 0.05242829390363677 0 0.020782706920640218 0.052168401225838289 0 0.019305309940622968 0.053078042276528237 0 0.020363031092330015 0.052110803108953274 0 0.017798199268171156 0.05029492861379177 0 0.017606609900237342 0.05253739553590217 0 0.015627548704914763 0.050594337843256496 0 0.015407054106849118 0.052961700338551194 0 0.017606609900237342 0.05253739553590217 0 0.023136957466650648 0.051637014421571904 0 0.019305309940622968 0.053078042276528237 0 0.015627548704914763 0.050594337843256496 0 0.017798199268171156 0.05029492861379177 0 0.017606609900237342 0.05253739553590217 0 0.023425503090892912 0.052541504287665311 0 0.022269682393475702 0.052428245809521497 0 0.022894561374437607 0.05187740992854438 0 0.023425503090892912 0.052541504287665311 0 0.022894561374437607 0.05187740992854438 0 0.024165812346759508 0.051977023182629561 0 0.024118624198863996 0.053366420383319534 0 0.022425151829036628 0.053296663023637732 0 0.023425503090892912 0.052541504287665311 0 0.022425151829036628 0.053296663023637732 0 0.023425503090892912 0.052541504287665311 0 0.022269682393475702 0.052428245809521497 0 0.022425151829036628 0.053296663023637732 0 0.022269682393475702 0.052428245809521497 0 0.021309385167791909 0.05242829390363677 0 0.022269682393475702 0.052428245809521497 0 0.0218711321307309 0.052148738106439052 0 0.021309385167791909 0.05242829390363677 0 0.022269682393475702 0.052428245809521497 0 0.0218711321307309 0.052148738106439052 0 0.022894561374437607 0.05187740992854438 0 0.0218711321307309 0.052148738106439052 0 0.022024502002392664 0.051617343681744289 0 0.022894561374437607 0.05187740992854438 0 0.021302619340512585 0.052230206666253463 0 0.021105827771515137 0.052393611456736343 0 0.021142706746746558 0.052199827324290668 0 0.0218711321307309 0.052148738106439052 0 0.021511431121739689 0.05182940279730186 0 0.022024502002392664 0.051617343681744289 0 0.0218711321307309 0.052148738106439052 0 0.021511431121739689 0.05182940279730186 0 0.021302619340512585 0.052230206666253463 0 0.021511431121739689 0.05182940279730186 0 0.021302619340512585 0.052230206666253463 0 0.020984410539272937 0.05191645302091525 0 0.021093139766446372 0.052429136861860029 0 0.020272288103460198 0.052362366433080385 0 0.0218711321307309 0.052148738106439052 0 0.021302619340512585 0.052230206666253463 0 0.021309385167791909 0.05242829390363677 0 0.020363031092330015 0.052110803108953274 0 0.021309385167791909 0.05242829390363677 0 0.021105827771515137 0.052393611456736343 0 0.021302619340512585 0.052230206666253463 0 0.021309385167791909 0.05242829390363677 0 0.021105827771515137 0.052393611456736343 0 0.021105827771515137 0.052393611456736343 0 0.021164990620808444 0.052410039611701383 0 0.021142706746746558 0.052199827324290668 0 0.020363031092330015 0.052110803108953274 0 0.021105827771515137 0.052393611456736343 0 0.021164990620808444 0.052410039611701383 0 0.019477636630479356 0.053629642063206459 0 0.020272288103460198 0.052362366433080385 0 0.018069303426220245 0.054227188550078638 0 0.018869282056433612 0.052604042690260616 0 0.017780121372987345 0.053105157723798015 0 0.020113892338202773 0.053300592174073264 0 0.019748735894869716 0.051244406237392799 0 0.020873188535596103 0.051654682767793204 0 0.018869282056433612 0.052604042690260616 0 0.017780121372987345 0.053105157723798015 0 0.017712759448023131 0.051378791792713444 0 0.020113892338202773 0.053300592174073264 0 0.019748735894869716 0.051244406237392799 0 0.018416317727142865 0.05165764625807559 0 0.020272288103460198 0.052362366433080385 0 0.017977339557699024 0.051544670251873197 0 0.019174933305109849 0.049999989051472876 0 0.019748735894869716 0.051244406237392799 0 0.018416317727142865 0.05165764625807559 0 0.019174933305109849 0.049999989051472876 0 0.019748735894869716 0.051244406237392799 0 0.021646468431597374 0.049999994957180736 0 0.019748735894869716 0.051244406237392799 0 0.021646468431597374 0.049999994957180736 0 0.020873188535596103 0.051654682767793204 0 0.021646387124713576 0.050000336574323949 0 0.021097229580233773 0.051372082870955932 0 0.021647529346114903 0.04999973223849085 0 0.021328051261436633 0.051085672659233694 0 0.022632509440587638 0.051035527240917929 0 0.021511431121739689 0.05182940279730186 0 0.020984410539272937 0.05191645302091525 0 0.021328051261436633 0.051085672659233694 0 0.021328051261436633 0.051085672659233694 0 0.022024502002392664 0.051617343681744289 0 0.022632509440587638 0.051035527240917929 0 0.020272288103460198 0.052362366433080385 0 0.021097229580233773 0.051372082870955932 0 0.021511431121739689 0.05182940279730186 0 0.021328051261436633 0.051085672659233694 0 0.022024502002392664 0.051617343681744289 0 0.022024502002392664 0.051617343681744289 0 0.022894561374437607 0.05187740992854438 0 0.022632509440587638 0.051035527240917929 0 0.021647529346114903 0.04999973223849085 0 0.022632509440587638 0.051035527240917929 0 0.024424491642295862 0.049999647115325029 0 0.025727983953340309 0.051682862798006622 0 0.024424491642295862 0.049999647115325029 0 0.023933455462564202 0.05127896154161854 0 0.022632509440587638 0.051035527240917929 0 0.024424491642295862 0.049999647115325029 0 0.023933455462564202 0.05127896154161854 0 0.022894561374437607 0.05187740992854438 0 0.024165812346759508 0.051977023182629561 0 0.023933455462564202 0.05127896154161854 0 0.022894561374437607 0.05187740992854438 0 0.022632509440587638 0.051035527240917929 0 0.023933455462564202 0.05127896154161854 0 0.014719695753935084 0.05362931851819893 0 0.013939749268142032 0.051897513629783718 0 0.014585239107767742 0.053653753824131213 0 0.012777215668467148 0.053181516452398304 0 0.013818822253619502 0.051918786540005084 0 0.013387853351778856 0.05492556738632403 0 0.014585239107767742 0.053653753824131213 0 0.012777215668467148 0.053181516452398304 0 0.015300136064627377 0.055042396779016789 0 0.014719695753935084 0.05362931851819893 0 0.01533947681404328 0.055121952467937101 0 0.013387853351778856 0.05492556738632403 0 0.014585239107767742 0.053653753824131213 0 0.01533947681404328 0.055121952467937101 0 0.014846487664770628 0.053551980449385389 0 0.01581812273052571 0.054042010950039195 0 0.01581812273052571 0.054042010950039195 0 0.016692280530162917 0.054476489820061078 0 0.016411596207471676 0.0530227918751697 0 0.01533947681404328 0.055121952467937101 0 0.01581812273052571 0.054042010950039195 0 0.016692280530162917 0.054476489820061078 0 0.018069303426220245 0.054227188550078638 0 0.016692280530162917 0.054476489820061078 0 0.017780121372987345 0.053105157723798015 0 0.017079833385841649 0.055000765106147001 0 0.018069303426220245 0.054227188550078638 0 0.016692280530162917 0.054476489820061078 0 0.017780121372987345 0.053105157723798015 0 0.016411596207471676 0.0530227918751697 0 0.017712759448023131 0.051378791792713444 0 0.016692280530162917 0.054476489820061078 0 0.017780121372987345 0.053105157723798015 0 0.016411596207471676 0.0530227918751697 0 0.014846487664770628 0.053551980449385389 0 0.01581812273052571 0.054042010950039195 0 0.016411596207471676 0.0530227918751697 0 0.014846487664770628 0.053551980449385389 0 0.016411596207471676 0.0530227918751697 0 0.015800573547344175 0.051716629610598808 0 0.016411596207471676 0.0530227918751697 0 0.015800573547344175 0.051716629610598808 0 0.017712759448023131 0.051378791792713444 0 0.017977339557699024 0.051544670251873197 0 0.016703630664201875 0.050000305720892965 0 0.019174933305109849 0.049999989051472876 0 0.018416317727142865 0.05165764625807559 0 0.016703366376861123 0.049999997734166621 0 0.015800573547344175 0.051716629610598808 0 0.017712759448023131 0.051378791792713444 0 0.016702296128706873 0.050000101450948478 0 0.015800573547344175 0.051716629610598808 0 0.016702296128706873 0.050000101450948478 0 0.014868756106002612 0.049999875576748849 0 0.015800573547344175 0.051716629610598808 0 0.014868756106002612 0.049999875576748849 0 0.014088905197901304 0.051916400607043063 0 0.014846487664770628 0.053551980449385389 0 0.015800573547344175 0.051716629610598808 0 0.014088905197901304 0.051916400607043063 0 0.012777215668467148 0.053181516452398304 0 0.013818822253619502 0.051918786540005084 0 0.012055892415849241 0.051453932131516174 0 0.014868756106002612 0.049999875576748849 0 0.014088905197901304 0.051916400607043063 0 0.013033921462834407 0.04999994485283174 0 0.013939749268142032 0.051897513629783718 0 0.013033864318980933 0.050000350470158078 0 0.013818822253619502 0.051918786540005084 0 0.013033449982028666 0.049999831005768762 0 0.012055892415849241 0.051453932131516174 0 0.01011699702514786 0.049999782620403062 0 0.012055892415849241 0.051453932131516174 0 0.010902339414205726 0.052641669485545557 0 0.01011699702514786 0.049999782620403062 0 0.0086311050213857578 0.052010980219879155 0 0.010902339414205726 0.052641669485545557 0 0.013033449982028666 0.049999831005768762 0 0.01011699702514786 0.049999782620403062 0 0.012055892415849241 0.051453932131516174 0 0.012777215668467148 0.053181516452398304 0 0.012055892415849241 0.051453932131516174 0 0.010902339414205726 0.052641669485545557 0 0.0071998640514088783 0.049999782215617829 0 0.0086311050213857578 0.052010980219879155 0 0.006475229697404705 0.051762673959620295 0 0.01011699702514786 0.049999782620403062 0 0.0071998640514088783 0.049999782215617829 0 0.0086311050213857578 0.052010980219879155 0 0.0086311050213857578 0.052010980219879155 0 0.006475229697404705 0.051762673959620295 0 0.0078281084791781697 0.053852286567692011 0 0.006475229697404705 0.051762673959620295 0 0.0078281084791781697 0.053852286567692011 0 0.0059352278266735833 0.053695240183480035 0 0.0086311050213857578 0.052010980219879155 0 0.0078281084791781697 0.053852286567692011 0 0.0099418729843077334 0.054093154468480974 0 0.0078281084791781697 0.053852286567692011 0 0.0099418729843077334 0.054093154468480974 0 0.0085240956663212505 0.055729489732908109 0 0.0078281084791781697 0.053852286567692011 0 0.0067057363039470077 0.055167212858278622 0 0.0059352278266735833 0.053695240183480035 0 0.0078281084791781697 0.053852286567692011 0 0.0085240956663212505 0.055729489732908109 0 0.0067057363039470077 0.055167212858278622 0 0.012777215668467148 0.053181516452398304 0 0.010902339414205726 0.052641669485545557 0 0.011759769874742206 0.054127326306595155 0 0.0086311050213857578 0.052010980219879155 0 0.010902339414205726 0.052641669485545557 0 0.0099418729843077334 0.054093154468480974 0 0.010902339414205726 0.052641669485545557 0 0.0099418729843077334 0.054093154468480974 0 0.011759769874742206 0.054127326306595155 0 0.0099418729843077334 0.054093154468480974 0 0.011874866424738803 0.055471004109845602 0 0.0085240956663212505 0.055729489732908109 0 0.0099418729843077334 0.054093154468480974 0 0.011759769874742206 0.054127326306595155 0 0.011874866424738803 0.055471004109845602 0 0.013387853351778856 0.05492556738632403 0 0.011759769874742206 0.054127326306595155 0 0.011874866424738803 0.055471004109845602 0 0.013387853351778856 0.05492556738632403 0 0.012777215668467148 0.053181516452398304 0 0.011759769874742206 0.054127326306595155 0 0.012740507131890568 0.055584003223279714 0 0.012410267197923288 0.055593530022540416 0 0.011874866424738803 0.055471004109845602 0 0.013387853351778856 0.05492556738632403 0 0.012740507131890568 0.055584003223279714 0 0.011874866424738803 0.055471004109845602 0 0.018340261412517933 0.052047743230792087 0 0.015682296229939725 0.052739289018544182 0 0.014036794646777682 0.056203333854978561 0 0.013020583303933256 0.055791005580208414 0 0.013198677619860388 0.055995812894019836 0 0.013477201780843398 0.055665753630115576 0 0.012740507131890568 0.055584003223279714 0 0.013020583303933256 0.055791005580208414 0 0.012740507131890568 0.055584003223279714 0 0.013020583303933256 0.055791005580208414 0 0.012410267197923288 0.055593530022540416 0 0.01294421659419932 0.056357670282687872 0 0.015682296229939725 0.052739289018544182 0 0.013020583303933256 0.055791005580208414 0 0.012410267197923288 0.055593530022540416 0 0.012551649939999507 0.05557391978250277 0 0.012410267197923288 0.055593530022540416 0 0.012551649939999507 0.05557391978250277 0 0.012648098134202696 0.054828009253634118 0 0.012410267197923288 0.055593530022540416 0 0.012877355783249354 0.055606247669440403 0 0.012648098134202696 0.054828009253634118 0 0.012410267197923288 0.055593530022540416 0 0.011874866424738803 0.055471004109845602 0 0.012877355783249354 0.055606247669440403 0 0.011903987429715502 0.055559670217079346 0 0.01109223623734327 0.056379936406947211 0 0.011874866424738803 0.055471004109845602 0 0.0085240956663212505 0.055729489732908109 0 0.009367294881743371 0.057490542351479691 0 0.0085240956663212505 0.055729489732908109 0 0.0081848207891722195 0.05686947927670731 0 0.009367294881743371 0.057490542351479691 0 0.0085240956663212505 0.055729489732908109 0 0.0070711608570622735 0.056813563058596868 0 0.0067057363039470077 0.055167212858278622 0 0.0085240956663212505 0.055729489732908109 0 0.0070711608570622735 0.056813563058596868 0 0.0081848207891722195 0.05686947927670731 0 0.0078385397725390417 0.057594317111209201 0 0.009367294881743371 0.057490542351479691 0 0.0073797586909996448 0.058756163487723161 0 0.0070711608570622735 0.056813563058596868 0 0.0081848207891722195 0.05686947927670731 0 0.0078385397725390417 0.057594317111209201 0 0.0070711608570622735 0.056813563058596868 0 0.0078385397725390417 0.057594317111209201 0 0.0071026522281151996 0.057896532592214701 0 0.0081848207891722195 0.05686947927670731 0 0.0078385397725390417 0.057594317111209201 0 0.009367294881743371 0.057490542351479691 0 0.014041083096491602 0.053902177726770042 0 0.012222350987243608 0.054522563933648224 0 0.01109223623734327 0.056379936406947211 0 0.011258833754576481 0.056996155144962597 0 0.012877355783249354 0.055606247669440403 0 0.013828134086584344 0.053934419978438855 0 0.012648098134202696 0.054828009253634118 0 0.013828134086584344 0.053934419978438855 0 0.01331769643506789 0.053465536160322319 0 0.012958458209530455 0.053764333690543543 0 0.013828134086584344 0.053934419978438855 0 0.01383279950321421 0.053366636564031428 0 0.01331769643506789 0.053465536160322319 0 0.012877355783249354 0.055606247669440403 0 0.013828134086584344 0.053934419978438855 0 0.014288454774031017 0.054099292864087711 0 0.0078385397725390417 0.057594317111209201 0 0.0071026522281151996 0.057896532592214701 0 0.0073797586909996448 0.058756163487723161 0 0.0071026522281151996 0.057896532592214701 0 0.0073797586909996448 0.058756163487723161 0 0.0067190352377317119 0.058432148967237703 0 0.013828134086584344 0.053934419978438855 0 0.014057609522060961 0.053694118705613511 0 0.01383279950321421 0.053366636564031428 0 0.013828134086584344 0.053934419978438855 0 0.014057609522060961 0.053694118705613511 0 0.014288454774031017 0.054099292864087711 0 0.014057609522060961 0.053694118705613511 0 0.014288454774031017 0.054099292864087711 0 0.014273692399125376 0.053386531224082691 0 0.014288454774031017 0.054099292864087711 0 0.014273692399125376 0.053386531224082691 0 0.014681131741932517 0.053155283487271207 0 0.014273692399125376 0.053386531224082691 0 0.014451929600685707 0.053050231009746353 0 0.014681131741932517 0.053155283487271207 0 0.014273692399125376 0.053386531224082691 0 0.014069722590848118 0.052860287333485856 0 0.014451929600685707 0.053050231009746353 0 0.014273692399125376 0.053386531224082691 0 0.01383279950321421 0.053366636564031428 0 0.014069722590848118 0.052860287333485856 0 0.014057609522060961 0.053694118705613511 0 0.014273692399125376 0.053386531224082691 0 0.01383279950321421 0.053366636564031428 0 0.013866454119735035 0.052202053010947297 0 0.014069722590848118 0.052860287333485856 0 0.013467513037677759 0.052878073976859105 0 0.01383279950321421 0.053366636564031428 0 0.014069722590848118 0.052860287333485856 0 0.013467513037677759 0.052878073976859105 0 0.014069722590848118 0.052860287333485856 0 0.014364666381112143 0.052734662872427368 0 0.014451929600685707 0.053050231009746353 0 0.014227952687794027 0.05244926581892452 0 0.014069722590848118 0.052860287333485856 0 0.014364666381112143 0.052734662872427368 0 0.014468447460641893 0.052491414468154564 0 0.014364666381112143 0.052734662872427368 0 0.014611526040466324 0.052769494443211024 0 0.014364666381112143 0.052734662872427368 0 0.014611526040466324 0.052769494443211024 0 0.014451929600685707 0.053050231009746353 0 0.014611526040466324 0.052769494443211024 0 0.014451929600685707 0.053050231009746353 0 0.014681131741932517 0.053155283487271207 0 0.01331769643506789 0.053465536160322319 0 0.013467513037677759 0.052878073976859105 0 0.012639472180512857 0.053025956505411309 0 0.013155688281589214 0.051864200336381908 0 0.013467513037677759 0.052878073976859105 0 0.012639472180512857 0.053025956505411309 0 0.01383279950321421 0.053366636564031428 0 0.01331769643506789 0.053465536160322319 0 0.013467513037677759 0.052878073976859105 0 0.023068251544692615 0.046737023351286759 0 0.023154101873646984 0.047483140731262592 0 0.022602535100252081 0.047063511759868344 0 0.023154101873646984 0.047483140731262592 0 0.022602535100252081 0.047063511759868344 0 0.022394722811228344 0.047645419785986777 0 0.022215236653889681 0.047388783210558706 0 0.022602535100252081 0.047063511759868344 0 0.022394722811228344 0.047645419785986777 0 0.022215236653889681 0.047388783210558706 0 0.022026928529194297 0.047933760302185505 0 0.022394722811228344 0.047645419785986777 0 0.023154101873646984 0.047483140731262592 0 0.022394722811228344 0.047645419785986777 0 0.022202502623902651 0.048230732840972484 0 0.022026928529194297 0.047933760302185505 0 0.022394722811228344 0.047645419785986777 0 0.022202502623902651 0.048230732840972484 0 0.015682296229939725 0.052739289018544182 0 0.012222350987243608 0.054522563933648224 0 0.01808514260151501 0.049860746699921812 0 0.015682296229939725 0.052739289018544182 0 0.012639472180512857 0.053025956505411309 0 0.012205523629120606 0.05390715796790467 0 0.012958458209530455 0.053764333690543543 0 0.01331769643506789 0.053465536160322319 0 0.012639472180512857 0.053025956505411309 0 0.012958458209530455 0.053764333690543543 0 -0.0018882571974277859 0.041965030741647986 0 -0.001004114450254208 0.043059175999132462 0 -0.00093055485627005377 0.042360794714444011 0 -0.0018882571974277859 0.041965030741647986 0 -0.0017814991075707197 0.042389322923454008 0 -0.0014765175987643262 0.042389792878959026 0 -0.0018882571974277859 0.041965030741647986 0 -0.0020118872807161352 0.042307367558505109 0 -0.0017814991075707197 0.042389322923454008 0 -0.0018882571974277859 0.041965030741647986 0 -0.00093055485627005377 0.042360794714444011 0 -0.0016910757701057912 0.041598128623041727 0 -0.002465101669660338 0.041303049275002647 0 0.00024499590572852985 0.044753589542037307 0 0.0016144931733030727 0.051940564932361447 0 0.00017653970133127436 0.052498446437996241 0 -0.0018882571974277859 0.041965030741647986 0 -0.0024894751416264199 0.041942960315391228 0 -0.0016910757701057912 0.041598128623041727 0 -0.0024894751416264199 0.041942960315391228 0 -0.002166223011885069 0.042133711543588609 0 -0.0023318069328457586 0.042413299497689981 0 -0.0024894751416264199 0.041942960315391228 0 -0.0023318069328457586 0.042413299497689981 0 -0.0028118749798845444 0.042311043159298165 0 -0.0018882571974277859 0.041965030741647986 0 -0.0024894751416264199 0.041942960315391228 0 -0.002166223011885069 0.042133711543588609 0 -0.0018882571974277859 0.041965030741647986 0 -0.002166223011885069 0.042133711543588609 0 -0.0020118872807161352 0.042307367558505109 0 -0.0020118872807161352 0.042307367558505109 0 -0.0023318069328457586 0.042413299497689981 0 -0.0019602473782070634 0.0425724805540083 0 -0.002166223011885069 0.042133711543588609 0 -0.0020118872807161352 0.042307367558505109 0 -0.0023318069328457586 0.042413299497689981 0 -0.0024248001787133154 0.042744080322388231 0 -0.002137023523366241 0.042775517116365874 0 -0.0023318069328457586 0.042413299497689981 0 -0.0024248001787133154 0.042744080322388231 0 -0.0023318069328457586 0.042413299497689981 0 -0.0027494167547506524 0.042612796740609062 0 -0.002137023523366241 0.042775517116365874 0 -0.0023318069328457586 0.042413299497689981 0 -0.0019602473782070634 0.0425724805540083 0 -0.0016996267884955491 0.04291314902253586 0 -0.0017209547990896467 0.042644898913077829 0 -0.0014765175987643262 0.042389792878959026 0 -0.0018884263429803871 0.042847718173015185 0 -0.0019602473782070634 0.0425724805540083 0 -0.0017209547990896467 0.042644898913077829 0 -0.002137023523366241 0.042775517116365874 0 -0.0018884263429803871 0.042847718173015185 0 -0.0019602473782070634 0.0425724805540083 0 -0.0019602473782070634 0.0425724805540083 0 -0.0017814991075707197 0.042389322923454008 0 -0.0017209547990896467 0.042644898913077829 0 -0.0020118872807161352 0.042307367558505109 0 -0.0019602473782070634 0.0425724805540083 0 -0.0017814991075707197 0.042389322923454008 0 -0.0017814991075707197 0.042389322923454008 0 -0.0017209547990896467 0.042644898913077829 0 -0.0014765175987643262 0.042389792878959026 0 0.0023313375270678717 0.047008217932702476 0 0.00024499590572852985 0.044753589542037307 0 0.00038840931953356436 0.044374881239024312 0 0.00038036717950394084 0.044609984436959751 0 0.00081515974655956133 0.045083886750883845 0 0.0023313375270678717 0.047008217932702476 0 0.0043800893299118585 0.055070351001521634 0 0.0045453527847767123 0.050037558855278622 0 0.0044374295894657658 0.052960460563139876 0 0.0024971212147029526 0.050569049194242877 0 0.0025350715964673923 0.046026818438592881 0 0.0023313375270678717 0.047008217932702476 0 0.003871568404104503 0.04930660779566081 0 0.0045453527847767123 0.050037558855278622 0 0.0024971212147029526 0.050569049194242877 0 0.0025350715964673923 0.046026818438592881 0 0.007028506047510253 0.051985766854773553 0 0.0043800893299118585 0.055070351001521634 0 0.007028506047510253 0.051985766854773553 0 0.0053899158918356135 0.059330907845699769 0 0.0058766850729859493 0.059859430866963687 0 0.0058639433262716581 0.059263373272154501 0 0.001773251489740787 0.048827808896498751 0 0.001733599059775878 0.049720555597159252 0 0.0025476601040816667 0.049686921449856508 0 0.011258833754576481 0.056996155144962597 0 0.007028506047510253 0.051985766854773553 0 0.0073797586909996448 0.058756163487723161 0 0.0058766850729859493 0.059859430866963687 0 0.0063722863224201483 0.059067226038129056 0 0.014288454774031017 0.054099292864087711 0 0.015389215259199831 0.052847859863099658 0 0.014681131741932517 0.053155283487271207 0 0.014852162926114007 0.05279660413737354 0 0.015389215259199831 0.052847859863099658 0 0.014681131741932517 0.053155283487271207 0 0.014724932647945794 0.052419141206255071 0 0.014852162926114007 0.05279660413737354 0 0.015389215259199831 0.052847859863099658 0 0.014611526040466324 0.052769494443211024 0 0.014852162926114007 0.05279660413737354 0 0.014681131741932517 0.053155283487271207 0 0.014724932647945794 0.052419141206255071 0 0.014611526040466324 0.052769494443211024 0 0.014852162926114007 0.05279660413737354 0 0.0058766850729859493 0.059859430866963687 0 0.0058639433262716581 0.059263373272154501 0 0.0063722863224201483 0.059067226038129056 0 0.0058217061495725699 0.058765468065862636 0 0.0060983165048953568 0.058359826569490438 0 0.00525072028106524 0.057625270694374009 0 0.0063722863224201483 0.059067226038129056 0 0.0060983165048953568 0.058359826569490438 0 0.0067190352377317119 0.058432148967237703 0 0.0073797586909996448 0.058756163487723161 0 0.0063722863224201483 0.059067226038129056 0 0.0067190352377317119 0.058432148967237703 0 0.0063722863224201483 0.059067226038129056 0 0.0058217061495725699 0.058765468065862636 0 0.0060983165048953568 0.058359826569490438 0 0.0058639433262716581 0.059263373272154501 0 0.0063722863224201483 0.059067226038129056 0 0.0058217061495725699 0.058765468065862636 0 0.0060983165048953568 0.058359826569490438 0 0.0067190352377317119 0.058432148967237703 0 0.0063903768510630635 0.057711563815753701 0 0.0047951272067690703 0.057416768974976086 0 0.0045272691890105238 0.057098895465571169 0 0.0048752472696904255 0.056658110424408936 0 0.0053899158918356135 0.059330907845699769 0 0.0058217061495725699 0.058765468065862636 0 0.00525072028106524 0.057625270694374009 0 0.0043800893299118585 0.055070351001521634 0 0.0051166258090106359 0.05781375505819706 0 0.00024499590572852985 0.044753589542037307 0 0.0016144931733030727 0.051940564932361447 0 0.0043800893299118585 0.055070351001521634 0 0.0016144931733030727 0.051940564932361447 0 0.001733599059775878 0.049720555597159252 0 0.0025476601040816667 0.049686921449856508 0 0.0024335601765615965 0.050600038818266892 0 0.0053899158918356135 0.059330907845699769 0 0.0058639433262716581 0.059263373272154501 0 0.0058217061495725699 0.058765468065862636 0 0.0028574033717054656 0.057278797710280896 0 0.0031413656519491575 0.055851872803391184 0 0.0024195688987121737 0.056436016254041897 0 0.0016144931733030727 0.051940564932361447 0 0.0040714760544124946 0.057110817292545649 0 0.0045272691890105238 0.057098895465571169 0 0.0048752472696904255 0.056658110424408936 0 0.0046351309099783708 0.056136654908611285 0 0.0070711608570622735 0.056813563058596868 0 0.0071026522281151996 0.057896532592214701 0 0.0063903768510630635 0.057711563815753701 0 0.0071026522281151996 0.057896532592214701 0 0.0067190352377317119 0.058432148967237703 0 0.0063903768510630635 0.057711563815753701 0 0.0060983165048953568 0.058359826569490438 0 0.00525072028106524 0.057625270694374009 0 0.0063903768510630635 0.057711563815753701 0 0.00525072028106524 0.057625270694374009 0 0.0063903768510630635 0.057711563815753701 0 0.0060192215127619535 0.056587355003963086 0 0.0070711608570622735 0.056813563058596868 0 0.0063903768510630635 0.057711563815753701 0 0.0060192215127619535 0.056587355003963086 0 0.0070711608570622735 0.056813563058596868 0 0.0060192215127619535 0.056587355003963086 0 0.0067057363039470077 0.055167212858278622 0 0.0060192215127619535 0.056587355003963086 0 0.0050572589333785665 0.055493590165658378 0 0.0067057363039470077 0.055167212858278622 0 0.0051166258090106359 0.05781375505819706 0 0.0050641362746961299 0.055293028410226402 0 0.0040714760544124946 0.057110817292545649 0 0.0041118615969050224 0.053914497512549446 0 0.0046351309099783708 0.056136654908611285 0 0.0050572589333785665 0.055493590165658378 0 0.0046398484002294228 0.054385930056530342 0 0.00525072028106524 0.057625270694374009 0 0.0060192215127619535 0.056587355003963086 0 0.0050572589333785665 0.055493590165658378 0 0.0048752472696904255 0.056658110424408936 0 0.0046351309099783708 0.056136654908611285 0 0.0050572589333785665 0.055493590165658378 0 0.0022165640028852305 0.055549852404525146 0 0.002203959077053853 0.056565238007382695 0 0.0011175931141963491 0.055485758003389514 0 0.0022165640028852305 0.055549852404525146 0 0.0011175931141963491 0.055485758003389514 0 0.001893848796338565 0.054022647435176915 0 0.0031413656519491575 0.055851872803391184 0 0.0022165640028852305 0.055549852404525146 0 0.0027210342579657475 0.054842393907983671 0 0.0031413656519491575 0.055851872803391184 0 0.0022165640028852305 0.055549852404525146 0 0.0024195688987121737 0.056436016254041897 0 0.0022165640028852305 0.055549852404525146 0 0.002203959077053853 0.056565238007382695 0 0.0024195688987121737 0.056436016254041897 0 0.0028574033717054656 0.057278797710280896 0 0.0022410188401337399 0.056526310785552765 0 0.0024195688987121737 0.056436016254041897 0 0.00017653970133127436 0.052498446437996241 0 0.00045223462812289222 0.053022974036233177 0 -2.3842177673977198e-05 0.055666007136330492 0 0.00018123576730230887 0.055131279460687015 0 -0.00028038710662698431 0.055032664536955003 0 0.00017653970133127436 0.052498446437996241 0 0.0010442417190621887 0.05563837456564244 0 -0.0011982289315701008 0.048411876360507124 0 0.00017653970133127436 0.052498446437996241 0 -2.3842177673977198e-05 0.055666007136330492 0 0.00072729000767477023 0.055220887738514815 0 0.00018123576730230887 0.055131279460687015 0 0.00072729000767477023 0.055220887738514815 0 0.00018123576730230887 0.055131279460687015 0 0.00019548357257378674 0.054585561410525132 0 0.00018123576730230887 0.055131279460687015 0 0.00019548357257378674 0.054585561410525132 0 -0.00028038710662698431 0.055032664536955003 0 0.001893848796338565 0.054022647435176915 0 0.00084066027868637326 0.053261578220947237 0 -0.00016245818710844707 0.05397054549516303 0 0.0011175931141963491 0.055485758003389514 0 0.001893848796338565 0.054022647435176915 0 -0.00016245818710844707 0.05397054549516303 0 0.0010442417190621887 0.05563837456564244 0 -0.00028909670842604875 0.053808842915711454 0 0.0022165640028852305 0.055549852404525146 0 0.001893848796338565 0.054022647435176915 0 0.0027210342579657475 0.054842393907983671 0 0.001893848796338565 0.054022647435176915 0 0.0027210342579657475 0.054842393907983671 0 0.0035838721574316616 0.054107478699016623 0 0.001893848796338565 0.054022647435176915 0 0.0030119507237858145 0.052939763613705962 0 0.0018694171770058062 0.05247472670178633 0 0.001893848796338565 0.054022647435176915 0 0.0030119507237858145 0.052939763613705962 0 0.0035838721574316616 0.054107478699016623 0 0.00084066027868637326 0.053261578220947237 0 0.0018694171770058062 0.05247472670178633 0 -0.00019439288690925848 0.052612752926954789 0 0.001893848796338565 0.054022647435176915 0 0.00084066027868637326 0.053261578220947237 0 0.0018694171770058062 0.05247472670178633 0 0.0067057363039470077 0.055167212858278622 0 0.0055703150618355577 0.054687217951407636 0 0.0059352278266735833 0.053695240183480035 0 0.0050572589333785665 0.055493590165658378 0 0.0067057363039470077 0.055167212858278622 0 0.0055703150618355577 0.054687217951407636 0 0.0055703150618355577 0.054687217951407636 0 0.0046398484002294228 0.054385930056530342 0 0.0059352278266735833 0.053695240183480035 0 0.0031413656519491575 0.055851872803391184 0 0.0027210342579657475 0.054842393907983671 0 0.0035838721574316616 0.054107478699016623 0 0.0050572589333785665 0.055493590165658378 0 0.0055703150618355577 0.054687217951407636 0 0.0046398484002294228 0.054385930056530342 0 0.0041118615969050224 0.053914497512549446 0 0.0043565212756716222 0.052253412187880974 0 0.0030119507237858145 0.052939763613705962 0 0.0035838721574316616 0.054107478699016623 0 0.0043681601297894035 0.052074798732631322 0 0.0046398484002294228 0.054385930056530342 0 0.0059352278266735833 0.053695240183480035 0 0.0043681601297894035 0.052074798732631322 0 0.006475229697404705 0.051762673959620295 0 0.0059352278266735833 0.053695240183480035 0 0.0043681601297894035 0.052074798732631322 0 0.0030119507237858145 0.052939763613705962 0 0.0043681601297894035 0.052074798732631322 0 0.0026886036042615058 0.051282389394897307 0 0.0043681601297894035 0.052074798732631322 0 0.0042826142140849725 0.049999772485784355 0 0.0026886036042615058 0.051282389394897307 0 0.006475229697404705 0.051762673959620295 0 0.0043681601297894035 0.052074798732631322 0 0.0042826142140849725 0.049999772485784355 0 0.0071998640514088783 0.049999782215617829 0 0.006475229697404705 0.051762673959620295 0 0.0042826142140849725 0.049999772485784355 0 0.00033818327268275293 0.051485975926511322 0 0.0018694171770058062 0.05247472670178633 0 -0.0008441940140019805 0.053039468492039811 0 0.0017069492707860246 0.052504428791787849 0 -0.00046160486835195133 0.052819604094678112 0 0.0030119507237858145 0.052939763613705962 0 0.0018694171770058062 0.05247472670178633 0 0.0026886036042615058 0.051282389394897307 0 0.00033818327268275293 0.051485975926511322 0 0.0018694171770058062 0.05247472670178633 0 0.0026886036042615058 0.051282389394897307 0 0.0042826142140849725 0.049999772485784355 0 0.0026886036042615058 0.051282389394897307 0 0.0013655408577329785 0.049999889820945394 0 0.00033818327268275293 0.051485975926511322 0 0.0026886036042615058 0.051282389394897307 0 0.0013655408577329785 0.049999889820945394 0 0.00033818327268275293 0.051485975926511322 0 0.0013655408577329785 0.049999889820945394 0 -0.0015515097860450756 0.049999922433414404 0 0.00033818327268275293 0.051485975926511322 0 -0.0015515097860450756 0.049999922433414404 0 -0.0025039385434469457 0.051742932485449311 0 0.00033818327268275293 0.051485975926511322 0 -0.0025039385434469457 0.051742932485449311 0 -0.0008441940140019805 0.053039468492039811 0 -0.0025039385434469457 0.051742932485449311 0 -0.003557876762615971 0.053417381699460108 0 -0.0008441940140019805 0.053039468492039811 0 -0.0015515097860450756 0.049999922433414404 0 -0.0025039385434469457 0.051742932485449311 0 -0.0044686093692011255 0.049999982767839082 0 -0.0025039385434469457 0.051742932485449311 0 -0.0044686093692011255 0.049999982767839082 0 -0.004917436679622353 0.052516321802442582 0 -0.0044686093692011255 0.049999982767839082 0 -0.0073857091793885759 0.04999996975604061 0 -0.0064987280986563405 0.051622820396987588 0 -0.0044686093692011255 0.049999982767839082 0 -0.004917436679622353 0.052516321802442582 0 -0.0064987280986563405 0.051622820396987588 0 -0.004917436679622353 0.052516321802442582 0 -0.0064987280986563405 0.051622820396987588 0 -0.0064080387089527546 0.052827777072934977 0 -0.004917436679622353 0.052516321802442582 0 -0.0064080387089527546 0.052827777072934977 0 -0.006242053787641093 0.053754116587040206 0 -0.0025039385434469457 0.051742932485449311 0 -0.004917436679622353 0.052516321802442582 0 -0.003557876762615971 0.053417381699460108 0 -0.001713366160683531 0.052829541841769523 0 -0.0023328446927660422 0.053414949665131314 0 -0.0014330131865223116 0.053947626234673515 0 -0.001713366160683531 0.052829541841769523 0 -0.0023328446927660422 0.053414949665131314 0 -0.0030569571994413644 0.052920812301291781 0 -0.004917436679622353 0.052516321802442582 0 -0.003557876762615971 0.053417381699460108 0 -0.006242053787641093 0.053754116587040206 0 -0.0027689307614153905 0.053111125504858574 0 -0.0040786377369295967 0.053451757937649828 0 -0.0030283335033938976 0.05362269517997377 0 -0.0023328446927660422 0.053414949665131314 0 -0.0030569571994413644 0.052920812301291781 0 -0.0030283335033938976 0.05362269517997377 0 -0.0023328446927660422 0.053414949665131314 0 -0.0024396202688423815 0.054019195263122322 0 -0.0030283335033938976 0.05362269517997377 0 -0.0024396202688423815 0.054019195263122322 0 -0.0031446450197432285 0.054226856449797814 0 -0.0024396202688423815 0.054019195263122322 0 -0.0014330131865223116 0.053947626234673515 0 -0.0019724390321327538 0.054460022620095701 0 -0.0023328446927660422 0.053414949665131314 0 -0.0024396202688423815 0.054019195263122322 0 -0.0014330131865223116 0.053947626234673515 0 -0.0014330131865223116 0.053947626234673515 0 -0.00016245818710844707 0.05397054549516303 0 -0.00055607545536648189 0.054619225128755382 0 -0.0014330131865223116 0.053947626234673515 0 -0.00016245818710844707 0.05397054549516303 0 -0.00089523054769862994 0.053353295348509508 0 0.00084066027868637326 0.053261578220947237 0 -0.00016245818710844707 0.05397054549516303 0 -0.00019439288690925848 0.052612752926954789 0 -0.00016245818710844707 0.05397054549516303 0 -0.00019439288690925848 0.052612752926954789 0 -0.00089523054769862994 0.053353295348509508 0 -0.001713366160683531 0.052829541841769523 0 -0.0014330131865223116 0.053947626234673515 0 -0.00089523054769862994 0.053353295348509508 0 -0.0027689307614153905 0.053111125504858574 0 -0.00046160486835195133 0.052819604094678112 0 -0.001713366160683531 0.052829541841769523 0 -0.00019439288690925848 0.052612752926954789 0 -0.00089523054769862994 0.053353295348509508 0 -0.012906079174727348 0.051308057495920351 0 -0.01047059761584429 0.052212159993074908 0 -0.012748004639502472 0.051631079453259461 0 -0.013498626331164948 0.051162114927671289 0 -0.012028029687794378 0.051762391110905956 0 -0.013254862467620206 0.051972377403431018 0 -0.013611665065078967 0.052305752480574425 0 -0.013915449057530281 0.051812668272518042 0 -0.013254862467620206 0.051972377403431018 0 -0.012748004639502472 0.051631079453259461 0 -0.012857026710542577 0.052343631699990616 0 -0.013254862467620206 0.051972377403431018 0 -0.012748004639502472 0.051631079453259461 0 -0.013498626331164948 0.051162114927671289 0 -0.013254862467620206 0.051972377403431018 0 -0.013498626331164948 0.051162114927671289 0 -0.013915449057530281 0.051812668272518042 0 -0.010727676075963659 0.050853630239970596 0 -0.010302562361835471 0.050000056929784646 0 -0.013220295186394683 0.049999836210394444 0 -0.012069715913054831 0.051564369772534369 0 -0.010727676075963659 0.050853630239970596 0 -0.013220295186394683 0.049999836210394444 0 -0.010727676075963659 0.050853630239970596 0 -0.0098294026069531311 0.052473699461911619 0 -0.0092101157286425366 0.051081301213855318 0 -0.010727676075963659 0.050853630239970596 0 -0.010302562361835471 0.050000056929784646 0 -0.0092101157286425366 0.051081301213855318 0 -0.012069715913054831 0.051564369772534369 0 -0.010727676075963659 0.050853630239970596 0 -0.0098509067988665783 0.052477855035840806 0 -0.012748004639502472 0.051631079453259461 0 -0.012028029687794378 0.051762391110905956 0 -0.012195784825846403 0.052860466416317406 0 -0.010532606018255668 0.051164109790958215 0 -0.01047059761584429 0.052212159993074908 0 -0.0098294026069531311 0.052473699461911619 0 -0.0081189561186931786 0.051808754728643443 0 -0.0092101157286425366 0.051081301213855318 0 -0.0098294026069531311 0.052473699461911619 0 -0.0084223243078270643 0.053058520952503595 0 -0.0081189561186931786 0.051808754728643443 0 -0.01047059761584429 0.052212159993074908 0 -0.0083277854203620636 0.053082627758285178 0 -0.0084223243078270643 0.053058520952503595 0 -0.0081189561186931786 0.051808754728643443 0 -0.0073650781797220044 0.052616557237029397 0 -0.0081189561186931786 0.051808754728643443 0 -0.0092101157286425366 0.051081301213855318 0 -0.0073857091793885759 0.04999996975604061 0 -0.010302562361835471 0.050000056929784646 0 -0.0092101157286425366 0.051081301213855318 0 -0.0073857091793885759 0.04999996975604061 0 -0.0081189561186931786 0.051808754728643443 0 -0.0073857091793885759 0.04999996975604061 0 -0.0064987280986563405 0.051622820396987588 0 -0.0081189561186931786 0.051808754728643443 0 -0.0064987280986563405 0.051622820396987588 0 -0.0073650781797220044 0.052616557237029397 0 -0.0073650781797220044 0.052616557237029397 0 -0.0064080387089527546 0.052827777072934977 0 -0.0070207889842700075 0.05363441467571723 0 -0.0064987280986563405 0.051622820396987588 0 -0.0073650781797220044 0.052616557237029397 0 -0.0064080387089527546 0.052827777072934977 0 -0.0040786377369295967 0.053451757937649828 0 -0.0094015282539610702 0.052397825654116013 0 -0.0030569571994413644 0.052920812301291781 0 -0.003674258979849525 0.053412449401662364 0 -0.0045153592254195954 0.053045834538703387 0 -0.006242053787641093 0.053754116587040206 0 -0.0070207889842700075 0.05363441467571723 0 -0.0089983501718494466 0.054061588263692992 0 -0.0064080387089527546 0.052827777072934977 0 -0.006242053787641093 0.053754116587040206 0 -0.0070207889842700075 0.05363441467571723 0 -0.0083277854203620636 0.053082627758285178 0 -0.0072554011425768191 0.05353465931772803 0 -0.0084223243078270643 0.053058520952503595 0 -0.0073650781797220044 0.052616557237029397 0 -0.0070207889842700075 0.05363441467571723 0 -0.0030283335033938976 0.05362269517997377 0 -0.0030569571994413644 0.052920812301291781 0 -0.003674258979849525 0.053412449401662364 0 -0.0030283335033938976 0.05362269517997377 0 -0.0034241400529763772 0.053848561100553569 0 -0.003674258979849525 0.053412449401662364 0 -0.0030283335033938976 0.05362269517997377 0 -0.0034241400529763772 0.053848561100553569 0 -0.0031446450197432285 0.054226856449797814 0 -0.0034241400529763772 0.053848561100553569 0 -0.003674258979849525 0.053412449401662364 0 -0.0038583100545939238 0.054127882875179167 0 -0.0034241400529763772 0.053848561100553569 0 -0.0038583100545939238 0.054127882875179167 0 -0.0031446450197432285 0.054226856449797814 0 -0.013922660851643393 0.051641183437044824 0 -0.013873172645863076 0.051670785342300296 0 -0.013854600644838642 0.051724940781677199 0 -0.003674258979849525 0.053412449401662364 0 -0.0038583100545939238 0.054127882875179167 0 -0.0045153592254195954 0.053045834538703387 0 -0.013873172645863076 0.051670785342300296 0 -0.013811703498097445 0.051711061717385855 0 -0.013901040277716537 0.051607807506671322 0 -0.0088583713104569556 0.052901761691958253 0 -0.0094015282539610702 0.052397825654116013 0 -0.013922660851643393 0.051641183437044824 0 -0.013873172645863076 0.051670785342300296 0 -0.013901040277716537 0.051607807506671322 0 -0.0099187035804519062 0.052386802079540773 0 -0.0084656677307873452 0.053003475372041559 0 -0.0089983501718494466 0.054061588263692992 0 -0.0084656677307873452 0.053003475372041559 0 -0.0070207889842700075 0.05363441467571723 0 -0.0089983501718494466 0.054061588263692992 0 -0.013873172645863076 0.051670785342300296 0 -0.013854600644838642 0.051724940781677199 0 -0.013811703498097445 0.051711061717385855 0 -0.012748004639502472 0.051631079453259461 0 -0.012214362818443097 0.052908573755519078 0 -0.012857026710542577 0.052343631699990616 0 -0.012077196258189217 0.052794095082732535 0 -0.014537519176378794 0.050423632477234012 0 -0.01047059761584429 0.052212159993074908 0 -0.0094015282539610702 0.052397825654116013 0 -0.012028029687794378 0.051762391110905956 0 -0.011471883093050871 0.052771372439474044 0 -0.012195784825846403 0.052860466416317406 0 -0.0094015282539610702 0.052397825654116013 0 -0.014537519176378794 0.050423632477234012 0 -0.014537519176378794 0.050423632477234012 0 -0.01555652775767438 0.049219613035685519 0 -0.017753059269970943 0.045419004559104324 0 -0.018594982603023495 0.046512981863185636 0 -0.017987278705130533 0.047358303568804383 0 -0.017753059269970943 0.045419004559104324 0 -0.017987278705130533 0.047358303568804383 0 -0.016731920504475816 0.047703763966933703 0 -0.017753059269970943 0.045419004559104324 0 -0.018594982603023495 0.046512981863185636 0 -0.019325414773688425 0.046281786880652223 0 -0.018594982603023495 0.046512981863185636 0 -0.019187696337147384 0.046944883629206999 0 -0.017987278705130533 0.047358303568804383 0 -0.018594982603023495 0.046512981863185636 0 -0.019187696337147384 0.046944883629206999 0 -0.019325414773688425 0.046281786880652223 0 -0.019187696337147384 0.046944883629206999 0 -0.019966531915121884 0.046983007374705704 0 -0.019325414773688425 0.046281786880652223 0 -0.019966531915121884 0.046983007374705704 0 -0.019325414773688425 0.046281786880652223 0 -0.019907575818809451 0.045629012900756785 0 -0.017753059269970943 0.045419004559104324 0 -0.019325414773688425 0.046281786880652223 0 -0.019907575818809451 0.045629012900756785 0 -0.013671277562708811 0.053192216641040374 0 -0.013555307874429569 0.053018339623280439 0 -0.013914540695545348 0.052827872481986761 0 -0.014537519176378794 0.050423632477234012 0 -0.018130442319767567 0.050770059638250827 0 -0.012214362818443097 0.052908573755519078 0 -0.013555307874429569 0.053018339623280439 0 -0.013193279829095208 0.052577174723532655 0 -0.012214362818443097 0.052908573755519078 0 -0.013676414466958029 0.053148322420865202 0 -0.013555307874429569 0.053018339623280439 0 -0.018130442319767567 0.050770059638250827 0 -0.017646897676391493 0.050753807654482494 0 -0.013555307874429569 0.053018339623280439 0 -0.013691472834070502 0.052653409945046387 0 -0.013914540695545348 0.052827872481986761 0 -0.013555307874429569 0.053018339623280439 0 -0.013193279829095208 0.052577174723532655 0 -0.013691472834070502 0.052653409945046387 0 -0.013254862467620206 0.051972377403431018 0 -0.012857026710542577 0.052343631699990616 0 -0.013193279829095208 0.052577174723532655 0 -0.012214362818443097 0.052908573755519078 0 -0.012857026710542577 0.052343631699990616 0 -0.013193279829095208 0.052577174723532655 0 -0.013254862467620206 0.051972377403431018 0 -0.013193279829095208 0.052577174723532655 0 -0.013611665065078967 0.052305752480574425 0 -0.013193279829095208 0.052577174723532655 0 -0.013611665065078967 0.052305752480574425 0 -0.013691472834070502 0.052653409945046387 0 -0.019108274952236069 0.049061237195076018 0 -0.018080465553222652 0.049484640094495824 0 -0.018841725671759513 0.050438231801745871 0 -0.019108274952236069 0.049061237195076018 0 -0.020379364315517783 0.048420739726166125 0 -0.020570531970083825 0.050023335843418601 0 -0.019108274952236069 0.049061237195076018 0 -0.018841725671759513 0.050438231801745871 0 -0.020570531970083825 0.050023335843418601 0 -0.019108274952236069 0.049061237195076018 0 -0.019150205691780792 0.047882223999474033 0 -0.017642411880280397 0.048768770905694453 0 -0.019108274952236069 0.049061237195076018 0 -0.019150205691780792 0.047882223999474033 0 -0.020379364315517783 0.048420739726166125 0 -0.019187696337147384 0.046944883629206999 0 -0.019966531915121884 0.046983007374705704 0 -0.019150205691780792 0.047882223999474033 0 -0.019966531915121884 0.046983007374705704 0 -0.019150205691780792 0.047882223999474033 0 -0.020379364315517783 0.048420739726166125 0 -0.019187696337147384 0.046944883629206999 0 -0.019150205691780792 0.047882223999474033 0 -0.017987278705130533 0.047358303568804383 0 -0.017987278705130533 0.047358303568804383 0 -0.017642411880280397 0.048768770905694453 0 -0.016731920504475816 0.047703763966933703 0 -0.019150205691780792 0.047882223999474033 0 -0.017987278705130533 0.047358303568804383 0 -0.017642411880280397 0.048768770905694453 0 -0.017642411880280397 0.048768770905694453 0 -0.018080465553222652 0.049484640094495824 0 -0.016936223072809665 0.050098818492511056 0 -0.019108274952236069 0.049061237195076018 0 -0.017642411880280397 0.048768770905694453 0 -0.018080465553222652 0.049484640094495824 0 -0.017642411880280397 0.048768770905694453 0 -0.015487319010386301 0.049852952005684001 0 -0.016936223072809665 0.050098818492511056 0 -0.017642411880280397 0.048768770905694453 0 -0.016731920504475816 0.047703763966933703 0 -0.015487319010386301 0.049852952005684001 0 -0.01555652775767438 0.049219613035685519 0 -0.014693534841506482 0.050885659218318773 0 -0.013901040277716537 0.051607807506671322 0 -0.01394628977043829 0.051613939282072585 0 -0.014036847851857204 0.051624169129350736 0 -0.013922660851643393 0.051641183437044824 0 -0.013901040277716537 0.051607807506671322 0 -0.01394628977043829 0.051613939282072585 0 -0.0088583713104569556 0.052901761691958253 0 -0.0086068281531651407 0.053246585805087406 0 -0.0031446450197432285 0.054226856449797814 0 -0.00319954912006429 0.055080574667921087 0 -0.0026999657427222504 0.054567234092272154 0 -0.0038583100545939238 0.054127882875179167 0 -0.0031446450197432285 0.054226856449797814 0 -0.00319954912006429 0.055080574667921087 0 -0.013922660851643393 0.051641183437044824 0 -0.01394628977043829 0.051613939282072585 0 -0.013953141591326984 0.051608745001029417 0 -0.01394628977043829 0.051613939282072585 0 -0.013953141591326984 0.051608745001029417 0 -0.014036847851857204 0.051624169129350736 0 -0.014201823752825277 0.051919444873739576 0 -0.014036847851857204 0.051624169129350736 0 -0.013897213308395511 0.051680625671897087 0 -0.014244959088257099 0.051842441856518075 0 -0.014693534841506482 0.050885659218318773 0 -0.013953141591326984 0.051608745001029417 0 -0.014036847851857204 0.051624169129350736 0 -0.013897213308395511 0.051680625671897087 0 -0.014201823752825277 0.051919444873739576 0 -0.015825050134485662 0.051043884581227626 0 -0.015487319010386301 0.049852952005684001 0 -0.014201823752825277 0.051919444873739576 0 -0.015639181823087961 0.051927466505426005 0 -0.014679882044939731 0.052319376787868889 0 -0.014201823752825277 0.051919444873739576 0 -0.015825050134485662 0.051043884581227626 0 -0.015639181823087961 0.051927466505426005 0 -0.015639181823087961 0.051927466505426005 0 -0.017128246987223573 0.051375320515418703 0 -0.016470201640127323 0.052341073403143284 0 -0.015825050134485662 0.051043884581227626 0 -0.015639181823087961 0.051927466505426005 0 -0.017128246987223573 0.051375320515418703 0 -0.015825050134485662 0.051043884581227626 0 -0.016936223072809665 0.050098818492511056 0 -0.017128246987223573 0.051375320515418703 0 -0.015825050134485662 0.051043884581227626 0 -0.015487319010386301 0.049852952005684001 0 -0.016936223072809665 0.050098818492511056 0 -0.018080465553222652 0.049484640094495824 0 -0.016936223072809665 0.050098818492511056 0 -0.018841725671759513 0.050438231801745871 0 -0.016936223072809665 0.050098818492511056 0 -0.017128246987223573 0.051375320515418703 0 -0.018841725671759513 0.050438231801745871 0 -0.017128246987223573 0.051375320515418703 0 -0.017559896360727113 0.052259202880177338 0 -0.016470201640127323 0.052341073403143284 0 -0.017128246987223573 0.051375320515418703 0 -0.017559896360727113 0.052259202880177338 0 -0.018800040187042351 0.051745805601963728 0 -0.017128246987223573 0.051375320515418703 0 -0.018800040187042351 0.051745805601963728 0 -0.018841725671759513 0.050438231801745871 0 -0.018800040187042351 0.051745805601963728 0 -0.018928223196862395 0.053025893238483481 0 -0.021402175952382269 0.051851932419311242 0 -0.018800040187042351 0.051745805601963728 0 -0.018841725671759513 0.050438231801745871 0 -0.021402175952382269 0.051851932419311242 0 -0.017559896360727113 0.052259202880177338 0 -0.018800040187042351 0.051745805601963728 0 -0.018928223196862395 0.053025893238483481 0 -0.020746551500116315 0.052223172184239081 0 -0.021328442984998731 0.051840650674629951 0 -0.018841725671759513 0.050438231801745871 0 -0.021402175952382269 0.051851932419311242 0 -0.020570531970083825 0.050023335843418601 0 -0.00076922869378743836 0.055356730610781675 0 -0.0014545338095056286 0.054863284895994263 0 -0.0015333018220737894 0.055532593458758363 0 -0.00076922869378743836 0.055356730610781675 0 -0.00055607545536648189 0.054619225128755382 0 -0.0014545338095056286 0.054863284895994263 0 -0.00076922869378743836 0.055356730610781675 0 -0.00028038710662698431 0.055032664536955003 0 -0.00055607545536648189 0.054619225128755382 0 -2.3842177673977198e-05 0.055666007136330492 0 -0.00076922869378743836 0.055356730610781675 0 -0.00028038710662698431 0.055032664536955003 0 0.00019548357257378674 0.054585561410525132 0 -0.00016245818710844707 0.05397054549516303 0 -0.00055607545536648189 0.054619225128755382 0 0.00019548357257378674 0.054585561410525132 0 -0.00028038710662698431 0.055032664536955003 0 -0.00055607545536648189 0.054619225128755382 0 -0.0014330131865223116 0.053947626234673515 0 -0.00055607545536648189 0.054619225128755382 0 -0.0014545338095056286 0.054863284895994263 0 -0.0014545338095056286 0.054863284895994263 0 -0.0019724390321327538 0.054460022620095701 0 -0.0023337972233935457 0.054921215459715421 0 -0.0014330131865223116 0.053947626234673515 0 -0.0014545338095056286 0.054863284895994263 0 -0.0019724390321327538 0.054460022620095701 0 -0.00319954912006429 0.055080574667921087 0 -0.0026999657427222504 0.054567234092272154 0 -0.0023337972233935457 0.054921215459715421 0 -0.0024396202688423815 0.054019195263122322 0 -0.0031446450197432285 0.054226856449797814 0 -0.0026999657427222504 0.054567234092272154 0 -0.0024396202688423815 0.054019195263122322 0 -0.0019724390321327538 0.054460022620095701 0 -0.0026999657427222504 0.054567234092272154 0 -0.0019724390321327538 0.054460022620095701 0 -0.0026999657427222504 0.054567234092272154 0 -0.0023337972233935457 0.054921215459715421 0 -0.00319954912006429 0.055080574667921087 0 -0.0021953589276699063 0.055473318677308273 0 -0.0026143047448416003 0.055926417035500608 0 -0.0086068281531651407 0.053246585805087406 0 -0.0082561613280158382 0.054285985832434061 0 -0.00319954912006429 0.055080574667921087 0 -0.0023337972233935457 0.054921215459715421 0 -0.0021953589276699063 0.055473318677308273 0 -0.0014545338095056286 0.054863284895994263 0 -0.0021953589276699063 0.055473318677308273 0 -0.0015333018220737894 0.055532593458758363 0 -0.0014545338095056286 0.054863284895994263 0 -0.0023337972233935457 0.054921215459715421 0 -0.0021953589276699063 0.055473318677308273 0 -0.0015333018220737894 0.055532593458758363 0 -0.0020098248182811632 0.056072670479366184 0 -0.0012345370279242948 0.055862173964829356 0 -0.0020098248182811632 0.056072670479366184 0 -0.0014123259814069957 0.056247721309933746 0 -0.0012345370279242948 0.055862173964829356 0 -0.0021953589276699063 0.055473318677308273 0 -0.0015333018220737894 0.055532593458758363 0 -0.0020098248182811632 0.056072670479366184 0 -0.0021953589276699063 0.055473318677308273 0 -0.0020098248182811632 0.056072670479366184 0 -0.0026143047448416003 0.055926417035500608 0 -0.013897213308395511 0.051680625671897087 0 -0.013885258289993327 0.051978788362359432 0 -0.013548629913747228 0.052062647131254455 0 -0.0082561613280158382 0.054285985832434061 0 -0.0065586884700475963 0.051478355477085166 0 -0.014201823752825277 0.051919444873739576 0 -0.013897213308395511 0.051680625671897087 0 -0.013885258289993327 0.051978788362359432 0 -0.0020098248182811632 0.056072670479366184 0 -0.0026143047448416003 0.055926417035500608 0 -0.0021138902624520603 0.05674478289081232 0 -0.0020098248182811632 0.056072670479366184 0 -0.0021138902624520603 0.05674478289081232 0 -0.0018152058796252904 0.05659935183716177 0 -0.0020098248182811632 0.056072670479366184 0 -0.0018152058796252904 0.05659935183716177 0 -0.0014123259814069957 0.056247721309933746 0 -0.0033173232516036304 0.05094339889791577 0 -0.0028535706008067131 0.05572141813616871 0 -0.0033173232516036304 0.05094339889791577 0 -0.0061805159543854484 0.047687753226848713 0 -0.0062597104765634666 0.05121548677964851 0 -0.0038950808170857159 0.04991502798406032 0 -0.0058979135449017403 0.051879990488770823 0 -0.0065586884700475963 0.051478355477085166 0 -0.0033173232516036304 0.05094339889791577 0 -0.0042888088180134381 0.042426666917417519 0 -0.0044984500383318726 0.042637920445144924 0 -0.0042620612658557733 0.042644862287337139 0 -0.0042888088180134381 0.042426666917417519 0 -0.0039780595202273446 0.042566369652915506 0 -0.0042620612658557733 0.042644862287337139 0 -0.0042888088180134381 0.042426666917417519 0 -0.0039780595202273446 0.042566369652915506 0 -0.0036808448854164745 0.04239977338992975 0 -0.0042888088180134381 0.042426666917417519 0 -0.0036808448854164745 0.04239977338992975 0 -0.0032951623446210673 0.042121699805142528 0 -0.0018049659158231774 0.056552454702118699 0 -0.00090004417381528965 0.056156314978725898 0 -0.0014123259814069957 0.056247721309933746 0 -0.0033173232516036304 0.05094339889791577 0 -0.0020252016582588532 0.049018458344022124 0 -0.0039780595202273446 0.042566369652915506 0 -0.0036808448854164745 0.04239977338992975 0 -0.003712289742403349 0.042620070972040514 0 -0.0036808448854164745 0.04239977338992975 0 -0.0032392493801215441 0.042514264443482989 0 -0.003712289742403349 0.042620070972040514 0 -0.0036808448854164745 0.04239977338992975 0 -0.0032392493801215441 0.042514264443482989 0 -0.0032951623446210673 0.042121699805142528 0 -0.00076922869378743836 0.055356730610781675 0 -0.0015333018220737894 0.055532593458758363 0 -0.0012345370279242948 0.055862173964829356 0 -0.00090004417381528965 0.056156314978725898 0 -0.0014123259814069957 0.056247721309933746 0 -0.0012345370279242948 0.055862173964829356 0 -0.00090004417381528965 0.056156314978725898 0 -0.0012345370279242948 0.055862173964829356 0 -0.00079484687814123376 0.055752029852952523 0 -0.00076922869378743836 0.055356730610781675 0 -0.0012345370279242948 0.055862173964829356 0 -0.00079484687814123376 0.055752029852952523 0 -2.3842177673977198e-05 0.055666007136330492 0 -0.00076922869378743836 0.055356730610781675 0 -0.00079484687814123376 0.055752029852952523 0 -2.3842177673977198e-05 0.055666007136330492 0 -0.00090004417381528965 0.056156314978725898 0 -0.00079484687814123376 0.055752029852952523 0 -0.0011982289315701008 0.048411876360507124 0 -0.0020252016582588532 0.049018458344022124 0 -0.0024894751416264199 0.041942960315391228 0 -0.0032951623446210673 0.042121699805142528 0 -0.0028118749798845444 0.042311043159298165 0 -0.0023318069328457586 0.042413299497689981 0 -0.0028118749798845444 0.042311043159298165 0 -0.0027494167547506524 0.042612796740609062 0 -0.0032392493801215441 0.042514264443482989 0 -0.0032951623446210673 0.042121699805142528 0 -0.0028118749798845444 0.042311043159298165 0 -0.0032392493801215441 0.042514264443482989 0 -0.0028118749798845444 0.042311043159298165 0 -0.0027494167547506524 0.042612796740609062 0 -0.0032392493801215441 0.042514264443482989 0 -0.0027494167547506524 0.042612796740609062 0 -0.0030499799107019054 0.042815092240501271 0 -0.0027494167547506524 0.042612796740609062 0 -0.002723082663800639 0.04296415182896221 0 -0.0030499799107019054 0.042815092240501271 0 -0.0024248001787133154 0.042744080322388231 0 -0.0027494167547506524 0.042612796740609062 0 -0.002723082663800639 0.04296415182896221 0 -0.002723082663800639 0.04296415182896221 0 -0.0030499799107019054 0.042815092240501271 0 -0.0031532196041814402 0.043127005296355186 0 -0.0030499799107019054 0.042815092240501271 0 -0.0031532196041814402 0.043127005296355186 0 -0.0034635418251542064 0.042805949331115117 0 -0.002723082663800639 0.04296415182896221 0 -0.0031532196041814402 0.043127005296355186 0 -0.0027263818695867051 0.043292244992071766 0 -0.0023876742352528821 0.043026794868684701 0 -0.002723082663800639 0.04296415182896221 0 -0.0027263818695867051 0.043292244992071766 0 -0.0039454894701917405 0.04274591404196125 0 -0.003712289742403349 0.042620070972040514 0 -0.0034635418251542064 0.042805949331115117 0 -0.0039454894701917405 0.04274591404196125 0 -0.0034635418251542064 0.042805949331115117 0 -0.0037426477941290615 0.043069018450177445 0 -0.0039780595202273446 0.042566369652915506 0 -0.0039454894701917405 0.04274591404196125 0 -0.003712289742403349 0.042620070972040514 0 -0.0032392493801215441 0.042514264443482989 0 -0.003712289742403349 0.042620070972040514 0 -0.0034635418251542064 0.042805949331115117 0 -0.0032392493801215441 0.042514264443482989 0 -0.0030499799107019054 0.042815092240501271 0 -0.0034635418251542064 0.042805949331115117 0 -0.0031532196041814402 0.043127005296355186 0 -0.0037426477941290615 0.043069018450177445 0 -0.0034796408319387674 0.043456928400753159 0 -0.0031532196041814402 0.043127005296355186 0 -0.0034635418251542064 0.042805949331115117 0 -0.0037426477941290615 0.043069018450177445 0 -0.0037426477941290615 0.043069018450177445 0 -0.0040116535403726767 0.043440567666936734 0 -0.0044673744269372881 0.042872820549025657 0 -0.0039454894701917405 0.04274591404196125 0 -0.0037426477941290615 0.043069018450177445 0 -0.0044673744269372881 0.042872820549025657 0 -0.0040116535403726767 0.043440567666936734 0 -0.0034796408319387674 0.043456928400753159 0 -0.00367435638509546 0.04380969049961575 0 -0.0037426477941290615 0.043069018450177445 0 -0.0040116535403726767 0.043440567666936734 0 -0.0034796408319387674 0.043456928400753159 0 -0.0034796408319387674 0.043456928400753159 0 -0.0032465694944865909 0.043926504985162991 0 -0.0030119477975917332 0.043553305392085358 0 -0.0034796408319387674 0.043456928400753159 0 -0.0032465694944865909 0.043926504985162991 0 -0.00367435638509546 0.04380969049961575 0 -0.0032465694944865909 0.043926504985162991 0 -0.00367435638509546 0.04380969049961575 0 -0.0036296655327207662 0.044305602520879575 0 -0.00367435638509546 0.04380969049961575 0 -0.0036296655327207662 0.044305602520879575 0 -0.0042099585739205723 0.043888990571374742 0 -0.0040116535403726767 0.043440567666936734 0 -0.00367435638509546 0.04380969049961575 0 -0.0042099585739205723 0.043888990571374742 0 -0.0023879648224917958 0.043325801679464669 0 -0.002684657140054599 0.043591023847719464 0 -0.0027263818695867051 0.043292244992071766 0 -0.002684657140054599 0.043591023847719464 0 -0.0027263818695867051 0.043292244992071766 0 -0.0030119477975917332 0.043553305392085358 0 -0.0031532196041814402 0.043127005296355186 0 -0.0034796408319387674 0.043456928400753159 0 -0.0030119477975917332 0.043553305392085358 0 -0.0031532196041814402 0.043127005296355186 0 -0.0027263818695867051 0.043292244992071766 0 -0.0030119477975917332 0.043553305392085358 0 -0.002684657140054599 0.043591023847719464 0 -0.0030119477975917332 0.043553305392085358 0 -0.0028032114005017857 0.043943585993459197 0 -0.0032465694944865909 0.043926504985162991 0 -0.0030119477975917332 0.043553305392085358 0 -0.0028032114005017857 0.043943585993459197 0 -0.0023725775794958314 0.043708828014473886 0 -0.002684657140054599 0.043591023847719464 0 -0.0028032114005017857 0.043943585993459197 0 -0.0022993800326572972 0.044191122014401903 0 -0.0029557701424491661 0.044443670477087756 0 -0.0024942629543076556 0.044701768559363246 0 -0.0023725775794958314 0.043708828014473886 0 -0.0022993800326572972 0.044191122014401903 0 -0.0028032114005017857 0.043943585993459197 0 -0.0022993800326572972 0.044191122014401903 0 -0.0029557701424491661 0.044443670477087756 0 -0.0028032114005017857 0.043943585993459197 0 -0.0032465694944865909 0.043926504985162991 0 -0.0029557701424491661 0.044443670477087756 0 -0.0028032114005017857 0.043943585993459197 0 -0.0032465694944865909 0.043926504985162991 0 -0.0029557701424491661 0.044443670477087756 0 -0.0036296655327207662 0.044305602520879575 0 -0.0036296655327207662 0.044305602520879575 0 -0.0043117936529712218 0.044390764465468031 0 -0.0042099585739205723 0.043888990571374742 0 -0.0036296655327207662 0.044305602520879575 0 -0.0039026646872462852 0.044823436757072961 0 -0.0043117936529712218 0.044390764465468031 0 -0.0036296655327207662 0.044305602520879575 0 -0.0039026646872462852 0.044823436757072961 0 -0.0033932188545573211 0.044783343440414958 0 -0.0029557701424491661 0.044443670477087756 0 -0.0036296655327207662 0.044305602520879575 0 -0.0033932188545573211 0.044783343440414958 0 -0.0033932188545573211 0.044783343440414958 0 -0.003618451172377002 0.045204592137833267 0 -0.0029352367825473823 0.045046337209757724 0 -0.0029557701424491661 0.044443670477087756 0 -0.0033932188545573211 0.044783343440414958 0 -0.0029352367825473823 0.045046337209757724 0 -0.0039026646872462852 0.044823436757072961 0 -0.0033932188545573211 0.044783343440414958 0 -0.003618451172377002 0.045204592137833267 0 -0.0039026646872462852 0.044823436757072961 0 -0.003618451172377002 0.045204592137833267 0 -0.0042620507620879404 0.045294447603900445 0 -0.003618451172377002 0.045204592137833267 0 -0.0042282684218083863 0.045744820490301971 0 -0.0033087389223486114 0.045416001563863412 0 -0.003618451172377002 0.045204592137833267 0 -0.0029352367825473823 0.045046337209757724 0 -0.0033087389223486114 0.045416001563863412 0 -0.0029557701424491661 0.044443670477087756 0 -0.0029352367825473823 0.045046337209757724 0 -0.0024942629543076556 0.044701768559363246 0 -0.002242515552517184 0.045032053835201577 0 -0.0029352367825473823 0.045046337209757724 0 -0.0024942629543076556 0.044701768559363246 0 -0.01684427405510186 0.046773035200055317 0 -0.017165643321771465 0.046484713210366652 0 -0.016868249866740043 0.046474039247177995 0 -0.0068071578533650786 0.045885613776899738 0 -0.0050720047355407557 0.04551202613043346 0 -0.005525257705265592 0.044998948634345913 0 -0.011725149412355194 0.046164270809232237 0 -0.011715920548422991 0.04622479265736671 0 -0.0068071578533650786 0.045885613776899738 0 -0.0050720047355407557 0.04551202613043346 0 -0.0051192250474399173 0.046189519815453474 0 -0.0042282684218083863 0.045744820490301971 0 -0.0050720047355407557 0.04551202613043346 0 -0.0051192250474399173 0.046189519815453474 0 -0.0042282684218083863 0.045744820490301971 0 -0.0042620507620879404 0.045294447603900445 0 -0.0050720047355407557 0.04551202613043346 0 -0.003618451172377002 0.045204592137833267 0 -0.0042282684218083863 0.045744820490301971 0 -0.0042620507620879404 0.045294447603900445 0 -0.0039026646872462852 0.044823436757072961 0 -0.0042620507620879404 0.045294447603900445 0 -0.0045299009175349706 0.044980386402055386 0 -0.0042620507620879404 0.045294447603900445 0 -0.0050720047355407557 0.04551202613043346 0 -0.0045299009175349706 0.044980386402055386 0 -0.0050720047355407557 0.04551202613043346 0 -0.0045299009175349706 0.044980386402055386 0 -0.005525257705265592 0.044998948634345913 0 -0.0045299009175349706 0.044980386402055386 0 -0.0043117936529712218 0.044390764465468031 0 -0.005525257705265592 0.044998948634345913 0 -0.0039026646872462852 0.044823436757072961 0 -0.0045299009175349706 0.044980386402055386 0 -0.0043117936529712218 0.044390764465468031 0 -0.0043117936529712218 0.044390764465468031 0 -0.005525257705265592 0.044998948634345913 0 -0.0052317466693523676 0.044173477515234802 0 -0.005525257705265592 0.044998948634345913 0 -0.0067288680951348547 0.044784894705254971 0 -0.0052317466693523676 0.044173477515234802 0 -0.0068071578533650786 0.045885613776899738 0 -0.005525257705265592 0.044998948634345913 0 -0.0067288680951348547 0.044784894705254971 0 -0.0067288680951348547 0.044784894705254971 0 -0.0062025139661764251 0.044040529707084185 0 -0.0070629611250261045 0.043524462772062233 0 -0.0062025139661764251 0.044040529707084185 0 -0.0054951575646118335 0.043463477092731191 0 -0.0052317466693523676 0.044173477515234802 0 -0.0067288680951348547 0.044784894705254971 0 -0.0062025139661764251 0.044040529707084185 0 -0.0052317466693523676 0.044173477515234802 0 -0.0054951575646118335 0.043463477092731191 0 -0.0070629611250261045 0.043524462772062233 0 -0.0054953275531768814 0.042900813443783971 0 -0.0062025139661764251 0.044040529707084185 0 -0.0054951575646118335 0.043463477092731191 0 -0.0070629611250261045 0.043524462772062233 0 -0.0043117936529712218 0.044390764465468031 0 -0.0042099585739205723 0.043888990571374742 0 -0.0052317466693523676 0.044173477515234802 0 -0.0042099585739205723 0.043888990571374742 0 -0.0052317466693523676 0.044173477515234802 0 -0.0046764200552674327 0.043546696803856803 0 -0.0054951575646118335 0.043463477092731191 0 -0.0046764200552674327 0.043546696803856803 0 -0.0044673744269372881 0.042872820549025657 0 -0.0054951575646118335 0.043463477092731191 0 -0.0052317466693523676 0.044173477515234802 0 -0.0046764200552674327 0.043546696803856803 0 -0.0040116535403726767 0.043440567666936734 0 -0.0042099585739205723 0.043888990571374742 0 -0.0046764200552674327 0.043546696803856803 0 -0.0040116535403726767 0.043440567666936734 0 -0.0046764200552674327 0.043546696803856803 0 -0.0044673744269372881 0.042872820549025657 0 -0.0044673744269372881 0.042872820549025657 0 -0.0050200085264145485 0.041739047221452656 0 -0.0054953275531768814 0.042900813443783971 0 -0.0054951575646118335 0.043463477092731191 0 -0.0044673744269372881 0.042872820549025657 0 -0.0054953275531768814 0.042900813443783971 0 -0.0059314103250041311 0.042793709869082604 0 -0.0061805159543854484 0.047687753226848713 0 -0.0065586884700475963 0.051478355477085166 0 -0.0061805159543854484 0.047687753226848713 0 -0.0044673744269372881 0.042872820549025657 0 -0.0044984500383318726 0.042637920445144924 0 -0.0042620612658557733 0.042644862287337139 0 -0.0039454894701917405 0.04274591404196125 0 -0.0044673744269372881 0.042872820549025657 0 -0.0042620612658557733 0.042644862287337139 0 -0.0039780595202273446 0.042566369652915506 0 -0.0039454894701917405 0.04274591404196125 0 -0.0042620612658557733 0.042644862287337139 0 -0.012275223485955245 0.052562757868922581 0 -0.0093794901083087499 0.049832615981766491 0 -0.012020229801166725 0.050856173143179341 0 -0.0093229386793075176 0.047798031722832625 0 -0.0061805159543854484 0.047687753226848713 0 -0.0070629611250261045 0.043524462772062233 0 -0.0050200085264145485 0.041739047221452656 0 -0.0054953275531768814 0.042900813443783971 0 -0.0095498736918356985 0.049517506328992947 0 -0.0093794901083087499 0.049832615981766491 0 -0.012020229801166725 0.050856173143179341 0 -0.013885258289993327 0.051978788362359432 0 -0.013548629913747228 0.052062647131254455 0 -0.013951650186480494 0.052361059294090004 0 -0.0065586884700475963 0.051478355477085166 0 -0.013595503085149941 0.052000165258977743 0 -0.014201823752825277 0.051919444873739576 0 -0.013885258289993327 0.051978788362359432 0 -0.013951650186480494 0.052361059294090004 0 -0.013951650186480494 0.052361059294090004 0 -0.014679882044939731 0.052319376787868889 0 -0.014309573328181753 0.052577607580909104 0 -0.014201823752825277 0.051919444873739576 0 -0.013951650186480494 0.052361059294090004 0 -0.014679882044939731 0.052319376787868889 0 -0.012275223485955245 0.052562757868922581 0 -0.012020229801166725 0.050856173143179341 0 -0.014309573328181753 0.052577607580909104 0 -0.013595503085149941 0.052000165258977743 0 -0.013940880905596717 0.052293940371464891 0 -0.015639181823087961 0.051927466505426005 0 -0.014679882044939731 0.052319376787868889 0 -0.015590044050988978 0.052641708329260191 0 -0.015639181823087961 0.051927466505426005 0 -0.015590044050988978 0.052641708329260191 0 -0.016470201640127323 0.052341073403143284 0 -0.015590044050988978 0.052641708329260191 0 -0.016470201640127323 0.052341073403143284 0 -0.016585549329360828 0.053059982083987406 0 -0.015590044050988978 0.052641708329260191 0 -0.016080815891043276 0.053027812780999641 0 -0.015475271667265929 0.053068007215621563 0 -0.015590044050988978 0.052641708329260191 0 -0.016080815891043276 0.053027812780999641 0 -0.016585549329360828 0.053059982083987406 0 -0.014679882044939731 0.052319376787868889 0 -0.015590044050988978 0.052641708329260191 0 -0.014309573328181753 0.052577607580909104 0 -0.015590044050988978 0.052641708329260191 0 -0.015475271667265929 0.053068007215621563 0 -0.014309573328181753 0.052577607580909104 0 -0.015475271667265929 0.053068007215621563 0 -0.014668641565441091 0.053395048280508409 0 -0.016575975599600532 0.053243461843733658 0 -0.017841293861149986 0.052317327430370313 0 -0.014614824323017401 0.048570310117447626 0 -0.016831271100508027 0.050313766244495524 0 -0.017183667099011948 0.048894008584600669 0 -0.018384714759257015 0.048907830705644445 0 -0.015475271667265929 0.053068007215621563 0 -0.014668641565441091 0.053395048280508409 0 -0.014309573328181753 0.052577607580909104 0 -0.014668641565441091 0.053395048280508409 0 -0.016575975599600532 0.053243461843733658 0 -0.014351757904509363 0.054079246310808279 0 -0.016080815891043276 0.053027812780999641 0 -0.015475271667265929 0.053068007215621563 0 -0.016575975599600532 0.053243461843733658 0 -0.012275223485955245 0.052562757868922581 0 -0.014668641565441091 0.053395048280508409 0 -0.014351757904509363 0.054079246310808279 0 -0.0093229386793075176 0.047798031722832625 0 -0.014614824323017401 0.048570310117447626 0 -0.012275223485955245 0.052562757868922581 0 -0.014668641565441091 0.053395048280508409 0 -0.014309573328181753 0.052577607580909104 0 -0.0067288680951348547 0.044784894705254971 0 -0.0070629611250261045 0.043524462772062233 0 -0.0090312156058800202 0.045336300925370873 0 -0.02224523953597159 0.051586398867201608 0 -0.022417302693832616 0.05160175987820563 0 -0.021402175952382269 0.051851932419311242 0 -0.02224523953597159 0.051586398867201608 0 -0.022284636092066511 0.052114747226903832 0 -0.022417302693832616 0.05160175987820563 0 -0.02224523953597159 0.051586398867201608 0 -0.021605366588771137 0.051962281095365145 0 -0.022284636092066511 0.052114747226903832 0 -0.017559896360727113 0.052259202880177338 0 -0.018928223196862395 0.053025893238483481 0 -0.016585549329360828 0.053059982083987406 0 -0.018928223196862395 0.053025893238483481 0 -0.016585549329360828 0.053059982083987406 0 -0.016882003266246098 0.053941926489964771 0 -0.020746551500116315 0.052223172184239081 0 -0.017841293861149986 0.052317327430370313 0 -0.017559896360727113 0.052259202880177338 0 -0.016470201640127323 0.052341073403143284 0 -0.016585549329360828 0.053059982083987406 0 -0.017388925611465555 0.052941419376140664 0 -0.017841293861149986 0.052317327430370313 0 -0.016080815891043276 0.053027812780999641 0 -0.016585549329360828 0.053059982083987406 0 -0.016575975599600532 0.053243461843733658 0 -0.016831271100508027 0.050313766244495524 0 -0.01629060454331532 0.048623462078219985 0 -0.017183667099011948 0.048894008584600669 0 -0.017841293861149986 0.052317327430370313 0 -0.019181102677731269 0.050466493823937995 0 -0.021605366588771137 0.051962281095365145 0 -0.022284636092066511 0.052114747226903832 0 -0.021901893099903376 0.053048268988915057 0 -0.022507362337398095 0.052710031782685178 0 -0.023141893517534894 0.052765614358550282 0 -0.022764729176183933 0.05214191027214489 0 -0.022284636092066511 0.052114747226903832 0 -0.022507362337398095 0.052710031782685178 0 -0.022764729176183933 0.05214191027214489 0 -0.022284636092066511 0.052114747226903832 0 -0.022764729176183933 0.05214191027214489 0 -0.022417302693832616 0.05160175987820563 0 -0.022284636092066511 0.052114747226903832 0 -0.022507362337398095 0.052710031782685178 0 -0.021901893099903376 0.053048268988915057 0 -0.022507362337398095 0.052710031782685178 0 -0.022662507848502992 0.053535202623127498 0 -0.023141893517534894 0.052765614358550282 0 -0.022507362337398095 0.052710031782685178 0 -0.021901893099903376 0.053048268988915057 0 -0.022662507848502992 0.053535202623127498 0 -0.01629060454331532 0.048623462078219985 0 -0.017183667099011948 0.048894008584600669 0 -0.017229128391042556 0.047727576431238511 0 -0.015797923392032009 0.046891818970426935 0 -0.017229128391042556 0.047727576431238511 0 -0.016051482272840197 0.046601152888611656 0 -0.017117416804726369 0.047349701386037321 0 -0.015997092595916307 0.046566268548117531 0 -0.01629060454331532 0.048623462078219985 0 -0.015797923392032009 0.046891818970426935 0 -0.017229128391042556 0.047727576431238511 0 -0.021901893099903376 0.053048268988915057 0 -0.022437872515516717 0.054276277028307625 0 -0.022662507848502992 0.053535202623127498 0 -0.019181102677731269 0.050466493823937995 0 -0.01906443721047835 0.051582809933748863 0 -0.022437872515516717 0.054276277028307625 0 -0.023039192063288288 0.054312757271947273 0 -0.022662507848502992 0.053535202623127498 0 -0.0068071578533650786 0.045885613776899738 0 -0.0067288680951348547 0.044784894705254971 0 -0.0090312156058800202 0.045336300925370873 0 -0.011725149412355194 0.046164270809232237 0 -0.014614824323017401 0.048570310117447626 0 -0.014614824323017401 0.048570310117447626 0 -0.017117416804726369 0.047349701386037321 0 -0.017183667099011948 0.048894008584600669 0 -0.018384714759257015 0.048907830705644445 0 -0.017229128391042556 0.047727576431238511 0 -0.016552524611672691 0.047033982621481216 0 -0.016299885029140614 0.046752572483095167 0 -0.01659784741143714 0.046614815197155247 0 -0.016299885029140614 0.046752572483095167 0 -0.01659784741143714 0.046614815197155247 0 -0.016415313073687914 0.046436170017548309 0 -0.01684427405510186 0.046773035200055317 0 -0.016552524611672691 0.047033982621481216 0 -0.01659784741143714 0.046614815197155247 0 -0.01684427405510186 0.046773035200055317 0 -0.01659784741143714 0.046614815197155247 0 -0.016868249866740043 0.046474039247177995 0 -0.01659784741143714 0.046614815197155247 0 -0.016697249467571854 0.046185482534575675 0 -0.016868249866740043 0.046474039247177995 0 -0.016697249467571854 0.046185482534575675 0 -0.016868249866740043 0.046474039247177995 0 -0.017034231787904221 0.046287312417262423 0 -0.01659784741143714 0.046614815197155247 0 -0.016415313073687914 0.046436170017548309 0 -0.016697249467571854 0.046185482534575675 0 -0.016415313073687914 0.046436170017548309 0 -0.016373678396281278 0.046147387625642466 0 -0.016697249467571854 0.046185482534575675 0 -0.016299885029140614 0.046752572483095167 0 -0.016415313073687914 0.046436170017548309 0 -0.016217012490207267 0.04644790076426273 0 -0.016415313073687914 0.046436170017548309 0 -0.016373678396281278 0.046147387625642466 0 -0.016217012490207267 0.04644790076426273 0 -0.016559952453657524 0.045840147154805388 0 -0.016373678396281278 0.046147387625642466 0 -0.016253201108338253 0.045783813754433376 0 -0.016559952453657524 0.045840147154805388 0 -0.016373678396281278 0.046147387625642466 0 -0.016697249467571854 0.046185482534575675 0 -0.016559952453657524 0.045840147154805388 0 -0.016697249467571854 0.046185482534575675 0 -0.016983126192752312 0.045595802846938031 0 -0.015797923392032009 0.046891818970426935 0 -0.01595159506709154 0.046388317378637453 0 -0.015746827116186239 0.046099051350989073 0 -0.022437872515516717 0.054276277028307625 0 -0.02278828049770075 0.054548596706512416 0 -0.022900944994001828 0.055229406268502146 0 -0.022985879039751481 0.054688458455667277 0 -0.02278828049770075 0.054548596706512416 0 -0.022900944994001828 0.055229406268502146 0 -0.01906443721047835 0.051582809933748863 0 -0.021737770866491216 0.045424178137589401 0 -0.022985879039751481 0.054688458455667277 0 -0.022900944994001828 0.055229406268502146 0 -0.023323843614798407 0.054765613608472895 0 -0.023039192063288288 0.054312757271947273 0 -0.022985879039751481 0.054688458455667277 0 -0.02278828049770075 0.054548596706512416 0 -0.022437872515516717 0.054276277028307625 0 -0.023039192063288288 0.054312757271947273 0 -0.02278828049770075 0.054548596706512416 0 -0.015797923392032009 0.046891818970426935 0 -0.01595159506709154 0.046388317378637453 0 -0.016051482272840197 0.046601152888611656 0 -0.016299885029140614 0.046752572483095167 0 -0.016051482272840197 0.046601152888611656 0 -0.016217012490207267 0.04644790076426273 0 -0.016081314721074907 0.046403869823024774 0 -0.016217012490207267 0.04644790076426273 0 -0.016094412190163856 0.046178775183869272 0 -0.01595159506709154 0.046388317378637453 0 -0.016081314721074907 0.046403869823024774 0 -0.016094412190163856 0.046178775183869272 0 -0.016081314721074907 0.046403869823024774 0 -0.016051482272840197 0.046601152888611656 0 -0.016217012490207267 0.04644790076426273 0 -0.01595159506709154 0.046388317378637453 0 -0.016081314721074907 0.046403869823024774 0 -0.016051482272840197 0.046601152888611656 0 -0.016373678396281278 0.046147387625642466 0 -0.016094412190163856 0.046178775183869272 0 -0.016253201108338253 0.045783813754433376 0 -0.021737770866491216 0.045424178137589401 0 -0.017724643068116115 0.040788659901384146 0 -0.016094412190163856 0.046178775183869272 0 -0.015746827116186239 0.046099051350989073 0 -0.016253201108338253 0.045783813754433376 0 -0.016373678396281278 0.046147387625642466 0 -0.016217012490207267 0.04644790076426273 0 -0.016094412190163856 0.046178775183869272 0 -0.01595159506709154 0.046388317378637453 0 -0.016094412190163856 0.046178775183869272 0 -0.015746827116186239 0.046099051350989073 0 -0.018841212339981088 0.037941963853984545 0 -0.019659038663226273 0.035502587538251758 0 -0.020800848691026854 0.036423212251788926 0 -0.021737770866491216 0.045424178137589401 0 -0.025097390876662358 0.03802448250749535 0 -0.018841212339981088 0.037941963853984545 0 -0.019659038663226273 0.035502587538251758 0 -0.018163112751316199 0.035772576076733655 0 -0.019659038663226273 0.035502587538251758 0 -0.020800848691026854 0.036423212251788926 0 -0.021034520374855061 0.034787708927380347 0 -0.019659038663226273 0.035502587538251758 0 -0.021034520374855061 0.034787708927380347 0 -0.020047170649015636 0.033954473605344419 0 -0.021034520374855061 0.034787708927380347 0 -0.021378627856566502 0.033284838192535721 0 -0.020047170649015636 0.033954473605344419 0 -0.019659038663226273 0.035502587538251758 0 -0.018923646210514594 0.034383134283349714 0 -0.018163112751316199 0.035772576076733655 0 -0.019659038663226273 0.035502587538251758 0 -0.018923646210514594 0.034383134283349714 0 -0.020047170649015636 0.033954473605344419 0 -0.016559952453657524 0.045840147154805388 0 -0.016689313018603991 0.045416503012467399 0 -0.016983126192752312 0.045595802846938031 0 -0.020800848691026854 0.036423212251788926 0 -0.021034520374855061 0.034787708927380347 0 -0.022504549145339031 0.035003750376344206 0 -0.017724643068116115 0.040788659901384146 0 -0.019785375223561347 0.04020618718335546 0 -0.016559952453657524 0.045840147154805388 0 -0.016253201108338253 0.045783813754433376 0 -0.016689313018603991 0.045416503012467399 0 -0.021034520374855061 0.034787708927380347 0 -0.022504549145339031 0.035003750376344206 0 -0.021378627856566502 0.033284838192535721 0 -0.022504549145339031 0.035003750376344206 0 -0.024057811166909849 0.033683823407804646 0 -0.02268031020704071 0.032673954173099415 0 -0.016689313018603991 0.045416503012467399 0 -0.017178586584150054 0.044999510939784097 0 -0.016983126192752312 0.045595802846938031 0 -0.017178586584150054 0.044999510939784097 0 -0.016983126192752312 0.045595802846938031 0 -0.017346330088518377 0.045555348085615163 0 -0.019785375223561347 0.04020618718335546 0 -0.0203203509672924 0.039473829885762812 0 -0.016983126192752312 0.045595802846938031 0 -0.017346330088518377 0.045555348085615163 0 -0.017122293923150823 0.045962196062726904 0 -0.017346330088518377 0.045555348085615163 0 -0.01781722342136537 0.04558630724135887 0 -0.01740349340941234 0.04590388293038565 0 -0.017178586584150054 0.044999510939784097 0 -0.017346330088518377 0.045555348085615163 0 -0.017638435628304878 0.045120585398798228 0 -0.017638435628304878 0.045120585398798228 0 -0.018134569871510655 0.044890469988970574 0 -0.01781722342136537 0.04558630724135887 0 -0.0087231650820137705 0.044248934163780541 0 -0.0095277826747970085 0.044524686966917533 0 -0.0010236976324715348 0.041921926112655203 0 -0.00142109885623053 0.04299092282969226 0 -0.00031797002427080427 0.04399133503766605 0 -0.0017986582297139849 0.042320657332027355 0 -0.0010236976324715348 0.041921926112655203 0 -0.00142109885623053 0.04299092282969226 0 -0.0017100893514503379 0.041669381906823358 0 -0.0017986582297139849 0.042320657332027355 0 -0.0010236976324715348 0.041921926112655203 0 -0.00142109885623053 0.04299092282969226 0 -0.0016193026623775183 0.044099187893997437 0 -0.00031797002427080427 0.04399133503766605 0 -0.0016193026623775183 0.044099187893997437 0 -0.00031797002427080427 0.04399133503766605 0 -0.00059825333081156952 0.044801225586712158 0 -0.0019087204130704008 0.043279238974943936 0 -0.00142109885623053 0.04299092282969226 0 -0.0016193026623775183 0.044099187893997437 0 -0.0019184467591310882 0.044094717994581867 0 -0.0010646382297887483 0.045317614393783331 0 -0.0021125333029762207 0.044540610433239543 0 -0.0016193026623775183 0.044099187893997437 0 -0.0020502681699025131 0.044933008385041134 0 -0.017346330088518377 0.045555348085615163 0 -0.017638435628304878 0.045120585398798228 0 -0.01781722342136537 0.04558630724135887 0 -0.0095277826747970085 0.044524686966917533 0 -0.0061219109985750511 0.045638886512954516 0 -0.00031797002427080427 0.04399133503766605 0 -0.00059825333081156952 0.044801225586712158 0 0.00012189128155445453 0.045571016415324878 0 -0.0023261996874568425 0.045262438876426093 0 -0.0026731083385933057 0.045286601657730775 0 -0.0031986088704396261 0.045539801009351573 0 -0.01781722342136537 0.04558630724135887 0 -0.017513979699938464 0.0461779532403057 0 -0.01740349340941234 0.04590388293038565 0 -0.0010646382297887483 0.045317614393783331 0 -0.0061219109985750511 0.045638886512954516 0 -0.0023261996874568425 0.045262438876426093 0 -0.0022801707983621418 0.045149582648690373 0 -0.0026731083385933057 0.045286601657730775 0 -0.0023261996874568425 0.045262438876426093 0 -0.0020502681699025131 0.044933008385041134 0 -0.0022801707983621418 0.045149582648690373 0 -0.0016193026623775183 0.044099187893997437 0 -0.0023261996874568425 0.045262438876426093 0 -0.0020502681699025131 0.044933008385041134 0 -0.0021031834494270761 0.045079631426089686 0 -0.0020502681699025131 0.044933008385041134 0 -0.0022801707983621418 0.045149582648690373 0 -0.002242515552517184 0.045032053835201577 0 -0.0022801707983621418 0.045149582648690373 0 -0.0026731083385933057 0.045286601657730775 0 -0.002242515552517184 0.045032053835201577 0 -0.0029352367825473823 0.045046337209757724 0 -0.0026731083385933057 0.045286601657730775 0 -0.0042282684218083863 0.045744820490301971 0 -0.0031986088704396261 0.045539801009351573 0 -0.0033087389223486114 0.045416001563863412 0 -0.0026731083385933057 0.045286601657730775 0 -0.0031986088704396261 0.045539801009351573 0 -0.0033087389223486114 0.045416001563863412 0 -0.0029352367825473823 0.045046337209757724 0 -0.0026731083385933057 0.045286601657730775 0 -0.0033087389223486114 0.045416001563863412 0 -0.0042282684218083863 0.045744820490301971 0 -0.0035197896078261316 0.047480625217326149 0 -0.0051192250474399173 0.046189519815453474 0 -0.0037249191495967553 0.046264315488556113 0 -0.0061219109985750511 0.045638886512954516 0 -0.0061219109985750511 0.045638886512954516 0 -0.011715920548422991 0.04622479265736671 0 -0.017513979699938464 0.0461779532403057 0 -0.017248506930897974 0.046171212329325244 0 -0.017165643321771465 0.046484713210366652 0 -0.017165643321771465 0.046484713210366652 0 -0.016868249866740043 0.046474039247177995 0 -0.017034231787904221 0.046287312417262423 0 -0.017248506930897974 0.046171212329325244 0 -0.017165643321771465 0.046484713210366652 0 -0.017034231787904221 0.046287312417262423 0 -0.017248506930897974 0.046171212329325244 0 -0.017034231787904221 0.046287312417262423 0 -0.017122293923150823 0.045962196062726904 0 -0.016697249467571854 0.046185482534575675 0 -0.016983126192752312 0.045595802846938031 0 -0.017122293923150823 0.045962196062726904 0 -0.016697249467571854 0.046185482534575675 0 -0.017034231787904221 0.046287312417262423 0 -0.017122293923150823 0.045962196062726904 0 -0.017346330088518377 0.045555348085615163 0 -0.017122293923150823 0.045962196062726904 0 -0.01740349340941234 0.04590388293038565 0 -0.017513979699938464 0.0461779532403057 0 -0.017248506930897974 0.046171212329325244 0 -0.01740349340941234 0.04590388293038565 0 -0.017248506930897974 0.046171212329325244 0 -0.017122293923150823 0.045962196062726904 0 -0.01740349340941234 0.04590388293038565 0 -0.024847847630629281 0.043887316529359503 0 -0.024673471940822544 0.044994891659778824 0 -0.025269593075460339 0.045232181413000977 0 -0.024847847630629281 0.043887316529359503 0 -0.025940692721618912 0.044621327995263332 0 -0.025269593075460339 0.045232181413000977 0 -0.025940692721618912 0.044621327995263332 0 -0.026196671830532304 0.045597779657643396 0 -0.025269593075460339 0.045232181413000977 0 -0.026196671830532304 0.045597779657643396 0 -0.025269593075460339 0.045232181413000977 0 -0.025426261916158942 0.046574099952185991 0 -0.026196671830532304 0.045597779657643396 0 -0.026287675665551659 0.047001186655122353 0 -0.025426261916158942 0.046574099952185991 0 -0.025296464909358236 0.046289386191494454 0 -0.025269593075460339 0.045232181413000977 0 -0.025426261916158942 0.046574099952185991 0 -0.027076653786619137 0.047205682412394062 0 -0.027754147618782341 0.045176188479400255 0 -0.032136078341136208 0.046153662121599166 0 -0.030358918657466077 0.045231222947198592 0 -0.030563836057179977 0.046531143998587217 0 -0.025296464909358236 0.046289386191494454 0 -0.024673471940822544 0.044994891659778824 0 -0.025269593075460339 0.045232181413000977 0 -0.027754147618782341 0.045176188479400255 0 -0.02616042393673524 0.043990528391520907 0 -0.030358918657466077 0.045231222947198592 0 -0.028090205890007807 0.04416625328125031 0 -0.028585990734838453 0.046489753921811115 0 -0.030358918657466077 0.045231222947198592 0 -0.030563836057179977 0.046531143998587217 0 -0.028585990734838453 0.046489753921811115 0 -0.028090205890007807 0.04416625328125031 0 -0.028585990734838453 0.046489753921811115 0 -0.026196605883666041 0.045310990250587289 0 -0.02417379323585277 0.043751020231119389 0 -0.024099717293953903 0.043360266296316216 0 -0.025511692076697144 0.043357617730903852 0 -0.024847847630629281 0.043887316529359503 0 -0.024673471940822544 0.044994891659778824 0 -0.02417379323585277 0.043751020231119389 0 -0.024847847630629281 0.043887316529359503 0 -0.02417379323585277 0.043751020231119389 0 -0.024099717293953903 0.043360266296316216 0 -0.024847847630629281 0.043887316529359503 0 -0.024099717293953903 0.043360266296316216 0 -0.024840437622190147 0.042086500881918752 0 -0.024148762998740827 0.042711446620065041 0 -0.023300722997231675 0.043657324313138665 0 -0.024099717293953903 0.043360266296316216 0 -0.024902894613390587 0.043689491284396816 0 -0.024598905118751596 0.044113544467928534 0 -0.024099717293953903 0.043360266296316216 0 -0.024840437622190147 0.042086500881918752 0 -0.022902757078425106 0.040932465878327336 0 -0.024840437622190147 0.042086500881918752 0 -0.026431742917709417 0.042734032351677179 0 -0.026748472327499852 0.040296975118863203 0 -0.024847847630629281 0.043887316529359503 0 -0.024840437622190147 0.042086500881918752 0 -0.026431742917709417 0.042734032351677179 0 -0.026001655986220163 0.044454107347533175 0 -0.026162005385736604 0.042342894084847579 0 -0.025940692721618912 0.044621327995263332 0 -0.02588766719306734 0.041921398543800448 0 -0.027292452952158319 0.043907476938746338 0 -0.024847847630629281 0.043887316529359503 0 -0.025940692721618912 0.044621327995263332 0 -0.026431742917709417 0.042734032351677179 0 -0.02588766719306734 0.041921398543800448 0 -0.027409467714513854 0.040219365418846062 0 -0.026124294095973354 0.03921396368300184 0 -0.026162005385736604 0.042342894084847579 0 -0.026416501730714016 0.039722026546807905 0 -0.02588766719306734 0.041921398543800448 0 -0.028572130352516878 0.04158410358820417 0 -0.027409467714513854 0.040219365418846062 0 -0.028572130352516878 0.04158410358820417 0 -0.028933666445124441 0.03926343162541681 0 -0.027409467714513854 0.040219365418846062 0 -0.028572130352516878 0.04158410358820417 0 -0.030368149644296263 0.040094367609810902 0 -0.028933666445124441 0.03926343162541681 0 -0.028572130352516878 0.04158410358820417 0 -0.030908457102362726 0.041767333038924132 0 -0.030368149644296263 0.040094367609810902 0 -0.028572130352516878 0.04158410358820417 0 -0.030908457102362726 0.041767333038924132 0 -0.029468135278496076 0.04396519188129161 0 -0.028572130352516878 0.04158410358820417 0 -0.027292452952158319 0.043907476938746338 0 -0.029468135278496076 0.04396519188129161 0 -0.02588766719306734 0.041921398543800448 0 -0.028572130352516878 0.04158410358820417 0 -0.027292452952158319 0.043907476938746338 0 -0.025097390876662358 0.03802448250749535 0 -0.024529518395490651 0.036604727040759136 0 -0.018923646210514594 0.034383134283349714 0 -0.018163112751316199 0.035772576076733655 0 -0.017574999634854944 0.033680990667809094 0 -0.029556480832695308 0.0415162406704392 0 -0.031601217029939212 0.041779479204013266 0 -0.03075220213014317 0.039316694691120355 0 -0.030908457102362726 0.041767333038924132 0 -0.032101103492063153 0.039661219799755745 0 -0.030368149644296263 0.040094367609810902 0 -0.030899646642519377 0.041772264638012535 0 -0.024529518395490651 0.036604727040759136 0 -0.029556480832695308 0.0415162406704392 0 -0.029927127632271781 0.043722706673490916 0 -0.0283818030808318 0.043891358969348933 0 -0.029556480832695308 0.0415162406704392 0 -0.030950102617567504 0.042917788815576105 0 -0.029927127632271781 0.043722706673490916 0 -0.030899646642519377 0.041772264638012535 0 -0.028836634924325099 0.043936005144766442 0 -0.032287552485883719 0.04414047181482849 0 -0.031601217029939212 0.041779479204013266 0 -0.031872312349801007 0.043328420203700993 0 -0.029556480832695308 0.0415162406704392 0 -0.030950102617567504 0.042917788815576105 0 -0.031601217029939212 0.041779479204013266 0 -0.030950102617567504 0.042917788815576105 0 -0.031601217029939212 0.041779479204013266 0 -0.031872312349801007 0.043328420203700993 0 -0.031872312349801007 0.043328420203700993 0 -0.030858579418921131 0.043971854103331223 0 -0.031124239937486597 0.045259633263059609 0 -0.032287552485883719 0.04414047181482849 0 -0.031872312349801007 0.043328420203700993 0 -0.030827596166218239 0.044956397340432455 0 -0.032433610058243197 0.042481979256506971 0 -0.028672253139859601 0.0480697698455156 0 -0.021737770866491216 0.045424178137589401 0 -0.028672253139859601 0.0480697698455156 0 -0.030950102617567504 0.042917788815576105 0 -0.031872312349801007 0.043328420203700993 0 -0.030858579418921131 0.043971854103331223 0 -0.030950102617567504 0.042917788815576105 0 -0.030858579418921131 0.043971854103331223 0 -0.029927127632271781 0.043722706673490916 0 -0.030858579418921131 0.043971854103331223 0 -0.030293049640031815 0.04480264257822672 0 -0.031124239937486597 0.045259633263059609 0 -0.030293049640031815 0.04480264257822672 0 -0.029927127632271781 0.043722706673490916 0 -0.029175696983510857 0.045307705030082787 0 -0.030858579418921131 0.043971854103331223 0 -0.030293049640031815 0.04480264257822672 0 -0.029927127632271781 0.043722706673490916 0 -0.029927127632271781 0.043722706673490916 0 -0.029175696983510857 0.045307705030082787 0 -0.0283818030808318 0.043891358969348933 0 -0.028672253139859601 0.0480697698455156 0 -0.02676232001870096 0.051693424285300889 0 -0.029175696983510857 0.045307705030082787 0 -0.030383105696556917 0.045784914965336522 0 -0.028638109659868297 0.046871754854281654 0 -0.030383105696556917 0.045784914965336522 0 -0.031247139651406557 0.045301373344116255 0 -0.029482644082333188 0.04852610371856788 0 -0.030383105696556917 0.045784914965336522 0 -0.028638109659868297 0.046871754854281654 0 -0.029482644082333188 0.04852610371856788 0 -0.030293049640031815 0.04480264257822672 0 -0.029175696983510857 0.045307705030082787 0 -0.030383105696556917 0.045784914965336522 0 -0.023546207514554433 0.054994725027571224 0 -0.02360393223519805 0.054391907576269362 0 -0.024699185073028821 0.05396595657666451 0 -0.030293049640031815 0.04480264257822672 0 -0.030383105696556917 0.045784914965336522 0 -0.031124239937486597 0.045259633263059609 0 -0.023546207514554433 0.054994725027571224 0 -0.02360393223519805 0.054391907576269362 0 -0.023323843614798407 0.054765613608472895 0 -0.030840055206081698 0.046272377838401928 0 -0.028672253139859601 0.0480697698455156 0 -0.023039192063288288 0.054312757271947273 0 -0.022985879039751481 0.054688458455667277 0 -0.023323843614798407 0.054765613608472895 0 -0.023039192063288288 0.054312757271947273 0 -0.02360393223519805 0.054391907576269362 0 -0.023323843614798407 0.054765613608472895 0 -0.022900944994001828 0.055229406268502146 0 -0.023546207514554433 0.054994725027571224 0 -0.023323843614798407 0.054765613608472895 0 -0.026196671830532304 0.045597779657643396 0 -0.027292452952158319 0.043907476938746338 0 -0.027493839797608603 0.046168265093430021 0 -0.025940692721618912 0.044621327995263332 0 -0.026196671830532304 0.045597779657643396 0 -0.027292452952158319 0.043907476938746338 0 -0.028836634924325099 0.043936005144766442 0 -0.027657439317585703 0.04595377697281329 0 -0.027292452952158319 0.043907476938746338 0 -0.029468135278496076 0.04396519188129161 0 -0.027493839797608603 0.046168265093430021 0 -0.029175696983510857 0.045307705030082787 0 -0.0283818030808318 0.043891358969348933 0 -0.027493839797608603 0.046168265093430021 0 -0.029175696983510857 0.045307705030082787 0 -0.027493839797608603 0.046168265093430021 0 -0.028638109659868297 0.046871754854281654 0 -0.026196671830532304 0.045597779657643396 0 -0.027493839797608603 0.046168265093430021 0 -0.026287675665551659 0.047001186655122353 0 -0.026287675665551659 0.047001186655122353 0 -0.026463773809796563 0.048942152120240494 0 -0.025426261916158942 0.046574099952185991 0 -0.026345802008464484 0.048888411528131628 0 -0.025944717583490429 0.047411000011975249 0 -0.027493839797608603 0.046168265093430021 0 -0.026287675665551659 0.047001186655122353 0 -0.026463773809796563 0.048942152120240494 0 -0.027493839797608603 0.046168265093430021 0 -0.028638109659868297 0.046871754854281654 0 -0.026463773809796563 0.048942152120240494 0 -0.028638109659868297 0.046871754854281654 0 -0.026463773809796563 0.048942152120240494 0 -0.029482644082333188 0.04852610371856788 0 -0.02676232001870096 0.051693424285300889 0 -0.026713097631536675 0.051465006635135618 0 -0.026463773809796563 0.048942152120240494 0 -0.029482644082333188 0.04852610371856788 0 -0.026485419787342618 0.051741738768944265 0 -0.026463773809796563 0.048942152120240494 0 -0.025199712345130233 0.050450787883000454 0 -0.025396306593832102 0.049437010106731023 0 -0.026463773809796563 0.048942152120240494 0 -0.026485419787342618 0.051741738768944265 0 -0.025199712345130233 0.050450787883000454 0 -0.022662507848502992 0.053535202623127498 0 -0.023513239484300674 0.053917083397693584 0 -0.023900665283170735 0.053109746419701689 0 -0.02360393223519805 0.054391907576269362 0 -0.023513239484300674 0.053917083397693584 0 -0.024699185073028821 0.05396595657666451 0 -0.023513239484300674 0.053917083397693584 0 -0.024699185073028821 0.05396595657666451 0 -0.023900665283170735 0.053109746419701689 0 -0.023039192063288288 0.054312757271947273 0 -0.022662507848502992 0.053535202623127498 0 -0.023513239484300674 0.053917083397693584 0 -0.023039192063288288 0.054312757271947273 0 -0.02360393223519805 0.054391907576269362 0 -0.023513239484300674 0.053917083397693584 0 -0.024699185073028821 0.05396595657666451 0 -0.023900665283170735 0.053109746419701689 0 -0.026485419787342618 0.051741738768944265 0 -0.022662507848502992 0.053535202623127498 0 -0.023900665283170735 0.053109746419701689 0 -0.023141893517534894 0.052765614358550282 0 -0.023900665283170735 0.053109746419701689 0 -0.023141893517534894 0.052765614358550282 0 -0.024030863652015715 0.052134317521969835 0 -0.022764729176183933 0.05214191027214489 0 -0.024030863652015715 0.052134317521969835 0 -0.022417302693832616 0.05160175987820563 0 -0.023141893517534894 0.052765614358550282 0 -0.022764729176183933 0.05214191027214489 0 -0.024030863652015715 0.052134317521969835 0 -0.024030863652015715 0.052134317521969835 0 -0.025520274484085941 0.051111028114893417 0 -0.026485419787342618 0.051741738768944265 0 -0.023900665283170735 0.053109746419701689 0 -0.024030863652015715 0.052134317521969835 0 -0.026485419787342618 0.051741738768944265 0 -0.022505472836730669 0.052482226844688784 0 -0.022417302693832616 0.05160175987820563 0 -0.021402175952382269 0.051851932419311242 0 -0.024030863652015715 0.052134317521969835 0 -0.025520274484085941 0.051111028114893417 0 -0.022417302693832616 0.05160175987820563 0 -0.023971557558989887 0.051811368432165807 0 -0.022569095684204701 0.051671202324937777 0 -0.026485419787342618 0.051741738768944265 0 -0.025932823259306414 0.051849307093140645 0 -0.025199712345130233 0.050450787883000454 0 -0.025520274484085941 0.051111028114893417 0 -0.026485419787342618 0.051741738768944265 0 -0.025932823259306414 0.051849307093140645 0 -0.025520274484085941 0.051111028114893417 0 -0.025932823259306414 0.051849307093140645 0 -0.025777248848240362 0.052197374084553105 0 -0.025932823259306414 0.051849307093140645 0 -0.024949250559840305 0.052065811147361613 0 -0.025777248848240362 0.052197374084553105 0 -0.024949250559840305 0.052065811147361613 0 -0.024239521298083069 0.052848837045369114 0 -0.024295552759284605 0.052935090791850957 0 -0.024949250559840305 0.052065811147361613 0 -0.024455181983805543 0.051549885309229979 0 -0.024239521298083069 0.052848837045369114 0 -0.024949250559840305 0.052065811147361613 0 -0.024455181983805543 0.051549885309229979 0 -0.025199712345130233 0.050450787883000454 0 -0.025932823259306414 0.051849307093140645 0 -0.024949250559840305 0.052065811147361613 0 -0.025199712345130233 0.050450787883000454 0 -0.025199712345130233 0.050450787883000454 0 -0.024135221750085898 0.050255451715970456 0 -0.024903087707094398 0.04954127870154356 0 -0.024455181983805543 0.051549885309229979 0 -0.025199712345130233 0.050450787883000454 0 -0.024135221750085898 0.050255451715970456 0 -0.024455181983805543 0.051549885309229979 0 -0.024135221750085898 0.050255451715970456 0 -0.023856433411040056 0.051784164375567071 0 -0.024826357026216678 0.048791928081117236 0 -0.024135221750085898 0.050255451715970456 0 -0.024903087707094398 0.04954127870154356 0 -0.027076653786619137 0.047205682412394062 0 -0.027671443232265447 0.04912808489104889 0 -0.032136078341136208 0.046153662121599166 0 -0.030793363832747039 0.04808542798586652 0 -0.030563836057179977 0.046531143998587217 0 -0.024826357026216678 0.048791928081117236 0 -0.025050343761264835 0.048912631205711196 0 -0.024903087707094398 0.04954127870154356 0 -0.026463773809796563 0.048942152120240494 0 -0.025050343761264835 0.048912631205711196 0 -0.025396306593832102 0.049437010106731023 0 -0.027076653786619137 0.047205682412394062 0 -0.025944717583490429 0.047411000011975249 0 -0.025199712345130233 0.050450787883000454 0 -0.025396306593832102 0.049437010106731023 0 -0.024903087707094398 0.04954127870154356 0 -0.025050343761264835 0.048912631205711196 0 -0.025396306593832102 0.049437010106731023 0 -0.024903087707094398 0.04954127870154356 0 -0.028585990734838453 0.046489753921811115 0 -0.028323450814795766 0.048589426364910163 0 -0.025779036307762054 0.047239901686533393 0 -0.030793363832747039 0.04808542798586652 0 -0.030563836057179977 0.046531143998587217 0 -0.028585990734838453 0.046489753921811115 0 -0.030793363832747039 0.04808542798586652 0 -0.028585990734838453 0.046489753921811115 0 -0.028323450814795766 0.048589426364910163 0 -0.027671443232265447 0.04912808489104889 0 -0.026678389107658813 0.050949400554081092 0 -0.030793363832747039 0.04808542798586652 0 -0.028323450814795766 0.048589426364910163 0 -0.029489590547820584 0.050120800969569619 0 -0.026678389107658813 0.050949400554081092 0 -0.026103153743297317 0.052626857422768722 0 -0.028323450814795766 0.048589426364910163 0 -0.029489590547820584 0.050120800969569619 0 -0.026974892056331874 0.05003786854493681 0 -0.029489590547820584 0.050120800969569619 0 -0.027900772673128856 0.052331937191973155 0 -0.026974892056331874 0.05003786854493681 0 -0.024455181983805543 0.051549885309229979 0 -0.023856433411040056 0.051784164375567071 0 -0.024239521298083069 0.052848837045369114 0 -0.023856433411040056 0.051784164375567071 0 -0.024239521298083069 0.052848837045369114 0 -0.024186594158641599 0.05311205588665753 0 -0.024239521298083069 0.052848837045369114 0 -0.024186594158641599 0.05311205588665753 0 -0.024574296469377508 0.053467299723204784 0 -0.024186594158641599 0.05311205588665753 0 -0.024574296469377508 0.053467299723204784 0 -0.025730362055141929 0.053809325516768335 0 -0.024574296469377508 0.053467299723204784 0 -0.024168053104357434 0.053467227550819285 0 -0.025298980415542526 0.053618397335290488 0 -0.024239521298083069 0.052848837045369114 0 -0.024574296469377508 0.053467299723204784 0 -0.024168053104357434 0.053467227550819285 0 -0.024239521298083069 0.052848837045369114 0 -0.024168053104357434 0.053467227550819285 0 -0.024295552759284605 0.052935090791850957 0 -0.024949250559840305 0.052065811147361613 0 -0.024295552759284605 0.052935090791850957 0 -0.025777248848240362 0.052197374084553105 0 -0.024295552759284605 0.052935090791850957 0 -0.023958292154746513 0.052628857385281912 0 -0.023854765710741771 0.052536863426718483 0 -0.02434437850719167 0.05285332039376392 0 -0.024757014011769905 0.052358541778938505 0 -0.024295552759284605 0.052935090791850957 0 -0.023958292154746513 0.052628857385281912 0 -0.023819163915020706 0.053139264871196079 0 -0.024168053104357434 0.053467227550819285 0 -0.024295552759284605 0.052935090791850957 0 -0.023819163915020706 0.053139264871196079 0 -0.024168053104357434 0.053467227550819285 0 -0.023819163915020706 0.053139264871196079 0 -0.023091937464079702 0.053652383229743389 0 -0.023958292154746513 0.052628857385281912 0 -0.023819163915020706 0.053139264871196079 0 -0.023755351764711632 0.052956664042810117 0 -0.023819163915020706 0.053139264871196079 0 -0.023755351764711632 0.052956664042810117 0 -0.023091937464079702 0.053652383229743389 0 -0.023091937464079702 0.053652383229743389 0 -0.019667493009413967 0.054324098722207746 0 -0.021141467030952196 0.053302659362404629 0 -0.022722429096846779 0.053643833244139905 0 -0.022079235139314063 0.053768441942225562 0 -0.023755351764711632 0.052956664042810117 0 -0.023091937464079702 0.053652383229743389 0 -0.023903867594142904 0.053307780837671119 0 -0.023091937464079702 0.053652383229743389 0 -0.024079342829263235 0.053312304514595434 0 -0.022631005472104157 0.052941889881224752 0 -0.024079342829263235 0.053312304514595434 0 -0.025902917095536035 0.052983204157739272 0 -0.025187431327839033 0.053424203390767866 0 -0.024168053104357434 0.053467227550819285 0 -0.024079342829263235 0.053312304514595434 0 -0.025187431327839033 0.053424203390767866 0 -0.024168053104357434 0.053467227550819285 0 -0.025298980415542526 0.053618397335290488 0 -0.025187431327839033 0.053424203390767866 0 -0.024168053104357434 0.053467227550819285 0 -0.023091937464079702 0.053652383229743389 0 -0.024079342829263235 0.053312304514595434 0 -0.021402175952382269 0.051851932419311242 0 -0.022287678744943341 0.051213153072897526 0 -0.020570531970083825 0.050023335843418601 0 -0.022505472836730669 0.052482226844688784 0 -0.021402175952382269 0.051851932419311242 0 -0.022287678744943341 0.051213153072897526 0 -0.022505472836730669 0.052482226844688784 0 -0.022287678744943341 0.051213153072897526 0 -0.023131715948570337 0.052062131144924924 0 -0.022287678744943341 0.051213153072897526 0 -0.023929167543570416 0.052046259622329095 0 -0.023041485337296157 0.049558109946748322 0 -0.022287678744943341 0.051213153072897526 0 -0.023131715948570337 0.052062131144924924 0 -0.023929167543570416 0.052046259622329095 0 -0.023971557558989887 0.051811368432165807 0 -0.024757014011769905 0.052358541778938505 0 -0.022505472836730669 0.052482226844688784 0 -0.023131715948570337 0.052062131144924924 0 -0.023854765710741771 0.052536863426718483 0 -0.023131715948570337 0.052062131144924924 0 -0.023854765710741771 0.052536863426718483 0 -0.023929167543570416 0.052046259622329095 0 -0.023958292154746513 0.052628857385281912 0 -0.023854765710741771 0.052536863426718483 0 -0.023929167543570416 0.052046259622329095 0 -0.023958292154746513 0.052628857385281912 0 -0.023755351764711632 0.052956664042810117 0 -0.023929167543570416 0.052046259622329095 0 -0.023755351764711632 0.052956664042810117 0 -0.023929167543570416 0.052046259622329095 0 -0.023966162630044252 0.053041332417190785 0 -0.023755351764711632 0.052956664042810117 0 -0.023903867594142904 0.053307780837671119 0 -0.023966162630044252 0.053041332417190785 0 -0.023903867594142904 0.053307780837671119 0 -0.023966162630044252 0.053041332417190785 0 -0.024054048644138515 0.053131255705715107 0 -0.023966162630044252 0.053041332417190785 0 -0.024054048644138515 0.053131255705715107 0 -0.02424420454234899 0.052938907092548011 0 -0.024054048644138515 0.053131255705715107 0 -0.02424420454234899 0.052938907092548011 0 -0.024055959008698381 0.053099090577909951 0 -0.023925201326396108 0.051922577979617322 0 -0.023499886718152174 0.051209082820443091 0 -0.023929167543570416 0.052046259622329095 0 -0.023966162630044252 0.053041332417190785 0 -0.02424420454234899 0.052938907092548011 0 -0.022287678744943341 0.051213153072897526 0 -0.023041485337296157 0.049558109946748322 0 -0.021571221723979895 0.049367849432089932 0 -0.02424420454234899 0.052938907092548011 0 -0.023941601683827061 0.053117142809276298 0 -0.024055959008698381 0.053099090577909951 0 -0.023499886718152174 0.051209082820443091 0 -0.023224040007744771 0.050212166248926722 0 -0.023041485337296157 0.049558109946748322 0 -0.021596498657335438 0.047438012108375845 0 -0.021571221723979895 0.049367849432089932 0 -0.021596498657335438 0.047438012108375845 0 -0.020379364315517783 0.048420739726166125 0 -0.021571221723979895 0.049367849432089932 0 -0.019966531915121884 0.046983007374705704 0 -0.021596498657335438 0.047438012108375845 0 -0.020379364315517783 0.048420739726166125 0 -0.022287678744943341 0.051213153072897526 0 -0.021571221723979895 0.049367849432089932 0 -0.020570531970083825 0.050023335843418601 0 -0.020379364315517783 0.048420739726166125 0 -0.021571221723979895 0.049367849432089932 0 -0.020570531970083825 0.050023335843418601 0 -0.018130442319767567 0.050770059638250827 0 -0.019811805660196777 0.053196082671957343 0 -0.013671277562708811 0.053192216641040374 0 -0.013914540695545348 0.052827872481986761 0 -0.01500356206629575 0.053462056572149398 0 -0.014207337337883213 0.052533480581236823 0 -0.015662023835816927 0.052580666570730156 0 -0.014882638226866262 0.051946079906731057 0 -0.013611665065078967 0.052305752480574425 0 -0.014207337337883213 0.052533480581236823 0 -0.013915449057530281 0.051812668272518042 0 -0.013611665065078967 0.052305752480574425 0 -0.013691472834070502 0.052653409945046387 0 -0.014207337337883213 0.052533480581236823 0 -0.013691472834070502 0.052653409945046387 0 -0.014207337337883213 0.052533480581236823 0 -0.013914540695545348 0.052827872481986761 0 -0.014207337337883213 0.052533480581236823 0 -0.013914540695545348 0.052827872481986761 0 -0.01500356206629575 0.053462056572149398 0 -0.023511425570379656 0.052837767663670654 0 -0.023941601683827061 0.053117142809276298 0 -0.023875324287190525 0.052897655432913943 0 -0.019966531915121884 0.046983007374705704 0 -0.019907575818809451 0.045629012900756785 0 -0.021596498657335438 0.047438012108375845 0 -0.018130442319767567 0.050770059638250827 0 -0.023224040007744771 0.050212166248926722 0 -0.019811805660196777 0.053196082671957343 0 -0.018616158386990617 0.053575282086720577 0 -0.023941601683827061 0.053117142809276298 0 -0.023875324287190525 0.052897655432913943 0 -0.024055959008698381 0.053099090577909951 0 -0.023875324287190525 0.052897655432913943 0 -0.024055959008698381 0.053099090577909951 0 -0.024059554738343734 0.053040855276441458 0 -0.013476792306791951 0.052452083861080016 0 -0.018616158386990617 0.053575282086720577 0 -0.014207337337883213 0.052533480581236823 0 -0.01500356206629575 0.053462056572149398 0 -0.016496825442823129 0.053602690272528619 0 -0.015662023835816927 0.052580666570730156 0 -0.016964077263695612 0.052598749198015909 0 -0.01647081887120723 0.053694597022161734 0 -0.014207337337883213 0.052533480581236823 0 -0.015662023835816927 0.052580666570730156 0 -0.01647081887120723 0.053694597022161734 0 -0.015662023835816927 0.052580666570730156 0 -0.016964077263695612 0.052598749198015909 0 -0.015871286515520219 0.051878146533008221 0 -0.016964077263695612 0.052598749198015909 0 -0.018062061233561681 0.052823042858450055 0 -0.018181987623139453 0.052060050638003764 0 -0.016964077263695612 0.052598749198015909 0 -0.018181987623139453 0.052060050638003764 0 -0.01694777482766616 0.05187785359966627 0 -0.016964077263695612 0.052598749198015909 0 -0.018062061233561681 0.052823042858450055 0 -0.017786786323291722 0.053658549439510546 0 -0.016964077263695612 0.052598749198015909 0 -0.01647081887120723 0.053694597022161734 0 -0.017786786323291722 0.053658549439510546 0 -0.018616158386990617 0.053575282086720577 0 -0.017215738613815642 0.053575548821589776 0 -0.024054048644138515 0.053131255705715107 0 -0.024055959008698381 0.053099090577909951 0 -0.024059554738343734 0.053040855276441458 0 -0.022079235139314063 0.053768441942225562 0 -0.018616158386990617 0.053575282086720577 0 -0.023903867594142904 0.053307780837671119 0 -0.024054048644138515 0.053131255705715107 0 -0.024059554738343734 0.053040855276441458 0 -0.019667493009413967 0.054324098722207746 0 -0.016531972344169428 0.053776488506764517 0 -0.017786786323291722 0.053658549439510546 0 -0.019667493009413967 0.054324098722207746 0 -0.019290786033643727 0.053040045056945394 0 -0.021141467030952196 0.053302659362404629 0 -0.019667493009413967 0.054324098722207746 0 -0.017786786323291722 0.053658549439510546 0 -0.019290786033643727 0.053040045056945394 0 -0.019290786033643727 0.053040045056945394 0 -0.018181987623139453 0.052060050638003764 0 -0.02052113573401276 0.052189111761730321 0 -0.018062061233561681 0.052823042858450055 0 -0.017786786323291722 0.053658549439510546 0 -0.019290786033643727 0.053040045056945394 0 -0.018062061233561681 0.052823042858450055 0 -0.019290786033643727 0.053040045056945394 0 -0.018181987623139453 0.052060050638003764 0 -0.018584117951737818 0.051058671806108076 0 -0.018181987623139453 0.052060050638003764 0 -0.02052113573401276 0.052189111761730321 0 -0.018584117951737818 0.051058671806108076 0 -0.018181987623139453 0.052060050638003764 0 -0.01689058818076063 0.051105045047165572 0 -0.018584117951737818 0.051058671806108076 0 -0.016137696709022764 0.049999631865460435 0 -0.019054611828735527 0.049999454501574191 0 -0.016137696709022764 0.049999631865460435 0 -0.01689058818076063 0.051105045047165572 0 -0.015411940995095659 0.051156016948664736 0 -0.018584117951737818 0.051058671806108076 0 -0.016137696709022764 0.049999631865460435 0 -0.01689058818076063 0.051105045047165572 0 -0.018181987623139453 0.052060050638003764 0 -0.01689058818076063 0.051105045047165572 0 -0.01694777482766616 0.05187785359966627 0 -0.016964077263695612 0.052598749198015909 0 -0.01694777482766616 0.05187785359966627 0 -0.015871286515520219 0.051878146533008221 0 -0.01689058818076063 0.051105045047165572 0 -0.01694777482766616 0.05187785359966627 0 -0.015871286515520219 0.051878146533008221 0 -0.015871286515520219 0.051878146533008221 0 -0.014882638226866262 0.051946079906731057 0 -0.015411940995095659 0.051156016948664736 0 -0.015662023835816927 0.052580666570730156 0 -0.015871286515520219 0.051878146533008221 0 -0.014882638226866262 0.051946079906731057 0 -0.014882638226866262 0.051946079906731057 0 -0.015411940995095659 0.051156016948664736 0 -0.014433648341956413 0.051391962391963093 0 -0.01689058818076063 0.051105045047165572 0 -0.015871286515520219 0.051878146533008221 0 -0.015411940995095659 0.051156016948664736 0 -0.016137696709022764 0.049999631865460435 0 -0.015411940995095659 0.051156016948664736 0 -0.014541379799878755 0.050522515346212354 0 -0.016137696709022764 0.049999631865460435 0 -0.014541379799878755 0.050522515346212354 0 -0.013220295186394683 0.049999836210394444 0 -0.015411940995095659 0.051156016948664736 0 -0.014541379799878755 0.050522515346212354 0 -0.014433648341956413 0.051391962391963093 0 -0.012906079174727348 0.051308057495920351 0 -0.014404214764083906 0.050601000799104644 0 -0.012069715913054831 0.051564369772534369 0 -0.014541379799878755 0.050522515346212354 0 -0.013220295186394683 0.049999836210394444 0 -0.013498626331164948 0.051162114927671289 0 -0.014541379799878755 0.050522515346212354 0 -0.014433648341956413 0.051391962391963093 0 -0.013498626331164948 0.051162114927671289 0 -0.014433648341956413 0.051391962391963093 0 -0.013915449057530281 0.051812668272518042 0 -0.014207337337883213 0.052533480581236823 0 -0.014882638226866262 0.051946079906731057 0 -0.013915449057530281 0.051812668272518042 0 -0.014882638226866262 0.051946079906731057 0 -0.014433648341956413 0.051391962391963093 0 -0.013915449057530281 0.051812668272518042 0 -0.024288296729928945 0.05238686238789772 0 -0.022631005472104157 0.052941889881224752 0 -0.022439106026897252 0.051644391294396158 0 -0.024079342829263235 0.053312304514595434 0 -0.024288296729928945 0.05238686238789772 0 -0.025902917095536035 0.052983204157739272 0 -0.024079342829263235 0.053312304514595434 0 -0.024288296729928945 0.05238686238789772 0 -0.022631005472104157 0.052941889881224752 0 -0.023091937464079702 0.053652383229743389 0 -0.022631005472104157 0.052941889881224752 0 -0.021141467030952196 0.053302659362404629 0 -0.022631005472104157 0.052941889881224752 0 -0.021141467030952196 0.053302659362404629 0 -0.02052113573401276 0.052189111761730321 0 -0.019290786033643727 0.053040045056945394 0 -0.021141467030952196 0.053302659362404629 0 -0.02052113573401276 0.052189111761730321 0 -0.022631005472104157 0.052941889881224752 0 -0.02052113573401276 0.052189111761730321 0 -0.022439106026897252 0.051644391294396158 0 -0.02052113573401276 0.052189111761730321 0 -0.020678134324379833 0.050980073385939878 0 -0.022439106026897252 0.051644391294396158 0 -0.018584117951737818 0.051058671806108076 0 -0.02052113573401276 0.052189111761730321 0 -0.020678134324379833 0.050980073385939878 0 -0.018584117951737818 0.051058671806108076 0 -0.019054611828735527 0.049999454501574191 0 -0.020678134324379833 0.050980073385939878 0 -0.019054611828735527 0.049999454501574191 0 -0.020678134324379833 0.050980073385939878 0 -0.02197142784394893 0.049999600076854576 0 -0.020678134324379833 0.050980073385939878 0 -0.02197142784394893 0.049999600076854576 0 -0.022439106026897252 0.051644391294396158 0 -0.02197142784394893 0.049999600076854576 0 -0.022439106026897252 0.051644391294396158 0 -0.023883780554640657 0.051144485828585121 0 -0.024288296729928945 0.05238686238789772 0 -0.022439106026897252 0.051644391294396158 0 -0.023883780554640657 0.051144485828585121 0 -0.024288296729928945 0.05238686238789772 0 -0.023883780554640657 0.051144485828585121 0 -0.025681141622312144 0.051324094283641535 0 -0.02197142784394893 0.049999600076854576 0 -0.023883780554640657 0.051144485828585121 0 -0.024888372290746308 0.049999481937780622 0 -0.023883780554640657 0.051144485828585121 0 -0.024888372290746308 0.049999481937780622 0 -0.025681141622312144 0.051324094283641535 0 -0.024888372290746308 0.049999481937780622 0 -0.027803109355651195 0.049999757994460499 0 -0.025681141622312144 0.051324094283641535 0 -0.02780493475753202 0.050000061957930678 0 -0.027632250265016471 0.051557580612518077 0 -0.027803109355651195 0.049999757994460499 0 -0.027132370287024969 0.05155274873126682 0 -0.025681141622312144 0.051324094283641535 0 -0.027132370287024969 0.05155274873126682 0 -0.025681141622312144 0.051324094283641535 0 -0.026078801094844097 0.052162045236117748 0 -0.024288296729928945 0.05238686238789772 0 -0.025681141622312144 0.051324094283641535 0 -0.026078801094844097 0.052162045236117748 0 -0.027132370287024969 0.05155274873126682 0 -0.026078801094844097 0.052162045236117748 0 -0.027358884588550344 0.052657796701361739 0 -0.027632250265016471 0.051557580612518077 0 -0.027424746868693502 0.052677321598618161 0 -0.026078801094844097 0.052162045236117748 0 -0.027358884588550344 0.052657796701361739 0 -0.025902917095536035 0.052983204157739272 0 -0.024288296729928945 0.05238686238789772 0 -0.026078801094844097 0.052162045236117748 0 -0.025902917095536035 0.052983204157739272 0 -0.028557370730508385 0.052826689872379679 0 -0.03012926869192694 0.052550415320391994 0 -0.029050482221008166 0.05320282163800856 0 -0.028557370730508385 0.052826689872379679 0 -0.028886508871360302 0.052141757728453975 0 -0.03012926869192694 0.052550415320391994 0 -0.027358884588550344 0.052657796701361739 0 -0.028557370730508385 0.052826689872379679 0 -0.028886508871360302 0.052141757728453975 0 -0.028168454123167597 0.051594487362558755 0 -0.027358884588550344 0.052657796701361739 0 -0.028886508871360302 0.052141757728453975 0 -0.028886508871360302 0.052141757728453975 0 -0.030371995342636401 0.05187217586838596 0 -0.03012926869192694 0.052550415320391994 0 -0.028886508871360302 0.052141757728453975 0 -0.030371995342636401 0.05187217586838596 0 -0.030690761375630978 0.050786134772683539 0 -0.029097515634553331 0.05213419204503951 0 -0.030511622279719618 0.051123742943954199 0 -0.028886508871360302 0.052141757728453975 0 -0.03038684267208221 0.051445938285786461 0 -0.029119804730847576 0.051068453421236386 0 -0.028168454123167597 0.051594487362558755 0 -0.028886508871360302 0.052141757728453975 0 -0.029119804730847576 0.051068453421236386 0 -0.027805975305173376 0.049999987955016582 0 -0.028168454123167597 0.051594487362558755 0 -0.029119804730847576 0.051068453421236386 0 -0.027805975305173376 0.049999987955016582 0 -0.029119804730847576 0.051068453421236386 0 -0.030017195801412766 0.049999601058796792 0 -0.03038684267208221 0.051445938285786461 0 -0.029119804730847576 0.051068453421236386 0 -0.030017195801412766 0.049999601058796792 0 -0.03038684267208221 0.051445938285786461 0 -0.030017195801412766 0.049999601058796792 0 -0.032230266180153656 0.049999992266229448 0 -0.032232490081466537 0.049995879867791075 0 -0.036151956216736954 0.050604253108800887 0 -0.038721713732197655 0.049999481399710485 0 -0.030690761375630978 0.050786134772683539 0 -0.032232490081466537 0.049995879867791075 0 -0.033098634829188081 0.050902533671235289 0 -0.030511622279719618 0.051123742943954199 0 -0.032230267209517077 0.050000129516756205 0 -0.032232490081466537 0.049995879867791075 0 -0.033098634829188081 0.050902533671235289 0 -0.036151956216736954 0.050604253108800887 0 -0.033098634829188081 0.050902533671235289 0 -0.036151956216736954 0.050604253108800887 0 -0.035329303163057907 0.05199277575476461 0 -0.033098634829188081 0.050902533671235289 0 -0.03175676566502246 0.051778426832478373 0 -0.035329303163057907 0.05199277575476461 0 -0.030690761375630978 0.050786134772683539 0 -0.033098634829188081 0.050902533671235289 0 -0.03175676566502246 0.051778426832478373 0 -0.030371995342636401 0.05187217586838596 0 -0.030690761375630978 0.050786134772683539 0 -0.03175676566502246 0.051778426832478373 0 -0.036151956216736954 0.050604253108800887 0 -0.038721713732197655 0.049999481399710485 0 -0.040405408491518711 0.051340482855000237 0 -0.036151956216736954 0.050604253108800887 0 -0.039981369247023543 0.052146817920147227 0 -0.040405408491518711 0.051340482855000237 0 -0.039981369247023543 0.052146817920147227 0 -0.041206533315224232 0.050895222532863993 0 -0.040405408491518711 0.051340482855000237 0 -0.036151956216736954 0.050604253108800887 0 -0.039981369247023543 0.052146817920147227 0 -0.035329303163057907 0.05199277575476461 0 -0.03687899428166324 0.053692839610450585 0 -0.039981369247023543 0.052146817920147227 0 -0.035329303163057907 0.05199277575476461 0 -0.03687899428166324 0.053692839610450585 0 -0.034473921938820269 0.054720917694523682 0 -0.03829432218153804 0.056098235313336457 0 -0.03687899428166324 0.053692839610450585 0 -0.039981369247023543 0.052146817920147227 0 -0.03829432218153804 0.056098235313336457 0 -0.040372529008172578 0.052182008644347182 0 -0.040731475267114875 0.052853127121775235 0 -0.039981369247023543 0.052146817920147227 0 -0.041206533315224232 0.050895222532863993 0 -0.043346031496077853 0.04996939142114859 0 -0.030371995342636401 0.05187217586838596 0 -0.03175676566502246 0.051778426832478373 0 -0.03012926869192694 0.052550415320391994 0 -0.03175676566502246 0.051778426832478373 0 -0.030756718504753498 0.052619560042920017 0 -0.03012926869192694 0.052550415320391994 0 -0.031779138800899755 0.051584370630147931 0 -0.032211447423660812 0.054213875887845875 0 -0.03175676566502246 0.051778426832478373 0 -0.035329303163057907 0.05199277575476461 0 -0.034473921938820269 0.054720917694523682 0 -0.03687899428166324 0.053692839610450585 0 -0.035329303163057907 0.05199277575476461 0 -0.034473921938820269 0.054720917694523682 0 -0.03012926869192694 0.052550415320391994 0 -0.030028970852214218 0.052925160885143215 0 -0.029050482221008166 0.05320282163800856 0 -0.030756718504753498 0.052619560042920017 0 -0.03012926869192694 0.052550415320391994 0 -0.030028970852214218 0.052925160885143215 0 -0.030028970852214218 0.052925160885143215 0 -0.030067464258024902 0.053501664134496696 0 -0.029050482221008166 0.05320282163800856 0 -0.030756718504753498 0.052619560042920017 0 -0.030067464258024902 0.053501664134496696 0 -0.031121328320249851 0.053459889222654676 0 -0.032211447423660812 0.054213875887845875 0 -0.037860951753361245 0.052459765976584957 0 -0.030756718504753498 0.052619560042920017 0 -0.030028970852214218 0.052925160885143215 0 -0.030067464258024902 0.053501664134496696 0 -0.030067464258024902 0.053501664134496696 0 -0.031121328320249851 0.053459889222654676 0 -0.030730701131907449 0.054311104992843612 0 -0.030067464258024902 0.053501664134496696 0 -0.029317888499976897 0.054539853396878259 0 -0.030730701131907449 0.054311104992843612 0 -0.030067464258024902 0.053501664134496696 0 -0.029050482221008166 0.05320282163800856 0 -0.028666686787558713 0.053765950043616451 0 -0.030067464258024902 0.053501664134496696 0 -0.029317888499976897 0.054539853396878259 0 -0.028666686787558713 0.053765950043616451 0 -0.04358022910160618 0.048234560755281188 0 -0.042287028142679844 0.04925682677044068 0 -0.043346031496077853 0.04996939142114859 0 -0.04358022910160618 0.048234560755281188 0 -0.042287028142679844 0.04925682677044068 0 -0.042994256634034764 0.047651198819014501 0 -0.041206533315224232 0.050895222532863993 0 -0.042287028142679844 0.04925682677044068 0 -0.043346031496077853 0.04996939142114859 0 -0.04358022910160618 0.048234560755281188 0 -0.043346031496077853 0.04996939142114859 0 -0.044620381894544807 0.048196458108260731 0 -0.040731475267114875 0.052853127121775235 0 -0.037860951753361245 0.052459765976584957 0 -0.034473921938820269 0.054720917694523682 0 -0.03829432218153804 0.056098235313336457 0 -0.037042543387613973 0.058987551342429966 0 -0.039487020836033823 0.050283819470806825 0 -0.040042891437952088 0.051183734649823141 0 -0.039050358508238431 0.051297717049499564 0 -0.037860951753361245 0.052459765976584957 0 -0.034398312297538376 0.053217057050632857 0 -0.04358022910160618 0.048234560755281188 0 -0.044620381894544807 0.048196458108260731 0 -0.044140867218611643 0.046827680926716256 0 -0.037860951753361245 0.052459765976584957 0 -0.043593383539533688 0.048269422049875416 0 -0.04358022910160618 0.048234560755281188 0 -0.04386402217301099 0.047221952548239486 0 -0.042994256634034764 0.047651198819014501 0 -0.04358022910160618 0.048234560755281188 0 -0.04386402217301099 0.047221952548239486 0 -0.044140867218611643 0.046827680926716256 0 -0.044468325260994777 0.046913765521063203 0 -0.043593383539533688 0.048269422049875416 0 -0.04386402217301099 0.047221952548239486 0 -0.044550196934050046 0.045893731097519451 0 -0.043836429051942093 0.046382542988752808 0 -0.044550196934050046 0.045893731097519451 0 -0.045297860547159029 0.046148661127066053 0 -0.044734254691722063 0.044193760688247458 0 -0.044550196934050046 0.045893731097519451 0 -0.044734254691722063 0.044193760688247458 0 -0.044350398123893749 0.04539432897542324 0 -0.043593383539533688 0.048269422049875416 0 -0.046069941058990281 0.044658683831590495 0 -0.045028047394329314 0.048041579722930543 0 -0.045101778802723709 0.047441170761609107 0 -0.044564843229078346 0.047176189728269015 0 -0.044550196934050046 0.045893731097519451 0 -0.043836429051942093 0.046382542988752808 0 -0.044350398123893749 0.04539432897542324 0 -0.04386402217301099 0.047221952548239486 0 -0.044550196934050046 0.045893731097519451 0 -0.045297860547159029 0.046148661127066053 0 -0.040042891437952088 0.051183734649823141 0 -0.039328378667440551 0.051760313763828739 0 -0.039050358508238431 0.051297717049499564 0 -0.045028047394329314 0.048041579722930543 0 -0.045506980426047124 0.047667889898336167 0 -0.045101778802723709 0.047441170761609107 0 -0.043593383539533688 0.048269422049875416 0 -0.042864981161557257 0.049337018327529632 0 -0.045506980426047124 0.047667889898336167 0 -0.045101778802723709 0.047441170761609107 0 -0.045390688931501701 0.046961565508977822 0 -0.046069941058990281 0.044658683831590495 0 -0.048681828800084877 0.044654452778065283 0 -0.045101778802723709 0.047441170761609107 0 -0.044564843229078346 0.047176189728269015 0 -0.045390688931501701 0.046961565508977822 0 -0.034398312297538376 0.053217057050632857 0 -0.037718585013516333 0.052520278100127382 0 -0.029317888499976897 0.054539853396878259 0 -0.030730701131907449 0.054311104992843612 0 -0.030273712829022466 0.055390041162258125 0 -0.039328378667440551 0.051760313763828739 0 -0.039050358508238431 0.051297717049499564 0 -0.038585538932023523 0.052339105167247435 0 -0.045506980426047124 0.047667889898336167 0 -0.046000223968436796 0.047284023079061953 0 -0.045390688931501701 0.046961565508977822 0 -0.046000223968436796 0.047284023079061953 0 -0.046261088486787123 0.046707738577739272 0 -0.045390688931501701 0.046961565508977822 0 -0.042864981161557257 0.049337018327529632 0 -0.037718585013516333 0.052520278100127382 0 -0.037718585013516333 0.052520278100127382 0 -0.050665143778100989 0.043316848998399549 0 -0.029317888499976897 0.054539853396878259 0 -0.029060270249456146 0.055538081388910601 0 -0.028180007973402671 0.055252560217189765 0 -0.029317888499976897 0.054539853396878259 0 -0.030273712829022466 0.055390041162258125 0 -0.029060270249456146 0.055538081388910601 0 -0.030273712829022466 0.055390041162258125 0 -0.029060270249456146 0.055538081388910601 0 -0.028754662879068811 0.056577458833097546 0 -0.028180007973402671 0.055252560217189765 0 -0.027104940526856792 0.05587370380969877 0 -0.028025435620770811 0.05598929253658181 0 -0.029060270249456146 0.055538081388910601 0 -0.028180007973402671 0.055252560217189765 0 -0.028025435620770811 0.05598929253658181 0 -0.029317888499976897 0.054539853396878259 0 -0.028180007973402671 0.055252560217189765 0 -0.027527890961153899 0.054287855730207078 0 -0.029317888499976897 0.054539853396878259 0 -0.027527890961153899 0.054287855730207078 0 -0.028666686787558713 0.053765950043616451 0 -0.027527890961153899 0.054287855730207078 0 -0.026062319720478254 0.053948132782647977 0 -0.026090672463280614 0.053926916002030575 0 -0.027398106830004511 0.054703014770663798 0 -0.025865589537560092 0.053187971037790445 0 -0.027527890961153899 0.054287855730207078 0 -0.025621214913825827 0.053784395377519112 0 -0.025568260539036748 0.053795406918555208 0 -0.028180007973402671 0.055252560217189765 0 -0.027527890961153899 0.054287855730207078 0 -0.027104940526856792 0.05587370380969877 0 -0.027527890961153899 0.054287855730207078 0 -0.025621214913825827 0.053784395377519112 0 -0.026062319720478254 0.053948132782647977 0 -0.025621214913825827 0.053784395377519112 0 -0.025792031440799258 0.053746330120132656 0 -0.026062319720478254 0.053948132782647977 0 -0.025621214913825827 0.053784395377519112 0 -0.025250392611408958 0.053513731043262486 0 -0.025649932983586806 0.053511405060261974 0 -0.025862432567515137 0.053302408652212412 0 -0.025865589537560092 0.053187971037790445 0 -0.025621214913825827 0.053784395377519112 0 -0.025649932983586806 0.053511405060261974 0 -0.025792031440799258 0.053746330120132656 0 -0.025765799715123817 0.05367918498292152 0 -0.025730362055141929 0.053809325516768335 0 -0.025615101848691695 0.052629119965843726 0 -0.025765799715123817 0.05367918498292152 0 -0.025730362055141929 0.053809325516768335 0 -0.026090672463280614 0.053926916002030575 0 -0.025649932983586806 0.053511405060261974 0 -0.025765799715123817 0.05367918498292152 0 -0.025615101848691695 0.052629119965843726 0 -0.025765799715123817 0.05367918498292152 0 -0.026062319720478254 0.053948132782647977 0 -0.026090672463280614 0.053926916002030575 0 -0.025649932983586806 0.053511405060261974 0 -0.025792031440799258 0.053746330120132656 0 -0.025765799715123817 0.05367918498292152 0 -0.025792031440799258 0.053746330120132656 0 -0.025765799715123817 0.05367918498292152 0 -0.026062319720478254 0.053948132782647977 0 -0.026103153743297317 0.052626857422768722 0 -0.025788913919476568 0.053586777785385543 0 -0.024574296469377508 0.053467299723204784 0 -0.025730362055141929 0.053809325516768335 0 -0.025298980415542526 0.053618397335290488 0 -0.025730362055141929 0.053809325516768335 0 -0.025298980415542526 0.053618397335290488 0 -0.026090672463280614 0.053926916002030575 0 -0.026090672463280614 0.053926916002030575 0 -0.02599807881831797 0.053549886312595545 0 -0.027378491763073391 0.053442984574142594 0 -0.025298980415542526 0.053618397335290488 0 -0.02599807881831797 0.053549886312595545 0 -0.025187431327839033 0.053424203390767866 0 -0.025298980415542526 0.053618397335290488 0 -0.026090672463280614 0.053926916002030575 0 -0.02599807881831797 0.053549886312595545 0 -0.025902917095536035 0.052983204157739272 0 -0.02599807881831797 0.053549886312595545 0 -0.025187431327839033 0.053424203390767866 0 -0.025902917095536035 0.052983204157739272 0 -0.02599807881831797 0.053549886312595545 0 -0.027378491763073391 0.053442984574142594 0 -0.027358884588550344 0.052657796701361739 0 -0.025902917095536035 0.052983204157739272 0 -0.027378491763073391 0.053442984574142594 0 -0.027358884588550344 0.052657796701361739 0 -0.028557370730508385 0.052826689872379679 0 -0.027378491763073391 0.053442984574142594 0 -0.028557370730508385 0.052826689872379679 0 -0.027378491763073391 0.053442984574142594 0 -0.029050482221008166 0.05320282163800856 0 -0.027527890961153899 0.054287855730207078 0 -0.027378491763073391 0.053442984574142594 0 -0.028666686787558713 0.053765950043616451 0 -0.027378491763073391 0.053442984574142594 0 -0.029050482221008166 0.05320282163800856 0 -0.028666686787558713 0.053765950043616451 0 -0.027527890961153899 0.054287855730207078 0 -0.026090672463280614 0.053926916002030575 0 -0.027378491763073391 0.053442984574142594 0 -0.049999462479540881 0.049998154331527128 0 -0.046399982448550002 0.049559163222307606 0 -0.043584975160045974 0.049996473265830843 0 -0.049995641578500762 0.044991609457099763 0 -0.050206567452673941 0.044870690838256948 0 -0.050320208970236528 0.042859637293542308 0 -0.049995641578500762 0.044991609457099763 0 -0.050206567452673941 0.044870690838256948 0 -0.049179821296597453 0.048389547994024583 0 -0.050206567452673941 0.044870690838256948 0 -0.049179821296597453 0.048389547994024583 0 -0.050584087650828551 0.044776442960962524 0 -0.049995641578500762 0.044991609457099763 0 -0.049999462479540881 0.049998154331527128 0 -0.049179821296597453 0.048389547994024583 0 -0.049999462479540881 0.049998154331527128 0 -0.049179821296597453 0.048389547994024583 0 -0.046399982448550002 0.049559163222307606 0 -0.046399982448550002 0.049559163222307606 0 -0.043008851943095526 0.050818690352465314 0 -0.043584975160045974 0.049996473265830843 0 -0.049179821296597453 0.048389547994024583 0 -0.046399982448550002 0.049559163222307606 0 -0.045387903604160826 0.05150070574809535 0 -0.046399982448550002 0.049559163222307606 0 -0.045387903604160826 0.05150070574809535 0 -0.043008851943095526 0.050818690352465314 0 -0.045387903604160826 0.05150070574809535 0 -0.042382707125348598 0.051235441152736663 0 -0.043008851943095526 0.050818690352465314 0 -0.04896398853463968 0.048387382936832514 0 -0.047844586033727099 0.048125742354232094 0 -0.050206567452673941 0.044870690838256948 0 -0.050584087650828551 0.044776442960962524 0 -0.050386462807506797 0.04463257563534314 0 -0.047844586033727099 0.048125742354232094 0 -0.044962472417854463 0.047823980496441369 0 -0.050584087650828551 0.044776442960962524 0 -0.047360051743757306 0.044334924861141538 0 -0.050386462807506797 0.04463257563534314 0 -0.042382707125348598 0.051235441152736663 0 -0.041773701019394018 0.050849618012701096 0 -0.043008851943095526 0.050818690352465314 0 -0.042382707125348598 0.051235441152736663 0 -0.041773701019394018 0.050849618012701096 0 -0.042351140774141149 0.04830641842706658 0 -0.041773701019394018 0.050849618012701096 0 -0.043008851943095526 0.050818690352465314 0 -0.041436630820678846 0.050872797399849144 0 -0.043008851943095526 0.050818690352465314 0 -0.043584975160045974 0.049996473265830843 0 -0.041436630820678846 0.050872797399849144 0 -0.043584975160045974 0.049996473265830843 0 -0.041436630820678846 0.050872797399849144 0 -0.038721713732197655 0.049999481399710485 0 -0.041436630820678846 0.050872797399849144 0 -0.038721713732197655 0.049999481399710485 0 -0.040405408491518711 0.051340482855000237 0 -0.041773701019394018 0.050849618012701096 0 -0.040405408491518711 0.051340482855000237 0 -0.041430184630110077 0.05057658851746457 0 -0.041773701019394018 0.050849618012701096 0 -0.041436630820678846 0.050872797399849144 0 -0.040405408491518711 0.051340482855000237 0 -0.041773701019394018 0.050849618012701096 0 -0.041430184630110077 0.05057658851746457 0 -0.042046961894431502 0.049028090357159042 0 -0.041206533315224232 0.050895222532863993 0 -0.040405408491518711 0.051340482855000237 0 -0.041430184630110077 0.05057658851746457 0 -0.041206533315224232 0.050895222532863993 0 -0.042287028142679844 0.04925682677044068 0 -0.041430184630110077 0.05057658851746457 0 -0.042287028142679844 0.04925682677044068 0 -0.041430184630110077 0.05057658851746457 0 -0.042046961894431502 0.049028090357159042 0 -0.042287028142679844 0.04925682677044068 0 -0.042046961894431502 0.049028090357159042 0 -0.042994256634034764 0.047651198819014501 0 -0.042046961894431502 0.049028090357159042 0 -0.04233477239705552 0.047068870576679515 0 -0.042994256634034764 0.047651198819014501 0 -0.041773701019394018 0.050849618012701096 0 -0.042046961894431502 0.049028090357159042 0 -0.042351140774141149 0.04830641842706658 0 -0.042046961894431502 0.049028090357159042 0 -0.04233477239705552 0.047068870576679515 0 -0.042351140774141149 0.04830641842706658 0 -0.04233477239705552 0.047068870576679515 0 -0.043227219626789083 0.045480588199360385 0 -0.043462091043851042 0.045022055514068661 0 -0.04233477239705552 0.047068870576679515 0 -0.043387986205281982 0.046189774928323879 0 -0.043227219626789083 0.045480588199360385 0 -0.04233477239705552 0.047068870576679515 0 -0.042994256634034764 0.047651198819014501 0 -0.043387986205281982 0.046189774928323879 0 -0.04386402217301099 0.047221952548239486 0 -0.042994256634034764 0.047651198819014501 0 -0.043836429051942093 0.046382542988752808 0 -0.042994256634034764 0.047651198819014501 0 -0.043836429051942093 0.046382542988752808 0 -0.043387986205281982 0.046189774928323879 0 -0.043836429051942093 0.046382542988752808 0 -0.043387986205281982 0.046189774928323879 0 -0.044350398123893749 0.04539432897542324 0 -0.043387986205281982 0.046189774928323879 0 -0.043603333506680823 0.045452600910422018 0 -0.043227219626789083 0.045480588199360385 0 -0.043387986205281982 0.046189774928323879 0 -0.043603333506680823 0.045452600910422018 0 -0.044209241005008865 0.045006065824186994 0 -0.043603333506680823 0.045452600910422018 0 -0.044209241005008865 0.045006065824186994 0 -0.043846515765002293 0.044928068826319542 0 -0.043387986205281982 0.046189774928323879 0 -0.044350398123893749 0.04539432897542324 0 -0.044209241005008865 0.045006065824186994 0 -0.044350398123893749 0.04539432897542324 0 -0.044209241005008865 0.045006065824186994 0 -0.044549152781555974 0.044641469236095688 0 -0.044209241005008865 0.045006065824186994 0 -0.044549152781555974 0.044641469236095688 0 -0.044846525528575445 0.044100881904178477 0 -0.044734254691722063 0.044193760688247458 0 -0.044549152781555974 0.044641469236095688 0 -0.044846525528575445 0.044100881904178477 0 -0.044734254691722063 0.044193760688247458 0 -0.044350398123893749 0.04539432897542324 0 -0.044549152781555974 0.044641469236095688 0 -0.044209241005008865 0.045006065824186994 0 -0.044407843868789661 0.044449137529752616 0 -0.044846525528575445 0.044100881904178477 0 -0.044407843868789661 0.044449137529752616 0 -0.044622817039794802 0.043554441535814385 0 -0.043846515765002293 0.044928068826319542 0 -0.044209241005008865 0.045006065824186994 0 -0.044407843868789661 0.044449137529752616 0 -0.043846515765002293 0.044928068826319542 0 -0.044407843868789661 0.044449137529752616 0 -0.044846525528575445 0.044100881904178477 0 -0.044622817039794802 0.043554441535814385 0 -0.046595638055049994 0.043562309053795704 0 -0.044846525528575445 0.044100881904178477 0 -0.044622817039794802 0.043554441535814385 0 -0.046069941058990281 0.044658683831590495 0 -0.045066439910512977 0.044328830175718245 0 -0.044622817039794802 0.043554441535814385 0 -0.044388914182601887 0.041372136656055374 0 -0.044588020150203814 0.042054695905641641 0 -0.044622817039794802 0.043554441535814385 0 -0.043846515765002293 0.044928068826319542 0 -0.043490577727590039 0.04549839513644402 0 -0.0447532070000103 0.043508803501788082 0 -0.044170550256959019 0.043396555552970784 0 -0.043846515765002293 0.044928068826319542 0 -0.043227219626789083 0.045480588199360385 0 -0.043490577727590039 0.04549839513644402 0 -0.043603333506680823 0.045452600910422018 0 -0.043846515765002293 0.044928068826319542 0 -0.043227219626789083 0.045480588199360385 0 -0.043227219626789083 0.045480588199360385 0 -0.043462091043851042 0.045022055514068661 0 -0.043490577727590039 0.04549839513644402 0 -0.043462091043851042 0.045022055514068661 0 -0.043490577727590039 0.04549839513644402 0 -0.045349293581765183 0.044218547568719825 0 -0.044388914182601887 0.041372136656055374 0 -0.046368784122814817 0.040404225869618247 0 -0.045408294429728699 0.041494647549216973 0 -0.044170550256959019 0.043396555552970784 0 -0.046599714374861212 0.04262903560277536 0 -0.043490577727590039 0.04549839513644402 0 -0.045349293581765183 0.044218547568719825 0 -0.047044838088893676 0.044933373869690742 0 -0.045349293581765183 0.044218547568719825 0 -0.044455359717556542 0.043261491627176983 0 -0.047890275551495977 0.041952379057768184 0 -0.044487466980694321 0.04598049325149562 0 -0.048391168790620706 0.044276759163915255 0 -0.043462091043851042 0.045022055514068661 0 -0.045349293581765183 0.044218547568719825 0 -0.044455359717556542 0.043261491627176983 0 -0.042739356674665149 0.046881611157541865 0 -0.044487466980694321 0.04598049325149562 0 -0.04233477239705552 0.047068870576679515 0 -0.044141727722037075 0.048793539978078934 0 -0.042351140774141149 0.04830641842706658 0 -0.04233477239705552 0.047068870576679515 0 -0.043462091043851042 0.045022055514068661 0 -0.044455359717556542 0.043261491627176983 0 -0.044962472417854463 0.047823980496441369 0 -0.042667606757031087 0.048256652505847847 0 -0.047360051743757306 0.044334924861141538 0 -0.044141727722037075 0.048793539978078934 0 -0.042351140774141149 0.04830641842706658 0 -0.047360051743757306 0.044334924861141538 0 -0.044141727722037075 0.048793539978078934 0 -0.049363420990121851 0.046582539544220508 0 -0.049995641578500762 0.044991609457099763 0 -0.050148545658675506 0.041060798022601687 0 -0.049998261360065813 0.038365040325467448 0 -0.047360051743757306 0.044334924861141538 0 -0.050386462807506797 0.04463257563534314 0 -0.049363420990121851 0.046582539544220508 0 -0.050386462807506797 0.04463257563534314 0 -0.049363420990121851 0.046582539544220508 0 -0.050320208970236528 0.042859637293542308 0 -0.050206567452673941 0.044870690838256948 0 -0.050386462807506797 0.04463257563534314 0 -0.050320208970236528 0.042859637293542308 0 -0.047890275551495977 0.041952379057768184 0 -0.048489618512960804 0.042890589579355126 0 -0.050320208970236528 0.042859637293542308 0 -0.048391168790620706 0.044276759163915255 0 -0.050009137131208255 0.043122342089102803 0 -0.045349293581765183 0.044218547568719825 0 -0.047890275551495977 0.041952379057768184 0 -0.048489618512960804 0.042890589579355126 0 -0.045349293581765183 0.044218547568719825 0 -0.048489618512960804 0.042890589579355126 0 -0.047044838088893676 0.044933373869690742 0 -0.048489618512960804 0.042890589579355126 0 -0.047044838088893676 0.044933373869690742 0 -0.049301074092957094 0.041529544179814935 0 -0.046368784122814817 0.040404225869618247 0 -0.046726866404345174 0.041393936317414733 0 -0.045408294429728699 0.041494647549216973 0 -0.046599714374861212 0.04262903560277536 0 -0.048923268991001571 0.041732131434157306 0 -0.046368784122814817 0.040404225869618247 0 -0.047987345031437922 0.041342347458862456 0 -0.046726866404345174 0.041393936317414733 0 -0.046368784122814817 0.040404225869618247 0 -0.049301074092957094 0.041529544179814935 0 -0.047987345031437922 0.041342347458862456 0 -0.049301074092957094 0.041529544179814935 0 -0.047987345031437922 0.041342347458862456 0 -0.049523136286981059 0.041110759213985555 0 -0.048489618512960804 0.042890589579355126 0 -0.049301074092957094 0.041529544179814935 0 -0.050320208970236528 0.042859637293542308 0 -0.049301074092957094 0.041529544179814935 0 -0.050148545658675506 0.041060798022601687 0 -0.050320208970236528 0.042859637293542308 0 -0.049301074092957094 0.041529544179814935 0 -0.050148545658675506 0.041060798022601687 0 -0.049523136286981059 0.041110759213985555 0 -0.049999799929235637 0.038356264945389101 0 -0.050750115808928555 0.039060691187312251 0 -0.050148545658675506 0.041060798022601687 0 -0.049998261360065813 0.038365040325467448 0 -0.049523136286981059 0.041110759213985555 0 -0.049995641578500762 0.044991609457099763 0 -0.050148545658675506 0.041060798022601687 0 -0.050320208970236528 0.042859637293542308 0 -0.050612855880230484 0.032535130443503008 0 -0.050148507499094518 0.031550920548635807 0 -0.050928210667111784 0.03257727374992974 0 -0.050074502921157449 0.031527620148487069 0 -0.050811814934389653 0.03141601598914362 0 -0.050612855880230484 0.032535130443503008 0 -0.049999677506224631 0.032212820310720099 0 -0.050585737943124209 0.033242910451150583 0 -0.050612855880230484 0.032535130443503008 0 -0.049999677506224631 0.032212820310720099 0 -0.050148507499094518 0.031550920548635807 0 -0.050928210667111784 0.03257727374992974 0 -0.050843801478441739 0.032886833897263101 0 -0.050766913054044939 0.03272988055980728 0 -0.050612855880230484 0.032535130443503008 0 -0.050928210667111784 0.03257727374992974 0 -0.050843801478441739 0.032886833897263101 0 -0.050843801478441739 0.032886833897263101 0 -0.050585737943124209 0.033242910451150583 0 -0.050908356250082824 0.033146881025202059 0 -0.050843801478441739 0.032886833897263101 0 -0.050908356250082824 0.033146881025202059 0 -0.050766913054044939 0.03272988055980728 0 -0.049999677506224631 0.032212820310720099 0 -0.050585737943124209 0.033242910451150583 0 -0.049999896006492774 0.034488868426957003 0 -0.050585737943124209 0.033242910451150583 0 -0.049999896006492774 0.034488868426957003 0 -0.050908356250082824 0.033146881025202059 0 -0.050612855880230484 0.032535130443503008 0 -0.050843801478441739 0.032886833897263101 0 -0.050585737943124209 0.033242910451150583 0 -0.050000074055027773 0.034491668943032822 0 -0.05134241464231664 0.036144213600914542 0 -0.051899828831327544 0.035026398282331332 0 -0.050000146099469893 0.034491020104018388 0 -0.051204650914937859 0.034119593909182407 0 -0.050000074055027773 0.034491668943032822 0 -0.049999815378526144 0.036423504901581277 0 -0.05134241464231664 0.036144213600914542 0 -0.050000086752370519 0.038355404649325367 0 -0.049999815378526144 0.036423504901581277 0 -0.05134241464231664 0.036144213600914542 0 -0.050000086752370519 0.038355404649325367 0 -0.05134241464231664 0.036144213600914542 0 -0.052221758825423008 0.037061220471728294 0 -0.05134241464231664 0.036144213600914542 0 -0.052221758825423008 0.037061220471728294 0 -0.051899828831327544 0.035026398282331332 0 -0.052221758825423008 0.037061220471728294 0 -0.051899828831327544 0.035026398282331332 0 -0.053490060771283238 0.035380822721116159 0 -0.051204650914937859 0.034119593909182407 0 -0.052437416836095083 0.033765366684330882 0 -0.050750115808928555 0.039060691187312251 0 -0.050467649203820179 0.039110918020923681 0 -0.047987345031437922 0.041342347458862456 0 -0.049523136286981059 0.041110759213985555 0 -0.047148235617826155 0.042261121837395402 0 -0.052221758825423008 0.037061220471728294 0 -0.053490060771283238 0.035380822721116159 0 -0.053952864714355148 0.036102162210359438 0 -0.046726866404345174 0.041393936317414733 0 -0.047148235617826155 0.042261121837395402 0 -0.045408294429728699 0.041494647549216973 0 -0.047148235617826155 0.042261121837395402 0 -0.045458919865833371 0.041930552446931009 0 -0.045408294429728699 0.041494647549216973 0 -0.047987345031437922 0.041342347458862456 0 -0.046726866404345174 0.041393936317414733 0 -0.047148235617826155 0.042261121837395402 0 -0.05061377907065201 0.032508732056938973 0 -0.050323888901555827 0.032481013359494507 0 -0.050093935416087455 0.032249817831646814 0 -0.050467649203820179 0.039110918020923681 0 -0.050184234667870559 0.036870627691358043 0 -0.053490060771283238 0.035380822721116159 0 -0.053952864714355148 0.036102162210359438 0 -0.054824935845780777 0.03571122163242034 0 -0.052437416836095083 0.033765366684330882 0 -0.050184234667870559 0.036870627691358043 0 -0.05061377907065201 0.032508732056938973 0 -0.050323888901555827 0.032481013359494507 0 -0.050510932421402518 0.032577424592833117 0 -0.050273950035916129 0.032570359151781671 0 -0.050510932421402518 0.032577424592833117 0 -0.050766913054044939 0.03272988055980728 0 -0.050323888901555827 0.032481013359494507 0 -0.050273950035916129 0.032570359151781671 0 -0.050049698813233609 0.032436795823238003 0 -0.050323888901555827 0.032481013359494507 0 -0.050273950035916129 0.032570359151781671 0 -0.050510932421402518 0.032577424592833117 0 -0.050908356250082824 0.033146881025202059 0 -0.05061377907065201 0.032508732056938973 0 -0.050766913054044939 0.03272988055980728 0 -0.05061377907065201 0.032508732056938973 0 -0.050510932421402518 0.032577424592833117 0 -0.050766913054044939 0.03272988055980728 0 -0.050811814934389653 0.03141601598914362 0 -0.050695367768358583 0.031353826651124087 0 -0.050928210667111784 0.03257727374992974 0 -0.050766913054044939 0.03272988055980728 0 -0.05051353962112079 0.032795474847883956 0 -0.050273950035916129 0.032570359151781671 0 -0.050766913054044939 0.03272988055980728 0 -0.05051353962112079 0.032795474847883956 0 -0.050273950035916129 0.032570359151781671 0 -0.05051353962112079 0.032795474847883956 0 -0.049923633278799506 0.032500630177404864 0 -0.050695367768358583 0.031353826651124087 0 -0.050228480993173751 0.031434035770538687 0 -0.050273950035916129 0.032570359151781671 0 -0.049923633278799506 0.032500630177404864 0 -0.049808467988566717 0.032436466578059354 0 -0.049923633278799506 0.032500630177404864 0 -0.049808467988566717 0.032436466578059354 0 -0.049814222371330187 0.031711058620250733 0 -0.049808467988566717 0.032436466578059354 0 -0.04971821630088924 0.032650630496250686 0 -0.049814222371330187 0.031711058620250733 0 -0.050228480993173751 0.031434035770538687 0 -0.049964673441595574 0.031634788260005174 0 -0.049808467988566717 0.032436466578059354 0 -0.049866808044296412 0.032359127825619019 0 -0.04971821630088924 0.032650630496250686 0 -0.050273950035916129 0.032570359151781671 0 -0.049808467988566717 0.032436466578059354 0 -0.050049698813233609 0.032436795823238003 0 -0.049808467988566717 0.032436466578059354 0 -0.050049698813233609 0.032436795823238003 0 -0.049866808044296412 0.032359127825619019 0 -0.050323888901555827 0.032481013359494507 0 -0.050049698813233609 0.032436795823238003 0 -0.050093935416087455 0.032249817831646814 0 -0.044358005785765424 0.041318088104294902 0 -0.045458919865833371 0.041930552446931009 0 -0.045408294429728699 0.041494647549216973 0 -0.050049698813233609 0.032436795823238003 0 -0.049866808044296412 0.032359127825619019 0 -0.050093935416087455 0.032249817831646814 0 -0.047165796413252629 0.036902374741089268 0 -0.050184234667870559 0.036870627691358043 0 -0.044358005785765424 0.041318088104294902 0 -0.045408294429728699 0.041494647549216973 0 -0.044636583689856672 0.041433682170359969 0 -0.044388914182601887 0.041372136656055374 0 -0.044636583689856672 0.041433682170359969 0 -0.04439946795839244 0.041324252008925061 0 -0.044388914182601887 0.041372136656055374 0 -0.045408294429728699 0.041494647549216973 0 -0.044636583689856672 0.041433682170359969 0 -0.047165796413252629 0.036902374741089268 0 -0.047514703358735082 0.035332937204013377 0 -0.044358005785765424 0.041318088104294902 0 -0.04439946795839244 0.041324252008925061 0 -0.044835926075190193 0.038118192754215498 0 -0.044358005785765424 0.041318088104294902 0 -0.044636583689856672 0.041433682170359969 0 -0.04439946795839244 0.041324252008925061 0 -0.04439946795839244 0.041324252008925061 0 -0.046308566615444899 0.040670454724766054 0 -0.044835926075190193 0.038118192754215498 0 -0.044388914182601887 0.041372136656055374 0 -0.044588020150203814 0.042054695905641641 0 -0.04439946795839244 0.041324252008925061 0 -0.044588020150203814 0.042054695905641641 0 -0.04439946795839244 0.041324252008925061 0 -0.046308566615444899 0.040670454724766054 0 -0.044622817039794802 0.043554441535814385 0 -0.044588020150203814 0.042054695905641641 0 -0.046308566615444899 0.040670454724766054 0 -0.048429170894773901 0.043420273079619896 0 -0.046308566615444899 0.040670454724766054 0 -0.048982888846414309 0.040932744472683635 0 -0.046069941058990281 0.044658683831590495 0 -0.046482024818805846 0.040524135938472657 0 -0.046595638055049994 0.043562309053795704 0 -0.044622817039794802 0.043554441535814385 0 -0.046308566615444899 0.040670454724766054 0 -0.046308566615444899 0.040670454724766054 0 -0.048260742315291413 0.038003223938748394 0 -0.044835926075190193 0.038118192754215498 0 -0.046308566615444899 0.040670454724766054 0 -0.048260742315291413 0.038003223938748394 0 -0.048982888846414309 0.040932744472683635 0 -0.048260742315291413 0.038003223938748394 0 -0.044835926075190193 0.038118192754215498 0 -0.049558817228172909 0.033897150543734655 0 -0.047514703358735082 0.035332937204013377 0 -0.049552648971796558 0.033963238992951304 0 -0.04971821630088924 0.032650630496250686 0 -0.049690018002338049 0.032202264111665831 0 -0.049814222371330187 0.031711058620250733 0 -0.04971821630088924 0.032650630496250686 0 -0.049690018002338049 0.032202264111665831 0 -0.049558817228172909 0.033897150543734655 0 -0.049690018002338049 0.032202264111665831 0 -0.049558817228172909 0.033897150543734655 0 -0.050289336077257829 0.031284557054593334 0 -0.049690018002338049 0.032202264111665831 0 -0.049814222371330187 0.031711058620250733 0 -0.049928065514342791 0.030526446192582376 0 -0.048056273165659656 0.013816064591820576 0 -0.048259469995087352 0.015089714693348875 0 -0.048226684977351393 0.013803170424505509 0 -0.049690018002338049 0.032202264111665831 0 -0.049928065514342791 0.030526446192582376 0 -0.050289336077257829 0.031284557054593334 0 -0.049045490706922115 0.022176579684110312 0 -0.049055197153570672 0.023257740492133864 0 -0.048056273165659656 0.013816064591820576 0 -0.048096265261677387 0.013452383377959187 0 -0.048226684977351393 0.013803170424505509 0 -0.048096265261677387 0.013452383377959187 0 -0.048226684977351393 0.013803170424505509 0 -0.048196709669305948 0.012992350968178398 0 -0.048056273165659656 0.013816064591820576 0 -0.048096265261677387 0.013452383377959187 0 -0.048415972852886617 0.013538214475953388 0 -0.048096265261677387 0.013452383377959187 0 -0.048216409221286061 0.013489500682155382 0 -0.048415972852886617 0.013538214475953388 0 -0.048096265261677387 0.013452383377959187 0 -0.048216409221286061 0.013489500682155382 0 -0.048107033531941706 0.01324217229754745 0 -0.048096265261677387 0.013452383377959187 0 -0.048196709669305948 0.012992350968178398 0 -0.048107033531941706 0.01324217229754745 0 -0.049045490706922115 0.022176579684110312 0 -0.049458321467640648 0.021591955755873703 0 -0.049928065514342791 0.030526446192582376 0 -0.050491963630047862 0.02965430545119321 0 -0.050248570238046887 0.03029092548779732 0 -0.048216409221286061 0.013489500682155382 0 -0.048415972852886617 0.013538214475953388 0 -0.04836677181582421 0.013618453007530189 0 -0.048415972852886617 0.013538214475953388 0 -0.04836677181582421 0.013618453007530189 0 -0.048530286393730381 0.013707004473125979 0 -0.048415972852886617 0.013538214475953388 0 -0.048666118890713435 0.013692250501347194 0 -0.048530286393730381 0.013707004473125979 0 -0.050491963630047862 0.02965430545119321 0 -0.05081631532614788 0.028935470483291433 0 -0.050983983819676025 0.028342580596402218 0 -0.049458321467640648 0.021591955755873703 0 -0.04962860254018097 0.020826854380380393 0 -0.048415972852886617 0.013538214475953388 0 -0.048850796308577707 0.013570127748941403 0 -0.048666118890713435 0.013692250501347194 0 -0.050491963630047862 0.02965430545119321 0 -0.050739735172448695 0.029458218644734628 0 -0.05081631532614788 0.028935470483291433 0 -0.050491963630047862 0.02965430545119321 0 -0.050248570238046887 0.03029092548779732 0 -0.050739735172448695 0.029458218644734628 0 -0.050248570238046887 0.03029092548779732 0 -0.050650136613018724 0.02993441581922587 0 -0.050739735172448695 0.029458218644734628 0 -0.049814222371330187 0.031711058620250733 0 -0.049928065514342791 0.030526446192582376 0 -0.050248570238046887 0.03029092548779732 0 -0.050362727814676787 0.030307064866863402 0 -0.049814222371330187 0.031711058620250733 0 -0.050248570238046887 0.03029092548779732 0 -0.050362727814676787 0.030307064866863402 0 -0.050248570238046887 0.03029092548779732 0 -0.050650136613018724 0.02993441581922587 0 -0.050864750822813748 0.029896847470824953 0 -0.050650136613018724 0.02993441581922587 0 -0.050917458866161294 0.029515772183083322 0 -0.050864750822813748 0.029896847470824953 0 -0.050362727814676787 0.030307064866863402 0 -0.050650136613018724 0.02993441581922587 0 -0.050954911679649682 0.030230894948311562 0 -0.050864750822813748 0.029896847470824953 0 -0.050945198170537651 0.029784848938401855 0 -0.050864750822813748 0.029896847470824953 0 -0.050945198170537651 0.029784848938401855 0 -0.050917458866161294 0.029515772183083322 0 -0.050945198170537651 0.029784848938401855 0 -0.050917458866161294 0.029515772183083322 0 -0.050824322888404119 0.02928571402043105 0 -0.050917458866161294 0.029515772183083322 0 -0.050868273001174281 0.029028290442153156 0 -0.050853261272015719 0.02852375576117144 0 -0.050917458866161294 0.029515772183083322 0 -0.050853261272015719 0.02852375576117144 0 -0.050824322888404119 0.02928571402043105 0 -0.050650136613018724 0.02993441581922587 0 -0.050917458866161294 0.029515772183083322 0 -0.050739735172448695 0.029458218644734628 0 -0.050917458866161294 0.029515772183083322 0 -0.050739735172448695 0.029458218644734628 0 -0.050868273001174281 0.029028290442153156 0 -0.050739735172448695 0.029458218644734628 0 -0.050875045787085488 0.028609649325120081 0 -0.050868273001174281 0.029028290442153156 0 -0.050739735172448695 0.029458218644734628 0 -0.05081631532614788 0.028935470483291433 0 -0.050875045787085488 0.028609649325120081 0 -0.05081631532614788 0.028935470483291433 0 -0.050893831317222193 0.028504905758826013 0 -0.050983983819676025 0.028342580596402218 0 -0.050893831317222193 0.028504905758826013 0 -0.050859231858795081 0.028077388238578652 0 -0.050875045787085488 0.028609649325120081 0 -0.05081631532614788 0.028935470483291433 0 -0.050893831317222193 0.028504905758826013 0 -0.050875045787085488 0.028609649325120081 0 -0.050893831317222193 0.028504905758826013 0 -0.050983983819676025 0.028342580596402218 0 -0.050859231858795081 0.028077388238578652 0 -0.050792250775233937 0.02782638357199891 0 -0.050859231858795081 0.028077388238578652 0 -0.050875045787085488 0.028609649325120081 0 -0.050792250775233937 0.02782638357199891 0 -0.050875045787085488 0.028609649325120081 0 -0.050773140912470732 0.027917492035475645 0 -0.050875045787085488 0.028609649325120081 0 -0.050853261272015719 0.02852375576117144 0 -0.050773140912470732 0.027917492035475645 0 -0.050875045787085488 0.028609649325120081 0 -0.050868273001174281 0.029028290442153156 0 -0.050853261272015719 0.02852375576117144 0 -0.050853261272015719 0.02852375576117144 0 -0.050635511468590223 0.028344027017923181 0 -0.050622900987110191 0.02725804127228805 0 -0.050853261272015719 0.02852375576117144 0 -0.050773140912470732 0.027917492035475645 0 -0.050622900987110191 0.02725804127228805 0 -0.050773140912470732 0.027917492035475645 0 -0.050622900987110191 0.02725804127228805 0 -0.050655903272978663 0.027362218351857873 0 -0.050622900987110191 0.02725804127228805 0 -0.050655903272978663 0.027362218351857873 0 -0.050462873789591058 0.026735422774555619 0 -0.050792250775233937 0.02782638357199891 0 -0.050773140912470732 0.027917492035475645 0 -0.050655903272978663 0.027362218351857873 0 -0.050622900987110191 0.02725804127228805 0 -0.049999871919698832 0.025380215740343041 0 -0.049999394103750552 0.027654527139863574 0 -0.050622900987110191 0.02725804127228805 0 -0.049999871919698832 0.025380215740343041 0 -0.050462873789591058 0.026735422774555619 0 -0.050635511468590223 0.028344027017923181 0 -0.050622900987110191 0.02725804127228805 0 -0.049999394103750552 0.027654527139863574 0 -0.050635511468590223 0.028344027017923181 0 -0.049999394103750552 0.027654527139863574 0 -0.050509096991637144 0.029058152964173099 0 -0.049999394103750552 0.027654527139863574 0 -0.050509096991637144 0.029058152964173099 0 -0.049999557871434425 0.029933083887088218 0 -0.050853261272015719 0.02852375576117144 0 -0.050635511468590223 0.028344027017923181 0 -0.050824322888404119 0.02928571402043105 0 -0.050635511468590223 0.028344027017923181 0 -0.050509096991637144 0.029058152964173099 0 -0.050824322888404119 0.02928571402043105 0 -0.050509096991637144 0.029058152964173099 0 -0.050824322888404119 0.02928571402043105 0 -0.050713333451948582 0.029943888471672529 0 -0.050954911679649682 0.030230894948311562 0 -0.050945198170537651 0.029784848938401855 0 -0.050713333451948582 0.029943888471672529 0 -0.050945198170537651 0.029784848938401855 0 -0.050824322888404119 0.02928571402043105 0 -0.050713333451948582 0.029943888471672529 0 -0.050148507499094518 0.031550920548635807 0 -0.049999557871434425 0.029933083887088218 0 -0.050713333451948582 0.029943888471672529 0 -0.050148507499094518 0.031550920548635807 0 -0.050954911679649682 0.030230894948311562 0 -0.050713333451948582 0.029943888471672529 0 -0.049999677506224631 0.032212820310720099 0 -0.050148507499094518 0.031550920548635807 0 -0.049999557871434425 0.029933083887088218 0 -0.050509096991637144 0.029058152964173099 0 -0.049999557871434425 0.029933083887088218 0 -0.050713333451948582 0.029943888471672529 0 -0.024913646984262103 0.047225102486442946 0 -0.024367902418659743 0.047053354813669991 0 -0.024532638708850054 0.046372144420089211 0 -0.024913646984262103 0.047225102486442946 0 -0.024367902418659743 0.047053354813669991 0 -0.024417045164012482 0.047710142923287742 0 -0.024367902418659743 0.047053354813669991 0 -0.023958157179532296 0.047399976531640166 0 -0.024417045164012482 0.047710142923287742 0 -0.023958157179532296 0.047399976531640166 0 -0.024022305587611023 0.046526298140508529 0 -0.023355718421819816 0.046279790941770385 0 -0.024367902418659743 0.047053354813669991 0 -0.023958157179532296 0.047399976531640166 0 -0.024022305587611023 0.046526298140508529 0 -0.024367902418659743 0.047053354813669991 0 -0.024022305587611023 0.046526298140508529 0 -0.024532638708850054 0.046372144420089211 0 -0.024022305587611023 0.046526298140508529 0 -0.02408256182129009 0.045631228430250234 0 -0.023355718421819816 0.046279790941770385 0 -0.024022305587611023 0.046526298140508529 0 -0.02408256182129009 0.045631228430250234 0 -0.024532638708850054 0.046372144420089211 0 -0.024913646984262103 0.047225102486442946 0 -0.024532638708850054 0.046372144420089211 0 -0.025167339257017467 0.046390342063153053 0 -0.02408256182129009 0.045631228430250234 0 -0.024532638708850054 0.046372144420089211 0 -0.024836827312251196 0.045248702236121319 0 -0.024532638708850054 0.046372144420089211 0 -0.025167339257017467 0.046390342063153053 0 -0.024836827312251196 0.045248702236121319 0 -0.025167339257017467 0.046390342063153053 0 -0.025779036307762054 0.047239901686533393 0 -0.026196605883666041 0.045310990250587289 0 -0.024913646984262103 0.047225102486442946 0 -0.025167339257017467 0.046390342063153053 0 -0.025779036307762054 0.047239901686533393 0 -0.028585990734838453 0.046489753921811115 0 -0.025779036307762054 0.047239901686533393 0 -0.026196605883666041 0.045310990250587289 0 -0.028323450814795766 0.048589426364910163 0 -0.025779036307762054 0.047239901686533393 0 -0.026974892056331874 0.05003786854493681 0 -0.025779036307762054 0.047239901686533393 0 -0.024791731122861205 0.050866773295850806 0 -0.026974892056331874 0.05003786854493681 0 -0.024913646984262103 0.047225102486442946 0 -0.025779036307762054 0.047239901686533393 0 -0.025344733894665926 0.047810286703734585 0 -0.025739630128686342 0.047500076559669514 0 -0.025133952120425837 0.048868216044645675 0 -0.024791731122861205 0.050866773295850806 0 -0.026974892056331874 0.05003786854493681 0 -0.02649813464722503 0.051904292998793955 0 -0.027900772673128856 0.052331937191973155 0 -0.026974892056331874 0.05003786854493681 0 -0.02649813464722503 0.051904292998793955 0 -0.027900772673128856 0.052331937191973155 0 -0.025730362055141929 0.053809325516768335 0 -0.02649813464722503 0.051904292998793955 0 -0.025730362055141929 0.053809325516768335 0 -0.02649813464722503 0.051904292998793955 0 -0.025615101848691695 0.052629119965843726 0 -0.024791731122861205 0.050866773295850806 0 -0.02649813464722503 0.051904292998793955 0 -0.025615101848691695 0.052629119965843726 0 -0.025250392611408958 0.053513731043262486 0 -0.024791731122861205 0.050866773295850806 0 -0.025615101848691695 0.052629119965843726 0 -0.025250392611408958 0.053513731043262486 0 -0.025649932983586806 0.053511405060261974 0 -0.025615101848691695 0.052629119965843726 0 -0.025865589537560092 0.053187971037790445 0 -0.025133952120425837 0.048868216044645675 0 -0.024944866452711975 0.04889576029542135 0 -0.025344733894665926 0.047810286703734585 0 -0.024618612042011261 0.048204674624125754 0 -0.025865589537560092 0.053187971037790445 0 -0.035001280462268053 0.045397973943903346 0 -0.027104940526856792 0.05587370380969877 0 -0.027827183711452652 0.056798190984888274 0 -0.028025435620770811 0.05598929253658181 0 -0.024944866452711975 0.04889576029542135 0 -0.024618612042011261 0.048204674624125754 0 -0.024527892204625045 0.048229999850511324 0 -0.03301863125834071 0.045929865401403168 0 -0.035001280462268053 0.045397973943903346 0 -0.025344733894665926 0.047810286703734585 0 -0.024618612042011261 0.048204674624125754 0 -0.024417045164012482 0.047710142923287742 0 -0.024913646984262103 0.047225102486442946 0 -0.025344733894665926 0.047810286703734585 0 -0.024417045164012482 0.047710142923287742 0 -0.024618612042011261 0.048204674624125754 0 -0.024417045164012482 0.047710142923287742 0 -0.024532710232062393 0.048240605431296102 0 -0.040790601926113224 0.043100287254021048 0 -0.035001280462268053 0.045397973943903346 0 -0.05704466072496512 0.037282740817405402 0 -0.056846997375557047 0.038431349521208254 0 -0.057728628181503185 0.039057562757845846 0 -0.023958157179532296 0.047399976531640166 0 -0.024417045164012482 0.047710142923287742 0 -0.024532710232062393 0.048240605431296102 0 -0.05704466072496512 0.037282740817405402 0 -0.056846997375557047 0.038431349521208254 0 -0.055904085728892557 0.037951477598155821 0 -0.056846997375557047 0.038431349521208254 0 -0.056640175683813333 0.039402233825205281 0 -0.057728628181503185 0.039057562757845846 0 -0.029060270249456146 0.055538081388910601 0 -0.028754662879068811 0.056577458833097546 0 -0.028025435620770811 0.05598929253658181 0 -0.04192011710196885 0.049291528827392544 0 -0.035001280462268053 0.045397973943903346 0 -0.028754662879068811 0.056577458833097546 0 -0.027827183711452652 0.056798190984888274 0 -0.028025435620770811 0.05598929253658181 0 -0.041601203630001193 0.050036460136553204 0 -0.044493371903906613 0.047650818522475748 0 -0.042361831593019768 0.048229299334690105 0 -0.037718585013516333 0.052520278100127382 0 -0.04192011710196885 0.049291528827392544 0 -0.056640175683813333 0.039402233825205281 0 -0.05493271721820045 0.039907924624038159 0 -0.055904085728892557 0.037951477598155821 0 -0.04192011710196885 0.049291528827392544 0 -0.050665143778100989 0.043316848998399549 0 -0.050665143778100989 0.043316848998399549 0 -0.048681828800084877 0.044654452778065283 0 -0.055086536091357344 0.040894802899302633 0 -0.053677915671553257 0.03871015128529455 0 -0.051927568588739523 0.042144453204404055 0 -0.053677915671553257 0.03871015128529455 0 -0.055904085728892557 0.037951477598155821 0 -0.054850282855016856 0.036584431350987656 0 -0.055086536091357344 0.040894802899302633 0 -0.053677915671553257 0.03871015128529455 0 -0.055904085728892557 0.037951477598155821 0 -0.050665143778100989 0.043316848998399549 0 -0.05681877598291861 0.036779124048384557 0 -0.056846997375557047 0.038431349521208254 0 -0.056640175683813333 0.039402233825205281 0 -0.055904085728892557 0.037951477598155821 0 -0.048982888846414309 0.040932744472683635 0 -0.051927568588739523 0.042144453204404055 0 -0.050847212324022145 0.03883559028737462 0 -0.048429170894773901 0.043420273079619896 0 -0.048982888846414309 0.040932744472683635 0 -0.051927568588739523 0.042144453204404055 0 -0.053677915671553257 0.03871015128529455 0 -0.051927568588739523 0.042144453204404055 0 -0.050847212324022145 0.03883559028737462 0 -0.053677915671553257 0.03871015128529455 0 -0.050847212324022145 0.03883559028737462 0 -0.053014201904372338 0.03630842820140421 0 -0.048260742315291413 0.038003223938748394 0 -0.048982888846414309 0.040932744472683635 0 -0.050847212324022145 0.03883559028737462 0 -0.048260742315291413 0.038003223938748394 0 -0.050847212324022145 0.03883559028737462 0 -0.050750338159068417 0.036194533830298012 0 -0.048260742315291413 0.038003223938748394 0 -0.050750338159068417 0.036194533830298012 0 -0.049558817228172909 0.033897150543734655 0 -0.050750338159068417 0.036194533830298012 0 -0.051486689678039266 0.034200805744826437 0 -0.049558817228172909 0.033897150543734655 0 -0.050750338159068417 0.036194533830298012 0 -0.051486689678039266 0.034200805744826437 0 -0.053014201904372338 0.03630842820140421 0 -0.050847212324022145 0.03883559028737462 0 -0.050750338159068417 0.036194533830298012 0 -0.053014201904372338 0.03630842820140421 0 -0.051486689678039266 0.034200805744826437 0 -0.053014201904372338 0.03630842820140421 0 -0.053580845362700802 0.034927478721548784 0 -0.051486689678039266 0.034200805744826437 0 -0.053580845362700802 0.034927478721548784 0 -0.05267827900551645 0.032722251268310854 0 -0.051486689678039266 0.034200805744826437 0 -0.049558817228172909 0.033897150543734655 0 -0.050289336077257829 0.031284557054593334 0 -0.05704466072496512 0.037282740817405402 0 -0.054850282855016856 0.036584431350987656 0 -0.055893468018881169 0.034864057557523774 0 -0.05704466072496512 0.037282740817405402 0 -0.055904085728892557 0.037951477598155821 0 -0.054850282855016856 0.036584431350987656 0 -0.040790601926113224 0.043100287254021048 0 -0.045890028969308792 0.033387275126238056 0 -0.053677915671553257 0.03871015128529455 0 -0.054850282855016856 0.036584431350987656 0 -0.053014201904372338 0.03630842820140421 0 -0.054850282855016856 0.036584431350987656 0 -0.053580845362700802 0.034927478721548784 0 -0.055893468018881169 0.034864057557523774 0 -0.054850282855016856 0.036584431350987656 0 -0.053014201904372338 0.03630842820140421 0 -0.053580845362700802 0.034927478721548784 0 -0.053580845362700802 0.034927478721548784 0 -0.055893468018881169 0.034864057557523774 0 -0.05267827900551645 0.032722251268310854 0 -0.045890028969308792 0.033387275126238056 0 -0.052958186866494804 0.024389699265419871 0 -0.053207309292519538 0.019789426811872943 0 -0.051689637355185572 0.016954041645377532 0 -0.0500446303488669 0.017312253933562824 0 -0.023355718421819816 0.046279790941770385 0 -0.023556581866562291 0.044994853026286981 0 -0.022861423883288816 0.04506790087026763 0 -0.02408256182129009 0.045631228430250234 0 -0.023355718421819816 0.046279790941770385 0 -0.023556581866562291 0.044994853026286981 0 -0.045890028969308792 0.033387275126238056 0 -0.036099373176222978 0.030974936934506318 0 -0.023556581866562291 0.044994853026286981 0 -0.022861423883288816 0.04506790087026763 0 -0.023155690797952648 0.044340339564919354 0 -0.036099373176222978 0.030974936934506318 0 -0.041450597144891223 0.025000452202606886 0 -0.051689637355185572 0.016954041645377532 0 -0.05050888916485767 0.016093783451549711 0 -0.050194689185388816 0.014745422938493036 0 -0.051689637355185572 0.016954041645377532 0 -0.05050888916485767 0.016093783451549711 0 -0.0500446303488669 0.017312253933562824 0 -0.02249659949292248 0.044033697493519749 0 -0.023155690797952648 0.044340339564919354 0 -0.023212567441448985 0.043581922548693877 0 -0.022861423883288816 0.04506790087026763 0 -0.02249659949292248 0.044033697493519749 0 -0.023155690797952648 0.044340339564919354 0 -0.041450597144891223 0.025000452202606886 0 -0.032821493409963536 0.029014608796790863 0 -0.05050888916485767 0.016093783451549711 0 -0.050194689185388816 0.014745422938493036 0 -0.049998521607084241 0.015457145181165824 0 -0.023705274777182223 0.044181400343585392 0 -0.023155690797952648 0.044340339564919354 0 -0.023212567441448985 0.043581922548693877 0 -0.023556581866562291 0.044994853026286981 0 -0.023705274777182223 0.044181400343585392 0 -0.023155690797952648 0.044340339564919354 0 -0.051486689678039266 0.034200805744826437 0 -0.05267827900551645 0.032722251268310854 0 -0.050289336077257829 0.031284557054593334 0 -0.052958186866494804 0.024389699265419871 0 -0.049055197153570672 0.023257740492133864 0 -0.0500446303488669 0.017312253933562824 0 -0.049498261149532589 0.015700892635843802 0 -0.048259469995087352 0.015089714693348875 0 -0.05050888916485767 0.016093783451549711 0 -0.049498261149532589 0.015700892635843802 0 -0.049998521607084241 0.015457145181165824 0 -0.05050888916485767 0.016093783451549711 0 -0.0500446303488669 0.017312253933562824 0 -0.049498261149532589 0.015700892635843802 0 -0.049498261149532589 0.015700892635843802 0 -0.049998521607084241 0.015457145181165824 0 -0.049457593811649325 0.015108615333682407 0 -0.049998521607084241 0.015457145181165824 0 -0.049457593811649325 0.015108615333682407 0 -0.049913327894545369 0.014946458711487887 0 -0.049457593811649325 0.015108615333682407 0 -0.049913327894545369 0.014946458711487887 0 -0.0492502219452505 0.014540052997700743 0 -0.050194689185388816 0.014745422938493036 0 -0.049998521607084241 0.015457145181165824 0 -0.049913327894545369 0.014946458711487887 0 -0.041450597144891223 0.025000452202606886 0 -0.04443122307755492 0.02260457410451187 0 -0.05008951155061038 0.014774876149047661 0 -0.049913327894545369 0.014946458711487887 0 -0.0492502219452505 0.014540052997700743 0 -0.0492502219452505 0.014540052997700743 0 -0.049028729805564893 0.014976817282820937 0 -0.048679576647431916 0.014320293215453193 0 -0.049457593811649325 0.015108615333682407 0 -0.0492502219452505 0.014540052997700743 0 -0.049028729805564893 0.014976817282820937 0 -0.049498261149532589 0.015700892635843802 0 -0.049457593811649325 0.015108615333682407 0 -0.049028729805564893 0.014976817282820937 0 -0.048679576647431916 0.014320293215453193 0 -0.048259469995087352 0.015089714693348875 0 -0.048226684977351393 0.013803170424505509 0 -0.049498261149532589 0.015700892635843802 0 -0.049028729805564893 0.014976817282820937 0 -0.048259469995087352 0.015089714693348875 0 -0.049028729805564893 0.014976817282820937 0 -0.048679576647431916 0.014320293215453193 0 -0.048259469995087352 0.015089714693348875 0 -0.048679576647431916 0.014320293215453193 0 -0.048226684977351393 0.013803170424505509 0 -0.048337437158416048 0.013409674334201181 0 -0.048226684977351393 0.013803170424505509 0 -0.048337437158416048 0.013409674334201181 0 -0.048196709669305948 0.012992350968178398 0 -0.041450597144891223 0.025000452202606886 0 -0.049771894421764371 0.0094835889393781372 0 -0.047145654950241735 0.011792340380380198 0 -0.048337437158416048 0.013409674334201181 0 -0.047067516417779391 0.01313848613039653 0 -0.0492502219452505 0.014540052997700743 0 -0.048679576647431916 0.014320293215453193 0 -0.048337437158416048 0.013409674334201181 0 -0.048009228042275268 0.013705576346473484 0 -0.048337437158416048 0.013409674334201181 0 -0.047067516417779391 0.01313848613039653 0 -0.05008951155061038 0.014774876149047661 0 -0.0492502219452505 0.014540052997700743 0 -0.048337437158416048 0.013409674334201181 0 -0.046685641719906121 0.011173345645546876 0 -0.046594332417167796 0.012060627117276037 0 -0.045527909297530082 0.01118833028740035 0 -0.046685641719906121 0.011173345645546876 0 -0.046594332417167796 0.012060627117276037 0 -0.047595317515269561 0.012635728601382953 0 -0.046685641719906121 0.011173345645546876 0 -0.047595317515269561 0.012635728601382953 0 -0.048196709669305948 0.012992350968178398 0 -0.047595317515269561 0.012635728601382953 0 -0.048196709669305948 0.012992350968178398 0 -0.048107033531941706 0.01324217229754745 0 -0.048009228042275268 0.013705576346473484 0 -0.048337437158416048 0.013409674334201181 0 -0.048196709669305948 0.012992350968178398 0 -0.046877385124420939 0.012532755007718806 0 -0.048113317510646521 0.012845979064068614 0 -0.023212567441448985 0.043581922548693877 0 -0.02396271317390615 0.043086371872723322 0 -0.023920599779005729 0.043637136312152797 0 -0.023705274777182223 0.044181400343585392 0 -0.023212567441448985 0.043581922548693877 0 -0.023920599779005729 0.043637136312152797 0 -0.032821493409963536 0.029014608796790863 0 -0.034618563467949573 0.027793471249281367 0 -0.04528901601257402 0.012660189798797837 0 -0.045711691528085727 0.014181156880680288 0 -0.04284628629553118 0.014256112899560625 0 -0.048009228042275268 0.013705576346473484 0 -0.047067516417779391 0.01313848613039653 0 -0.045711691528085727 0.014181156880680288 0 -0.04528901601257402 0.012660189798797837 0 -0.047067516417779391 0.01313848613039653 0 -0.045711691528085727 0.014181156880680288 0 -0.047145654950241735 0.011792340380380198 0 -0.04528901601257402 0.012660189798797837 0 -0.047067516417779391 0.01313848613039653 0 -0.045527909297530082 0.01118833028740035 0 -0.04368755625855153 0.011101879486248377 0 -0.045490089934661714 0.011657321018990698 0 -0.046685641719906121 0.011173345645546876 0 -0.044661965228656925 0.010374348972867284 0 -0.045527909297530082 0.01118833028740035 0 -0.046877385124420939 0.012532755007718806 0 -0.046693779555666767 0.011446540960566446 0 -0.044661965228656925 0.010374348972867284 0 -0.045527909297530082 0.01118833028740035 0 -0.04368755625855153 0.011101879486248377 0 -0.046594332417167796 0.012060627117276037 0 -0.045527909297530082 0.01118833028740035 0 -0.045490089934661714 0.011657321018990698 0 -0.044661965228656925 0.010374348972867284 0 -0.043286492937598536 0.010449531562701094 0 -0.04368755625855153 0.011101879486248377 0 -0.046693779555666767 0.011446540960566446 0 -0.034618563467949573 0.027793471249281367 0 -0.028153409151965986 0.042655629988632163 0 -0.027247626150237094 0.043251663558350799 0 -0.02712766227371699 0.043223656988474357 0 -0.04331774552480306 0.010758644918739634 0 -0.04330403990330587 0.010681295386298549 0 -0.04368755625855153 0.011101879486248377 0 -0.04331774552480306 0.010758644918739634 0 -0.043286492937598536 0.010449531562701094 0 -0.04368755625855153 0.011101879486248377 0 -0.04331774552480306 0.010758644918739634 0 -0.043249859491427942 0.010791753485819537 0 -0.04330403990330587 0.010681295386298549 0 -0.034618563467949573 0.027793471249281367 0 -0.036133915881976772 0.026467602320129416 0 -0.04331774552480306 0.010758644918739634 0 -0.043286492937598536 0.010449531562701094 0 -0.043249859491427942 0.010791753485819537 0 -0.028153409151965986 0.042655629988632163 0 -0.02712766227371699 0.043223656988474357 0 -0.02675430825424761 0.04281125687720392 0 -0.02434769178198741 0.045628118306180299 0 -0.032424535178116907 0.030784315328145715 0 -0.02712766227371699 0.043223656988474357 0 -0.02619222173161188 0.04342964756403031 0 -0.026374161333681506 0.044000054136356492 0 -0.027247626150237094 0.043251663558350799 0 -0.02712766227371699 0.043223656988474357 0 -0.027323114521966133 0.042772866280058199 0 -0.036133915881976772 0.026467602320129416 0 -0.032424535178116907 0.030784315328145715 0 -0.02712766227371699 0.043223656988474357 0 -0.02675430825424761 0.04281125687720392 0 -0.02619222173161188 0.04342964756403031 0 -0.024757518578303481 0.043222789087919385 0 -0.024678998055291675 0.043723744666707365 0 -0.024319171128914709 0.043518684407355991 0 -0.024678998055291675 0.043723744666707365 0 -0.024319171128914709 0.043518684407355991 0 -0.024243104732259886 0.043940076804893528 0 -0.024678998055291675 0.043723744666707365 0 -0.02499264726549888 0.044073343222517207 0 -0.025076183341847781 0.043557912361159884 0 -0.024757518578303481 0.043222789087919385 0 -0.024678998055291675 0.043723744666707365 0 -0.025076183341847781 0.043557912361159884 0 -0.034618563467949573 0.027793471249281367 0 -0.024166456646173711 0.043847485208533023 0 -0.02396271317390615 0.043086371872723322 0 -0.024757518578303481 0.043222789087919385 0 -0.024319171128914709 0.043518684407355991 0 -0.02396271317390615 0.043086371872723322 0 -0.024319171128914709 0.043518684407355991 0 -0.023920599779005729 0.043637136312152797 0 -0.024319171128914709 0.043518684407355991 0 -0.023920599779005729 0.043637136312152797 0 -0.024243104732259886 0.043940076804893528 0 -0.023705274777182223 0.044181400343585392 0 -0.023920599779005729 0.043637136312152797 0 -0.024243104732259886 0.043940076804893528 0 -0.023556581866562291 0.044994853026286981 0 -0.023705274777182223 0.044181400343585392 0 -0.024203492906847156 0.044714687718152339 0 -0.024243104732259886 0.043940076804893528 0 -0.024546225875842754 0.044271440237641811 0 -0.024203492906847156 0.044714687718152339 0 -0.023705274777182223 0.044181400343585392 0 -0.024243104732259886 0.043940076804893528 0 -0.024203492906847156 0.044714687718152339 0 -0.024546225875842754 0.044271440237641811 0 -0.024836827312251196 0.045248702236121319 0 -0.02499264726549888 0.044073343222517207 0 -0.024678998055291675 0.043723744666707365 0 -0.024243104732259886 0.043940076804893528 0 -0.024546225875842754 0.044271440237641811 0 -0.024678998055291675 0.043723744666707365 0 -0.024546225875842754 0.044271440237641811 0 -0.02499264726549888 0.044073343222517207 0 -0.02408256182129009 0.045631228430250234 0 -0.024836827312251196 0.045248702236121319 0 -0.024203492906847156 0.044714687718152339 0 -0.024546225875842754 0.044271440237641811 0 -0.024836827312251196 0.045248702236121319 0 -0.024203492906847156 0.044714687718152339 0 -0.02408256182129009 0.045631228430250234 0 -0.023556581866562291 0.044994853026286981 0 -0.024203492906847156 0.044714687718152339 0 -0.025167339257017467 0.046390342063153053 0 -0.024836827312251196 0.045248702236121319 0 -0.026196605883666041 0.045310990250587289 0 -0.024836827312251196 0.045248702236121319 0 -0.026196605883666041 0.045310990250587289 0 -0.025452885207966333 0.044353699715822245 0 -0.024836827312251196 0.045248702236121319 0 -0.025452885207966333 0.044353699715822245 0 -0.02499264726549888 0.044073343222517207 0 -0.025452885207966333 0.044353699715822245 0 -0.02499264726549888 0.044073343222517207 0 -0.025309581900006109 0.043723253061123436 0 -0.02499264726549888 0.044073343222517207 0 -0.025309581900006109 0.043723253061123436 0 -0.025076183341847781 0.043557912361159884 0 -0.025452885207966333 0.044353699715822245 0 -0.025309581900006109 0.043723253061123436 0 -0.025511692076697144 0.043357617730903852 0 -0.028090205890007807 0.04416625328125031 0 -0.026196605883666041 0.045310990250587289 0 -0.025511692076697144 0.043357617730903852 0 -0.02616042393673524 0.043990528391520907 0 -0.025613416893631849 0.043466289371528723 0 -0.026196605883666041 0.045310990250587289 0 -0.025452885207966333 0.044353699715822245 0 -0.025511692076697144 0.043357617730903852 0 -0.024099717293953903 0.043360266296316216 0 -0.025511692076697144 0.043357617730903852 0 -0.024902894613390587 0.043689491284396816 0 -0.025511692076697144 0.043357617730903852 0 -0.025448069722325269 0.043310701190534852 0 -0.024902894613390587 0.043689491284396816 0 -0.024166456646173711 0.043847485208533023 0 -0.026110313138129521 0.04316597005115385 0 -0.024757518578303481 0.043222789087919385 0 -0.025076183341847781 0.043557912361159884 0 -0.025448069722325269 0.043310701190534852 0 -0.025309581900006109 0.043723253061123436 0 -0.025511692076697144 0.043357617730903852 0 -0.025448069722325269 0.043310701190534852 0 -0.025309581900006109 0.043723253061123436 0 -0.025076183341847781 0.043557912361159884 0 -0.025448069722325269 0.043310701190534852 0 -0.02675430825424761 0.04281125687720392 0 -0.025448069722325269 0.043310701190534852 0 -0.02619222173161188 0.04342964756403031 0 -0.025448069722325269 0.043310701190534852 0 -0.02619222173161188 0.04342964756403031 0 -0.025557180141214372 0.043818616468146922 0 -0.02619222173161188 0.04342964756403031 0 -0.025557180141214372 0.043818616468146922 0 -0.026374161333681506 0.044000054136356492 0 -0.025448069722325269 0.043310701190534852 0 -0.025557180141214372 0.043818616468146922 0 -0.024902894613390587 0.043689491284396816 0 -0.025557180141214372 0.043818616468146922 0 -0.024902894613390587 0.043689491284396816 0 -0.02525940505843156 0.044429473373008871 0 -0.024902894613390587 0.043689491284396816 0 -0.02525940505843156 0.044429473373008871 0 -0.024598905118751596 0.044113544467928534 0 -0.025557180141214372 0.043818616468146922 0 -0.02525940505843156 0.044429473373008871 0 -0.026374161333681506 0.044000054136356492 0 -0.043983352050404101 0.0097635506196431607 0 -0.043539408944419593 0.0097700729851320691 0 -0.043592495355864069 0.010618996255345117 0 -0.028831187974010571 0.036371131381267477 0 -0.032424535178116907 0.030784315328145715 0 -0.039611407224180391 0.016168229686216506 0 -0.032424535178116907 0.030784315328145715 0 -0.032537183070939064 0.026681541948910297 0 -0.033146151106803211 0.026926669139849892 0 -0.03128957365610751 0.028318041261407797 0 -0.043983352050404101 0.0097635506196431607 0 -0.04379865829810467 0.0086157182212765002 0 -0.043539408944419593 0.0097700729851320691 0 -0.033146151106803211 0.026926669139849892 0 -0.033746396228668062 0.024990143531134126 0 -0.034346035719321585 0.025915960854521334 0 -0.028831187974010571 0.036371131381267477 0 -0.027344802088968972 0.036100736188764214 0 -0.032537183070939064 0.026681541948910297 0 -0.033146151106803211 0.026926669139849892 0 -0.033746396228668062 0.024990143531134126 0 -0.039611407224180391 0.016168229686216506 0 -0.038713842794645126 0.017361132481778622 0 -0.044159641426044574 0.008852925785910546 0 -0.04379865829810467 0.0086157182212765002 0 -0.043894187130946762 0.0078628924464156074 0 -0.043983352050404101 0.0097635506196431607 0 -0.044159641426044574 0.008852925785910546 0 -0.04379865829810467 0.0086157182212765002 0 -0.04379865829810467 0.0086157182212765002 0 -0.043448324853678964 0.0088421820478985381 0 -0.043539408944419593 0.0097700729851320691 0 -0.04379865829810467 0.0086157182212765002 0 -0.043547668192985917 0.0080771192856446839 0 -0.043448324853678964 0.0088421820478985381 0 -0.04379865829810467 0.0086157182212765002 0 -0.043547668192985917 0.0080771192856446839 0 -0.043701642936239779 0.0077681215734898617 0 -0.04379865829810467 0.0086157182212765002 0 -0.043894187130946762 0.0078628924464156074 0 -0.043701642936239779 0.0077681215734898617 0 -0.043135986999208467 0.0081316581107555783 0 -0.043448324853678964 0.0088421820478985381 0 -0.042748789057837328 0.0087888865064637885 0 -0.043135986999208467 0.0081316581107555783 0 -0.042748789057837328 0.0087888865064637885 0 -0.042316466176380553 0.0075299261836398422 0 -0.043547668192985917 0.0080771192856446839 0 -0.043135986999208467 0.0081316581107555783 0 -0.043448324853678964 0.0088421820478985381 0 -0.043448324853678964 0.0088421820478985381 0 -0.043225916510865652 0.0094601886965727799 0 -0.042748789057837328 0.0087888865064637885 0 -0.042959781427059515 0.0096667081862017498 0 -0.043225916510865652 0.0094601886965727799 0 -0.042748789057837328 0.0087888865064637885 0 -0.042959781427059515 0.0096667081862017498 0 -0.043225916510865652 0.0094601886965727799 0 -0.043265956120143903 0.010161273185952712 0 -0.042959781427059515 0.0096667081862017498 0 -0.043265956120143903 0.010161273185952712 0 -0.043186095964523712 0.010355600504166198 0 -0.043225916510865652 0.0094601886965727799 0 -0.043265956120143903 0.010161273185952712 0 -0.043539408944419593 0.0097700729851320691 0 -0.043448324853678964 0.0088421820478985381 0 -0.043225916510865652 0.0094601886965727799 0 -0.043539408944419593 0.0097700729851320691 0 -0.043539408944419593 0.0097700729851320691 0 -0.043365671026926469 0.010474773094213491 0 -0.043592495355864069 0.010618996255345117 0 -0.043265956120143903 0.010161273185952712 0 -0.043539408944419593 0.0097700729851320691 0 -0.043365671026926469 0.010474773094213491 0 -0.043249859491427942 0.010791753485819537 0 -0.043365671026926469 0.010474773094213491 0 -0.043592495355864069 0.010618996255345117 0 -0.043265956120143903 0.010161273185952712 0 -0.04330403990330587 0.010681295386298549 0 -0.043186095964523712 0.010355600504166198 0 -0.043265956120143903 0.010161273185952712 0 -0.043365671026926469 0.010474773094213491 0 -0.04330403990330587 0.010681295386298549 0 -0.043249859491427942 0.010791753485819537 0 -0.043365671026926469 0.010474773094213491 0 -0.04330403990330587 0.010681295386298549 0 -0.04330403990330587 0.010681295386298549 0 -0.04368755625855153 0.011101879486248377 0 -0.043186095964523712 0.010355600504166198 0 -0.043664829959694854 0.010988311141510821 0 -0.043786347901462651 0.010908897826598776 0 -0.04368755625855153 0.011101879486248377 0 -0.043186095964523712 0.010355600504166198 0 -0.042138714611707824 0.0097573789502691938 0 -0.04368755625855153 0.011101879486248377 0 -0.045490089934661714 0.011657321018990698 0 -0.045468281527742738 0.01218616367261569 0 -0.045490089934661714 0.011657321018990698 0 -0.045468281527742738 0.01218616367261569 0 -0.046229971732431645 0.011787192095449947 0 -0.045468281527742738 0.01218616367261569 0 -0.046229971732431645 0.011787192095449947 0 -0.046887929231708619 0.011982771294905232 0 -0.042959781427059515 0.0096667081862017498 0 -0.043186095964523712 0.010355600504166198 0 -0.042138714611707824 0.0097573789502691938 0 -0.047595317515269561 0.012635728601382953 0 -0.047606348001963415 0.013502032963160165 0 -0.048107033531941706 0.01324217229754745 0 -0.045690130992046218 0.011743403840706945 0 -0.047363601401278051 0.012377297021881544 0 -0.046594332417167796 0.012060627117276037 0 -0.047595317515269561 0.012635728601382953 0 -0.047606348001963415 0.013502032963160165 0 -0.046594332417167796 0.012060627117276037 0 -0.045490089934661714 0.011657321018990698 0 -0.047606348001963415 0.013502032963160165 0 -0.045490089934661714 0.011657321018990698 0 -0.047153544880464644 0.011318938969970599 0 -0.046229971732431645 0.011787192095449947 0 -0.047153544880464644 0.011318938969970599 0 -0.046229971732431645 0.011787192095449947 0 -0.046887929231708619 0.011982771294905232 0 -0.047153544880464644 0.011318938969970599 0 -0.047790708439614513 0.011798309828983599 0 -0.048835532264307716 0.011478752289117706 0 -0.047153544880464644 0.011318938969970599 0 -0.047790708439614513 0.011798309828983599 0 -0.046887929231708619 0.011982771294905232 0 -0.047072164969121921 0.011936682140998644 0 -0.04901901016752637 0.012128857604465668 0 -0.047563205787102235 0.012538155668701333 0 -0.048660654032043116 0.012816304740208668 0 -0.049685734294978294 0.011698010704677306 0 -0.047563205787102235 0.012538155668701333 0 -0.046887929231708619 0.011982771294905232 0 -0.049685734294978294 0.011698010704677306 0 -0.047790708439614513 0.011798309828983599 0 -0.046887929231708619 0.011982771294905232 0 -0.048376645503321491 0.012467385705261446 0 -0.047563205787102235 0.012538155668701333 0 -0.046887929231708619 0.011982771294905232 0 -0.046221073686647532 0.012814505561377199 0 -0.04743127737557376 0.013195842136429518 0 -0.046221073686647532 0.012814505561377199 0 -0.046962707647472249 0.014476400010206008 0 -0.043873182330019349 0.010745283363611014 0 -0.044436377847634607 0.010925794828154404 0 -0.047563205787102235 0.012538155668701333 0 -0.04743127737557376 0.013195842136429518 0 -0.046221073686647532 0.012814505561377199 0 -0.047563205787102235 0.012538155668701333 0 -0.04743127737557376 0.013195842136429518 0 -0.048660654032043116 0.012816304740208668 0 -0.04743127737557376 0.013195842136429518 0 -0.048660654032043116 0.012816304740208668 0 -0.048208447560682828 0.013723249470571661 0 -0.048660654032043116 0.012816304740208668 0 -0.048208447560682828 0.013723249470571661 0 -0.049405766086282762 0.01315901779839908 0 -0.042959781427059515 0.0096667081862017498 0 -0.042138714611707824 0.0097573789502691938 0 -0.042748789057837328 0.0087888865064637885 0 -0.042138714611707824 0.0097573789502691938 0 -0.042748789057837328 0.0087888865064637885 0 -0.041628935121000119 0.0086048974899346226 0 -0.045468281527742738 0.01218616367261569 0 -0.046887929231708619 0.011982771294905232 0 -0.046221073686647532 0.012814505561377199 0 -0.043786347901462651 0.010908897826598776 0 -0.043873182330019349 0.010745283363611014 0 -0.042748789057837328 0.0087888865064637885 0 -0.041628935121000119 0.0086048974899346226 0 -0.042316466176380553 0.0075299261836398422 0 -0.04243938261889011 0.0067830810813978249 0 -0.044436377847634607 0.010925794828154404 0 -0.041628935121000119 0.0086048974899346226 0 -0.042316466176380553 0.0075299261836398422 0 -0.041242300402573887 0.0076458736868173123 0 -0.043519552064240553 0.0070356680294093752 0 -0.04348523016496874 0.0069686842487346077 0 -0.043447772475493064 0.0070455882348443915 0 -0.043519552064240553 0.0070356680294093752 0 -0.04348523016496874 0.0069686842487346077 0 -0.043566800298738106 0.0069141525852747044 0 -0.049150292963185037 0.014594647509878371 0 -0.044436377847634607 0.010925794828154404 0 -0.048465870934624213 0.014504238067720068 0 -0.046905469103921994 0.014507148425808757 0 -0.047842845608431259 0.014951832548433972 0 -0.048465870934624213 0.014504238067720068 0 -0.048208447560682828 0.013723249470571661 0 -0.046962707647472249 0.014476400010206008 0 -0.048465870934624213 0.014504238067720068 0 -0.047842845608431259 0.014951832548433972 0 -0.049102283709137953 0.014806217741174467 0 -0.048465870934624213 0.014504238067720068 0 -0.049102283709137953 0.014806217741174467 0 -0.049208752976346845 0.013857900477383519 0 -0.048465870934624213 0.014504238067720068 0 -0.048208447560682828 0.013723249470571661 0 -0.049208752976346845 0.013857900477383519 0 -0.048208447560682828 0.013723249470571661 0 -0.049405766086282762 0.01315901779839908 0 -0.049208752976346845 0.013857900477383519 0 -0.04743127737557376 0.013195842136429518 0 -0.048208447560682828 0.013723249470571661 0 -0.046962707647472249 0.014476400010206008 0 -0.046905469103921994 0.014507148425808757 0 -0.047504523960726304 0.015854864279374315 0 -0.047842845608431259 0.014951832548433972 0 -0.04348523016496874 0.0069686842487346077 0 -0.043447772475493064 0.0070455882348443915 0 -0.043429775846985631 0.0069849119416144721 0 -0.044436377847634607 0.010925794828154404 0 -0.048327358341003913 0.0099275447368361372 0 -0.048327358341003913 0.0099275447368361372 0 -0.050339357024586258 0.013275739357131626 0 -0.047504523960726304 0.015854864279374315 0 -0.047842845608431259 0.014951832548433972 0 -0.049102283709137953 0.014806217741174467 0 -0.051814011626162261 0.0087497266338978467 0 -0.051653906467803649 0.0092372209255078708 0 -0.051632068341270529 0.01128206327882997 0 -0.051814011626162261 0.0087497266338978467 0 -0.051653906467803649 0.0092372209255078708 0 -0.051422411981189943 0.0084170120767480868 0 -0.051653906467803649 0.0092372209255078708 0 -0.051374304899173752 0.0093533617689818271 0 -0.051422411981189943 0.0084170120767480868 0 -0.051653906467803649 0.0092372209255078708 0 -0.051374304899173752 0.0093533617689818271 0 -0.051632068341270529 0.01128206327882997 0 -0.051422411981189943 0.0084170120767480868 0 -0.051370627684483416 0.0075873709780992496 0 -0.051180008811611173 0.0073250952388743875 0 -0.052254435084782648 0.0091601702351595416 0 -0.051833573608348157 0.010467113439351321 0 -0.051422411981189943 0.0084170120767480868 0 -0.051180008811611173 0.0073250952388743875 0 -0.050781580437481412 0.0088246542114172634 0 -0.051374304899173752 0.0093533617689818271 0 -0.051422411981189943 0.0084170120767480868 0 -0.050781580437481412 0.0088246542114172634 0 -0.051814011626162261 0.0087497266338978467 0 -0.051370627684483416 0.0075873709780992496 0 -0.050928887774935185 0.0068133061808775134 0 -0.051814011626162261 0.0087497266338978467 0 -0.051422411981189943 0.0084170120767480868 0 -0.051370627684483416 0.0075873709780992496 0 -0.048327358341003913 0.0099275447368361372 0 -0.047070967574225304 0.0065601910711126105 0 -0.051370627684483416 0.0075873709780992496 0 -0.051142709359803029 0.0071867504475937082 0 -0.050928887774935185 0.0068133061808775134 0 -0.051370627684483416 0.0075873709780992496 0 -0.051142709359803029 0.0071867504475937082 0 -0.051180008811611173 0.0073250952388743875 0 -0.04348523016496874 0.0069686842487346077 0 -0.043429775846985631 0.0069849119416144721 0 -0.043495258321106546 0.0068261801373606682 0 -0.04348523016496874 0.0069686842487346077 0 -0.043566800298738106 0.0069141525852747044 0 -0.043495258321106546 0.0068261801373606682 0 -0.051142709359803029 0.0071867504475937082 0 -0.050928887774935185 0.0068133061808775134 0 -0.050426197282922754 0.0068924671457816292 0 -0.043566800298738106 0.0069141525852747044 0 -0.043495258321106546 0.0068261801373606682 0 -0.043872537138951027 0.0065796752169147267 0 -0.050928887774935185 0.0068133061808775134 0 -0.048572635061246323 0.0060507268985596644 0 -0.050426197282922754 0.0068924671457816292 0 -0.047070967574225304 0.0065601910711126105 0 -0.046150200733114419 0.006484052422714528 0 -0.0436674684949835 0.0067697930494562998 0 -0.044088910908870314 0.0064841699704008531 0 -0.043872537138951027 0.0065796752169147267 0 -0.043566800298738106 0.0069141525852747044 0 -0.0436674684949835 0.0067697930494562998 0 -0.043872537138951027 0.0065796752169147267 0 -0.0436674684949835 0.0067697930494562998 0 -0.044088910908870314 0.0064841699704008531 0 -0.043500452542341243 0.0065496618096283019 0 -0.044088910908870314 0.0064841699704008531 0 -0.043500452542341243 0.0065496618096283019 0 -0.043295046349713977 0.0061880582179718027 0 -0.043066459988987796 0.0063365449622850038 0 -0.043295046349713977 0.0061880582179718027 0 -0.042261865057669858 0.0055080603432141606 0 -0.043066459988987796 0.0063365449622850038 0 -0.043500452542341243 0.0065496618096283019 0 -0.043295046349713977 0.0061880582179718027 0 -0.043066459988987796 0.0063365449622850038 0 -0.043500452542341243 0.0065496618096283019 0 -0.043549913904879237 0.0071066645673967758 0 -0.0436674684949835 0.0067697930494562998 0 -0.043500452542341243 0.0065496618096283019 0 -0.043548141847279072 0.0072516869955363706 0 -0.043500452542341243 0.0065496618096283019 0 -0.043549913904879237 0.0071066645673967758 0 -0.043548141847279072 0.0072516869955363706 0 -0.043894187130946762 0.0078628924464156074 0 -0.043549913904879237 0.0071066645673967758 0 -0.043747932052215395 0.0073560284218766227 0 -0.043894187130946762 0.0078628924464156074 0 -0.043549913904879237 0.0071066645673967758 0 -0.043701642936239779 0.0077681215734898617 0 -0.043549913904879237 0.0071066645673967758 0 -0.043548141847279072 0.0072516869955363706 0 -0.043701642936239779 0.0077681215734898617 0 -0.043547668192985917 0.0080771192856446839 0 -0.043548141847279072 0.0072516869955363706 0 -0.043701642936239779 0.0077681215734898617 0 -0.043547668192985917 0.0080771192856446839 0 -0.043548141847279072 0.0072516869955363706 0 -0.043415000544154224 0.0072791089316670242 0 -0.043547668192985917 0.0080771192856446839 0 -0.043135986999208467 0.0081316581107555783 0 -0.043415000544154224 0.0072791089316670242 0 -0.043135986999208467 0.0081316581107555783 0 -0.042316466176380553 0.0075299261836398422 0 -0.043415000544154224 0.0072791089316670242 0 -0.04243938261889011 0.0067830810813978249 0 -0.04362842747217114 0.0074119015506667867 0 -0.043519552064240553 0.0070356680294093752 0 -0.043566800298738106 0.0069141525852747044 0 -0.043415000544154224 0.0072791089316670242 0 -0.043566800298738106 0.0069141525852747044 0 -0.0436674684949835 0.0067697930494562998 0 -0.043415000544154224 0.0072791089316670242 0 -0.0436674684949835 0.0067697930494562998 0 -0.043548141847279072 0.0072516869955363706 0 -0.043415000544154224 0.0072791089316670242 0 -0.050000014210190645 0.02000549661511606 0 -0.052905728055630763 0.019162384771471815 0 -0.050179015530099624 0.017886237420341143 0 -0.050000014210190645 0.02000549661511606 0 -0.052905728055630763 0.019162384771471815 0 -0.051788646567092679 0.020885831311907254 0 -0.052905728055630763 0.019162384771471815 0 -0.051788646567092679 0.020885831311907254 0 -0.053603069638836147 0.020930070541883273 0 -0.051788646567092679 0.020885831311907254 0 -0.052857022124332576 0.022100746324632884 0 -0.053603069638836147 0.020930070541883273 0 -0.050000014210190645 0.02000549661511606 0 -0.051788646567092679 0.020885831311907254 0 -0.050756447815137676 0.021572195367947772 0 -0.051788646567092679 0.020885831311907254 0 -0.050756447815137676 0.021572195367947772 0 -0.051223633752817327 0.022703600582448226 0 -0.050000014210190645 0.02000549661511606 0 -0.050756447815137676 0.021572195367947772 0 -0.049999960273773437 0.022690334440472054 0 -0.050756447815137676 0.021572195367947772 0 -0.051223633752817327 0.022703600582448226 0 -0.049999960273773437 0.022690334440472054 0 -0.051223633752817327 0.022703600582448226 0 -0.049999960273773437 0.022690334440472054 0 -0.051487973762604305 0.024562641105741693 0 -0.049999999836613747 0.025375701832948527 0 -0.049999960273773437 0.022690334440472054 0 -0.051487973762604305 0.024562641105741693 0 -0.050000346907281695 0.02537594424578064 0 -0.050583057243115653 0.02573863905585163 0 -0.051223633752817327 0.022703600582448226 0 -0.051487973762604305 0.024562641105741693 0 -0.053000781318258527 0.023747993946222512 0 -0.050655903272978663 0.027362218351857873 0 -0.050462873789591058 0.026735422774555619 0 -0.050743607641052083 0.027104417865224332 0 -0.050792250775233937 0.02782638357199891 0 -0.050655903272978663 0.027362218351857873 0 -0.050743607641052083 0.027104417865224332 0 -0.050583057243115653 0.02573863905585163 0 -0.051882296973390092 0.021449744918900358 0 -0.051947629672035894 0.023283203111613415 0 -0.051882296973390092 0.021449744918900358 0 -0.051223633752817327 0.022703600582448226 0 -0.052879480321402356 0.023563405711786799 0 -0.052857022124332576 0.022100746324632884 0 -0.051788646567092679 0.020885831311907254 0 -0.051223633752817327 0.022703600582448226 0 -0.052857022124332576 0.022100746324632884 0 -0.051882296973390092 0.021449744918900358 0 -0.050327997349091019 0.016426246278247739 0 -0.052879480321402356 0.023563405711786799 0 -0.052857022124332576 0.022100746324632884 0 -0.055237938625555587 0.022244793026938593 0 -0.052857022124332576 0.022100746324632884 0 -0.055237938625555587 0.022244793026938593 0 -0.053603069638836147 0.020930070541883273 0 -0.048850796308577707 0.013570127748941403 0 -0.050857185930609602 0.014712173691371141 0 -0.048978540066515537 0.013868102166840474 0 -0.050857185930609602 0.014712173691371141 0 -0.048978540066515537 0.013868102166840474 0 -0.048804217931602535 0.015802303366348538 0 -0.04962860254018097 0.020826854380380393 0 -0.051882296973390092 0.021449744918900358 0 -0.050792250775233937 0.02782638357199891 0 -0.050859231858795081 0.028077388238578652 0 -0.050743607641052083 0.027104417865224332 0 -0.050983983819676025 0.028342580596402218 0 -0.050859231858795081 0.028077388238578652 0 -0.050743607641052083 0.027104417865224332 0 -0.048978540066515537 0.013868102166840474 0 -0.048797500919324749 0.013856103204030504 0 -0.048803089111651328 0.013942309284555223 0 -0.048710656052624278 0.013323050900890783 0 -0.050327997349091019 0.016426246278247739 0 -0.048812221066179558 0.013772007220176559 0 -0.048978540066515537 0.013868102166840474 0 -0.048797500919324749 0.013856103204030504 0 -0.048850796308577707 0.013570127748941403 0 -0.048812221066179558 0.013772007220176559 0 -0.048666118890713435 0.013692250501347194 0 -0.048812221066179558 0.013772007220176559 0 -0.048797500919324749 0.013856103204030504 0 -0.048666118890713435 0.013692250501347194 0 -0.048850796308577707 0.013570127748941403 0 -0.048812221066179558 0.013772007220176559 0 -0.048978540066515537 0.013868102166840474 0 -0.048797500919324749 0.013856103204030504 0 -0.048803089111651328 0.013942309284555223 0 -0.048746204615539454 0.013900700845024849 0 -0.050327997349091019 0.016426246278247739 0 -0.04930649461019343 0.014982367425298057 0 -0.048803089111651328 0.013942309284555223 0 -0.048767254232786071 0.013983071518753448 0 -0.048746204615539454 0.013900700845024849 0 -0.055237938625555587 0.022244793026938593 0 -0.053603069638836147 0.020930070541883273 0 -0.055430293488815729 0.020235123697215061 0 -0.050327997349091019 0.016426246278247739 0 -0.052245299269943368 0.016487924224042966 0 -0.048928544346792488 0.013914704861729917 0 -0.048900216752562578 0.014273596269788125 0 -0.048767254232786071 0.013983071518753448 0 -0.052905728055630763 0.019162384771471815 0 -0.053603069638836147 0.020930070541883273 0 -0.055430293488815729 0.020235123697215061 0 -0.05130409645035626 0.016188733415669985 0 -0.052485668729602718 0.016409603115525473 0 -0.051977299281501757 0.015704105853654816 0 -0.052473837997462976 0.018082588300281449 0 -0.052245299269943368 0.016487924224042966 0 -0.052245299269943368 0.016487924224042966 0 -0.052573289106393639 0.014000180934765422 0 -0.052485668729602718 0.016409603115525473 0 -0.052636770039666082 0.015628234557304378 0 -0.051977299281501757 0.015704105853654816 0 -0.052559879749789762 0.012491192160310144 0 -0.052332264812348997 0.012959451653717232 0 -0.052514268260566807 0.013086358117572843 0 -0.05223456100966567 0.012937447528299263 0 -0.051067696156667987 0.012605900362285915 0 -0.052559879749789762 0.012491192160310144 0 -0.051570593109724686 0.012573574862473015 0 -0.052332264812348997 0.012959451653717232 0 -0.052332264812348997 0.012959451653717232 0 -0.051994558440662302 0.012736686797746151 0 -0.052145837135223132 0.01300926609228426 0 -0.052332264812348997 0.012959451653717232 0 -0.051994558440662302 0.012736686797746151 0 -0.051764977272317166 0.012348096472314418 0 -0.051570593109724686 0.012573574862473015 0 -0.052332264812348997 0.012959451653717232 0 -0.050432587512501757 0.01288792977192545 0 -0.051994558440662302 0.012736686797746151 0 -0.051764977272317166 0.012348096472314418 0 -0.051598094180126224 0.012829206752121076 0 -0.051570593109724686 0.012573574862473015 0 -0.050432587512501757 0.01288792977192545 0 -0.050866522615676493 0.011959036616332597 0 -0.050432587512501757 0.01288792977192545 0 -0.050866522615676493 0.011959036616332597 0 -0.049639972050230845 0.012177223440477449 0 -0.048494261798158217 0.014027532532669909 0 -0.048688063976733816 0.014033423316365713 0 -0.048602736465565698 0.013880481178247476 0 -0.052245299269943368 0.016487924224042966 0 -0.049264918676441172 0.012489595190066139 0 -0.048900216752562578 0.014273596269788125 0 -0.048688063976733816 0.014033423316365713 0 -0.048767254232786071 0.013983071518753448 0 -0.052559879749789762 0.012491192160310144 0 -0.051570593109724686 0.012573574862473015 0 -0.050866522615676493 0.011959036616332597 0 -0.048900216752562578 0.014273596269788125 0 -0.048494261798158217 0.014027532532669909 0 -0.048688063976733816 0.014033423316365713 0 -0.048767254232786071 0.013983071518753448 0 -0.048602736465565698 0.013880481178247476 0 -0.048746204615539454 0.013900700845024849 0 -0.048688063976733816 0.014033423316365713 0 -0.048767254232786071 0.013983071518753448 0 -0.048602736465565698 0.013880481178247476 0 -0.048602736465565698 0.013880481178247476 0 -0.048746204615539454 0.013900700845024849 0 -0.04868462233942588 0.013820126491687668 0 -0.048797500919324749 0.013856103204030504 0 -0.048746204615539454 0.013900700845024849 0 -0.04868462233942588 0.013820126491687668 0 -0.048797500919324749 0.013856103204030504 0 -0.04868462233942588 0.013820126491687668 0 -0.048666118890713435 0.013692250501347194 0 -0.048602736465565698 0.013880481178247476 0 -0.04868462233942588 0.013820126491687668 0 -0.048530286393730381 0.013707004473125979 0 -0.04868462233942588 0.013820126491687668 0 -0.048666118890713435 0.013692250501347194 0 -0.048530286393730381 0.013707004473125979 0 -0.04836677181582421 0.013618453007530189 0 -0.048530286393730381 0.013707004473125979 0 -0.048399592024147176 0.01376167008298684 0 -0.048494261798158217 0.014027532532669909 0 -0.048602736465565698 0.013880481178247476 0 -0.048399592024147176 0.01376167008298684 0 -0.048602736465565698 0.013880481178247476 0 -0.048530286393730381 0.013707004473125979 0 -0.048399592024147176 0.01376167008298684 0 -0.048494261798158217 0.014027532532669909 0 -0.048399592024147176 0.01376167008298684 0 -0.048222683763358636 0.01378317568631611 0 -0.049264918676441172 0.012489595190066139 0 -0.048658497761223565 0.012742720795338433 0 -0.048399592024147176 0.01376167008298684 0 -0.048255307336725443 0.013551343386377377 0 -0.048222683763358636 0.01378317568631611 0 -0.04836677181582421 0.013618453007530189 0 -0.048399592024147176 0.01376167008298684 0 -0.048255307336725443 0.013551343386377377 0 -0.048216409221286061 0.013489500682155382 0 -0.04836677181582421 0.013618453007530189 0 -0.048255307336725443 0.013551343386377377 0 -0.047606348001963415 0.013502032963160165 0 -0.048107033531941706 0.01324217229754745 0 -0.048222683763358636 0.01378317568631611 0 -0.048255307336725443 0.013551343386377377 0 -0.048107033531941706 0.01324217229754745 0 -0.048222683763358636 0.01378317568631611 0 -0.048216409221286061 0.013489500682155382 0 -0.048255307336725443 0.013551343386377377 0 -0.048107033531941706 0.01324217229754745 0 -0.047363601401278051 0.012377297021881544 0 -0.048658497761223565 0.012742720795338433 0 -0.048835532264307716 0.011478752289117706 0 -0.048376645503321491 0.012467385705261446 0 -0.049639972050230845 0.012177223440477449 0 -0.047790708439614513 0.011798309828983599 0 -0.048835532264307716 0.011478752289117706 0 -0.048376645503321491 0.012467385705261446 0 -0.050866522615676493 0.011959036616332597 0 -0.048835532264307716 0.011478752289117706 0 -0.049639972050230845 0.012177223440477449 0 -0.051067696156667987 0.012605900362285915 0 -0.04901901016752637 0.012128857604465668 0 -0.050432587512501757 0.01288792977192545 0 -0.048376645503321491 0.012467385705261446 0 -0.049639972050230845 0.012177223440477449 0 -0.051764977272317166 0.012348096472314418 0 -0.049685734294978294 0.011698010704677306 0 -0.05090986775703011 0.012569365137608292 0 -0.051764977272317166 0.012348096472314418 0 -0.05090986775703011 0.012569365137608292 0 -0.051598094180126224 0.012829206752121076 0 -0.05090986775703011 0.012569365137608292 0 -0.051096140551918842 0.013011306437021258 0 -0.051598094180126224 0.012829206752121076 0 -0.05090986775703011 0.012569365137608292 0 -0.050071196403868014 0.012561778440729731 0 -0.051096140551918842 0.013011306437021258 0 -0.049405766086282762 0.01315901779839908 0 -0.050071196403868014 0.012561778440729731 0 -0.051096140551918842 0.013011306437021258 0 -0.048660654032043116 0.012816304740208668 0 -0.049405766086282762 0.01315901779839908 0 -0.050071196403868014 0.012561778440729731 0 -0.048660654032043116 0.012816304740208668 0 -0.049685734294978294 0.011698010704677306 0 -0.050071196403868014 0.012561778440729731 0 -0.049685734294978294 0.011698010704677306 0 -0.05090986775703011 0.012569365137608292 0 -0.050071196403868014 0.012561778440729731 0 -0.051632068341270529 0.01128206327882997 0 -0.051096140551918842 0.013011306437021258 0 -0.051310601142863857 0.012202409759060026 0 -0.050339357024586258 0.013275739357131626 0 -0.05096719026179098 0.012957859159265917 0 -0.049102283709137953 0.014806217741174467 0 -0.049208752976346845 0.013857900477383519 0 -0.051096140551918842 0.013011306437021258 0 -0.049405766086282762 0.01315901779839908 0 -0.049208752976346845 0.013857900477383519 0 -0.051096140551918842 0.013011306437021258 0 -0.051096140551918842 0.013011306437021258 0 -0.051395461205804273 0.012684656208870252 0 -0.051310601142863857 0.012202409759060026 0 -0.051096140551918842 0.013011306437021258 0 -0.051395461205804273 0.012684656208870252 0 -0.051598094180126224 0.012829206752121076 0 -0.051395461205804273 0.012684656208870252 0 -0.051808016906461793 0.012729077583331513 0 -0.051598094180126224 0.012829206752121076 0 -0.051395461205804273 0.012684656208870252 0 -0.051310601142863857 0.012202409759060026 0 -0.051808016906461793 0.012729077583331513 0 -0.051310601142863857 0.012202409759060026 0 -0.051808016906461793 0.012729077583331513 0 -0.052055492272276516 0.012424410599118769 0 -0.051808016906461793 0.012729077583331513 0 -0.052055492272276516 0.012424410599118769 0 -0.052145304475468564 0.012589105185866529 0 -0.051374304899173752 0.0093533617689818271 0 -0.051632068341270529 0.01128206327882997 0 -0.050781580437481412 0.0088246542114172634 0 -0.051310601142863857 0.012202409759060026 0 -0.052055492272276516 0.012424410599118769 0 -0.052780354018683473 0.012198104860647393 0 -0.051384802839131404 0.011897386984158395 0 -0.051833573608348157 0.010467113439351321 0 -0.051632068341270529 0.01128206327882997 0 -0.051310601142863857 0.012202409759060026 0 -0.050781580437481412 0.0088246542114172634 0 -0.052055492272276516 0.012424410599118769 0 -0.052780354018683473 0.012198104860647393 0 -0.052438112689786348 0.011910703019426013 0 -0.053373348057205838 0.010945094943614691 0 -0.052780354018683473 0.012198104860647393 0 -0.052438112689786348 0.011910703019426013 0 -0.053373348057205838 0.010945094943614691 0 -0.05263121449002324 0.011058799603410328 0 -0.052438112689786348 0.011910703019426013 0 -0.05263121449002324 0.011058799603410328 0 -0.052438112689786348 0.011910703019426013 0 -0.052356134290602749 0.01207722627251216 0 -0.05263121449002324 0.011058799603410328 0 -0.052356134290602749 0.01207722627251216 0 -0.052456032506360939 0.011632937911829894 0 -0.052055492272276516 0.012424410599118769 0 -0.052438112689786348 0.011910703019426013 0 -0.052145304475468564 0.012589105185866529 0 -0.052438112689786348 0.011910703019426013 0 -0.052356134290602749 0.01207722627251216 0 -0.052145304475468564 0.012589105185866529 0 -0.052356134290602749 0.01207722627251216 0 -0.052327901146775539 0.012590767405164157 0 -0.052145304475468564 0.012589105185866529 0 -0.052356134290602749 0.01207722627251216 0 -0.052456032506360939 0.011632937911829894 0 -0.052327901146775539 0.012590767405164157 0 -0.052327901146775539 0.012590767405164157 0 -0.052213449555272809 0.013095092411508401 0 -0.052145304475468564 0.012589105185866529 0 -0.052325560193159724 0.012046207181834427 0 -0.052174927891768579 0.011522623779636396 0 -0.052484095277316262 0.011151607582826219 0 -0.052456032506360939 0.011632937911829894 0 -0.052325560193159724 0.012046207181834427 0 -0.052327901146775539 0.012590767405164157 0 -0.052456032506360939 0.011632937911829894 0 -0.052325560193159724 0.012046207181834427 0 -0.052484095277316262 0.011151607582826219 0 -0.052327901146775539 0.012590767405164157 0 -0.052324767817855874 0.013347272497559261 0 -0.052212252147723112 0.012934401703748434 0 -0.052325560193159724 0.012046207181834427 0 -0.052327901146775539 0.012590767405164157 0 -0.052212252147723112 0.012934401703748434 0 -0.052324767817855874 0.013347272497559261 0 -0.052213449555272809 0.013095092411508401 0 -0.052468943246280909 0.013918373952909489 0 -0.052213449555272809 0.013095092411508401 0 -0.052140714788252683 0.013232443818021824 0 -0.052468943246280909 0.013918373952909489 0 -0.052327901146775539 0.012590767405164157 0 -0.052324767817855874 0.013347272497559261 0 -0.052213449555272809 0.013095092411508401 0 -0.052213449555272809 0.013095092411508401 0 -0.052145304475468564 0.012589105185866529 0 -0.052033900630796055 0.012942119994855915 0 -0.051808016906461793 0.012729077583331513 0 -0.052145304475468564 0.012589105185866529 0 -0.052033900630796055 0.012942119994855915 0 -0.052213449555272809 0.013095092411508401 0 -0.052033900630796055 0.012942119994855915 0 -0.052140714788252683 0.013232443818021824 0 -0.052033900630796055 0.012942119994855915 0 -0.051951883669341864 0.01300079361716916 0 -0.052140714788252683 0.013232443818021824 0 -0.051808016906461793 0.012729077583331513 0 -0.052033900630796055 0.012942119994855915 0 -0.051951883669341864 0.01300079361716916 0 -0.051808016906461793 0.012729077583331513 0 -0.051598094180126224 0.012829206752121076 0 -0.051951883669341864 0.01300079361716916 0 -0.051994558440662302 0.012736686797746151 0 -0.051598094180126224 0.012829206752121076 0 -0.051951883669341864 0.01300079361716916 0 -0.051994558440662302 0.012736686797746151 0 -0.051951883669341864 0.01300079361716916 0 -0.052145837135223132 0.01300926609228426 0 -0.051951883669341864 0.01300079361716916 0 -0.052168262453043381 0.013194952448043248 0 -0.052145837135223132 0.01300926609228426 0 -0.052332264812348997 0.012959451653717232 0 -0.052304995858189943 0.013156659459087106 0 -0.052514268260566807 0.013086358117572843 0 -0.052332264812348997 0.012959451653717232 0 -0.052145837135223132 0.01300926609228426 0 -0.052304995858189943 0.013156659459087106 0 -0.052168262453043381 0.013194952448043248 0 -0.052145837135223132 0.01300926609228426 0 -0.052304995858189943 0.013156659459087106 0 -0.052168262453043381 0.013194952448043248 0 -0.052304995858189943 0.013156659459087106 0 -0.052468943246280909 0.013918373952909489 0 -0.052168262453043381 0.013194952448043248 0 -0.052140714788252683 0.013232443818021824 0 -0.052468943246280909 0.013918373952909489 0 -0.051951883669341864 0.01300079361716916 0 -0.052168262453043381 0.013194952448043248 0 -0.052140714788252683 0.013232443818021824 0 -0.052048134817582123 0.014854517722103517 0 -0.052636770039666082 0.015628234557304378 0 -0.052468943246280909 0.013918373952909489 0 -0.052304995858189943 0.013156659459087106 0 -0.052514268260566807 0.013086358117572843 0 -0.052468943246280909 0.013918373952909489 0 -0.052573289106393639 0.014000180934765422 0 -0.052502086724191599 0.01412349128509661 0 -0.052048134817582123 0.014854517722103517 0 -0.052636770039666082 0.015628234557304378 0 -0.051977299281501757 0.015704105853654816 0 -0.05130409645035626 0.016188733415669985 0 -0.051977299281501757 0.015704105853654816 0 -0.051602913065569779 0.015320512570982377 0 -0.052048134817582123 0.014854517722103517 0 -0.051977299281501757 0.015704105853654816 0 -0.051602913065569779 0.015320512570982377 0 -0.052048134817582123 0.014854517722103517 0 -0.051602913065569779 0.015320512570982377 0 -0.051925261036169026 0.013995989153855973 0 -0.051602913065569779 0.015320512570982377 0 -0.051925261036169026 0.013995989153855973 0 -0.051321740971948852 0.014948273281476254 0 -0.052048134817582123 0.014854517722103517 0 -0.051925261036169026 0.013995989153855973 0 -0.052468943246280909 0.013918373952909489 0 -0.052324767817855874 0.013347272497559261 0 -0.051925261036169026 0.013995989153855973 0 -0.052468943246280909 0.013918373952909489 0 -0.052324767817855874 0.013347272497559261 0 -0.051925261036169026 0.013995989153855973 0 -0.052212252147723112 0.012934401703748434 0 -0.051925261036169026 0.013995989153855973 0 -0.052212252147723112 0.012934401703748434 0 -0.051671639036884057 0.012721824370501705 0 -0.052325560193159724 0.012046207181834427 0 -0.052212252147723112 0.012934401703748434 0 -0.051671639036884057 0.012721824370501705 0 -0.052325560193159724 0.012046207181834427 0 -0.051671639036884057 0.012721824370501705 0 -0.052174927891768579 0.011522623779636396 0 -0.051671639036884057 0.012721824370501705 0 -0.050631929210607475 0.011967956009614828 0 -0.051680337046783265 0.011054134647094722 0 -0.051925261036169026 0.013995989153855973 0 -0.051671639036884057 0.012721824370501705 0 -0.051243388154686369 0.013897680599607288 0 -0.051925261036169026 0.013995989153855973 0 -0.051243388154686369 0.013897680599607288 0 -0.051321740971948852 0.014948273281476254 0 -0.051243388154686369 0.013897680599607288 0 -0.050698034224330335 0.015414535420757677 0 -0.051321740971948852 0.014948273281476254 0 -0.051661192240976768 0.012715557711769729 0 -0.050913246097237116 0.012394400130575425 0 -0.051671639036884057 0.012721824370501705 0 -0.051243388154686369 0.013897680599607288 0 -0.051198056297289449 0.012840190247544535 0 -0.051243388154686369 0.013897680599607288 0 -0.051198056297289449 0.012840190247544535 0 -0.049999644871835926 0.014634282787526586 0 -0.051198056297289449 0.012840190247544535 0 -0.049999644871835926 0.014634282787526586 0 -0.049999619017471714 0.011951017485382841 0 -0.051243388154686369 0.013897680599607288 0 -0.049999644871835926 0.014634282787526586 0 -0.050698034224330335 0.015414535420757677 0 -0.049999644871835926 0.014634282787526586 0 -0.050698034224330335 0.015414535420757677 0 -0.049999625171355484 0.017318034907763579 0 -0.050698034224330335 0.015414535420757677 0 -0.050849441814684739 0.016331102034002638 0 -0.049999625171355484 0.017318034907763579 0 -0.051602913065569779 0.015320512570982377 0 -0.051321740971948852 0.014948273281476254 0 -0.050849441814684739 0.016331102034002638 0 -0.050698034224330335 0.015414535420757677 0 -0.051321740971948852 0.014948273281476254 0 -0.050849441814684739 0.016331102034002638 0 -0.052473837997462976 0.018082588300281449 0 -0.04999553136994183 0.017596795953291215 0 -0.05130409645035626 0.016188733415669985 0 -0.051602913065569779 0.015320512570982377 0 -0.050849441814684739 0.016331102034002638 0 -0.05130409645035626 0.016188733415669985 0 -0.050849441814684739 0.016331102034002638 0 -0.050179015530099624 0.017886237420341143 0 -0.050000014210190645 0.02000549661511606 0 -0.049999625171355484 0.017318034907763579 0 -0.050179015530099624 0.017886237420341143 0 -0.050849441814684739 0.016331102034002638 0 -0.049999625171355484 0.017318034907763579 0 -0.050179015530099624 0.017886237420341143 0 -0.049999631949356561 0.0065105314376339169 0 -0.050963392999123489 0.0074225505337003972 0 -0.051397701634618508 0.0057626906373667011 0 -0.049999631949356561 0.0065105314376339169 0 -0.050963392999123489 0.0074225505337003972 0 -0.049999669207684921 0.0087955042600587514 0 -0.050963392999123489 0.0074225505337003972 0 -0.051888345988956905 0.0074106053197512357 0 -0.051397701634618508 0.0057626906373667011 0 -0.050963392999123489 0.0074225505337003972 0 -0.05132981061844983 0.0086788327422802659 0 -0.051888345988956905 0.0074106053197512357 0 -0.05132981061844983 0.0086788327422802659 0 -0.052118506175798517 0.0088158578511836703 0 -0.051888345988956905 0.0074106053197512357 0 -0.05132981061844983 0.0086788327422802659 0 -0.051638463124279624 0.009840066563255102 0 -0.052118506175798517 0.0088158578511836703 0 -0.050963392999123489 0.0074225505337003972 0 -0.05132981061844983 0.0086788327422802659 0 -0.049999669207684921 0.0087955042600587514 0 -0.05132981061844983 0.0086788327422802659 0 -0.049999669207684921 0.0087955042600587514 0 -0.050784846444882965 0.009581222133569824 0 -0.049999669207684921 0.0087955042600587514 0 -0.050784846444882965 0.009581222133569824 0 -0.049999882047653328 0.011079518719828971 0 -0.050784846444882965 0.009581222133569824 0 -0.049999882047653328 0.011079518719828971 0 -0.051638463124279624 0.009840066563255102 0 -0.050000052625971902 0.011080371882383906 0 -0.051262359479953445 0.010297847096394596 0 -0.050913246097237116 0.012394400130575425 0 -0.050000072183481535 0.011949982075984834 0 -0.049999744835505573 0.011082540979776711 0 -0.050481093481636527 0.011391843260966204 0 -0.050883612317367856 0.010733641568042688 0 -0.049999744835505573 0.011082540979776711 0 -0.050481093481636527 0.011391843260966204 0 -0.049999756745969744 0.011947699134378721 0 -0.050631929210607475 0.011967956009614828 0 -0.050481093481636527 0.011391843260966204 0 -0.049999756745969744 0.011947699134378721 0 -0.050631929210607475 0.011967956009614828 0 -0.050481093481636527 0.011391843260966204 0 -0.050883612317367856 0.010733641568042688 0 -0.050631929210607475 0.011967956009614828 0 -0.050883612317367856 0.010733641568042688 0 -0.051680337046783265 0.011054134647094722 0 -0.05132981061844983 0.0086788327422802659 0 -0.050784846444882965 0.009581222133569824 0 -0.051638463124279624 0.009840066563255102 0 -0.050883612317367856 0.010733641568042688 0 -0.051680337046783265 0.011054134647094722 0 -0.052381035683687967 0.0097179543638110499 0 -0.051638463124279624 0.009840066563255102 0 -0.052381035683687967 0.0097179543638110499 0 -0.052118506175798517 0.0088158578511836703 0 -0.051262359479953445 0.010297847096394596 0 -0.052376522952487306 0.0097665792697141755 0 -0.051671639036884057 0.012721824370501705 0 -0.051680337046783265 0.011054134647094722 0 -0.052174927891768579 0.011522623779636396 0 -0.052174927891768579 0.011522623779636396 0 -0.052428347759643543 0.010551391754049044 0 -0.052484095277316262 0.011151607582826219 0 -0.051680337046783265 0.011054134647094722 0 -0.052174927891768579 0.011522623779636396 0 -0.052428347759643543 0.010551391754049044 0 -0.052428347759643543 0.010551391754049044 0 -0.052381035683687967 0.0097179543638110499 0 -0.052660839182499627 0.0097688086630147077 0 -0.051680337046783265 0.011054134647094722 0 -0.052428347759643543 0.010551391754049044 0 -0.052381035683687967 0.0097179543638110499 0 -0.052381035683687967 0.0097179543638110499 0 -0.052915040323296303 0.0090976097515792116 0 -0.052660839182499627 0.0097688086630147077 0 -0.052915040323296303 0.0090976097515792116 0 -0.052118506175798517 0.0088158578511836703 0 -0.052714289840436641 0.0076797927887260146 0 -0.052381035683687967 0.0097179543638110499 0 -0.052915040323296303 0.0090976097515792116 0 -0.052118506175798517 0.0088158578511836703 0 -0.052915040323296303 0.0090976097515792116 0 -0.053420898547536816 0.0076584214808058295 0 -0.052714289840436641 0.0076797927887260146 0 -0.051888345988956905 0.0074106053197512357 0 -0.052714289840436641 0.0076797927887260146 0 -0.052572193207278031 0.0063382889880644906 0 -0.052118506175798517 0.0088158578511836703 0 -0.051888345988956905 0.0074106053197512357 0 -0.052714289840436641 0.0076797927887260146 0 -0.053200183684702508 0.0068553247480289672 0 -0.052714289840436641 0.0076797927887260146 0 -0.052572193207278031 0.0063382889880644906 0 -0.053200183684702508 0.0068553247480289672 0 -0.053420898547536816 0.0076584214808058295 0 -0.053887041097185624 0.0069387827257931184 0 -0.053200183684702508 0.0068553247480289672 0 -0.053420898547536816 0.0076584214808058295 0 -0.052714289840436641 0.0076797927887260146 0 -0.053420898547536816 0.0076584214808058295 0 -0.054299106080450459 0.0071011771456101092 0 -0.053887041097185624 0.0069387827257931184 0 -0.052915040323296303 0.0090976097515792116 0 -0.053420898547536816 0.0076584214808058295 0 -0.054299106080450459 0.0071011771456101092 0 -0.052457226012706214 0.0092409228923686741 0 -0.052583976123107522 0.0093718063855092581 0 -0.052537426990041484 0.0090075559926099721 0 -0.052457226012706214 0.0092409228923686741 0 -0.052537426990041484 0.0090075559926099721 0 -0.052443832995259558 0.0085597837246135285 0 -0.052613837499474639 0.0094992222792843351 0 -0.052630146678542537 0.0098670967705753333 0 -0.052583976123107522 0.0093718063855092581 0 -0.052457226012706214 0.0092409228923686741 0 -0.052613837499474639 0.0094992222792843351 0 -0.052583976123107522 0.0093718063855092581 0 -0.052915040323296303 0.0090976097515792116 0 -0.052457226012706214 0.0092409228923686741 0 -0.052613837499474639 0.0094992222792843351 0 -0.052915040323296303 0.0090976097515792116 0 -0.052613837499474639 0.0094992222792843351 0 -0.052660839182499627 0.0097688086630147077 0 -0.052899436132499957 0.0090188226162863285 0 -0.053339699692337331 0.0082028697453744026 0 -0.052613837499474639 0.0094992222792843351 0 -0.052600576528189953 0.010242308876706237 0 -0.052660839182499627 0.0097688086630147077 0 -0.052428347759643543 0.010551391754049044 0 -0.052600576528189953 0.010242308876706237 0 -0.052660839182499627 0.0097688086630147077 0 -0.052428347759643543 0.010551391754049044 0 -0.052600576528189953 0.010242308876706237 0 -0.052484095277316262 0.011151607582826219 0 -0.052456032506360939 0.011632937911829894 0 -0.052484095277316262 0.011151607582826219 0 -0.052617557841549513 0.01054634720263873 0 -0.052600576528189953 0.010242308876706237 0 -0.052484095277316262 0.011151607582826219 0 -0.052617557841549513 0.01054634720263873 0 -0.052600576528189953 0.010242308876706237 0 -0.052617557841549513 0.01054634720263873 0 -0.052630146678542537 0.0098670967705753333 0 -0.052613837499474639 0.0094992222792843351 0 -0.052600576528189953 0.010242308876706237 0 -0.052630146678542537 0.0098670967705753333 0 -0.052617557841549513 0.01054634720263873 0 -0.052630146678542537 0.0098670967705753333 0 -0.052717715862179874 0.0098093197205048679 0 -0.052617557841549513 0.01054634720263873 0 -0.052717715862179874 0.0098093197205048679 0 -0.052777466361101463 0.010250860123325791 0 -0.052630146678542537 0.0098670967705753333 0 -0.052717715862179874 0.0098093197205048679 0 -0.052583976123107522 0.0093718063855092581 0 -0.05263121449002324 0.011058799603410328 0 -0.052617557841549513 0.01054634720263873 0 -0.052777466361101463 0.010250860123325791 0 -0.05263121449002324 0.011058799603410328 0 -0.052456032506360939 0.011632937911829894 0 -0.052617557841549513 0.01054634720263873 0 -0.053373348057205838 0.010945094943614691 0 -0.05263121449002324 0.011058799603410328 0 -0.052777466361101463 0.010250860123325791 0 -0.053373348057205838 0.010945094943614691 0 -0.052777466361101463 0.010250860123325791 0 -0.052992174838197084 0.0097294440306952227 0 -0.052717715862179874 0.0098093197205048679 0 -0.052777466361101463 0.010250860123325791 0 -0.052992174838197084 0.0097294440306952227 0 -0.052717715862179874 0.0098093197205048679 0 -0.052854077495155451 0.0094023096043259567 0 -0.052992174838197084 0.0097294440306952227 0 -0.052854077495155451 0.0094023096043259567 0 -0.052832525536005683 0.0090845456560285538 0 -0.052931028224854813 0.0090747259032699402 0 -0.052832525536005683 0.0090845456560285538 0 -0.05273471510913582 0.0093264727463318684 0 -0.052673807110302055 0.0090226987300449889 0 -0.052717715862179874 0.0098093197205048679 0 -0.052854077495155451 0.0094023096043259567 0 -0.05273471510913582 0.0093264727463318684 0 -0.052854077495155451 0.0094023096043259567 0 -0.052832525536005683 0.0090845456560285538 0 -0.05273471510913582 0.0093264727463318684 0 -0.052717715862179874 0.0098093197205048679 0 -0.05273471510913582 0.0093264727463318684 0 -0.052583976123107522 0.0093718063855092581 0 -0.05273471510913582 0.0093264727463318684 0 -0.052583976123107522 0.0093718063855092581 0 -0.052673807110302055 0.0090226987300449889 0 -0.052583976123107522 0.0093718063855092581 0 -0.052673807110302055 0.0090226987300449889 0 -0.052537426990041484 0.0090075559926099721 0 -0.052673807110302055 0.0090226987300449889 0 -0.052712894592792013 0.0086295930709961513 0 -0.052594919937607496 0.0087688121139476456 0 -0.052673807110302055 0.0090226987300449889 0 -0.052537426990041484 0.0090075559926099721 0 -0.052594919937607496 0.0087688121139476456 0 -0.052673807110302055 0.0090226987300449889 0 -0.052794201260216132 0.0088201440655453819 0 -0.052712894592792013 0.0086295930709961513 0 -0.052794201260216132 0.0088201440655453819 0 -0.052816522372082467 0.0084982884547255208 0 -0.052831527652039918 0.0086309760488970169 0 -0.052794201260216132 0.0088201440655453819 0 -0.052816522372082467 0.0084982884547255208 0 -0.052712894592792013 0.0086295930709961513 0 -0.052832525536005683 0.0090845456560285538 0 -0.052794201260216132 0.0088201440655453819 0 -0.052859434036168856 0.0088291183341294779 0 -0.052832525536005683 0.0090845456560285538 0 -0.052673807110302055 0.0090226987300449889 0 -0.052794201260216132 0.0088201440655453819 0 -0.05271288711393312 0.008320403516647935 0 -0.05279853455462663 0.0083608231915261247 0 -0.052712894592792013 0.0086295930709961513 0 -0.05279853455462663 0.0083608231915261247 0 -0.052816522372082467 0.0084982884547255208 0 -0.0528880979618866 0.0082147887784956262 0 -0.05271288711393312 0.008320403516647935 0 -0.05279853455462663 0.0083608231915261247 0 -0.052854736619798566 0.0081234568163085271 0 -0.05279853455462663 0.0083608231915261247 0 -0.052854736619798566 0.0081234568163085271 0 -0.0528880979618866 0.0082147887784956262 0 -0.05279853455462663 0.0083608231915261247 0 -0.052816522372082467 0.0084982884547255208 0 -0.052712894592792013 0.0086295930709961513 0 -0.05271288711393312 0.008320403516647935 0 -0.052712894592792013 0.0086295930709961513 0 -0.052619113086982687 0.0085749800520903627 0 -0.052712894592792013 0.0086295930709961513 0 -0.052594919937607496 0.0087688121139476456 0 -0.052619113086982687 0.0085749800520903627 0 -0.052594919937607496 0.0087688121139476456 0 -0.052619113086982687 0.0085749800520903627 0 -0.052443832995259558 0.0085597837246135285 0 -0.052537426990041484 0.0090075559926099721 0 -0.052594919937607496 0.0087688121139476456 0 -0.052443832995259558 0.0085597837246135285 0 -0.05271288711393312 0.008320403516647935 0 -0.052619113086982687 0.0085749800520903627 0 -0.052443832995259558 0.0085597837246135285 0 -0.053036983424789803 0.0078658644381822927 0 -0.052862322748092078 0.007798293699787219 0 -0.055068210948266236 0.0045497591128865278 0 -0.054892748265068458 0.0042870047398037119 0 -0.055241917284982921 0.0049884184030274158 0 -0.053944385901751747 0.0061097272412675837 0 -0.054523263021427876 0.0061574568603719087 0 -0.05356536005331803 0.0071620080548351105 0 -0.052834792670971499 0.0078048272825202453 0 -0.0539999945680626 0.0072552577734677154 0 -0.055068210948266236 0.0045497591128865278 0 -0.055010627574213697 0.004495294272019063 0 -0.055023269719304553 0.004420555878188335 0 -0.054892748265068458 0.0042870047398037119 0 -0.054938486408951895 0.0045657025225714935 0 -0.055010627574213697 0.004495294272019063 0 -0.055068210948266236 0.0045497591128865278 0 -0.054892748265068458 0.0042870047398037119 0 -0.055010627574213697 0.004495294272019063 0 -0.05271288711393312 0.008320403516647935 0 -0.052443832995259558 0.0085597837246135285 0 -0.052834559649815753 0.0077930831141803216 0 -0.05356536005331803 0.0071620080548351105 0 -0.052834792670971499 0.0078048272825202453 0 -0.052834559649815753 0.0077930831141803216 0 -0.05271288711393312 0.008320403516647935 0 -0.052854736619798566 0.0081234568163085271 0 -0.052834559649815753 0.0077930831141803216 0 -0.052854736619798566 0.0081234568163085271 0 -0.052834559649815753 0.0077930831141803216 0 -0.053009188473754097 0.0079210329663456907 0 -0.052834792670971499 0.0078048272825202453 0 -0.052834559649815753 0.0077930831141803216 0 -0.053144271524535248 0.0075731160469897701 0 -0.052834559649815753 0.0077930831141803216 0 -0.053009188473754097 0.0079210329663456907 0 -0.053144271524535248 0.0075731160469897701 0 -0.053944385901751747 0.0061097272412675837 0 -0.053703419971098031 0.006691922610070968 0 -0.054892748265068458 0.0042870047398037119 0 -0.05448790930459374 0.0055195550043557126 0 -0.053662717775334032 0.0068533215216621561 0 -0.054892748265068458 0.0042870047398037119 0 -0.054808447219674788 0.004909763340827422 0 -0.054938486408951895 0.0045657025225714935 0 -0.054892748265068458 0.0042870047398037119 0 -0.054808447219674788 0.004909763340827422 0 -0.05448790930459374 0.0055195550043557126 0 -0.054808447219674788 0.004909763340827422 0 -0.054587813060440964 0.0053191964371141383 0 -0.05475320484237664 0.0047540156430771387 0 -0.054808447219674788 0.004909763340827422 0 -0.054587813060440964 0.0053191964371141383 0 -0.05448790930459374 0.0055195550043557126 0 -0.054587813060440964 0.0053191964371141383 0 -0.05448790930459374 0.0055195550043557126 0 -0.054274265382660988 0.0060946543881050331 0 -0.054587813060440964 0.0053191964371141383 0 -0.054441895090261705 0.0056648623978614197 0 -0.054274265382660988 0.0060946543881050331 0 -0.054587813060440964 0.0053191964371141383 0 -0.054441895090261705 0.0056648623978614197 0 -0.054564904481455012 0.0049584275158657855 0 -0.054441895090261705 0.0056648623978614197 0 -0.054564904481455012 0.0049584275158657855 0 -0.054439755595986239 0.0054823415244783435 0 -0.054441895090261705 0.0056648623978614197 0 -0.054439755595986239 0.0054823415244783435 0 -0.054335615449469334 0.0061612453893815705 0 -0.054587813060440964 0.0053191964371141383 0 -0.054564904481455012 0.0049584275158657855 0 -0.05475320484237664 0.0047540156430771387 0 -0.05453579008373733 0.0043273200353454288 0 -0.054564904481455012 0.0049584275158657855 0 -0.054674432468763107 0.0042314944005600961 0 -0.05453579008373733 0.0043273200353454288 0 -0.054564904481455012 0.0049584275158657855 0 -0.054495317913568563 0.0049128716167771728 0 -0.054564904481455012 0.0049584275158657855 0 -0.054495317913568563 0.0049128716167771728 0 -0.054439755595986239 0.0054823415244783435 0 -0.054495317913568563 0.0049128716167771728 0 -0.054439755595986239 0.0054823415244783435 0 -0.054515965158521126 0.0051085043434647625 0 -0.054619672791545816 0.0037538583548848022 0 -0.054749151901544807 0.0037738640503592316 0 -0.054674432468763107 0.0042314944005600961 0 -0.054749151901544807 0.0037738640503592316 0 -0.054674432468763107 0.0042314944005600961 0 -0.05477973332434255 0.0043375476062609778 0 -0.054674432468763107 0.0042314944005600961 0 -0.05475320484237664 0.0047540156430771387 0 -0.05477973332434255 0.0043375476062609778 0 -0.054564904481455012 0.0049584275158657855 0 -0.054674432468763107 0.0042314944005600961 0 -0.05475320484237664 0.0047540156430771387 0 -0.054749151901544807 0.0037738640503592316 0 -0.05477973332434255 0.0043375476062609778 0 -0.054848494388072613 0.0041044605829746329 0 -0.054848494388072613 0.0041044605829746329 0 -0.054944876389074311 0.0045409615455027346 0 -0.054926811419006814 0.0041729158068805816 0 -0.05477973332434255 0.0043375476062609778 0 -0.054848494388072613 0.0041044605829746329 0 -0.054944876389074311 0.0045409615455027346 0 -0.05475320484237664 0.0047540156430771387 0 -0.05477973332434255 0.0043375476062609778 0 -0.054944876389074311 0.0045409615455027346 0 -0.054808447219674788 0.004909763340827422 0 -0.05475320484237664 0.0047540156430771387 0 -0.054944876389074311 0.0045409615455027346 0 -0.054808447219674788 0.004909763340827422 0 -0.054944876389074311 0.0045409615455027346 0 -0.054938486408951895 0.0045657025225714935 0 -0.054944876389074311 0.0045409615455027346 0 -0.054938486408951895 0.0045657025225714935 0 -0.055010627574213697 0.004495294272019063 0 -0.054944876389074311 0.0045409615455027346 0 -0.055010627574213697 0.004495294272019063 0 -0.055023269719304553 0.004420555878188335 0 -0.054944876389074311 0.0045409615455027346 0 -0.055023269719304553 0.004420555878188335 0 -0.054926811419006814 0.0041729158068805816 0 -0.054926811419006814 0.0041729158068805816 0 -0.054555923167402695 0.0035770414177397685 0 -0.054649785436324982 0.0043310253400142421 0 -0.055023269719304553 0.004420555878188335 0 -0.054926811419006814 0.0041729158068805816 0 -0.05501093958144198 0.0045640863569318445 0 -0.054926811419006814 0.0041729158068805816 0 -0.054794200743556426 0.0037520913238961668 0 -0.054555923167402695 0.0035770414177397685 0 -0.054848494388072613 0.0041044605829746329 0 -0.054926811419006814 0.0041729158068805816 0 -0.054794200743556426 0.0037520913238961668 0 -0.054749151901544807 0.0037738640503592316 0 -0.054848494388072613 0.0041044605829746329 0 -0.054794200743556426 0.0037520913238961668 0 -0.054794200743556426 0.0037520913238961668 0 -0.054735757475883363 0.0031447178130808344 0 -0.054555923167402695 0.0035770414177397685 0 -0.054749151901544807 0.0037738640503592316 0 -0.054794200743556426 0.0037520913238961668 0 -0.054735757475883363 0.0031447178130808344 0 -0.054695793885726353 0.0032908428238530608 0 -0.054749151901544807 0.0037738640503592316 0 -0.054735757475883363 0.0031447178130808344 0 -0.054675229387551157 0.0022680007299832714 0 -0.054735757475883363 0.0031447178130808344 0 -0.05431232501045858 0.0028411500933208525 0 -0.054735757475883363 0.0031447178130808344 0 -0.05431232501045858 0.0028411500933208525 0 -0.054555923167402695 0.0035770414177397685 0 -0.05431232501045858 0.0028411500933208525 0 -0.054555923167402695 0.0035770414177397685 0 -0.054001542579349728 0.0037258350220688769 0 -0.054555923167402695 0.0035770414177397685 0 -0.054649785436324982 0.0043310253400142421 0 -0.054001542579349728 0.0037258350220688769 0 -0.054003695787943062 0.0047757254849513488 0 -0.054649785436324982 0.0043310253400142421 0 -0.054001542579349728 0.0037258350220688769 0 -0.054003695787943062 0.0047757254849513488 0 -0.054727424266167037 0.0048555975504612596 0 -0.054649785436324982 0.0043310253400142421 0 -0.054003695787943062 0.0047757254849513488 0 -0.054727424266167037 0.0048555975504612596 0 -0.054336851611711437 0.0055114844600351017 0 -0.054926811419006814 0.0041729158068805816 0 -0.054649785436324982 0.0043310253400142421 0 -0.05501093958144198 0.0045640863569318445 0 -0.054727424266167037 0.0048555975504612596 0 -0.054649785436324982 0.0043310253400142421 0 -0.05501093958144198 0.0045640863569318445 0 -0.055068210948266236 0.0045497591128865278 0 -0.055023269719304553 0.004420555878188335 0 -0.05501093958144198 0.0045640863569318445 0 -0.055068210948266236 0.0045497591128865278 0 -0.05501093958144198 0.0045640863569318445 0 -0.055241917284982921 0.0049884184030274158 0 -0.054727424266167037 0.0048555975504612596 0 -0.05501093958144198 0.0045640863569318445 0 -0.055241917284982921 0.0049884184030274158 0 -0.053339699692337331 0.0082028697453744026 0 -0.053036983424789803 0.0078658644381822927 0 -0.054727424266167037 0.0048555975504612596 0 -0.055241917284982921 0.0049884184030274158 0 -0.054336851611711437 0.0055114844600351017 0 -0.054299106080450459 0.0071011771456101092 0 -0.05356536005331803 0.0071620080548351105 0 -0.0539999945680626 0.0072552577734677154 0 -0.053880493844147836 0.0069013216329243893 0 -0.054523263021427876 0.0061574568603719087 0 -0.054299106080450459 0.0071011771456101092 0 -0.053887041097185624 0.0069387827257931184 0 -0.0539999945680626 0.0072552577734677154 0 -0.053887041097185624 0.0069387827257931184 0 -0.055241917284982921 0.0049884184030274158 0 -0.054336851611711437 0.0055114844600351017 0 -0.053887041097185624 0.0069387827257931184 0 -0.054336851611711437 0.0055114844600351017 0 -0.053483502931062708 0.0058792523601671337 0 -0.054003695787943062 0.0047757254849513488 0 -0.054336851611711437 0.0055114844600351017 0 -0.053483502931062708 0.0058792523601671337 0 -0.054003695787943062 0.0047757254849513488 0 -0.053483502931062708 0.0058792523601671337 0 -0.052508986893539972 0.0045897361311040595 0 -0.053464925732625783 0.0057610460364320671 0 -0.052519633528687382 0.0047845906995578509 0 -0.053200183684702508 0.0068553247480289672 0 -0.053887041097185624 0.0069387827257931184 0 -0.053483502931062708 0.0058792523601671337 0 -0.053200183684702508 0.0068553247480289672 0 -0.053483502931062708 0.0058792523601671337 0 -0.052572193207278031 0.0063382889880644906 0 -0.052572193207278031 0.0063382889880644906 0 -0.052488468606792509 0.004980099591598292 0 -0.051397701634618508 0.0057626906373667011 0 -0.053483502931062708 0.0058792523601671337 0 -0.052572193207278031 0.0063382889880644906 0 -0.052488468606792509 0.004980099591598292 0 -0.051888345988956905 0.0074106053197512357 0 -0.052572193207278031 0.0063382889880644906 0 -0.051397701634618508 0.0057626906373667011 0 -0.054003695787943062 0.0047757254849513488 0 -0.052508986893539972 0.0045897361311040595 0 -0.054001542579349728 0.0037258350220688769 0 -0.053959795814097919 0.0035784429132201985 0 -0.052984763028018821 0.0024513047628050271 0 -0.05431232501045858 0.0028411500933208525 0 -0.054001542579349728 0.0037258350220688769 0 -0.053137921775201033 0.0028290471545848296 0 -0.054105459706831532 0.0015203092502365202 0 -0.05431232501045858 0.0028411500933208525 0 -0.053137921775201033 0.0028290471545848296 0 -0.052947280506461546 0.00066297712339593467 0 -0.053137921775201033 0.0028290471545848296 0 -0.051549264113238659 0.0011463774290146583 0 -0.052508986893539972 0.0045897361311040595 0 -0.05286519470576282 0.0020956138796845488 0 -0.051314004878654298 0.0032853894172614416 0 -0.052508986893539972 0.0045897361311040595 0 -0.054001542579349728 0.0037258350220688769 0 -0.05286519470576282 0.0020956138796845488 0 -0.05286519470576282 0.0020956138796845488 0 -0.051174904251540726 0.0017434011808631072 0 -0.051314004878654298 0.0032853894172614416 0 -0.052984763028018821 0.0024513047628050271 0 -0.051590919199851024 0.00074547713432559387 0 -0.05286519470576282 0.0020956138796845488 0 -0.051174904251540726 0.0017434011808631072 0 -0.051584923528500026 0.00037871824493601066 0 -0.051174904251540726 0.0017434011808631072 0 -0.049999791810282107 0.0002924733836056593 0 -0.049999695142996688 0.0019402152190445281 0 -0.051174904251540726 0.0017434011808631072 0 -0.051584923528500026 0.00037871824493601066 0 -0.049999791810282107 0.0002924733836056593 0 -0.049999951210663328 0.001940569825352514 0 -0.049999688271728612 0.0042257280951294822 0 -0.051424420774888964 0.0035428785210090698 0 -0.050000238003026429 0.0019405361037114375 0 -0.051344424252466325 0.0034051200135524463 0 -0.051174904251540726 0.0017434011808631072 0 -0.049999695142996688 0.0019402152190445281 0 -0.051314004878654298 0.0032853894172614416 0 -0.049999688271728612 0.0042257280951294822 0 -0.051424420774888964 0.0035428785210090698 0 -0.051397701634618508 0.0057626906373667011 0 -0.052519633528687382 0.0047845906995578509 0 -0.051344424252466325 0.0034051200135524463 0 -0.052488468606792509 0.004980099591598292 0 -0.051424420774888964 0.0035428785210090698 0 -0.051397701634618508 0.0057626906373667011 0 -0.049999631949356561 0.0065105314376339169 0 -0.049999688271728612 0.0042257280951294822 0 -0.051397701634618508 0.0057626906373667011 0 -0.046002250427187266 0.0087468202502556641 0 -0.043488719574555995 0.0089037340254490421 0 -0.045023639927200036 0.0068528593465327697 0 -0.046002250427187266 0.0087468202502556641 0 -0.045023639927200036 0.0068528593465327697 0 -0.048154897425142645 0.0082576497078225702 0 -0.046002250427187266 0.0087468202502556641 0 -0.048108695864291305 0.0097955051706000787 0 -0.048154897425142645 0.0082576497078225702 0 -0.046002250427187266 0.0087468202502556641 0 -0.048108695864291305 0.0097955051706000787 0 -0.04537235083286701 0.010509695262246144 0 -0.046002250427187266 0.0087468202502556641 0 -0.043488719574555995 0.0089037340254490421 0 -0.04537235083286701 0.010509695262246144 0 -0.043488719574555995 0.0089037340254490421 0 -0.042108685587905093 0.010720850661425843 0 -0.040793029321231647 0.0089466804616908924 0 -0.043488719574555995 0.0089037340254490421 0 -0.042793988984420425 0.0070957036229213006 0 -0.040793029321231647 0.0089466804616908924 0 -0.043488719574555995 0.0089037340254490421 0 -0.042793988984420425 0.0070957036229213006 0 -0.045023639927200036 0.0068528593465327697 0 -0.042793988984420425 0.0070957036229213006 0 -0.043295046349713977 0.0061880582179718027 0 -0.042261865057669858 0.0055080603432141606 0 -0.042793988984420425 0.0070957036229213006 0 -0.043295046349713977 0.0061880582179718027 0 -0.045023639927200036 0.0068528593465327697 0 -0.044088910908870314 0.0064841699704008531 0 -0.043295046349713977 0.0061880582179718027 0 -0.045023639927200036 0.0068528593465327697 0 -0.045023639927200036 0.0068528593465327697 0 -0.048572635061246323 0.0060507268985596644 0 -0.048154897425142645 0.0082576497078225702 0 -0.044088910908870314 0.0064841699704008531 0 -0.045023639927200036 0.0068528593465327697 0 -0.043872537138951027 0.0065796752169147267 0 -0.045015240028552429 0.0068863489036290488 0 -0.046150200733114419 0.006484052422714528 0 -0.048572635061246323 0.0060507268985596644 0 -0.050426197282922754 0.0068924671457816292 0 -0.049901574650597524 0.0075723551088641584 0 -0.048572635061246323 0.0060507268985596644 0 -0.049901574650597524 0.0075723551088641584 0 -0.048154897425142645 0.0082576497078225702 0 -0.051142709359803029 0.0071867504475937082 0 -0.050426197282922754 0.0068924671457816292 0 -0.050929608208158748 0.0073372843243680848 0 -0.050426197282922754 0.0068924671457816292 0 -0.050929608208158748 0.0073372843243680848 0 -0.049901574650597524 0.0075723551088641584 0 -0.049901574650597524 0.0075723551088641584 0 -0.051385612134561283 0.0080155159472642002 0 -0.04964371319230397 0.0085976333283468865 0 -0.050929608208158748 0.0073372843243680848 0 -0.049901574650597524 0.0075723551088641584 0 -0.051385612134561283 0.0080155159472642002 0 -0.049901574650597524 0.0075723551088641584 0 -0.048154897425142645 0.0082576497078225702 0 -0.04964371319230397 0.0085976333283468865 0 -0.052254435084782648 0.0091601702351595416 0 -0.052252585059655597 0.008630093984617896 0 -0.053373348057205838 0.010945094943614691 0 -0.053390049125455016 0.0096053254361703946 0 -0.052992174838197084 0.0097294440306952227 0 -0.051142709359803029 0.0071867504475937082 0 -0.051180008811611173 0.0073250952388743875 0 -0.051205080355160706 0.0074753941148887493 0 -0.051142709359803029 0.0071867504475937082 0 -0.050929608208158748 0.0073372843243680848 0 -0.051205080355160706 0.0074753941148887493 0 -0.052252585059655597 0.008630093984617896 0 -0.052091763052695625 0.0085796566527295507 0 -0.053008612660524618 0.0090947388923655944 0 -0.053390049125455016 0.0096053254361703946 0 -0.052136731448938364 0.0084157203904725725 0 -0.051385612134561283 0.0080155159472642002 0 -0.051205080355160706 0.0074753941148887493 0 -0.052136731448938364 0.0084157203904725725 0 -0.050929608208158748 0.0073372843243680848 0 -0.051385612134561283 0.0080155159472642002 0 -0.051205080355160706 0.0074753941148887493 0 -0.053008612660524618 0.0090947388923655944 0 -0.053390049125455016 0.0096053254361703946 0 -0.052992174838197084 0.0097294440306952227 0 -0.052854077495155451 0.0094023096043259567 0 -0.052992174838197084 0.0097294440306952227 0 -0.052931028224854813 0.0090747259032699402 0 -0.053008612660524618 0.0090947388923655944 0 -0.052992174838197084 0.0097294440306952227 0 -0.052931028224854813 0.0090747259032699402 0 -0.052832525536005683 0.0090845456560285538 0 -0.052931028224854813 0.0090747259032699402 0 -0.052859434036168856 0.0088291183341294779 0 -0.053008612660524618 0.0090947388923655944 0 -0.052931028224854813 0.0090747259032699402 0 -0.052807529224925084 0.0088192652812782869 0 -0.052931028224854813 0.0090747259032699402 0 -0.052807529224925084 0.0088192652812782869 0 -0.052859434036168856 0.0088291183341294779 0 -0.052807529224925084 0.0088192652812782869 0 -0.052764057155176361 0.0087060125542009967 0 -0.052859434036168856 0.0088291183341294779 0 -0.052807529224925084 0.0088192652812782869 0 -0.052639961394899709 0.0087242872140969544 0 -0.052764057155176361 0.0087060125542009967 0 -0.053008612660524618 0.0090947388923655944 0 -0.052807529224925084 0.0088192652812782869 0 -0.052136731448938364 0.0084157203904725725 0 -0.052807529224925084 0.0088192652812782869 0 -0.052639961394899709 0.0087242872140969544 0 -0.052136731448938364 0.0084157203904725725 0 -0.05271223493180472 0.0085190123177565601 0 -0.052837080703550719 0.0087338737462139635 0 -0.052672638612262776 0.0079730890342075075 0 -0.052639961394899709 0.0087242872140969544 0 -0.05271223493180472 0.0085190123177565601 0 -0.052837080703550719 0.0087338737462139635 0 -0.05271223493180472 0.0085190123177565601 0 -0.052764057155176361 0.0087060125542009967 0 -0.052803421854477402 0.0085661168018282205 0 -0.05271223493180472 0.0085190123177565601 0 -0.052803421854477402 0.0085661168018282205 0 -0.052783732143409125 0.0082814082330159196 0 -0.052639961394899709 0.0087242872140969544 0 -0.05271223493180472 0.0085190123177565601 0 -0.052764057155176361 0.0087060125542009967 0 -0.052764057155176361 0.0087060125542009967 0 -0.052859434036168856 0.0088291183341294779 0 -0.052803421854477402 0.0085661168018282205 0 -0.052859434036168856 0.0088291183341294779 0 -0.052803421854477402 0.0085661168018282205 0 -0.052831527652039918 0.0086309760488970169 0 -0.052803421854477402 0.0085661168018282205 0 -0.052831527652039918 0.0086309760488970169 0 -0.052849665653920283 0.0083847067218807362 0 -0.052794201260216132 0.0088201440655453819 0 -0.052859434036168856 0.0088291183341294779 0 -0.052831527652039918 0.0086309760488970169 0 -0.048154897425142645 0.0082576497078225702 0 -0.04964371319230397 0.0085976333283468865 0 -0.048971458746549477 0.0093055692340919087 0 -0.051385612134561283 0.0080155159472642002 0 -0.052136731448938364 0.0084157203904725725 0 -0.052837080703550719 0.0087338737462139635 0 -0.051462136803651443 0.0079505827709393777 0 -0.051254373622733919 0.0089707516095948285 0 -0.051385612134561283 0.0080155159472642002 0 -0.04964371319230397 0.0085976333283468865 0 -0.049787179012840133 0.0094749817062977741 0 -0.049787179012840133 0.0094749817062977741 0 -0.048971458746549477 0.0093055692340919087 0 -0.049034466368181172 0.010195989397609302 0 -0.04964371319230397 0.0085976333283468865 0 -0.049787179012840133 0.0094749817062977741 0 -0.048971458746549477 0.0093055692340919087 0 -0.052639961394899709 0.0087242872140969544 0 -0.052136731448938364 0.0084157203904725725 0 -0.052837080703550719 0.0087338737462139635 0 -0.048108695864291305 0.0097955051706000787 0 -0.048154897425142645 0.0082576497078225702 0 -0.048971458746549477 0.0093055692340919087 0 -0.048108695864291305 0.0097955051706000787 0 -0.049034466368181172 0.010195989397609302 0 -0.048770496654255882 0.01010251166279191 0 -0.048108695864291305 0.0097955051706000787 0 -0.048971458746549477 0.0093055692340919087 0 -0.049034466368181172 0.010195989397609302 0 -0.052837080703550719 0.0087338737462139635 0 -0.052208755872434093 0.0075726912320817586 0 -0.052672638612262776 0.0079730890342075075 0 -0.051254373622733919 0.0089707516095948285 0 -0.050606573160621664 0.008995612921306316 0 -0.052208755872434093 0.0075726912320817586 0 -0.052576124253067735 0.007725851156437355 0 -0.049953879283498898 0.0092222090497921742 0 -0.052208755872434093 0.0075726912320817586 0 -0.052672638612262776 0.0079730890342075075 0 -0.052576124253067735 0.007725851156437355 0 -0.049034466368181172 0.010195989397609302 0 -0.048770496654255882 0.01010251166279191 0 -0.049953879283498898 0.0092222090497921742 0 -0.050606573160621664 0.008995612921306316 0 -0.050022943004703647 0.0093319492465175052 0 -0.0528880979618866 0.0082147887784956262 0 -0.052849665653920283 0.0083847067218807362 0 -0.05290390848964923 0.0081046361551086882 0 -0.052816522372082467 0.0084982884547255208 0 -0.0528880979618866 0.0082147887784956262 0 -0.052849665653920283 0.0083847067218807362 0 -0.052816522372082467 0.0084982884547255208 0 -0.052831527652039918 0.0086309760488970169 0 -0.052849665653920283 0.0083847067218807362 0 -0.052803421854477402 0.0085661168018282205 0 -0.052849665653920283 0.0083847067218807362 0 -0.052783732143409125 0.0082814082330159196 0 -0.052849665653920283 0.0083847067218807362 0 -0.05290390848964923 0.0081046361551086882 0 -0.052783732143409125 0.0082814082330159196 0 -0.05290390848964923 0.0081046361551086882 0 -0.052672638612262776 0.0079730890342075075 0 -0.052993924343861694 0.0078092676947927606 0 -0.05290390848964923 0.0081046361551086882 0 -0.052783732143409125 0.0082814082330159196 0 -0.052672638612262776 0.0079730890342075075 0 -0.05271223493180472 0.0085190123177565601 0 -0.052783732143409125 0.0082814082330159196 0 -0.052672638612262776 0.0079730890342075075 0 -0.052672638612262776 0.0079730890342075075 0 -0.052576124253067735 0.007725851156437355 0 -0.052993924343861694 0.0078092676947927606 0 -0.052576124253067735 0.007725851156437355 0 -0.052993924343861694 0.0078092676947927606 0 -0.053143572060937609 0.0075855387991531874 0 -0.05290390848964923 0.0081046361551086882 0 -0.052993924343861694 0.0078092676947927606 0 -0.053009188473754097 0.0079210329663456907 0 -0.052993924343861694 0.0078092676947927606 0 -0.053178541406079263 0.0076427093896352617 0 -0.053009188473754097 0.0079210329663456907 0 -0.052993924343861694 0.0078092676947927606 0 -0.053178541406079263 0.0076427093896352617 0 -0.053143572060937609 0.0075855387991531874 0 -0.053178541406079263 0.0076427093896352617 0 -0.053009188473754097 0.0079210329663456907 0 -0.053144271524535248 0.0075731160469897701 0 -0.0528880979618866 0.0082147887784956262 0 -0.05290390848964923 0.0081046361551086882 0 -0.053009188473754097 0.0079210329663456907 0 -0.052854736619798566 0.0081234568163085271 0 -0.0528880979618866 0.0082147887784956262 0 -0.053009188473754097 0.0079210329663456907 0 -0.052834792670971499 0.0078048272825202453 0 -0.053144271524535248 0.0075731160469897701 0 -0.053662717775334032 0.0068533215216621561 0 -0.054274265382660988 0.0060946543881050331 0 -0.053662717775334032 0.0068533215216621561 0 -0.054203779932605146 0.0065437679201743029 0 -0.05448790930459374 0.0055195550043557126 0 -0.054274265382660988 0.0060946543881050331 0 -0.053662717775334032 0.0068533215216621561 0 -0.053144271524535248 0.0075731160469897701 0 -0.053322004359964932 0.0074248755991747403 0 -0.053662717775334032 0.0068533215216621561 0 -0.053178541406079263 0.0076427093896352617 0 -0.053144271524535248 0.0075731160469897701 0 -0.053322004359964932 0.0074248755991747403 0 -0.053322004359964932 0.0074248755991747403 0 -0.053662717775334032 0.0068533215216621561 0 -0.053143572060937609 0.0075855387991531874 0 -0.053178541406079263 0.0076427093896352617 0 -0.053322004359964932 0.0074248755991747403 0 -0.053143572060937609 0.0075855387991531874 0 -0.053662717775334032 0.0068533215216621561 0 -0.052897111114533858 0.0078370801412023638 0 -0.053143572060937609 0.0075855387991531874 0 -0.052576124253067735 0.007725851156437355 0 -0.053143572060937609 0.0075855387991531874 0 -0.052104198292675125 0.0082812577899679662 0 -0.052897111114533858 0.0078370801412023638 0 -0.052104198292675125 0.0082812577899679662 0 -0.051428855832592123 0.0091370839316168607 0 -0.052897111114533858 0.0078370801412023638 0 -0.053143572060937609 0.0075855387991531874 0 -0.052104198292675125 0.0082812577899679662 0 -0.052437983588689917 0.01075369380186016 0 -0.052569194206711779 0.0087551571424952113 0 -0.053244673552937216 0.0080139948125500619 0 -0.05463900426350727 0.008422069858246015 0 -0.054498823776978969 0.0067124461505585382 0 -0.052437983588689917 0.01075369380186016 0 -0.053244673552937216 0.0080139948125500619 0 -0.054413021581426288 0.0068923911993185212 0 -0.052897111114533858 0.0078370801412023638 0 -0.052569194206711779 0.0087551571424952113 0 -0.051428855832592123 0.0091370839316168607 0 -0.053662717775334032 0.0068533215216621561 0 -0.052897111114533858 0.0078370801412023638 0 -0.053244673552937216 0.0080139948125500619 0 -0.052897111114533858 0.0078370801412023638 0 -0.052569194206711779 0.0087551571424952113 0 -0.053244673552937216 0.0080139948125500619 0 -0.055461481405149025 0.0046982762302591645 0 -0.054839900539807897 0.0051266003175628287 0 -0.054413021581426288 0.0068923911993185212 0 -0.053662717775334032 0.0068533215216621561 0 -0.053244673552937216 0.0080139948125500619 0 -0.054413021581426288 0.0068923911993185212 0 -0.053662717775334032 0.0068533215216621561 0 -0.054413021581426288 0.0068923911993185212 0 -0.054203779932605146 0.0065437679201743029 0 -0.054839900539807897 0.0051266003175628287 0 -0.054413021581426288 0.0068923911993185212 0 -0.054436083725216348 0.0058245050914178531 0 -0.054839900539807897 0.0051266003175628287 0 -0.054515965158521126 0.0051085043434647625 0 -0.054436083725216348 0.0058245050914178531 0 -0.054439755595986239 0.0054823415244783435 0 -0.054515965158521126 0.0051085043434647625 0 -0.054436083725216348 0.0058245050914178531 0 -0.054439755595986239 0.0054823415244783435 0 -0.054436083725216348 0.0058245050914178531 0 -0.054335615449469334 0.0061612453893815705 0 -0.054413021581426288 0.0068923911993185212 0 -0.054436083725216348 0.0058245050914178531 0 -0.054335615449469334 0.0061612453893815705 0 -0.054413021581426288 0.0068923911993185212 0 -0.054203779932605146 0.0065437679201743029 0 -0.054335615449469334 0.0061612453893815705 0 -0.054274265382660988 0.0060946543881050331 0 -0.054203779932605146 0.0065437679201743029 0 -0.054335615449469334 0.0061612453893815705 0 -0.054441895090261705 0.0056648623978614197 0 -0.054274265382660988 0.0060946543881050331 0 -0.054335615449469334 0.0061612453893815705 0 -0.049953879283498898 0.0092222090497921742 0 -0.052104198292675125 0.0082812577899679662 0 -0.051428855832592123 0.0091370839316168607 0 -0.052576124253067735 0.007725851156437355 0 -0.049953879283498898 0.0092222090497921742 0 -0.052104198292675125 0.0082812577899679662 0 -0.051272229752486062 0.010563554161944705 0 -0.052569194206711779 0.0087551571424952113 0 -0.051428855832592123 0.0091370839316168607 0 -0.051272229752486062 0.010563554161944705 0 -0.051428855832592123 0.0091370839316168607 0 -0.050337949666832665 0.010005016058527287 0 -0.049953879283498898 0.0092222090497921742 0 -0.051428855832592123 0.0091370839316168607 0 -0.050337949666832665 0.010005016058527287 0 -0.051411837257011699 0.01019406800850247 0 -0.052375372265460761 0.0090899889936780949 0 -0.049953879283498898 0.0092222090497921742 0 -0.050337949666832665 0.010005016058527287 0 -0.049312807744645339 0.009905019849060814 0 -0.046295991281279571 0.016205875604740863 0 -0.046874678149959888 0.015193140319419098 0 -0.04514425649765931 0.014853226148205384 0 -0.046295991281279571 0.016205875604740863 0 -0.044011321817893162 0.01612231462594688 0 -0.04514425649765931 0.014853226148205384 0 -0.044011321817893162 0.01612231462594688 0 -0.04514425649765931 0.014853226148205384 0 -0.043480977257172385 0.014318099718348801 0 -0.04514425649765931 0.014853226148205384 0 -0.045910225783728172 0.012917580495598597 0 -0.043480977257172385 0.014318099718348801 0 -0.046874678149959888 0.015193140319419098 0 -0.04514425649765931 0.014853226148205384 0 -0.045910225783728172 0.012917580495598597 0 -0.048770496654255882 0.01010251166279191 0 -0.049953879283498898 0.0092222090497921742 0 -0.04816621399069683 0.010340160642678146 0 -0.048054272294106477 0.012829009864435586 0 -0.046908397556454963 0.011467500743558432 0 -0.049953879283498898 0.0092222090497921742 0 -0.049312807744645339 0.009905019849060814 0 -0.04816621399069683 0.010340160642678146 0 -0.048770496654255882 0.01010251166279191 0 -0.04816621399069683 0.010340160642678146 0 -0.047608582465458203 0.010264745952251292 0 -0.045910225783728172 0.012917580495598597 0 -0.04537235083286701 0.010509695262246144 0 -0.042886926726323576 0.012694977258077764 0 -0.04816621399069683 0.010340160642678146 0 -0.04537235083286701 0.010509695262246144 0 -0.047608582465458203 0.010264745952251292 0 -0.046908397556454963 0.011467500743558432 0 -0.045491658269561995 0.01039980044293673 0 -0.048108695864291305 0.0097955051706000787 0 -0.04537235083286701 0.010509695262246144 0 -0.047608582465458203 0.010264745952251292 0 -0.048108695864291305 0.0097955051706000787 0 -0.048770496654255882 0.01010251166279191 0 -0.047608582465458203 0.010264745952251292 0 -0.04537235083286701 0.010509695262246144 0 -0.042108685587905093 0.010720850661425843 0 -0.042886926726323576 0.012694977258077764 0 -0.043488719574555995 0.0089037340254490421 0 -0.04537235083286701 0.010509695262246144 0 -0.042108685587905093 0.010720850661425843 0 -0.042108685587905093 0.010720850661425843 0 -0.042886926726323576 0.012694977258077764 0 -0.040354623816322301 0.012563416985771453 0 -0.042886926726323576 0.012694977258077764 0 -0.040774435951426324 0.014340857966997824 0 -0.043480977257172385 0.014318099718348801 0 -0.042886926726323576 0.012694977258077764 0 -0.040774435951426324 0.014340857966997824 0 -0.040354623816322301 0.012563416985771453 0 -0.045910225783728172 0.012917580495598597 0 -0.042886926726323576 0.012694977258077764 0 -0.043480977257172385 0.014318099718348801 0 -0.044011321817893162 0.01612231462594688 0 -0.043480977257172385 0.014318099718348801 0 -0.042088430820482428 0.015767895894359795 0 -0.039248679079273777 0.016442018370739993 0 -0.040774435951426324 0.014340857966997824 0 -0.042088430820482428 0.015767895894359795 0 -0.040774435951426324 0.014340857966997824 0 -0.043480977257172385 0.014318099718348801 0 -0.042088430820482428 0.015767895894359795 0 -0.040774435951426324 0.014340857966997824 0 -0.038092063520315911 0.015256404429805045 0 -0.039045019132158958 0.013753382500570356 0 -0.039248679079273777 0.016442018370739993 0 -0.040774435951426324 0.014340857966997824 0 -0.038092063520315911 0.015256404429805045 0 -0.039045019132158958 0.013753382500570356 0 -0.03659898439811414 0.01407233167392258 0 -0.038135413871268183 0.01274206305753715 0 -0.038092063520315911 0.015256404429805045 0 -0.039045019132158958 0.013753382500570356 0 -0.03659898439811414 0.01407233167392258 0 -0.040774435951426324 0.014340857966997824 0 -0.039045019132158958 0.013753382500570356 0 -0.040354623816322301 0.012563416985771453 0 -0.034607561385142115 0.016395582692499914 0 -0.034685029576294012 0.015151569978780272 0 -0.03293847025057197 0.015875357145377949 0 -0.036323340065407897 0.0162055817567981 0 -0.034685029576294012 0.015151569978780272 0 -0.03659898439811414 0.01407233167392258 0 -0.036323340065407897 0.0162055817567981 0 -0.038092063520315911 0.015256404429805045 0 -0.03659898439811414 0.01407233167392258 0 -0.03659898439811414 0.01407233167392258 0 -0.034788602941276857 0.013628169363634465 0 -0.036496149003841544 0.011937741444437126 0 -0.034685029576294012 0.015151569978780272 0 -0.03659898439811414 0.01407233167392258 0 -0.034788602941276857 0.013628169363634465 0 -0.034685029576294012 0.015151569978780272 0 -0.034788602941276857 0.013628169363634465 0 -0.033070575384523189 0.014586333761465691 0 -0.034788602941276857 0.013628169363634465 0 -0.0346123114683334 0.012156972713361094 0 -0.036496149003841544 0.011937741444437126 0 -0.034788602941276857 0.013628169363634465 0 -0.0346123114683334 0.012156972713361094 0 -0.032972572296096875 0.013261999201374584 0 -0.03659898439811414 0.01407233167392258 0 -0.036496149003841544 0.011937741444437126 0 -0.038135413871268183 0.01274206305753715 0 -0.036496149003841544 0.011937741444437126 0 -0.035469880166603115 0.010754653042525784 0 -0.03759269967026372 0.0098353781237594338 0 -0.0346123114683334 0.012156972713361094 0 -0.035469880166603115 0.010754653042525784 0 -0.033306670526626711 0.011186471986742849 0 -0.0346123114683334 0.012156972713361094 0 -0.036496149003841544 0.011937741444437126 0 -0.035469880166603115 0.010754653042525784 0 -0.035469880166603115 0.010754653042525784 0 -0.034988895338822185 0.0093534697383909626 0 -0.033306670526626711 0.011186471986742849 0 -0.039045019132158958 0.013753382500570356 0 -0.040354623816322301 0.012563416985771453 0 -0.038135413871268183 0.01274206305753715 0 -0.040354623816322301 0.012563416985771453 0 -0.038135413871268183 0.01274206305753715 0 -0.039273325908231974 0.011119765388386131 0 -0.036496149003841544 0.011937741444437126 0 -0.038135413871268183 0.01274206305753715 0 -0.039273325908231974 0.011119765388386131 0 -0.036496149003841544 0.011937741444437126 0 -0.039273325908231974 0.011119765388386131 0 -0.03759269967026372 0.0098353781237594338 0 -0.042108685587905093 0.010720850661425843 0 -0.040354623816322301 0.012563416985771453 0 -0.039273325908231974 0.011119765388386131 0 -0.042108685587905093 0.010720850661425843 0 -0.039273325908231974 0.011119765388386131 0 -0.040793029321231647 0.0089466804616908924 0 -0.040793029321231647 0.0089466804616908924 0 -0.038857424486795016 0.0082384467729510712 0 -0.040710305637286344 0.0070380315313691762 0 -0.040793029321231647 0.0089466804616908924 0 -0.038857424486795016 0.0082384467729510712 0 -0.03759269967026372 0.0098353781237594338 0 -0.039273325908231974 0.011119765388386131 0 -0.040793029321231647 0.0089466804616908924 0 -0.03759269967026372 0.0098353781237594338 0 -0.035469880166603115 0.010754653042525784 0 -0.03759269967026372 0.0098353781237594338 0 -0.034988895338822185 0.0093534697383909626 0 -0.034988895338822185 0.0093534697383909626 0 -0.0365015348106279 0.0078188138534435979 0 -0.033836859808075832 0.0078041524297230219 0 -0.038857424486795016 0.0082384467729510712 0 -0.03759269967026372 0.0098353781237594338 0 -0.0365015348106279 0.0078188138534435979 0 -0.03759269967026372 0.0098353781237594338 0 -0.034988895338822185 0.0093534697383909626 0 -0.0365015348106279 0.0078188138534435979 0 -0.0365015348106279 0.0078188138534435979 0 -0.038500096574765691 0.0069656331281168346 0 -0.03689130383008709 0.0055631068357235147 0 -0.038857424486795016 0.0082384467729510712 0 -0.0365015348106279 0.0078188138534435979 0 -0.038500096574765691 0.0069656331281168346 0 -0.0365015348106279 0.0078188138534435979 0 -0.03476059100057842 0.006186590016472893 0 -0.033836859808075832 0.0078041524297230219 0 -0.0365015348106279 0.0078188138534435979 0 -0.03476059100057842 0.006186590016472893 0 -0.03689130383008709 0.0055631068357235147 0 -0.03476059100057842 0.006186590016472893 0 -0.035260943332136994 0.0049256542482688194 0 -0.03689130383008709 0.0055631068357235147 0 -0.035260943332136994 0.0049256542482688194 0 -0.03689130383008709 0.0055631068357235147 0 -0.03615643924658471 0.0039699071398292306 0 -0.03476059100057842 0.006186590016472893 0 -0.035260943332136994 0.0049256542482688194 0 -0.034083975895623439 0.0050644205580953243 0 -0.038500096574765691 0.0069656331281168346 0 -0.03689130383008709 0.0055631068357235147 0 -0.039500659448005161 0.0057977663482441577 0 -0.03689130383008709 0.0055631068357235147 0 -0.039500659448005161 0.0057977663482441577 0 -0.038591888755588506 0.0033864069047933286 0 -0.039500659448005161 0.0057977663482441577 0 -0.040710305637286344 0.0070380315313691762 0 -0.042261865057669858 0.0055080603432141606 0 -0.042793988984420425 0.0070957036229213006 0 -0.040710305637286344 0.0070380315313691762 0 -0.042261865057669858 0.0055080603432141606 0 -0.042793988984420425 0.0070957036229213006 0 -0.040793029321231647 0.0089466804616908924 0 -0.040710305637286344 0.0070380315313691762 0 -0.038857424486795016 0.0082384467729510712 0 -0.038500096574765691 0.0069656331281168346 0 -0.040710305637286344 0.0070380315313691762 0 -0.038500096574765691 0.0069656331281168346 0 -0.039500659448005161 0.0057977663482441577 0 -0.040710305637286344 0.0070380315313691762 0 -0.028937764229014687 0.0067133648067324615 0 -0.03029099009873228 0.0078465732558999392 0 -0.029555150320263419 0.0081006996438646797 0 -0.030206606964026352 0.0067432215564954519 0 -0.031199680956384184 0.0060647192992462073 0 -0.03169345732257868 0.0074988450612775556 0 -0.030206606964026352 0.0067432215564954519 0 -0.028937764229014687 0.0067133648067324615 0 -0.029951751919073066 0.0056287761980119656 0 -0.030206606964026352 0.0067432215564954519 0 -0.03169345732257868 0.0074988450612775556 0 -0.03029099009873228 0.0078465732558999392 0 -0.030206606964026352 0.0067432215564954519 0 -0.028937764229014687 0.0067133648067324615 0 -0.03029099009873228 0.0078465732558999392 0 -0.027865199326948191 0.0083889468619322057 0 -0.028937764229014687 0.0067133648067324615 0 -0.027715219887005999 0.0056253986622576448 0 -0.02386174180086769 0.014203221890807168 0 -0.021922760598891092 0.0173113362936448 0 -0.029951751919073066 0.0056287761980119656 0 -0.027715219887005999 0.0056253986622576448 0 -0.030078226144040019 0.0037848969134316327 0 -0.028937764229014687 0.0067133648067324615 0 -0.029951751919073066 0.0056287761980119656 0 -0.027715219887005999 0.0056253986622576448 0 -0.029951751919073066 0.0056287761980119656 0 -0.031442662624851743 0.0048092365455917503 0 -0.030078226144040019 0.0037848969134316327 0 -0.029951751919073066 0.0056287761980119656 0 -0.031199680956384184 0.0060647192992462073 0 -0.031442662624851743 0.0048092365455917503 0 -0.030206606964026352 0.0067432215564954519 0 -0.029951751919073066 0.0056287761980119656 0 -0.031199680956384184 0.0060647192992462073 0 -0.031442662624851743 0.0048092365455917503 0 -0.032894678046710341 0.0059346247048538813 0 -0.033074005047698328 0.0041174853574795665 0 -0.031199680956384184 0.0060647192992462073 0 -0.031442662624851743 0.0048092365455917503 0 -0.032894678046710341 0.0059346247048538813 0 -0.032894678046710341 0.0059346247048538813 0 -0.034083975895623439 0.0050644205580953243 0 -0.033074005047698328 0.0041174853574795665 0 -0.03476059100057842 0.006186590016472893 0 -0.032894678046710341 0.0059346247048538813 0 -0.034083975895623439 0.0050644205580953243 0 -0.03476059100057842 0.006186590016472893 0 -0.032894678046710341 0.0059346247048538813 0 -0.033836859808075832 0.0078041524297230219 0 -0.032894678046710341 0.0059346247048538813 0 -0.03169345732257868 0.0074988450612775556 0 -0.033836859808075832 0.0078041524297230219 0 -0.031199680956384184 0.0060647192992462073 0 -0.032894678046710341 0.0059346247048538813 0 -0.03169345732257868 0.0074988450612775556 0 -0.03169345732257868 0.0074988450612775556 0 -0.031312579604569415 0.0087583408465954412 0 -0.032835845961861357 0.0092122057390617157 0 -0.03169345732257868 0.0074988450612775556 0 -0.033836859808075832 0.0078041524297230219 0 -0.032835845961861357 0.0092122057390617157 0 -0.034988895338822185 0.0093534697383909626 0 -0.033836859808075832 0.0078041524297230219 0 -0.032835845961861357 0.0092122057390617157 0 -0.034988895338822185 0.0093534697383909626 0 -0.032835845961861357 0.0092122057390617157 0 -0.033306670526626711 0.011186471986742849 0 -0.031312579604569415 0.0087583408465954412 0 -0.032835845961861357 0.0092122057390617157 0 -0.030908684461233488 0.0097243073420299336 0 -0.032835845961861357 0.0092122057390617157 0 -0.030908684461233488 0.0097243073420299336 0 -0.03133660095424165 0.010918881687702968 0 -0.030060776631789219 0.0089432155532874723 0 -0.028910187113563204 0.008894232726170433 0 -0.029876225391041948 0.01022196517977747 0 -0.030908684461233488 0.0097243073420299336 0 -0.030060776631789219 0.0089432155532874723 0 -0.029876225391041948 0.01022196517977747 0 -0.031312579604569415 0.0087583408465954412 0 -0.030908684461233488 0.0097243073420299336 0 -0.030060776631789219 0.0089432155532874723 0 -0.031312579604569415 0.0087583408465954412 0 -0.030060776631789219 0.0089432155532874723 0 -0.03029099009873228 0.0078465732558999392 0 -0.030060776631789219 0.0089432155532874723 0 -0.03029099009873228 0.0078465732558999392 0 -0.029555150320263419 0.0081006996438646797 0 -0.03169345732257868 0.0074988450612775556 0 -0.031312579604569415 0.0087583408465954412 0 -0.03029099009873228 0.0078465732558999392 0 -0.027865199326948191 0.0083889468619322057 0 -0.028763868524994057 0.010688774744827548 0 -0.028183969464874274 0.011566251028779864 0 -0.027865199326948191 0.0083889468619322057 0 -0.028937764229014687 0.0067133648067324615 0 -0.028763868524994057 0.010688774744827548 0 -0.028937764229014687 0.0067133648067324615 0 -0.029555150320263419 0.0081006996438646797 0 -0.028910187113563204 0.008894232726170433 0 -0.02386174180086769 0.014203221890807168 0 -0.023908355691659479 0.016391100622378068 0 -0.028864494308065924 0.0069574216386060102 0 -0.029094620504356208 0.0095519767557838593 0 -0.030060776631789219 0.0089432155532874723 0 -0.029555150320263419 0.0081006996438646797 0 -0.028910187113563204 0.008894232726170433 0 -0.028763868524994057 0.010688774744827548 0 -0.028183969464874274 0.011566251028779864 0 -0.028494173629687914 0.014771240379656604 0 -0.029094620504356208 0.0095519767557838593 0 -0.026283872564498937 0.013831354695346649 0 -0.028910187113563204 0.008894232726170433 0 -0.02841050222095165 0.011120347063002016 0 -0.029876225391041948 0.01022196517977747 0 -0.023908355691659479 0.016391100622378068 0 -0.026283872564498937 0.013831354695346649 0 -0.019756981484761672 0.019885821974583148 0 -0.02014691609038181 0.018317066033727909 0 -0.020902192295700089 0.018976255540169233 0 -0.02841050222095165 0.011120347063002016 0 -0.029876225391041948 0.01022196517977747 0 -0.029800830757249163 0.011744878901461992 0 -0.029876225391041948 0.01022196517977747 0 -0.029800830757249163 0.011744878901461992 0 -0.03133660095424165 0.010918881687702968 0 -0.030908684461233488 0.0097243073420299336 0 -0.029876225391041948 0.01022196517977747 0 -0.03133660095424165 0.010918881687702968 0 -0.02841050222095165 0.011120347063002016 0 -0.029800830757249163 0.011744878901461992 0 -0.029029947488309754 0.012495006868857851 0 -0.029800830757249163 0.011744878901461992 0 -0.029755782013110584 0.012853609773633187 0 -0.031024457283937663 0.012823180859463684 0 -0.029800830757249163 0.011744878901461992 0 -0.029755782013110584 0.012853609773633187 0 -0.029029947488309754 0.012495006868857851 0 -0.026283872564498937 0.013831354695346649 0 -0.024159007959695528 0.015297568903192036 0 -0.02841050222095165 0.011120347063002016 0 -0.029029947488309754 0.012495006868857851 0 -0.027782781796278484 0.012956669891715305 0 -0.02748254130544487 0.011011451126859221 0 -0.027360925512807086 0.013020080842239158 0 -0.027782781796278484 0.012956669891715305 0 -0.02014691609038181 0.018317066033727909 0 -0.021361002575093446 0.016646306864724757 0 -0.021261989674301863 0.01725772210552079 0 -0.026283872564498937 0.013831354695346649 0 -0.028042311387588024 0.011860492521372985 0 -0.032835845961861357 0.0092122057390617157 0 -0.033306670526626711 0.011186471986742849 0 -0.03133660095424165 0.010918881687702968 0 -0.029800830757249163 0.011744878901461992 0 -0.03133660095424165 0.010918881687702968 0 -0.031024457283937663 0.012823180859463684 0 -0.033306670526626711 0.011186471986742849 0 -0.03133660095424165 0.010918881687702968 0 -0.031024457283937663 0.012823180859463684 0 -0.033306670526626711 0.011186471986742849 0 -0.031024457283937663 0.012823180859463684 0 -0.032972572296096875 0.013261999201374584 0 -0.0346123114683334 0.012156972713361094 0 -0.033306670526626711 0.011186471986742849 0 -0.032972572296096875 0.013261999201374584 0 -0.034788602941276857 0.013628169363634465 0 -0.032972572296096875 0.013261999201374584 0 -0.033070575384523189 0.014586333761465691 0 -0.032972572296096875 0.013261999201374584 0 -0.031439379968311636 0.014124513449591489 0 -0.033070575384523189 0.014586333761465691 0 -0.031024457283937663 0.012823180859463684 0 -0.032972572296096875 0.013261999201374584 0 -0.031439379968311636 0.014124513449591489 0 -0.031024457283937663 0.012823180859463684 0 -0.031439379968311636 0.014124513449591489 0 -0.02997306757502553 0.013856923874286596 0 -0.031439379968311636 0.014124513449591489 0 -0.02997306757502553 0.013856923874286596 0 -0.030149174234968459 0.014997787286255436 0 -0.031439379968311636 0.014124513449591489 0 -0.031476194198258367 0.015362434161454774 0 -0.030149174234968459 0.014997787286255436 0 -0.031199381161897001 0.016487403123077258 0 -0.031476194198258367 0.015362434161454774 0 -0.030038568385812217 0.016166734190772032 0 -0.031476194198258367 0.015362434161454774 0 -0.030149174234968459 0.014997787286255436 0 -0.030038568385812217 0.016166734190772032 0 -0.031199381161897001 0.016487403123077258 0 -0.031476194198258367 0.015362434161454774 0 -0.03293847025057197 0.015875357145377949 0 -0.031439379968311636 0.014124513449591489 0 -0.031476194198258367 0.015362434161454774 0 -0.033070575384523189 0.014586333761465691 0 -0.034685029576294012 0.015151569978780272 0 -0.03293847025057197 0.015875357145377949 0 -0.033070575384523189 0.014586333761465691 0 -0.031476194198258367 0.015362434161454774 0 -0.03293847025057197 0.015875357145377949 0 -0.033070575384523189 0.014586333761465691 0 -0.021361002575093446 0.016646306864724757 0 -0.025007822659481548 0.016548214123301524 0 -0.022704126787804781 0.016414007715722202 0 -0.027407824880133054 0.01387042496957386 0 -0.027360925512807086 0.013020080842239158 0 -0.025007822659481548 0.016548214123301524 0 -0.024159007959695528 0.015297568903192036 0 -0.024890017241116457 0.016691287763451895 0 -0.027407824880133054 0.01387042496957386 0 -0.028124711607289091 0.013330307524540275 0 -0.028073894715142957 0.013962401093772727 0 -0.027407824880133054 0.01387042496957386 0 -0.027379299925504211 0.014577314629245081 0 -0.028073894715142957 0.013962401093772727 0 -0.021361002575093446 0.016646306864724757 0 -0.022704126787804781 0.016414007715722202 0 -0.02188274220451723 0.016661593752273513 0 -0.021361002575093446 0.016646306864724757 0 -0.02188274220451723 0.016661593752273513 0 -0.021261989674301863 0.01725772210552079 0 -0.029029947488309754 0.012495006868857851 0 -0.027782781796278484 0.012956669891715305 0 -0.028124711607289091 0.013330307524540275 0 -0.027360925512807086 0.013020080842239158 0 -0.027782781796278484 0.012956669891715305 0 -0.027659129377089295 0.013287864546603252 0 -0.027407824880133054 0.01387042496957386 0 -0.027360925512807086 0.013020080842239158 0 -0.027659129377089295 0.013287864546603252 0 -0.027407824880133054 0.01387042496957386 0 -0.027659129377089295 0.013287864546603252 0 -0.028124711607289091 0.013330307524540275 0 -0.027782781796278484 0.012956669891715305 0 -0.027659129377089295 0.013287864546603252 0 -0.028124711607289091 0.013330307524540275 0 -0.029755782013110584 0.012853609773633187 0 -0.029029947488309754 0.012495006868857851 0 -0.028930906543541517 0.01351473211744759 0 -0.029029947488309754 0.012495006868857851 0 -0.028124711607289091 0.013330307524540275 0 -0.028930906543541517 0.01351473211744759 0 -0.028124711607289091 0.013330307524540275 0 -0.028930906543541517 0.01351473211744759 0 -0.028073894715142957 0.013962401093772727 0 -0.029755782013110584 0.012853609773633187 0 -0.028930906543541517 0.01351473211744759 0 -0.02997306757502553 0.013856923874286596 0 -0.029755782013110584 0.012853609773633187 0 -0.031024457283937663 0.012823180859463684 0 -0.02997306757502553 0.013856923874286596 0 -0.02997306757502553 0.013856923874286596 0 -0.028613451798223152 0.014730789664215671 0 -0.030149174234968459 0.014997787286255436 0 -0.028930906543541517 0.01351473211744759 0 -0.02997306757502553 0.013856923874286596 0 -0.028613451798223152 0.014730789664215671 0 -0.028930906543541517 0.01351473211744759 0 -0.028073894715142957 0.013962401093772727 0 -0.028613451798223152 0.014730789664215671 0 -0.027379299925504211 0.014577314629245081 0 -0.028073894715142957 0.013962401093772727 0 -0.028613451798223152 0.014730789664215671 0 -0.028613451798223152 0.014730789664215671 0 -0.027969088794715383 0.016057047421351823 0 -0.027344390710809543 0.015426589401760079 0 -0.028613451798223152 0.014730789664215671 0 -0.029089808452837672 0.015823053771633004 0 -0.027969088794715383 0.016057047421351823 0 -0.027379299925504211 0.014577314629245081 0 -0.028613451798223152 0.014730789664215671 0 -0.027344390710809543 0.015426589401760079 0 -0.028613451798223152 0.014730789664215671 0 -0.030149174234968459 0.014997787286255436 0 -0.029089808452837672 0.015823053771633004 0 -0.030149174234968459 0.014997787286255436 0 -0.029089808452837672 0.015823053771633004 0 -0.030038568385812217 0.016166734190772032 0 -0.029095560644913691 0.016733394899634969 0 -0.029089808452837672 0.015823053771633004 0 -0.030038568385812217 0.016166734190772032 0 -0.027467335698172595 0.016587679480675924 0 -0.029089808452837672 0.015823053771633004 0 -0.027969088794715383 0.016057047421351823 0 -0.027467335698172595 0.016587679480675924 0 -0.029095560644913691 0.016733394899634969 0 -0.029089808452837672 0.015823053771633004 0 -0.027969088794715383 0.016057047421351823 0 -0.027344390710809543 0.015426589401760079 0 -0.025007822659481548 0.016548214123301524 0 -0.027570264468366829 0.016089221726854536 0 -0.023715380752830733 0.016628662382467518 0 -0.027969088794715383 0.016057047421351823 0 -0.025007822659481548 0.016548214123301524 0 -0.022105588146706448 0.017538333106138254 0 -0.027467335698172595 0.016587679480675924 0 -0.027969088794715383 0.016057047421351823 0 -0.025157983513147023 0.015909634860112806 0 -0.027407824880133054 0.01387042496957386 0 -0.027379299925504211 0.014577314629245081 0 -0.025007822659481548 0.016548214123301524 0 -0.027379299925504211 0.014577314629245081 0 -0.027344390710809543 0.015426589401760079 0 -0.025007822659481548 0.016548214123301524 0 -0.025007822659481548 0.016548214123301524 0 -0.022105588146706448 0.017538333106138254 0 -0.022704126787804781 0.016414007715722202 0 -0.022105588146706448 0.017538333106138254 0 -0.021809386246771232 0.016843857394704956 0 -0.02182195284858901 0.0168761850392346 0 -0.022105588146706448 0.017538333106138254 0 -0.022034851921887148 0.016832463180532723 0 -0.021809386246771232 0.016843857394704956 0 -0.022034851921887148 0.016832463180532723 0 -0.021831227333961839 0.016737015232503736 0 -0.021809386246771232 0.016843857394704956 0 -0.022034851921887148 0.016832463180532723 0 -0.022112580437700292 0.016568772140577535 0 -0.021831227333961839 0.016737015232503736 0 -0.022105588146706448 0.017538333106138254 0 -0.022034851921887148 0.016832463180532723 0 -0.022704126787804781 0.016414007715722202 0 -0.022034851921887148 0.016832463180532723 0 -0.022704126787804781 0.016414007715722202 0 -0.022112580437700292 0.016568772140577535 0 -0.022704126787804781 0.016414007715722202 0 -0.022112580437700292 0.016568772140577535 0 -0.02188274220451723 0.016661593752273513 0 -0.022112580437700292 0.016568772140577535 0 -0.02178001652082771 0.016820246198863725 0 -0.02188274220451723 0.016661593752273513 0 -0.022112580437700292 0.016568772140577535 0 -0.021831227333961839 0.016737015232503736 0 -0.02178001652082771 0.016820246198863725 0 -0.021831227333961839 0.016737015232503736 0 -0.02178001652082771 0.016820246198863725 0 -0.021736088876627407 0.016943324699045439 0 -0.02178001652082771 0.016820246198863725 0 -0.021538977585588617 0.017153672936193343 0 -0.021635737675293112 0.017396761015164783 0 -0.02178001652082771 0.016820246198863725 0 -0.02188274220451723 0.016661593752273513 0 -0.021538977585588617 0.017153672936193343 0 -0.02188274220451723 0.016661593752273513 0 -0.021538977585588617 0.017153672936193343 0 -0.021261989674301863 0.01725772210552079 0 -0.021736088876627407 0.016943324699045439 0 -0.021794615749815751 0.016812227110848493 0 -0.02191094812349291 0.017416934594018323 0 -0.021736088876627407 0.016943324699045439 0 -0.02191094812349291 0.017416934594018323 0 -0.021635737675293112 0.017396761015164783 0 -0.02178001652082771 0.016820246198863725 0 -0.021736088876627407 0.016943324699045439 0 -0.021635737675293112 0.017396761015164783 0 -0.021831227333961839 0.016737015232503736 0 -0.021736088876627407 0.016943324699045439 0 -0.021752418778122968 0.016782907145832908 0 -0.021736088876627407 0.016943324699045439 0 -0.021794615749815751 0.016812227110848493 0 -0.021752418778122968 0.016782907145832908 0 -0.021794615749815751 0.016812227110848493 0 -0.021752418778122968 0.016782907145832908 0 -0.021745400613474304 0.016640094418580595 0 -0.021831227333961839 0.016737015232503736 0 -0.021752418778122968 0.016782907145832908 0 -0.021809386246771232 0.016843857394704956 0 -0.021752418778122968 0.016782907145832908 0 -0.021809386246771232 0.016843857394704956 0 -0.021745400613474304 0.016640094418580595 0 -0.021809386246771232 0.016843857394704956 0 -0.02182195284858901 0.0168761850392346 0 -0.021745400613474304 0.016640094418580595 0 -0.021759327728429947 0.016586512067622843 0 -0.02182195284858901 0.0168761850392346 0 -0.021745400613474304 0.016640094418580595 0 -0.021759327728429947 0.016586512067622843 0 -0.021745400613474304 0.016640094418580595 0 -0.021746361795797364 0.016432850178797816 0 -0.021745400613474304 0.016640094418580595 0 -0.021746361795797364 0.016432850178797816 0 -0.021818919833678101 0.016296596064989708 0 -0.021676692662828515 0.016311677787462099 0 -0.021746361795797364 0.016432850178797816 0 -0.021818919833678101 0.016296596064989708 0 -0.021313546888456453 0.015912511377765091 0 -0.021676692662828515 0.016311677787462099 0 -0.021818919833678101 0.016296596064989708 0 -0.021794615749815751 0.016812227110848493 0 -0.021818919833678101 0.016296596064989708 0 -0.022123965238915775 0.017020776434732869 0 -0.021794615749815751 0.016812227110848493 0 -0.021745400613474304 0.016640094418580595 0 -0.021818919833678101 0.016296596064989708 0 -0.021781603360778452 0.016227180466016698 0 -0.02225059388564566 0.016045385392214603 0 -0.021818919833678101 0.016296596064989708 0 -0.0228998580189262 0.017052918797796333 0 -0.022123965238915775 0.017020776434732869 0 -0.021818919833678101 0.016296596064989708 0 -0.0228998580189262 0.017052918797796333 0 -0.023495273919400841 0.016426517252161849 0 -0.021313546888456453 0.015912511377765091 0 -0.021818919833678101 0.016296596064989708 0 -0.02101486653152226 0.015539647193526357 0 -0.021115683865573477 0.015409526348242206 0 -0.021313546888456453 0.015912511377765091 0 -0.02101486653152226 0.015539647193526357 0 -0.0228998580189262 0.017052918797796333 0 -0.022532136224872455 0.017593759028638578 0 -0.02334416673817857 0.017646208191612434 0 -0.0228998580189262 0.017052918797796333 0 -0.022532136224872455 0.017593759028638578 0 -0.022123965238915775 0.017020776434732869 0 -0.022532136224872455 0.017593759028638578 0 -0.022123965238915775 0.017020776434732869 0 -0.02191094812349291 0.017416934594018323 0 -0.021794615749815751 0.016812227110848493 0 -0.022123965238915775 0.017020776434732869 0 -0.02191094812349291 0.017416934594018323 0 -0.022532136224872455 0.017593759028638578 0 -0.02191094812349291 0.017416934594018323 0 -0.02220219001372092 0.018308093231287331 0 -0.02191094812349291 0.017416934594018323 0 -0.02220219001372092 0.018308093231287331 0 -0.021691010667437678 0.018124432889595688 0 -0.022532136224872455 0.017593759028638578 0 -0.02220219001372092 0.018308093231287331 0 -0.023024878456537355 0.018428426520208104 0 -0.022532136224872455 0.017593759028638578 0 -0.023024878456537355 0.018428426520208104 0 -0.02334416673817857 0.017646208191612434 0 -0.023024878456537355 0.018428426520208104 0 -0.022530904477471657 0.019181044809816077 0 -0.023468894162854439 0.019281367136035912 0 -0.02220219001372092 0.018308093231287331 0 -0.023024878456537355 0.018428426520208104 0 -0.022530904477471657 0.019181044809816077 0 -0.02220219001372092 0.018308093231287331 0 -0.022530904477471657 0.019181044809816077 0 -0.021716139785865403 0.019153218103761804 0 -0.02220219001372092 0.018308093231287331 0 -0.021716139785865403 0.019153218103761804 0 -0.021691010667437678 0.018124432889595688 0 -0.021716139785865403 0.019153218103761804 0 -0.020902192295700089 0.018976255540169233 0 -0.021691010667437678 0.018124432889595688 0 -0.020902192295700089 0.018976255540169233 0 -0.021264916400287909 0.017782067012117472 0 -0.021691010667437678 0.018124432889595688 0 -0.02014691609038181 0.018317066033727909 0 -0.020902192295700089 0.018976255540169233 0 -0.021264916400287909 0.017782067012117472 0 -0.02014691609038181 0.018317066033727909 0 -0.021264916400287909 0.017782067012117472 0 -0.021261989674301863 0.01725772210552079 0 -0.021264916400287909 0.017782067012117472 0 -0.021538977585588617 0.017153672936193343 0 -0.021261989674301863 0.01725772210552079 0 -0.021264916400287909 0.017782067012117472 0 -0.021538977585588617 0.017153672936193343 0 -0.021635737675293112 0.017396761015164783 0 -0.021264916400287909 0.017782067012117472 0 -0.021635737675293112 0.017396761015164783 0 -0.021691010667437678 0.018124432889595688 0 -0.02191094812349291 0.017416934594018323 0 -0.021635737675293112 0.017396761015164783 0 -0.021691010667437678 0.018124432889595688 0 -0.026354161881852464 0.017708120525965928 0 -0.026178480758981687 0.016338923054909804 0 -0.025565147885302009 0.017546041366986773 0 -0.026354161881852464 0.017708120525965928 0 -0.025565147885302009 0.017546041366986773 0 -0.026028558850433241 0.01814369545912637 0 -0.027370341827037552 0.015765045550259954 0 -0.026354161881852464 0.017708120525965928 0 -0.026178480758981687 0.016338923054909804 0 -0.026450037945204417 0.014420381797048023 0 -0.027370341827037552 0.015765045550259954 0 -0.026178480758981687 0.016338923054909804 0 -0.026178480758981687 0.016338923054909804 0 -0.024790312215083616 0.016565325010891186 0 -0.025565147885302009 0.017546041366986773 0 -0.026063263070349941 0.016323538835230571 0 -0.023816280754352093 0.016223018237881481 0 -0.024658053860479645 0.014773711439843528 0 -0.026178480758981687 0.016338923054909804 0 -0.022680762452457395 0.015920517984960535 0 -0.025565147885302009 0.017546041366986773 0 -0.024844703030781162 0.017608224395314304 0 -0.025558929772975556 0.018358097218874748 0 -0.024790312215083616 0.016565325010891186 0 -0.025565147885302009 0.017546041366986773 0 -0.024844703030781162 0.017608224395314304 0 -0.024844703030781162 0.017608224395314304 0 -0.023969226185692839 0.017239287908324588 0 -0.024232618708026309 0.018425103645215352 0 -0.024790312215083616 0.016565325010891186 0 -0.024844703030781162 0.017608224395314304 0 -0.023969226185692839 0.017239287908324588 0 -0.021540524214185765 0.014877662338265648 0 -0.022680762452457395 0.015920517984960535 0 -0.02101486653152226 0.015539647193526357 0 -0.023816280754352093 0.016223018237881481 0 -0.02225059388564566 0.016045385392214603 0 -0.024790312215083616 0.016565325010891186 0 -0.023495273919400841 0.016426517252161849 0 -0.023969226185692839 0.017239287908324588 0 -0.023969226185692839 0.017239287908324588 0 -0.02334416673817857 0.017646208191612434 0 -0.024232618708026309 0.018425103645215352 0 -0.0228998580189262 0.017052918797796333 0 -0.023495273919400841 0.016426517252161849 0 -0.023969226185692839 0.017239287908324588 0 -0.0228998580189262 0.017052918797796333 0 -0.023969226185692839 0.017239287908324588 0 -0.02334416673817857 0.017646208191612434 0 -0.023024878456537355 0.018428426520208104 0 -0.02334416673817857 0.017646208191612434 0 -0.024232618708026309 0.018425103645215352 0 -0.023468894162854439 0.019281367136035912 0 -0.024232618708026309 0.018425103645215352 0 -0.024225641886059225 0.01982936276852916 0 -0.023024878456537355 0.018428426520208104 0 -0.023468894162854439 0.019281367136035912 0 -0.024232618708026309 0.018425103645215352 0 -0.024232618708026309 0.018425103645215352 0 -0.025104748748479126 0.019360816504734243 0 -0.024225641886059225 0.01982936276852916 0 -0.024844703030781162 0.017608224395314304 0 -0.024232618708026309 0.018425103645215352 0 -0.025558929772975556 0.018358097218874748 0 -0.025558929772975556 0.018358097218874748 0 -0.025104748748479126 0.019360816504734243 0 -0.026315980974406971 0.01924266695254288 0 -0.024232618708026309 0.018425103645215352 0 -0.025558929772975556 0.018358097218874748 0 -0.025104748748479126 0.019360816504734243 0 -0.026334321324765129 0.018524364119366567 0 -0.025558929772975556 0.018358097218874748 0 -0.026315980974406971 0.01924266695254288 0 -0.026334321324765129 0.018524364119366567 0 -0.025558929772975556 0.018358097218874748 0 -0.026028558850433241 0.01814369545912637 0 -0.026334321324765129 0.018524364119366567 0 -0.026354161881852464 0.017708120525965928 0 -0.026028558850433241 0.01814369545912637 0 -0.025565147885302009 0.017546041366986773 0 -0.025558929772975556 0.018358097218874748 0 -0.026028558850433241 0.01814369545912637 0 -0.02753245552516672 0.022131794907250091 0 -0.026481280965973422 0.02204224692133356 0 -0.026839108917773691 0.020987637437587484 0 -0.026481280965973422 0.02204224692133356 0 -0.026839108917773691 0.020987637437587484 0 -0.025780538293318445 0.020682967832709422 0 -0.026315980974406971 0.01924266695254288 0 -0.026839108917773691 0.020987637437587484 0 -0.025780538293318445 0.020682967832709422 0 -0.025104748748479126 0.019360816504734243 0 -0.026315980974406971 0.01924266695254288 0 -0.025780538293318445 0.020682967832709422 0 -0.025104748748479126 0.019360816504734243 0 -0.025780538293318445 0.020682967832709422 0 -0.024757194385049457 0.020927897830451909 0 -0.025780538293318445 0.020682967832709422 0 -0.024757194385049457 0.020927897830451909 0 -0.02547523495613126 0.022079532438677205 0 -0.026481280965973422 0.02204224692133356 0 -0.025780538293318445 0.020682967832709422 0 -0.02547523495613126 0.022079532438677205 0 -0.024757194385049457 0.020927897830451909 0 -0.023860069435129232 0.021243515748910976 0 -0.024449369368521268 0.02276119572712167 0 -0.024757194385049457 0.020927897830451909 0 -0.024449369368521268 0.02276119572712167 0 -0.02547523495613126 0.022079532438677205 0 -0.024757194385049457 0.020927897830451909 0 -0.024225641886059225 0.01982936276852916 0 -0.023860069435129232 0.021243515748910976 0 -0.025104748748479126 0.019360816504734243 0 -0.024757194385049457 0.020927897830451909 0 -0.024225641886059225 0.01982936276852916 0 -0.024225641886059225 0.01982936276852916 0 -0.023510692318026324 0.020290200071801698 0 -0.023860069435129232 0.021243515748910976 0 -0.023468894162854439 0.019281367136035912 0 -0.024225641886059225 0.01982936276852916 0 -0.023510692318026324 0.020290200071801698 0 -0.023468894162854439 0.019281367136035912 0 -0.023510692318026324 0.020290200071801698 0 -0.022784313055523846 0.020147169680047948 0 -0.023510692318026324 0.020290200071801698 0 -0.023860069435129232 0.021243515748910976 0 -0.023007376257442983 0.021174463669079768 0 -0.023860069435129232 0.021243515748910976 0 -0.023251144455900187 0.022310371579196367 0 -0.023007376257442983 0.021174463669079768 0 -0.023251144455900187 0.022310371579196367 0 -0.023357444454487699 0.02358047398461818 0 -0.024449369368521268 0.02276119572712167 0 -0.023860069435129232 0.021243515748910976 0 -0.023251144455900187 0.022310371579196367 0 -0.024449369368521268 0.02276119572712167 0 -0.023357444454487699 0.02358047398461818 0 -0.024197130424269773 0.024164606714150078 0 -0.024449369368521268 0.02276119572712167 0 -0.023357444454487699 0.02358047398461818 0 -0.024197130424269773 0.024164606714150078 0 -0.023568731447158455 0.025116467625959624 0 -0.024197130424269773 0.024164606714150078 0 -0.024449369368521268 0.02276119572712167 0 -0.025080356169625565 0.024265773812558657 0 -0.026481280965973422 0.02204224692133356 0 -0.02547523495613126 0.022079532438677205 0 -0.025759869977006484 0.023457088815290156 0 -0.024449369368521268 0.02276119572712167 0 -0.02547523495613126 0.022079532438677205 0 -0.025759869977006484 0.023457088815290156 0 -0.025759869977006484 0.023457088815290156 0 -0.025080356169625565 0.024265773812558657 0 -0.026097206885373796 0.024676446197911477 0 -0.024449369368521268 0.02276119572712167 0 -0.025759869977006484 0.023457088815290156 0 -0.025080356169625565 0.024265773812558657 0 -0.026995435529351134 0.02366721719532814 0 -0.026097206885373796 0.024676446197911477 0 -0.027075886295442667 0.025099730562962018 0 -0.025759869977006484 0.023457088815290156 0 -0.026995435529351134 0.02366721719532814 0 -0.026097206885373796 0.024676446197911477 0 -0.026481280965973422 0.02204224692133356 0 -0.025759869977006484 0.023457088815290156 0 -0.026995435529351134 0.02366721719532814 0 -0.02753245552516672 0.022131794907250091 0 -0.026481280965973422 0.02204224692133356 0 -0.026995435529351134 0.02366721719532814 0 -0.021388837690769553 0.0213750463564919 0 -0.021143370561383577 0.020123733445195639 0 -0.02191381520123346 0.020055275401702346 0 -0.021388837690769553 0.0213750463564919 0 -0.0208208995637458 0.021029184918861969 0 -0.021143370561383577 0.020123733445195639 0 -0.0208208995637458 0.021029184918861969 0 -0.020368944299639122 0.020587891713248051 0 -0.021143370561383577 0.020123733445195639 0 -0.019671525291154145 0.021424521580986764 0 -0.020368944299639122 0.020587891713248051 0 -0.020409820609557077 0.022022752303454473 0 -0.0208208995637458 0.021029184918861969 0 -0.020368944299639122 0.020587891713248051 0 -0.020409820609557077 0.022022752303454473 0 -0.019671525291154145 0.021424521580986764 0 -0.019756981484761672 0.019885821974583148 0 -0.020368944299639122 0.020587891713248051 0 -0.020368944299639122 0.020587891713248051 0 -0.020532977174959659 0.019856200389479384 0 -0.021143370561383577 0.020123733445195639 0 -0.019756981484761672 0.019885821974583148 0 -0.020368944299639122 0.020587891713248051 0 -0.020532977174959659 0.019856200389479384 0 -0.019756981484761672 0.019885821974583148 0 -0.020902192295700089 0.018976255540169233 0 -0.020532977174959659 0.019856200389479384 0 -0.020902192295700089 0.018976255540169233 0 -0.020532977174959659 0.019856200389479384 0 -0.021143370561383577 0.020123733445195639 0 -0.021716139785865403 0.019153218103761804 0 -0.020902192295700089 0.018976255540169233 0 -0.021143370561383577 0.020123733445195639 0 -0.021716139785865403 0.019153218103761804 0 -0.021143370561383577 0.020123733445195639 0 -0.02191381520123346 0.020055275401702346 0 -0.02191381520123346 0.020055275401702346 0 -0.022784313055523846 0.020147169680047948 0 -0.022259814194860717 0.020935548896200539 0 -0.022530904477471657 0.019181044809816077 0 -0.021716139785865403 0.019153218103761804 0 -0.02191381520123346 0.020055275401702346 0 -0.022530904477471657 0.019181044809816077 0 -0.02191381520123346 0.020055275401702346 0 -0.022784313055523846 0.020147169680047948 0 -0.022530904477471657 0.019181044809816077 0 -0.023468894162854439 0.019281367136035912 0 -0.022784313055523846 0.020147169680047948 0 -0.023510692318026324 0.020290200071801698 0 -0.022784313055523846 0.020147169680047948 0 -0.023007376257442983 0.021174463669079768 0 -0.022784313055523846 0.020147169680047948 0 -0.023007376257442983 0.021174463669079768 0 -0.022259814194860717 0.020935548896200539 0 -0.023007376257442983 0.021174463669079768 0 -0.022259814194860717 0.020935548896200539 0 -0.022326056528407485 0.022046988251768207 0 -0.021388837690769553 0.0213750463564919 0 -0.022259814194860717 0.020935548896200539 0 -0.022326056528407485 0.022046988251768207 0 -0.021388837690769553 0.0213750463564919 0 -0.02191381520123346 0.020055275401702346 0 -0.022259814194860717 0.020935548896200539 0 -0.021388837690769553 0.0213750463564919 0 -0.022326056528407485 0.022046988251768207 0 -0.021742477842889234 0.023291751830755745 0 -0.021388837690769553 0.0213750463564919 0 -0.021742477842889234 0.023291751830755745 0 -0.02081364911420356 0.023093965700280609 0 -0.022326056528407485 0.022046988251768207 0 -0.022570312451243406 0.023231275850121743 0 -0.021742477842889234 0.023291751830755745 0 -0.023251144455900187 0.022310371579196367 0 -0.023007376257442983 0.021174463669079768 0 -0.022326056528407485 0.022046988251768207 0 -0.023251144455900187 0.022310371579196367 0 -0.022326056528407485 0.022046988251768207 0 -0.022570312451243406 0.023231275850121743 0 -0.023357444454487699 0.02358047398461818 0 -0.022570312451243406 0.023231275850121743 0 -0.022806605132023088 0.024583321761866755 0 -0.022570312451243406 0.023231275850121743 0 -0.021935398289000502 0.024434851763271936 0 -0.022806605132023088 0.024583321761866755 0 -0.023251144455900187 0.022310371579196367 0 -0.023357444454487699 0.02358047398461818 0 -0.022570312451243406 0.023231275850121743 0 -0.022570312451243406 0.023231275850121743 0 -0.021742477842889234 0.023291751830755745 0 -0.021935398289000502 0.024434851763271936 0 -0.021742477842889234 0.023291751830755745 0 -0.020923314946886418 0.024312067608135673 0 -0.021935398289000502 0.024434851763271936 0 -0.021742477842889234 0.023291751830755745 0 -0.02081364911420356 0.023093965700280609 0 -0.020923314946886418 0.024312067608135673 0 -0.02081364911420356 0.023093965700280609 0 -0.020409820609557077 0.022022752303454473 0 -0.019980093547121169 0.023694293978055506 0 -0.02081364911420356 0.023093965700280609 0 -0.019980093547121169 0.023694293978055506 0 -0.020923314946886418 0.024312067608135673 0 -0.021388837690769553 0.0213750463564919 0 -0.02081364911420356 0.023093965700280609 0 -0.020409820609557077 0.022022752303454473 0 -0.021388837690769553 0.0213750463564919 0 -0.0208208995637458 0.021029184918861969 0 -0.020409820609557077 0.022022752303454473 0 -0.019671525291154145 0.021424521580986764 0 -0.020409820609557077 0.022022752303454473 0 -0.019803634272866712 0.022429317701371885 0 -0.018888841924705701 0.023656771182150638 0 -0.021922760598891092 0.0173113362936448 0 -0.020409820609557077 0.022022752303454473 0 -0.018838237217257466 0.02326623761005768 0 -0.019980093547121169 0.023694293978055506 0 -0.018838237217257466 0.02326623761005768 0 -0.019980093547121169 0.023694293978055506 0 -0.019022145168804495 0.024383049054248339 0 -0.021922760598891092 0.0173113362936448 0 -0.020014021967706876 0.025236840701711418 0 -0.019980093547121169 0.023694293978055506 0 -0.019022145168804495 0.024383049054248339 0 -0.019854543713717934 0.024889696851376354 0 -0.019022145168804495 0.024383049054248339 0 -0.019854543713717934 0.024889696851376354 0 -0.018777577929142291 0.025639028754441299 0 -0.019735243157015837 0.025954163396863635 0 -0.018809143915011699 0.026929659010502809 0 -0.020481322801804799 0.026853653520105145 0 -0.018777577929142291 0.025639028754441299 0 -0.019735243157015837 0.025954163396863635 0 -0.018809143915011699 0.026929659010502809 0 -0.019854543713717934 0.024889696851376354 0 -0.018777577929142291 0.025639028754441299 0 -0.019735243157015837 0.025954163396863635 0 -0.020496221538575388 0.025503372610411825 0 -0.021476228583650295 0.025462555488994943 0 -0.020481322801804799 0.026853653520105145 0 -0.019735243157015837 0.025954163396863635 0 -0.020496221538575388 0.025503372610411825 0 -0.020481322801804799 0.026853653520105145 0 -0.019854543713717934 0.024889696851376354 0 -0.019735243157015837 0.025954163396863635 0 -0.020496221538575388 0.025503372610411825 0 -0.020496221538575388 0.025503372610411825 0 -0.020923314946886418 0.024312067608135673 0 -0.021476228583650295 0.025462555488994943 0 -0.019854543713717934 0.024889696851376354 0 -0.020496221538575388 0.025503372610411825 0 -0.020923314946886418 0.024312067608135673 0 -0.019980093547121169 0.023694293978055506 0 -0.019854543713717934 0.024889696851376354 0 -0.020923314946886418 0.024312067608135673 0 -0.021935398289000502 0.024434851763271936 0 -0.022619604224486341 0.025755684044527657 0 -0.021476228583650295 0.025462555488994943 0 -0.020923314946886418 0.024312067608135673 0 -0.021935398289000502 0.024434851763271936 0 -0.021476228583650295 0.025462555488994943 0 -0.021935398289000502 0.024434851763271936 0 -0.022806605132023088 0.024583321761866755 0 -0.022619604224486341 0.025755684044527657 0 -0.022806605132023088 0.024583321761866755 0 -0.022619604224486341 0.025755684044527657 0 -0.023568731447158455 0.025116467625959624 0 -0.022619604224486341 0.025755684044527657 0 -0.021720555546825969 0.027125962126477481 0 -0.022933785260732198 0.027095011088460658 0 -0.022619604224486341 0.025755684044527657 0 -0.021476228583650295 0.025462555488994943 0 -0.021720555546825969 0.027125962126477481 0 -0.021476228583650295 0.025462555488994943 0 -0.021720555546825969 0.027125962126477481 0 -0.020481322801804799 0.026853653520105145 0 -0.021720555546825969 0.027125962126477481 0 -0.020700226325811311 0.028258413413692472 0 -0.020481322801804799 0.026853653520105145 0 -0.021720555546825969 0.027125962126477481 0 -0.021718781564212867 0.028282624642110163 0 -0.020700226325811311 0.028258413413692472 0 -0.021720555546825969 0.027125962126477481 0 -0.022933785260732198 0.027095011088460658 0 -0.022687206664872367 0.028331219809473233 0 -0.021720555546825969 0.027125962126477481 0 -0.022687206664872367 0.028331219809473233 0 -0.021718781564212867 0.028282624642110163 0 -0.022687206664872367 0.028331219809473233 0 -0.021742342886769777 0.029399076829008306 0 -0.022785558732829562 0.0295273042722962 0 -0.022687206664872367 0.028331219809473233 0 -0.021718781564212867 0.028282624642110163 0 -0.021742342886769777 0.029399076829008306 0 -0.021718781564212867 0.028282624642110163 0 -0.020700226325811311 0.028258413413692472 0 -0.021742342886769777 0.029399076829008306 0 -0.020700226325811311 0.028258413413692472 0 -0.020298186419277976 0.029531892046829947 0 -0.021742342886769777 0.029399076829008306 0 -0.020700226325811311 0.028258413413692472 0 -0.019485932957219464 0.028266044303845269 0 -0.020298186419277976 0.029531892046829947 0 -0.019485932957219464 0.028266044303845269 0 -0.018809143915011699 0.026929659010502809 0 -0.017989366051363163 0.02869960277289605 0 -0.019485932957219464 0.028266044303845269 0 -0.019084735839516753 0.029616121494618682 0 -0.017989366051363163 0.02869960277289605 0 -0.019485932957219464 0.028266044303845269 0 -0.018809143915011699 0.026929659010502809 0 -0.020481322801804799 0.026853653520105145 0 -0.020700226325811311 0.028258413413692472 0 -0.019485932957219464 0.028266044303845269 0 -0.020481322801804799 0.026853653520105145 0 -0.027138909236957567 0.026142400942275462 0 -0.026182834761165268 0.025903125125691134 0 -0.026297395513977286 0.027134373860932374 0 -0.027297008804021267 0.027032841057899198 0 -0.027138909236957567 0.026142400942275462 0 -0.026297395513977286 0.027134373860932374 0 -0.027138909236957567 0.026142400942275462 0 -0.026182834761165268 0.025903125125691134 0 -0.027075886295442667 0.025099730562962018 0 -0.026182834761165268 0.025903125125691134 0 -0.026097206885373796 0.024676446197911477 0 -0.027075886295442667 0.025099730562962018 0 -0.026182834761165268 0.025903125125691134 0 -0.026097206885373796 0.024676446197911477 0 -0.025387737680580797 0.025422941210778819 0 -0.025080356169625565 0.024265773812558657 0 -0.026097206885373796 0.024676446197911477 0 -0.025387737680580797 0.025422941210778819 0 -0.026182834761165268 0.025903125125691134 0 -0.025066682973896904 0.026969661718739001 0 -0.026297395513977286 0.027134373860932374 0 -0.026182834761165268 0.025903125125691134 0 -0.025387737680580797 0.025422941210778819 0 -0.025066682973896904 0.026969661718739001 0 -0.024414951645983 0.025341587911763577 0 -0.023754110947163905 0.026412018549599514 0 -0.025066682973896904 0.026969661718739001 0 -0.025387737680580797 0.025422941210778819 0 -0.024414951645983 0.025341587911763577 0 -0.025066682973896904 0.026969661718739001 0 -0.025080356169625565 0.024265773812558657 0 -0.025387737680580797 0.025422941210778819 0 -0.024414951645983 0.025341587911763577 0 -0.024197130424269773 0.024164606714150078 0 -0.025080356169625565 0.024265773812558657 0 -0.024414951645983 0.025341587911763577 0 -0.024197130424269773 0.024164606714150078 0 -0.024414951645983 0.025341587911763577 0 -0.023568731447158455 0.025116467625959624 0 -0.023357444454487699 0.02358047398461818 0 -0.022806605132023088 0.024583321761866755 0 -0.023568731447158455 0.025116467625959624 0 -0.024414951645983 0.025341587911763577 0 -0.023568731447158455 0.025116467625959624 0 -0.023754110947163905 0.026412018549599514 0 -0.022619604224486341 0.025755684044527657 0 -0.022933785260732198 0.027095011088460658 0 -0.023754110947163905 0.026412018549599514 0 -0.022619604224486341 0.025755684044527657 0 -0.023568731447158455 0.025116467625959624 0 -0.023754110947163905 0.026412018549599514 0 -0.022933785260732198 0.027095011088460658 0 -0.022687206664872367 0.028331219809473233 0 -0.023857309423452464 0.027832519518653308 0 -0.022933785260732198 0.027095011088460658 0 -0.023754110947163905 0.026412018549599514 0 -0.023857309423452464 0.027832519518653308 0 -0.022687206664872367 0.028331219809473233 0 -0.023689756838231147 0.029230226328111786 0 -0.022785558732829562 0.0295273042722962 0 -0.022687206664872367 0.028331219809473233 0 -0.023857309423452464 0.027832519518653308 0 -0.023689756838231147 0.029230226328111786 0 -0.023857309423452464 0.027832519518653308 0 -0.023689756838231147 0.029230226328111786 0 -0.024927798086313995 0.029014541092849368 0 -0.023857309423452464 0.027832519518653308 0 -0.025066682973896904 0.026969661718739001 0 -0.024927798086313995 0.029014541092849368 0 -0.023754110947163905 0.026412018549599514 0 -0.023857309423452464 0.027832519518653308 0 -0.025066682973896904 0.026969661718739001 0 -0.025066682973896904 0.026969661718739001 0 -0.025667774819263148 0.02798057423775625 0 -0.024927798086313995 0.029014541092849368 0 -0.025066682973896904 0.026969661718739001 0 -0.025667774819263148 0.02798057423775625 0 -0.026297395513977286 0.027134373860932374 0 -0.024927798086313995 0.029014541092849368 0 -0.026431046021850778 0.028643984726882423 0 -0.025955795039343265 0.030033317664855504 0 -0.025667774819263148 0.02798057423775625 0 -0.024927798086313995 0.029014541092849368 0 -0.026431046021850778 0.028643984726882423 0 -0.028053561329518573 0.029682180768632126 0 -0.026431046021850778 0.028643984726882423 0 -0.025955795039343265 0.030033317664855504 0 -0.025667774819263148 0.02798057423775625 0 -0.026431046021850778 0.028643984726882423 0 -0.026297395513977286 0.027134373860932374 0 -0.027297008804021267 0.027032841057899198 0 -0.026431046021850778 0.028643984726882423 0 -0.026297395513977286 0.027134373860932374 0 -0.022107291048627773 0.033189975608127885 0 -0.024847815599831236 0.031613048388981664 0 -0.025862989868733099 0.032090062566794392 0 -0.024847815599831236 0.031613048388981664 0 -0.025862989868733099 0.032090062566794392 0 -0.025348316655139844 0.031534450894740967 0 -0.028053561329518573 0.029682180768632126 0 -0.025862989868733099 0.032090062566794392 0 -0.025955795039343265 0.030033317664855504 0 -0.025862989868733099 0.032090062566794392 0 -0.025955795039343265 0.030033317664855504 0 -0.025055443532225361 0.03039097591083496 0 -0.024927798086313995 0.029014541092849368 0 -0.025955795039343265 0.030033317664855504 0 -0.025055443532225361 0.03039097591083496 0 -0.025862989868733099 0.032090062566794392 0 -0.025055443532225361 0.03039097591083496 0 -0.02493151786248108 0.031365967223338141 0 -0.025862989868733099 0.032090062566794392 0 -0.02493151786248108 0.031365967223338141 0 -0.025348316655139844 0.031534450894740967 0 -0.02493151786248108 0.031365967223338141 0 -0.024247819239786333 0.030372625902847838 0 -0.023749352724805686 0.031726313005972222 0 -0.025055443532225361 0.03039097591083496 0 -0.02493151786248108 0.031365967223338141 0 -0.024247819239786333 0.030372625902847838 0 -0.024927798086313995 0.029014541092849368 0 -0.025055443532225361 0.03039097591083496 0 -0.024247819239786333 0.030372625902847838 0 -0.023689756838231147 0.029230226328111786 0 -0.024927798086313995 0.029014541092849368 0 -0.024247819239786333 0.030372625902847838 0 -0.023689756838231147 0.029230226328111786 0 -0.024247819239786333 0.030372625902847838 0 -0.023299430963668037 0.030480924842807448 0 -0.023689756838231147 0.029230226328111786 0 -0.023299430963668037 0.030480924842807448 0 -0.022785558732829562 0.0295273042722962 0 -0.024247819239786333 0.030372625902847838 0 -0.023299430963668037 0.030480924842807448 0 -0.023749352724805686 0.031726313005972222 0 -0.023299430963668037 0.030480924842807448 0 -0.023749352724805686 0.031726313005972222 0 -0.022759116154991217 0.03143240509617333 0 -0.024057811166909849 0.033683823407804646 0 -0.023749352724805686 0.031726313005972222 0 -0.02268031020704071 0.032673954173099415 0 -0.017178586584150054 0.044999510939784097 0 -0.017638435628304878 0.045120585398798228 0 -0.017764505185346467 0.04453486467676613 0 -0.024057811166909849 0.033683823407804646 0 -0.024668957663702543 0.032059712788143332 0 -0.025330543349349165 0.032194682185528553 0 -0.024057811166909849 0.033683823407804646 0 -0.023749352724805686 0.031726313005972222 0 -0.024668957663702543 0.032059712788143332 0 -0.0203203509672924 0.039473829885762812 0 -0.022621586923035775 0.037805031486903971 0 -0.02493151786248108 0.031365967223338141 0 -0.023749352724805686 0.031726313005972222 0 -0.024668957663702543 0.032059712788143332 0 -0.02493151786248108 0.031365967223338141 0 -0.024668957663702543 0.032059712788143332 0 -0.025348316655139844 0.031534450894740967 0 -0.024668957663702543 0.032059712788143332 0 -0.025348316655139844 0.031534450894740967 0 -0.025330543349349165 0.032194682185528553 0 -0.017638435628304878 0.045120585398798228 0 -0.018134569871510655 0.044890469988970574 0 -0.017764505185346467 0.04453486467676613 0 -0.018134569871510655 0.044890469988970574 0 -0.018190084819832881 0.044396106670594924 0 -0.018425972557826017 0.044100862939247358 0 -0.018134569871510655 0.044890469988970574 0 -0.017764505185346467 0.04453486467676613 0 -0.018190084819832881 0.044396106670594924 0 -0.0087231650820137705 0.044248934163780541 0 -0.015796243056229321 0.039590531222271914 0 -0.0010236976324715348 0.041921926112655203 0 -0.0017291915816951807 0.041318424755534058 0 -0.0019290032953049119 0.040737482260642617 0 -0.0017100893514503379 0.041669381906823358 0 -0.0010236976324715348 0.041921926112655203 0 -0.0017291915816951807 0.041318424755534058 0 -0.022621586923035775 0.037805031486903971 0 -0.015796243056229321 0.039590531222271914 0 -0.017764505185346467 0.04453486467676613 0 -0.018190084819832881 0.044396106670594924 0 -0.018425972557826017 0.044100862939247358 0 -0.024847815599831236 0.031613048388981664 0 -0.025348316655139844 0.031534450894740967 0 -0.024407936428061092 0.03033268441578741 0 -0.025348316655139844 0.031534450894740967 0 -0.025330543349349165 0.032194682185528553 0 -0.024407936428061092 0.03033268441578741 0 -0.019700125721083265 0.030843767679323109 0 -0.020993815343309619 0.030785126691084422 0 -0.020232459714247947 0.032227460568508934 0 -0.019700125721083265 0.030843767679323109 0 -0.020298186419277976 0.029531892046829947 0 -0.020993815343309619 0.030785126691084422 0 -0.019700125721083265 0.030843767679323109 0 -0.018783549637067812 0.031852452604674834 0 -0.018125909457894943 0.030684146243603799 0 -0.019700125721083265 0.030843767679323109 0 -0.019084735839516753 0.029616121494618682 0 -0.018125909457894943 0.030684146243603799 0 -0.019485932957219464 0.028266044303845269 0 -0.019084735839516753 0.029616121494618682 0 -0.020298186419277976 0.029531892046829947 0 -0.019700125721083265 0.030843767679323109 0 -0.019084735839516753 0.029616121494618682 0 -0.020298186419277976 0.029531892046829947 0 -0.020298186419277976 0.029531892046829947 0 -0.021742342886769777 0.029399076829008306 0 -0.020993815343309619 0.030785126691084422 0 -0.021742342886769777 0.029399076829008306 0 -0.022223880476218098 0.030565068201852261 0 -0.020993815343309619 0.030785126691084422 0 -0.021742342886769777 0.029399076829008306 0 -0.022785558732829562 0.0295273042722962 0 -0.022223880476218098 0.030565068201852261 0 -0.023299430963668037 0.030480924842807448 0 -0.022785558732829562 0.0295273042722962 0 -0.022223880476218098 0.030565068201852261 0 -0.023299430963668037 0.030480924842807448 0 -0.022759116154991217 0.03143240509617333 0 -0.022223880476218098 0.030565068201852261 0 -0.022759116154991217 0.03143240509617333 0 -0.022223880476218098 0.030565068201852261 0 -0.021765320705512552 0.03178829310910785 0 -0.022223880476218098 0.030565068201852261 0 -0.020993815343309619 0.030785126691084422 0 -0.021765320705512552 0.03178829310910785 0 -0.021765320705512552 0.03178829310910785 0 -0.021378627856566502 0.033284838192535721 0 -0.020232459714247947 0.032227460568508934 0 -0.021765320705512552 0.03178829310910785 0 -0.02268031020704071 0.032673954173099415 0 -0.021378627856566502 0.033284838192535721 0 -0.020993815343309619 0.030785126691084422 0 -0.021765320705512552 0.03178829310910785 0 -0.020232459714247947 0.032227460568508934 0 -0.022759116154991217 0.03143240509617333 0 -0.021765320705512552 0.03178829310910785 0 -0.02268031020704071 0.032673954173099415 0 -0.023749352724805686 0.031726313005972222 0 -0.022759116154991217 0.03143240509617333 0 -0.02268031020704071 0.032673954173099415 0 -0.022504549145339031 0.035003750376344206 0 -0.02268031020704071 0.032673954173099415 0 -0.021378627856566502 0.033284838192535721 0 -0.021378627856566502 0.033284838192535721 0 -0.020047170649015636 0.033954473605344419 0 -0.020232459714247947 0.032227460568508934 0 -0.020047170649015636 0.033954473605344419 0 -0.020232459714247947 0.032227460568508934 0 -0.01913404177403508 0.033204763161220043 0 -0.020232459714247947 0.032227460568508934 0 -0.018783549637067812 0.031852452604674834 0 -0.01913404177403508 0.033204763161220043 0 -0.019700125721083265 0.030843767679323109 0 -0.020232459714247947 0.032227460568508934 0 -0.018783549637067812 0.031852452604674834 0 -0.018923646210514594 0.034383134283349714 0 -0.01913404177403508 0.033204763161220043 0 -0.017574999634854944 0.033680990667809094 0 -0.018923646210514594 0.034383134283349714 0 -0.020047170649015636 0.033954473605344419 0 -0.01913404177403508 0.033204763161220043 0 -0.018783549637067812 0.031852452604674834 0 -0.01913404177403508 0.033204763161220043 0 -0.017574999634854944 0.033680990667809094 0 -0.032101103492063153 0.039661219799755745 0 -0.030368149644296263 0.040094367609810902 0 -0.030421313714490351 0.038699507709440556 0 -0.032101103492063153 0.039661219799755745 0 -0.030421313714490351 0.038699507709440556 0 -0.031384874655598971 0.037429041978218197 0 -0.030421313714490351 0.038699507709440556 0 -0.031384874655598971 0.037429041978218197 0 -0.029366935440641395 0.037131734285842058 0 -0.017152523323279323 0.031451558097346351 0 -0.024529518395490651 0.036604727040759136 0 -0.024529518395490651 0.036604727040759136 0 -0.024440894862562415 0.034694775229307598 0 -0.018783549637067812 0.031852452604674834 0 -0.017943596825443341 0.033498526978745224 0 -0.017356474913405251 0.03181477168761921 0 -0.018783549637067812 0.031852452604674834 0 -0.017356474913405251 0.03181477168761921 0 -0.018125909457894943 0.030684146243603799 0 -0.024440894862562415 0.034694775229307598 0 -0.023756759924911885 0.032318008820389467 0 -0.017356474913405251 0.03181477168761921 0 -0.018125909457894943 0.030684146243603799 0 -0.016802296696999494 0.030070753689382723 0 -0.031384874655598971 0.037429041978218197 0 -0.030772618912008904 0.035255462612312057 0 -0.029366935440641395 0.037131734285842058 0 -0.023756759924911885 0.032318008820389467 0 -0.022895876063899045 0.032423499358600553 0 -0.018125909457894943 0.030684146243603799 0 -0.016802296696999494 0.030070753689382723 0 -0.017989366051363163 0.02869960277289605 0 -0.019084735839516753 0.029616121494618682 0 -0.018125909457894943 0.030684146243603799 0 -0.017989366051363163 0.02869960277289605 0 -0.02856904137996627 0.034880829220587009 0 -0.027778020724405505 0.03650647700364601 0 -0.026805935052622579 0.035307697306634217 0 -0.030772618912008904 0.035255462612312057 0 -0.02856904137996627 0.034880829220587009 0 -0.030175130484174133 0.033111516286075358 0 -0.030772618912008904 0.035255462612312057 0 -0.02856904137996627 0.034880829220587009 0 -0.029366935440641395 0.037131734285842058 0 -0.02856904137996627 0.034880829220587009 0 -0.027778020724405505 0.03650647700364601 0 -0.029366935440641395 0.037131734285842058 0 -0.027778020724405505 0.03650647700364601 0 -0.02772692702162214 0.038148717680828531 0 -0.029366935440641395 0.037131734285842058 0 -0.02772692702162214 0.038148717680828531 0 -0.029366935440641395 0.037131734285842058 0 -0.028933666445124441 0.03926343162541681 0 -0.030421313714490351 0.038699507709440556 0 -0.029366935440641395 0.037131734285842058 0 -0.028933666445124441 0.03926343162541681 0 -0.030368149644296263 0.040094367609810902 0 -0.030421313714490351 0.038699507709440556 0 -0.028933666445124441 0.03926343162541681 0 -0.02772692702162214 0.038148717680828531 0 -0.028933666445124441 0.03926343162541681 0 -0.027409467714513854 0.040219365418846062 0 -0.02772692702162214 0.038148717680828531 0 -0.027409467714513854 0.040219365418846062 0 -0.026124294095973354 0.03921396368300184 0 -0.024840437622190147 0.042086500881918752 0 -0.026748472327499852 0.040296975118863203 0 -0.024568031166154077 0.039847839916548548 0 -0.026748472327499852 0.040296975118863203 0 -0.024568031166154077 0.039847839916548548 0 -0.025008877258462653 0.037500402592775248 0 -0.026748472327499852 0.040296975118863203 0 -0.026462343496829532 0.036976150717514582 0 -0.025008877258462653 0.037500402592775248 0 -0.026416501730714016 0.039722026546807905 0 -0.026436542533576971 0.037179899799276453 0 -0.02772692702162214 0.038148717680828531 0 -0.026124294095973354 0.03921396368300184 0 -0.026462343496829532 0.036976150717514582 0 -0.024840437622190147 0.042086500881918752 0 -0.022902757078425106 0.040932465878327336 0 -0.024568031166154077 0.039847839916548548 0 -0.022902757078425106 0.040932465878327336 0 -0.024568031166154077 0.039847839916548548 0 -0.023655714018045001 0.038599650610497103 0 -0.024568031166154077 0.039847839916548548 0 -0.023655714018045001 0.038599650610497103 0 -0.025008877258462653 0.037500402592775248 0 -0.033146151106803211 0.026926669139849892 0 -0.035030569689168248 0.025660487773550567 0 -0.034346035719321585 0.025915960854521334 0 -0.023300722997231675 0.043657324313138665 0 -0.027344802088968972 0.036100736188764214 0 -0.02525940505843156 0.044429473373008871 0 -0.024598905118751596 0.044113544467928534 0 -0.024691186019627064 0.044658246602803021 0 -0.022902757078425106 0.040932465878327336 0 -0.023655714018045001 0.038599650610497103 0 -0.022377341482764612 0.037808180691869912 0 -0.033746396228668062 0.024990143531134126 0 -0.035501536643370663 0.024408833760837967 0 -0.035561773935851755 0.022646123376245584 0 -0.038713842794645126 0.017361132481778622 0 -0.039123486484796369 0.014771311094204147 0 -0.035371043818443214 0.024259618293660416 0 -0.031077688867756609 0.029071471119798374 0 -0.035030569689168248 0.025660487773550567 0 -0.034346035719321585 0.025915960854521334 0 -0.03503174012574669 0.024935089286095165 0 -0.033746396228668062 0.024990143531134126 0 -0.034346035719321585 0.025915960854521334 0 -0.035501536643370663 0.024408833760837967 0 -0.027344802088968972 0.036100736188764214 0 -0.031077688867756609 0.029071471119798374 0 -0.022347868335245866 0.037486940886879892 0 -0.022350639197204161 0.036536638399712849 0 -0.023601601760250765 0.036691764176351449 0 -0.031077688867756609 0.029071471119798374 0 -0.039123486484796369 0.014771311094204147 0 -0.022350639197204161 0.036536638399712849 0 -0.023601601760250765 0.036691764176351449 0 -0.023934278607236334 0.035640678870090786 0 -0.023655714018045001 0.038599650610497103 0 -0.022377341482764612 0.037808180691869912 0 -0.023601601760250765 0.036691764176351449 0 -0.027344802088968972 0.036100736188764214 0 -0.02238716104820386 0.037757103146603681 0 -0.023601601760250765 0.036691764176351449 0 -0.024451238489207012 0.036360618985417356 0 -0.025008877258462653 0.037500402592775248 0 -0.023655714018045001 0.038599650610497103 0 -0.023601601760250765 0.036691764176351449 0 -0.025008877258462653 0.037500402592775248 0 -0.023601601760250765 0.036691764176351449 0 -0.024451238489207012 0.036360618985417356 0 -0.023934278607236334 0.035640678870090786 0 -0.039123486484796369 0.014771311094204147 0 -0.041089603213695938 0.010714130785553761 0 -0.031077688867756609 0.029071471119798374 0 -0.030494696939755164 0.025838573813797856 0 -0.038592458547520907 0.017005090927840926 0 -0.03258254511205641 0.02080536382882385 0 -0.03831406253512213 0.014013420700958115 0 -0.022350639197204161 0.036536638399712849 0 -0.023934278607236334 0.035640678870090786 0 -0.02362209824035574 0.033952838894382525 0 -0.032405170959477467 0.026348385273137667 0 -0.038592458547520907 0.017005090927840926 0 -0.03258254511205641 0.02080536382882385 0 -0.023934278607236334 0.035640678870090786 0 -0.02362209824035574 0.033952838894382525 0 -0.024471170015630116 0.034742742394004142 0 -0.044159641426044574 0.008852925785910546 0 -0.043894187130946762 0.0078628924464156074 0 -0.044196858158193415 0.0080930975234911242 0 -0.039123486484796369 0.014771311094204147 0 -0.043182322799656968 0.0059737462893997865 0 -0.043894187130946762 0.0078628924464156074 0 -0.044196858158193415 0.0080930975234911242 0 -0.043921169630643811 0.0076001622896661137 0 -0.027778020724405505 0.03650647700364601 0 -0.02772692702162214 0.038148717680828531 0 -0.026462343496829532 0.036976150717514582 0 -0.027778020724405505 0.03650647700364601 0 -0.026462343496829532 0.036976150717514582 0 -0.026805935052622579 0.035307697306634217 0 -0.026462343496829532 0.036976150717514582 0 -0.025220071118104752 0.035726039517628226 0 -0.026805935052622579 0.035307697306634217 0 -0.026462343496829532 0.036976150717514582 0 -0.025008877258462653 0.037500402592775248 0 -0.025220071118104752 0.035726039517628226 0 -0.024451238489207012 0.036360618985417356 0 -0.023934278607236334 0.035640678870090786 0 -0.025220071118104752 0.035726039517628226 0 -0.024451238489207012 0.036360618985417356 0 -0.025008877258462653 0.037500402592775248 0 -0.025220071118104752 0.035726039517628226 0 -0.025220071118104752 0.035726039517628226 0 -0.025293697198449275 0.034107112027665622 0 -0.026805935052622579 0.035307697306634217 0 -0.025220071118104752 0.035726039517628226 0 -0.025293697198449275 0.034107112027665622 0 -0.024471170015630116 0.034742742394004142 0 -0.023934278607236334 0.035640678870090786 0 -0.025220071118104752 0.035726039517628226 0 -0.024471170015630116 0.034742742394004142 0 -0.02362209824035574 0.033952838894382525 0 -0.025293697198449275 0.034107112027665622 0 -0.024471170015630116 0.034742742394004142 0 -0.025293697198449275 0.034107112027665622 0 -0.026805935052622579 0.035307697306634217 0 -0.02677307447397834 0.033464872081814832 0 -0.02856904137996627 0.034880829220587009 0 -0.026805935052622579 0.035307697306634217 0 -0.02677307447397834 0.033464872081814832 0 -0.027183024733881275 0.033016776442016171 0 -0.028984010484783111 0.032606393847525138 0 -0.02677307447397834 0.033464872081814832 0 -0.027220464764362181 0.031051429181263409 0 -0.030426384699304112 0.030621732494384029 0 -0.02677307447397834 0.033464872081814832 0 -0.025565839074262305 0.03249863239979376 0 -0.027220464764362181 0.031051429181263409 0 -0.02362209824035574 0.033952838894382525 0 -0.025041219459922021 0.031909002990986521 0 -0.025183948864353076 0.030183643198203079 0 -0.02362209824035574 0.033952838894382525 0 -0.025041219459922021 0.031909002990986521 0 -0.025565839074262305 0.03249863239979376 0 -0.030494696939755164 0.025838573813797856 0 -0.034848340231233163 0.019953289753614298 0 -0.0437662477959136 0.0076901450392770848 0 -0.041089603213695938 0.010714130785553761 0 -0.025293697198449275 0.034107112027665622 0 -0.02677307447397834 0.033464872081814832 0 -0.025565839074262305 0.03249863239979376 0 -0.02362209824035574 0.033952838894382525 0 -0.025293697198449275 0.034107112027665622 0 -0.025565839074262305 0.03249863239979376 0 -0.025041219459922021 0.031909002990986521 0 -0.025565839074262305 0.03249863239979376 0 -0.025958829126397031 0.030952793171400511 0 -0.025565839074262305 0.03249863239979376 0 -0.025958829126397031 0.030952793171400511 0 -0.027220464764362181 0.031051429181263409 0 -0.025041219459922021 0.031909002990986521 0 -0.025183948864353076 0.030183643198203079 0 -0.025958829126397031 0.030952793171400511 0 -0.044446689455471852 0.0076708335697682024 0 -0.04399546061081866 0.007423859605761491 0 -0.03831406253512213 0.014013420700958115 0 -0.025183948864353076 0.030183643198203079 0 -0.025958829126397031 0.030952793171400511 0 -0.026964450840523738 0.029331990940444239 0 -0.04399546061081866 0.007423859605761491 0 -0.043897159313450874 0.0074070878481263041 0 -0.043923406180877096 0.0073457852032394085 0 -0.04399546061081866 0.007423859605761491 0 -0.043963838212576156 0.0072871755352522816 0 -0.043923406180877096 0.0073457852032394085 0 -0.043963838212576156 0.0072871755352522816 0 -0.044115022030252915 0.0070431679249453186 0 -0.043879912067479931 0.0071513026504805843 0 -0.044446689455471852 0.0076708335697682024 0 -0.04399546061081866 0.007423859605761491 0 -0.044115022030252915 0.0070431679249453186 0 -0.043963838212576156 0.0072871755352522816 0 -0.043923406180877096 0.0073457852032394085 0 -0.043879912067479931 0.0071513026504805843 0 -0.04399546061081866 0.007423859605761491 0 -0.043963838212576156 0.0072871755352522816 0 -0.044115022030252915 0.0070431679249453186 0 -0.044446689455471852 0.0076708335697682024 0 -0.044115022030252915 0.0070431679249453186 0 -0.044353950450413286 0.0067936254936867627 0 -0.025183948864353076 0.030183643198203079 0 -0.026964450840523738 0.029331990940444239 0 -0.028010501607481614 0.025318924158621928 0 -0.028440116880204112 0.028941898504887213 0 -0.027220464764362181 0.031051429181263409 0 -0.030426384699304112 0.030621732494384029 0 -0.026964450840523738 0.029331990940444239 0 -0.028440116880204112 0.028941898504887213 0 -0.027220464764362181 0.031051429181263409 0 -0.025958829126397031 0.030952793171400511 0 -0.026964450840523738 0.029331990940444239 0 -0.027220464764362181 0.031051429181263409 0 -0.043894187130946762 0.0078628924464156074 0 -0.043747932052215395 0.0073560284218766227 0 -0.043921169630643811 0.0076001622896661137 0 -0.043747932052215395 0.0073560284218766227 0 -0.043921169630643811 0.0076001622896661137 0 -0.043824814959663817 0.0073953064131444708 0 -0.038592458547520907 0.017005090927840926 0 -0.044446689455471852 0.0076708335697682024 0 -0.03831406253512213 0.014013420700958115 0 -0.04399546061081866 0.007423859605761491 0 -0.043906791343268851 0.0075025393163750329 0 -0.043897159313450874 0.0074070878481263041 0 -0.043896939537261259 0.0077460278335142324 0 -0.043921169630643811 0.0076001622896661137 0 -0.043906791343268851 0.0075025393163750329 0 -0.043921169630643811 0.0076001622896661137 0 -0.043824814959663817 0.0073953064131444708 0 -0.043906791343268851 0.0075025393163750329 0 -0.043824814959663817 0.0073953064131444708 0 -0.043906791343268851 0.0075025393163750329 0 -0.043897159313450874 0.0074070878481263041 0 -0.043897159313450874 0.0074070878481263041 0 -0.043829027108345346 0.00729149096438215 0 -0.043923406180877096 0.0073457852032394085 0 -0.043829027108345346 0.00729149096438215 0 -0.043923406180877096 0.0073457852032394085 0 -0.043879912067479931 0.0071513026504805843 0 -0.043879912067479931 0.0071513026504805843 0 -0.043570050281685382 0.0070111282541855148 0 -0.043835281093060098 0.0067838399175857147 0 -0.043829027108345346 0.00729149096438215 0 -0.043879912067479931 0.0071513026504805843 0 -0.043570050281685382 0.0070111282541855148 0 -0.043824814959663817 0.0073953064131444708 0 -0.043897159313450874 0.0074070878481263041 0 -0.043829027108345346 0.00729149096438215 0 -0.043824814959663817 0.0073953064131444708 0 -0.043829027108345346 0.00729149096438215 0 -0.043570050281685382 0.0070111282541855148 0 -0.043549913904879237 0.0071066645673967758 0 -0.043747932052215395 0.0073560284218766227 0 -0.043570050281685382 0.0070111282541855148 0 -0.043066459988987796 0.0063365449622850038 0 -0.043549913904879237 0.0071066645673967758 0 -0.043570050281685382 0.0070111282541855148 0 -0.043747932052215395 0.0073560284218766227 0 -0.043824814959663817 0.0073953064131444708 0 -0.043570050281685382 0.0070111282541855148 0 -0.043066459988987796 0.0063365449622850038 0 -0.043570050281685382 0.0070111282541855148 0 -0.04325799053569597 0.0064287922122359424 0 -0.04325799053569597 0.0064287922122359424 0 -0.043835281093060098 0.0067838399175857147 0 -0.04397852286876168 0.0060407295170850058 0 -0.043570050281685382 0.0070111282541855148 0 -0.04325799053569597 0.0064287922122359424 0 -0.043835281093060098 0.0067838399175857147 0 -0.04325799053569597 0.0064287922122359424 0 -0.042261865057669858 0.0055080603432141606 0 -0.04397852286876168 0.0060407295170850058 0 -0.04187013905649755 0.0054240128184483869 0 -0.042158688509072943 0.0043206910786194579 0 -0.039500659448005161 0.0057977663482441577 0 -0.042261865057669858 0.0055080603432141606 0 -0.038591888755588506 0.0033864069047933286 0 -0.043066459988987796 0.0063365449622850038 0 -0.04325799053569597 0.0064287922122359424 0 -0.042261865057669858 0.0055080603432141606 0 -0.034848340231233163 0.019953289753614298 0 -0.034911290890680624 0.0098489137126288647 0 -0.028440116880204112 0.028941898504887213 0 -0.028010501607481614 0.025318924158621928 0 -0.030010940225491552 0.028003981708177368 0 -0.026964450840523738 0.029331990940444239 0 -0.028440116880204112 0.028941898504887213 0 -0.028010501607481614 0.025318924158621928 0 -0.044446689455471852 0.0076708335697682024 0 -0.044834273091344461 0.0064200339643280778 0 -0.044353950450413286 0.0067936254936867627 0 -0.044834273091344461 0.0064200339643280778 0 -0.044353950450413286 0.0067936254936867627 0 -0.04397852286876168 0.0060407295170850058 0 -0.043835281093060098 0.0067838399175857147 0 -0.044353950450413286 0.0067936254936867627 0 -0.04397852286876168 0.0060407295170850058 0 -0.044115022030252915 0.0070431679249453186 0 -0.043879912067479931 0.0071513026504805843 0 -0.043835281093060098 0.0067838399175857147 0 -0.044115022030252915 0.0070431679249453186 0 -0.043835281093060098 0.0067838399175857147 0 -0.044353950450413286 0.0067936254936867627 0 -0.035469084974588561 0.0023012538938107026 0 -0.038591888755588506 0.0033864069047933286 0 -0.03615643924658471 0.0039699071398292306 0 -0.03689130383008709 0.0055631068357235147 0 -0.038591888755588506 0.0033864069047933286 0 -0.03615643924658471 0.0039699071398292306 0 -0.034911290890680624 0.0098489137126288647 0 -0.042158688509072943 0.0043206910786194579 0 -0.035024183622666384 0.0029617640688143791 0 -0.034526076626984772 0.0037599670869503535 0 -0.034194352431454689 0.0030441314180198993 0 -0.035469084974588561 0.0023012538938107026 0 -0.03615643924658471 0.0039699071398292306 0 -0.034526076626984772 0.0037599670869503535 0 -0.034911290890680624 0.0098489137126288647 0 -0.036103857623619735 0.0029282479473572505 0 -0.035260943332136994 0.0049256542482688194 0 -0.03615643924658471 0.0039699071398292306 0 -0.034526076626984772 0.0037599670869503535 0 -0.035260943332136994 0.0049256542482688194 0 -0.034083975895623439 0.0050644205580953243 0 -0.034526076626984772 0.0037599670869503535 0 -0.034083975895623439 0.0050644205580953243 0 -0.034526076626984772 0.0037599670869503535 0 -0.033074005047698328 0.0041174853574795665 0 -0.033074005047698328 0.0041174853574795665 0 -0.033399528496896452 0.0032633006454598728 0 -0.032930228011536347 0.0026282851608801505 0 -0.033074005047698328 0.0041174853574795665 0 -0.034194352431454689 0.0030441314180198993 0 -0.033399528496896452 0.0032633006454598728 0 -0.034526076626984772 0.0037599670869503535 0 -0.033074005047698328 0.0041174853574795665 0 -0.034194352431454689 0.0030441314180198993 0 -0.034194352431454689 0.0030441314180198993 0 -0.032930228011536347 0.0026282851608801505 0 -0.032584935287985645 0.0022192659787031452 0 -0.035024183622666384 0.0029617640688143791 0 -0.034194352431454689 0.0030441314180198993 0 -0.032584935287985645 0.0022192659787031452 0 -0.028010501607481614 0.025318924158621928 0 -0.033874160621567992 0.027483579923567071 0 -0.030010940225491552 0.028003981708177368 0 -0.034911290890680624 0.0098489137126288647 0 -0.028337978132580072 0.019229330825238002 0 -0.034194352431454689 0.0030441314180198993 0 -0.033399528496896452 0.0032633006454598728 0 -0.032930228011536347 0.0026282851608801505 0 -0.032233299394421336 0.0020752938703746276 0 -0.031757018681681348 0.0036685598935906039 0 -0.030078226144040019 0.0037848969134316327 0 -0.033074005047698328 0.0041174853574795665 0 -0.032930228011536347 0.0026282851608801505 0 -0.032584935287985645 0.0022192659787031452 0 -0.032956351570014371 -0.0025093101900907416 0 -0.028337978132580072 0.019229330825238002 0 -0.015930378014909815 0.02647159005422816 0 -0.015755397455797817 0.026397226476436424 0 -0.016852921373329954 0.026031653152528842 0 -0.015930378014909815 0.02647159005422816 0 -0.016852921373329954 0.026031653152528842 0 -0.016608283677798145 0.026962315044298156 0 -0.025945898699375983 0.019175902266854332 0 -0.028337978132580072 0.019229330825238002 0 -0.033074005047698328 0.0041174853574795665 0 -0.032233299394421336 0.0020752938703746276 0 -0.031757018681681348 0.0036685598935906039 0 -0.031442662624851743 0.0048092365455917503 0 -0.033074005047698328 0.0041174853574795665 0 -0.031757018681681348 0.0036685598935906039 0 -0.031442662624851743 0.0048092365455917503 0 -0.031757018681681348 0.0036685598935906039 0 -0.030078226144040019 0.0037848969134316327 0 -0.021922760598891092 0.0173113362936448 0 -0.023450352981360063 0.013104927694387571 0 -0.018907839270030757 0.023360170383851912 0 -0.019022145168804495 0.024383049054248339 0 -0.017318524083259242 0.024882155656204302 0 -0.019022145168804495 0.024383049054248339 0 -0.018777577929142291 0.025639028754441299 0 -0.017318524083259242 0.024882155656204302 0 -0.018777577929142291 0.025639028754441299 0 -0.017318524083259242 0.024882155656204302 0 -0.017824230417812947 0.026116005880819419 0 -0.018777577929142291 0.025639028754441299 0 -0.018809143915011699 0.026929659010502809 0 -0.017824230417812947 0.026116005880819419 0 -0.028337978132580072 0.019229330825238002 0 -0.023450352981360063 0.013104927694387571 0 -0.015755397455797817 0.026397226476436424 0 -0.017318524083259242 0.024882155656204302 0 -0.016852921373329954 0.026031653152528842 0 -0.017318524083259242 0.024882155656204302 0 -0.017824230417812947 0.026116005880819419 0 -0.016852921373329954 0.026031653152528842 0 -0.017824230417812947 0.026116005880819419 0 -0.016852921373329954 0.026031653152528842 0 -0.017368360449848422 0.027094676160414451 0 -0.016852921373329954 0.026031653152528842 0 -0.016608283677798145 0.026962315044298156 0 -0.017368360449848422 0.027094676160414451 0 -0.016608283677798145 0.026962315044298156 0 -0.017368360449848422 0.027094676160414451 0 -0.016279254996513205 0.028265934725520997 0 -0.018809143915011699 0.026929659010502809 0 -0.017824230417812947 0.026116005880819419 0 -0.017368360449848422 0.027094676160414451 0 -0.018809143915011699 0.026929659010502809 0 -0.017368360449848422 0.027094676160414451 0 -0.017989366051363163 0.02869960277289605 0 -0.016802296696999494 0.030070753689382723 0 -0.017989366051363163 0.02869960277289605 0 -0.016279254996513205 0.028265934725520997 0 -0.017368360449848422 0.027094676160414451 0 -0.017989366051363163 0.02869960277289605 0 -0.016279254996513205 0.028265934725520997 0 -0.030175130484174133 0.033111516286075358 0 -0.028595719924764357 0.033409988743371151 0 -0.029146597426812811 0.032174289346169296 0 -0.02856904137996627 0.034880829220587009 0 -0.030175130484174133 0.033111516286075358 0 -0.028595719924764357 0.033409988743371151 0 -0.02677307447397834 0.033464872081814832 0 -0.028595719924764357 0.033409988743371151 0 -0.028000187893154074 0.032375631759485796 0 -0.02856904137996627 0.034880829220587009 0 -0.02677307447397834 0.033464872081814832 0 -0.028595719924764357 0.033409988743371151 0 -0.028595719924764357 0.033409988743371151 0 -0.028000187893154074 0.032375631759485796 0 -0.029146597426812811 0.032174289346169296 0 -0.028337978132580072 0.019229330825238002 0 -0.028984010484783111 0.032606393847525138 0 -0.029433838153260908 0.030919387853552961 0 -0.028000187893154074 0.032375631759485796 0 -0.029146597426812811 0.032174289346169296 0 -0.033874160621567992 0.027483579923567071 0 -0.030426384699304112 0.030621732494384029 0 -0.030010940225491552 0.028003981708177368 0 -0.028440116880204112 0.028941898504887213 0 -0.030426384699304112 0.030621732494384029 0 -0.030010940225491552 0.028003981708177368 0 -0.015930378014909815 0.02647159005422816 0 -0.016608283677798145 0.026962315044298156 0 -0.016279254996513205 0.028265934725520997 0 -0.028337978132580072 0.019229330825238002 0 -0.022895876063899045 0.032423499358600553 0 -0.029433838153260908 0.030919387853552961 0 -0.030175130484174133 0.033111516286075358 0 -0.029146597426812811 0.032174289346169296 0 -0.015930378014909815 0.02647159005422816 0 -0.015748970340047387 0.026390458385056974 0 -0.016279254996513205 0.028265934725520997 0 
</DataArray>
</PointData>
<CellData Scalars="region_id,cross_section_updated," Vectors="" Tensors="stress,">
<DataArray type="Float64" Name="region_id" format="ascii">
5 5 5 5 6 5 5 5 5 5 5 5 5 6 5 5 6 5 5 5 5 5 6 5 5 5 6 6 5 5 5 5 5 5 5 5 5 5 5 5 5 5 5 5 5 5 6 5 5 5 5 5 5 5 5 6 5 5 5 5 5 5 6 5 5 6 5 5 5 5 6 5 5 5 5 5 5 5 5 5 5 5 5 5 5 5 5 5 5 5 5 5 6 5 5 5 5 5 5 6 5 5 5 5 5 5 5 5 5 5 5 5 5 6 5 6 5 5 5 5 6 5 5 5 5 5 5 5 5 5 5 5 6 5 5 5 5 6 5 5 5 5 5 5 5 5 5 5 6 5 5 5 5 5 5 5 5 5 5 5 5 5 5 6 5 5 5 5 6 5 5 5 5 5 5 5 5 5 5 5 5 5 5 5 5 5 5 5 5 5 5 5 5 5 5 5 5 5 5 5 5 5 5 5 5 5 5 5 5 5 5 5 6 5 5 6 5 5 5 5 5 5 5 5 5 5 6 6 5 5 5 5 5 5 5 5 5 5 5 5 5 6 5 5 5 5 5 6 5 5 5 5 5 6 5 5 5 5 5 5 6 5 5 6 5 5 5 6 5 5 5 5 6 5 5 5 6 6 5 6 5 5 5 5 5 5 5 5 6 5 5 5 5 5 5 5 5 5 5 5 6 5 5 5 5 5 5 5 5 5 5 5 5 5 5 5 5 5 6 5 5 5 5 5 5 5 5 5 5 5 5 5 5 5 5 5 5 6 5 5 5 6 6 5 5 5 6 5 5 6 5 5 5 5 5 5 5 5 5 5 5 5 5 6 5 5 5 5 5 5 5 5 5 5 5 5 5 5 5 5 5 6 5 5 5 6 5 5 5 5 6 5 5 5 5 5 5 5 6 5 5 6 5 5 5 5 5 5 5 5 5 6 6 5 5 6 5 5 5 6 5 6 5 5 5 5 6 5 5 6 5 5 5 5 5 5 6 5 5 5 5 6 5 6 5 6 5 6 5 5 5 6 5 5 5 6 5 5 5 6 5 6 5 5 5 6 5 5 5 5 5 5 5 5 5 5 5 6 5 5 5 5 5 5 5 5 5 5 5 5 5 5 6 6 5 5 5 5 6 5 5 5 5 5 5 6 5 5 6 5 5 5 5 5 5 5 5 5 5 5 5 5 5 5 5 5 5 5 5 5 5 5 5 6 5 5 5 6 5 5 6 5 6 5 5 6 5 5 5 5 5 5 5 5 5 6 5 5 6 5 5 5 5 5 5 5 5 5 5 5 5 5 5 5 5 5 5 5 5 5 5 5 5 5 5 5 5 5 6 5 5 5 5 5 5 6 5 5 5 5 5 5 5 6 5 5 5 6 6 5 5 6 5 5 6 5 5 5 5 5 5 5 5 5 5 5 5 6 5 5 5 5 5 6 5 5 5 5 5 5 6 6 5 6 5 5 5 6 5 6 5 6 5 5 5 5 5 6 6 5 5 5 6 5 6 6 5 5 5 5 5 5 5 5 5 6 5 5 5 5 6 5 5 5 5 5 5 6 5 5 5 6 5 5 5 5 5 5 5 5 6 5 5 5 5 5 6 5 5 5 5 5 5 5 5 5 6 5 5 5 5 5 5 5 5 5 5 5 5 5 5 5 5 5 5 5 5 5 5 5 5 5 5 5 5 5 5 5 5 5 5 5 5 5 6 5 6 5 5 6 5 5 5 6 5 5 5 5 5 5 5 5 5 5 5 5 6 5 5 6 5 5 5 5 5 6 6 6 5 6 5 5 5 5 5 5 5 6 5 6 5 6 5 5 6 5 5 6 5 5 5 5 5 6 5 5 5 5 5 6 5 5 5 6 5 5 6 5 5 5 5 5 5 5 5 5 5 5 5 6 5 6 5 5 5 5 5 5 5 5 5 5 5 5 5 6 5 5 6 5 5 5 6 6 5 5 5 5 5 6 5 5 6 5 6 5 5 5 5 5 6 5 5 5 5 5 5 5 5 5 5 5 5 5 5 6 5 6 5 5 5 5 5 6 5 5 5 5 5 6 6 5 5 6 5 6 5 5 6 5 6 5 6 6 6 5 5 6 5 5 5 5 5 5 5 5 5 5 5 6 5 5 6 5 5 5 5 5 5 5 5 5 6 5 6 5 6 5 5 6 5 6 5 5 5 6 5 6 6 5 5 6 6 5 5 5 5 5 6 5 5 5 5 5 5 5 5 5 5 5 5 5 5 5 5 5 5 5 5 5 5 5 5 5 5 5 5 5 5 5 5 5 6 5 5 5 5 5 5 6 5 5 6 5 5 5 5 5 5 5 5 5 5 5 5 5 6 5 6 5 5 6 5 5 5 5 5 5 5 5 5 5 5 5 6 5 5 6 5 5 5 5 5 5 5 5 5 5 5 5 5 6 6 5 5 5 5 5 6 5 6 6 5 5 5 5 5 5 5 5 6 5 5 5 6 5 5 5 5 5 5 5 5 5 6 5 6 5 5 5 5 5 5 5 5 6 5 5 5 6 5 5 5 6 5 5 6 5 5 5 5 6 5 5 5 5 5 6 5 5 5 6 5 5 5 5 5 5 5 5 5 5 5 5 6 5 5 5 5 5 5 5 5 5 6 5 5 5 5 6 5 5 5 5 5 5 6 5 5 5 5 5 5 5 5 5 5 5 6 5 5 6 5 5 6 5 6 6 5 5 5 5 5 6 5 5 5 5 5 5 5 6 5 5 5 5 5 5 5 5 5 5 5 5 5 5 5 5 6 5 5 6 5 5 5 5 5 5 5 5 5 6 5 5 5 5 5 5 5 5 5 5 5 5 5 5 5 5 5 5 5 5 5 5 5 5 6 5 5 5 5 5 5 5 5 5 5 5 5 5 6 5 5 5 5 5 5 5 5 5 5 6 5 5 5 5 6 5 6 5 5 5 5 5 5 5 5 6 5 5 5 5 5 6 5 5 5 5 5 6 5 6 5 5 5 5 5 5 5 5 5 5 5 6 5 5 5 5 5 5 5 5 5 5 5 5 5 5 5 5 5 5 5 5 5 5 5 5 5 5 5 6 5 5 5 5 5 5 5 5 6 5 6 5 5 5 5 5 5 5 5 5 5 5 5 5 5 5 5 5 6 5 5 5 5 5 5 5 6 5 5 5 5 5 6 5 5 5 5 5 5 5 5 5 5 6 5 5 5 5 5 5 5 5 5 5 5 5 5 5 5 5 5 5 5 5 5 5 5 5 6 5 5 6 5 5 5 5 5 6 5 5 5 5 6 5 5 5 5 5 5 5 5 5 5 5 5 5 6 6 5 5 5 5 6 5 5 5 5 5 5 5 6 5 5 5 6 5 5 5 5 5 6 5 6 5 6 5 5 5 5 5 5 5 5 5 5 5 6 5 5 5 6 5 5 5 5 5 5 5 5 5 5 5 6 6 5 5 6 5 5 6 5 5 5 5 5 5 5 5 5 5 5 5 5 5 5 5 5 5 5 5 5 5 5 6 5 5 5 5 5 6 5 5 5 5 6 5 5 5 5 5 5 6 5 5 5 5 5 5 6 5 5 6 5 6 5 6 5 5 5 5 5 5 5 5 5 5 5 5 5 5 5 5 6 6 5 5 5 6 5 5 5 6 5 6 5 5 6 6 5 5 5 5 5 5 5 5 6 5 5 5 6 5 5 6 5 6 5 6 5 5 5 5 5 5 5 5 5 5 5 5 5 5 5 5 5 5 5 5 5 5 6 5 5 5 6 6 5 5 5 5 5 5 6 6 5 5 6 5 5 5 5 6 5 5 5 5 5 5 5 5 5 5 5 5 5 5 5 6 5 5 5 6 5 5 5 5 5 5 5 5 5 5 6 5 5 5 5 6 5 5 5 5 6 5 5 5 5 5 5 5 5 5 5 6 5 6 6 5 5 5 5 5 5 5 5 5 5 5 5 5 5 5 5 5 5 5 5 5 6 5 5 5 5 5 5 5 5 5 6 5 5 5 6 5 5 5 5 5 5 5 6 6 5 5 6 6 5 6 5 5 5 6 5 5 6 6 5 5 5 5 5 5 5 5 5 6 5 5 5 6 6 5 5 5 5 5 5 5 5 6 5 5 5 5 5 5 5 5 6 5 5 5 5 5 5 5 5 6 5 5 6 5 5 5 6 6 5 5 5 5 5 5 5 5 5 5 5 5 6 5 5 5 6 5 6 5 5 5 5 5 5 5 6 5 6 5 5 5 5 5 5 5 5 5 5 5 5 6 5 5 5 5 6 5 5 5 6 5 5 5 5 5 5 5 6 5 5 5 6 5 5 5 5 5 5 5 5 6 5 5 5 5 5 5 5 5 5 5 5 5 5 5 5 5 5 5 6 6 5 5 5 5 6 5 6 5 5 5 5 5 5 5 6 5 5 6 6 5 6 6 5 6 5 6 5 5 5 6 5 5 5 5 5 5 5 5 5 5 5 5 6 5 5 6 5 5 5 5 5 5 5 6 5 6 5 6 5 5 6 5 5 6 5 5 6 5 5 5 5 5 5 5 5 5 5 5 6 5 5 5 5 5 5 5 5 5 5 5 5 5 5 5 5 5 5 5 5 5 5 5 5 6 5 5 5 5 6 5 5 5 5 5 5 6 5 5 6 5 5 5 5 5 5 5 5 5 5 6 5 5 5 5 5 5 6 5 5 5 5 5 5 5 5 5 5 5 5 6 5 5 5 5 5 5 5 5 5 5 5 6 5 5 5 6 6 5 5 5 5 5 6 5 5 5 5 5 5 5 5 5 6 5 5 6 5 5 5 6 5 5 5 5 5 5 5 6 5 5 5 5 5 5 5 5 5 5 5 5 5 5 5 5 5 5 5 5 5 5 6 5 5 5 6 5 5 5 6 6 5 5 5 5 5 5 5 6 5 5 5 5 6 5 5 6 5 5 5 5 5 6 5 5 6 5 5 5 5 6 5 5 5 5 5 5 5 5 5 6 5 5 6 6 5 6 5 5 5 6 6 6 5 5 6 5 5 6 5 5 5 5 6 5 5 6 5 5 5 6 5 5 5 5 6 5 5 5 6 5 5 5 6 5 5 5 5 6 6 5 5 5 6 5 6 5 5 5 5 5 5 5 5 6 5 5 5 5 5 5 6 5 5 5 5 6 5 5 5 6 5 5 5 5 5 5 6 6 6 5 6 5 5 5 5 5 5 5 5 5 5 5 5 5 5 5 5 5 5 5 5 5 5 5 5 6 5 5 5 6 5 5 5 6 5 5 5 6 5 5 5 6 5 5 5 5 5 5 5 5 5 6 5 5 5 5 5 5 5 5 5 5 5 5 5 5 5 5 5 5 5 5 5 5 5 5 5 5 5 6 5 5 5 6 5 5 5 5 6 5 5 5 5 5 5 6 5 5 5 6 5 5 5 5 5 5 5 5 5 5 5 5 5 5 5 5 5 5 5 6 5 5 5 5 5 5 5 5 5 5 5 5 5 5 5 5 5 5 5 5 5 5 5 5 5 5 5 5 5 5 5 5 5 5 5 5 5 5 5 5 5 5 5 5 5 5 5 5 6 5 5 5 5 5 6 5 5 5 5 5 5 5 5 5 5 6 5 5 6 5 6 5 5 6 5 5 5 5 5 5 5 5 5 5 5 5 5 5 5 5 6 5 5 5 5 5 6 5 5 5 5 5 6 5 5 5 5 5 5 5 5 5 6 6 5 5 5 6 5 5 5 5 5 5 6 6 5 5 5 5 5 5 6 5 5 6 5 5 5 5 5 5 5 5 6 5 5 6 5 5 5 6 5 5 5 5 5 5 6 5 5 5 5 5 5 5 5 5 5 5 5 6 5 5 5 6 6 5 5 6 5 5 5 6 5 5 5 5 5 5 5 5 5 5 6 5 5 5 5 6 6 5 5 5 5 6 5 5 5 6 5 5 5 5 6 5 5 6 5 5 5 5 5 6 5 6 6 5 5 6 5 5 5 5 6 5 5 5 5 5 6 6 5 5 6 5 6 6 5 5 5 5 5 5 5 6 5 5 5 5 6 5 5 5 5 5 5 5 5 5 5 5 5 5 5 5 5 6 5 5 5 5 5 5 6 5 5 5 6 6 5 5 6 5 6 5 5 6 5 5 5 5 5 5 5 6 5 5 5 5 5 6 5 6 5 5 5 6 6 5 5 5 6 5 5 5 6 5 5 5 6 5 5 5 5 5 5 6 6 6 5 5 5 5 5 6 6 5 5 5 5 5 5 6 5 6 5 5 5 5 5 6 5 5 5 6 5 6 5 5 5 5 5 5 5 5 5 5 5 6 5 5 5 5 5 6 5 5 5 5 5 5 6 5 5 5 6 5 6 5 6 5 6 5 5 5 6 6 5 5 5 5 5 5 5 5 5 5 5 5 5 6 5 5 5 5 5 5 5 5 6 5 5 5 5 5 6 5 5 6 5 6 6 5 5 5 5 5 6 5 5 5 5 5 5 5 5 5 5 5 5 5 5 5 5 5 5 5 5 5 5 5 5 5 5 5 5 5 5 5 5 5 5 5 5 5 5 5 5 5 6 5 5 5 5 5 5 5 5 5 5 5 6 5 5 5 5 6 5 6 5 5 6 5 5 5 5 5 5 5 5 5 5 5 5 5 5 5 5 5 5 5 5 5 5 5 5 5 5 5 5 5 5 5 5 5 5 5 6 5 5 5 5 5 5 5 5 5 5 5 5 5 6 5 6 5 5 5 5 5 5 6 5 5 6 5 5 6 5 6 5 5 5 5 5 5 5 6 5 6 5 5 5 6 5 5 6 5 5 6 6 5 6 5 6 5 5 5 5 6 5 5 5 6 6 5 5 5 6 5 5 5 5 5 6 5 5 5 5 5 6 5 5 5 5 5 5 5 5 5 5 6 5 5 6 6 5 5 6 6 5 6 5 5 5 6 5 5 5 5 6 5 6 5 5 6 6 6 5 6 5 5 6 5 6 5 5 6 5 5 6 5 6 5 5 6 5 6 5 5 5 5 5 6 6 6 5 5 5 6 5 6 6 5 5 6 5 5 5 6 5 5 6 6 5 6 5 6 5 5 5 6 5 5 5 5 5 5 5 6 5 5 5 5 6 5 5 5 6 5 5 5 5 5 6 6 5 5 5 5 6 6 5 5 5 5 5 5 5 6 5 6 5 5 5 5 6 5 6 6 5 5 5 5 5 5 6 5 6 5 5 5 5 6 5 6 6 5 5 6 5 5 5 5 5 5 5 5 5 5 6 5 5 6 5 5 5 5 6 5 5 5 5 5 6 6 5 5 6 5 5 5 5 5 5 5 5 5 5 6 5 5 5 5 5 5 5 5 5 5 5 5 5 5 5 5 5 5 6 5 5 6 5 5 5 5 5 5 6 6 5 5 5 6 6 5 5 5 6 5 5 5 6 5 6 5 5 5 5 6 6 5 5 5 5 6 5 6 5 6 6 5 5 6 6 5 5 5 5 5 5 5 5 5 5 5 5 6 5 5 6 5 5 5 5 5 5 5 6 5 5 5 5 6 5 5 5 5 5 5 5 5 6 5 5 6 6 5 5 5 5 6 5 6 5 5 5 5 5 5 5 5 5 6 5 5 6 6 5 5 5 6 5 5 6 5 5 5 6 5 5 5 5 6 6 5 5 5 5 6 5 5 5 5 5 5 5 5 5 5 5 6 5 5 5 6 5 6 5 5 5 6 5 5 6 6 5 5 6 6 6 5 6 5 5 6 5 6 5 6 6 5 5 5 6 5 6 5 6 5 5 5 5 5 6 5 5 5 5 5 6 6 5 5 5 5 5 6 5 5 5 5 5 6 5 5 5 5 5 5 5 5 5 6 5 5 5 6 6 6 5 5 5 6 5 6 5 5 5 5 6 5 5 5 5 5 5 5 5 5 5 5 5 5 5 5 5 6 5 5 5 5 5 5 5 5 5 5 5 6 6 5 5 6 5 5 5 6 5 5 5 5 5 5 5 5 5 5 5 5 5 5 6 6 5 5 5 5 5 6 5 5 5 5 5 5 5 5 5 6 5 5 5 6 5 5 5 5 5 5 5 6 6 5 5 5 5 5 5 5 5 5 5 5 5 5 5 5 5 5 5 5 5 5 5 5 5 5 5 5 5 5 5 5 5 6 5 5 5 5 5 5 5 5 6 5 6 5 6 5 5 6 5 5 6 5 6 6 5 5 5 6 6 5 5 5 5 5 5 5 5 5 5 5 5 5 5 5 5 5 5 5 6 5 5 5 5 5 5 5 6 5 5 5 5 5 5 5 5 6 5 5 5 6 6 5 6 5 5 5 5 5 5 5 5 5 5 5 6 5 5 5 5 5 5 5 5 5 5 5 5 5 5 6 5 5 5 5 5 5 6 5 5 5 5 5 5 5 5 5 5 6 5 5 5 5 5 5 5 5 5 5 6 5 6 5 5 5 5 5 5 5 5 5 5 5 5 5 5 6 5 5 5 5 5 5 5 5 5 5 5 5 5 5 5 6 5 5 5 6 5 5 5 5 5 5 5 5 5 6 5 5 6 5 6 5 5 5 6 5 5 5 5 5 6 5 5 5 5 5 5 5 6 5 5 6 5 5 5 5 5 5 6 5 5 6 5 5 5 6 5 5 5 5 5 5 6 5 5 5 5 5 5 5 5 5 5 5 5 5 5 5 5 5 5 6 5 6 5 5 6 5 5 5 5 5 5 5 5 5 5 5 5 5 5 6 5 5 6 5 5 5 5 6 5 5 5 5 5 5 6 5 5 5 6 5 5 6 5 5 5 6 5 6 6 5 5 5 6 5 5 5 6 6 5 5 6 6 5 5 5 5 6 6 5 5 5 5 5 6 6 5 6 5 5 6 5 5 5 5 5 5 5 6 6 5 5 5 5 5 5 5 5 5 5 5 5 5 5 5 5 5 5 5 6 5 5 5 5 5 6 5 5 5 5 6 5 5 5 5 5 5 6 5 5 5 5 5 5 5 6 5 5 5 5 5 6 5 6 6 5 5 6 5 6 5 6 5 6 5 5 5 5 5 5 5 5 6 5 5 5 6 5 5 5 5 5 5 5 5 5 5 5 5 5 5 5 5 5 5 5 5 5 5 5 5 5 6 5 5 5 5 5 5 5 5 5 6 5 6 5 5 5 5 5 5 5 5 5 5 5 5 6 5 5 6 5 5 5 6 5 5 5 6 5 5 5 5 6 5 5 6 5 5 5 5 5 5 5 5 5 5 5 5 5 5 5 5 6 5 5 5 5 5 5 5 5 6 5 5 5 6 5 5 5 5 5 5 5 5 5 5 5 5 5 5 5 5 5 5 5 5 5 5 5 5 5 6 5 6 5 5 5 5 6 5 5 6 5 5 5 5 5 5 5 5 5 5 5 5 6 5 5 5 6 5 6 5 5 5 5 5 5 5 6 5 6 5 5 6 5 5 5 5 5 5 5 5 5 5 5 6 5 5 5 5 6 5 5 5 5 5 5 5 5 5 5 5 5 5 5 6 5 5 5 5 5 5 5 5 5 5 5 5 5 5 5 5 5 5 5 5 5 5 5 5 5 5 5 5 6 5 5 6 6 5 5 5 5 5 5 6 5 5 5 5 5 5 5 5 5 5 5 5 5 5 5 5 5 5 5 5 5 5 5 5 5 5 5 5 5 5 5 5 5 5 5 5 5 5 5 5 5 5 5 5 5 5 5 5 5 5 5 5 5 5 5 5 5 5 5 5 5 5 5 5 5 6 5 5 5 5 5 5 5 5 5 5 5 5 5 5 5 5 5 6 5 5 5 5 6 5 5 5 5 5 6 5 5 6 5 6 6 5 6 6 5 6 5 5 5 5 5 6 5 6 5 5 5 5 5 5 5 6 6 5 6 5 5 5 5 5 5 5 5 5 5 5 5 5 5 5 5 5 5 5 5 5 5 5 5 5 6 5 5 5 6 5 5 5 5 5 5 5 5 5 5 6 5 5 5 6 5 5 6 5 5 5 5 5 5 5 6 5 5 5 5 6 5 5 6 5 5 5 5 5 5 5 5 5 5 5 6 5 5 5 5 5 5 5 5 5 5 5 5 6 5 5 5 5 5 5 5 5 5 5 5 5 5 5 5 5 6 5 5 5 6 5 5 5 5 5 5 5 5 5 5 5 5 5 5 5 6 6 5 5 5 5 5 5 5 5 5 6 5 6 5 5 5 5 5 5 6 5 5 5 5 5 5 5 5 6 6 5 5 5 5 5 5 5 5 5 5 5 5 5 6 5 5 5 5 5 5 6 5 5 5 5 6 5 5 5 5 5 5 5 5 5 5 5 5 5 5 5 5 5 5 5 6 5 5 6 5 5 6 5 5 5 5 6 5 5 5 5 5 5 5 5 6 5 5 6 5 5 5 5 5 5 5 6 5 5 5 5 6 5 5 6 5 5 5 6 5 5 5 5 6 5 5 5 5 5 5 6 5 6 5 5 5 5 5 6 6 5 5 5 5 6 5 5 6 5 5 5 5 5 5 5 5 5 5 5 6 5 5 5 5 5 5 5 5 5 5 6 5 5 5 5 5 5 5 5 5 5 5 5 5 5 5 5 5 5 5 5 5 5 5 5 5 5 5 5 5 5 6 5 6 6 5 6 5 5 5 5 5 6 5 5 5 6 5 5 5 5 5 6 5 5 5 5 6 5 6 5 6 5 5 5 5 5 5 5 5 5 5 6 5 6 5 5 5 6 5 6 5 5 5 5 6 6 6 5 5 5 5 5 5 5 5 5 5 5 6 5 5 6 6 5 5 5 5 6 5 5 5 5 5 5 5 5 5 5 5 5 5 5 6 5 5 5 5 5 5 5 5 5 5 5 5 5 5 6 5 5 5 5 5 5 6 5 5 5 6 6 5 6 5 5 6 5 5 6 6 5 5 5 6 5 5 6 5 5 5 5 5 5 5 5 6 5 6 5 5 5 6 5 6 6 5 5 6 5 5 5 5 5 5 5 5 5 5 5 6 5 5 5 5 5 5 5 5 5 5 5 5 6 5 6 5 6 5 5 5 5 5 5 5 5 5 5 5 5 5 5 5 5 5 6 5 5 5 5 5 5 5 5 6 5 5 5 5 5 5 5 5 5 5 5 5 5 5 5 5 6 5 5 5 5 6 5 5 5 5 5 5 5 5 5 5 6 5 5 5 5 5 5 6 5 5 5 5 5 5 5 5 5 5 5 5 5 5 5 6 5 5 5 5 5 5 5 5 6 5 5 6 5 5 6 5 6 6 5 6 6 5 5 6 5 5 5 5 5 5 5 5 5 5 5 6 5 5 6 5 5 5 5 5 5 5 5 5 5 5 5 5 5 6 5 5 5 5 5 5 5 5 5 6 5 5 5 5 6 5 5 5 5 5 6 5 5 5 6 5 6 5 6 5 6 5 5 5 6 5 5 5 5 6 5 6 5 6 5 6 5 6 5 5 5 6 6 5 5 6 6 5 5 5 5 5 6 5 5 5 6 5 5 6 5 5 5 6 5 5 5 5 6 6 5 5 6 5 5 5 6 5 5 5 5 5 5 6 5 5 6 5 6 5 6 5 5 5 5 5 5 5 5 5 5 5 6 5 5 5 6 5 5 5 6 5 5 5 5 5 5 5 5 5 5 5 5 5 5 5 5 5 5 6 5 6 5 6 5 6 5 5 5 5 5 6 5 5 5 5 5 5 6 5 6 5 5 6 5 5 5 6 5 5 5 5 5 5 5 5 5 5 5 5 5 5 5 5 5 5 5 6 5 6 5 5 5 5 6 5 5 5 6 5 5 5 5 5 5 5 5 5 6 5 6 5 5 6 5 5 5 5 5 6 5 6 6 5 5 5 6 6 5 6 5 5 6 5 5 5 5 6 5 5 5 5 5 5 5 5 5 5 6 5 5 5 5 5 5 5 5 5 5 5 5 6 5 5 5 5 5 6 5 5 5 5 6 5 6 5 5 6 5 5 5 5 6 5 5 5 5 5 5 5 5 5 5 5 5 6 5 6 5 5 5 5 6 5 5 5 6 5 6 5 6 5 5 5 5 5 6 5 5 5 5 5 5 5 6 5 5 5 6 5 5 5 5 6 5 5 5 6 5 5 5 5 5 5 5 6 5 6 5 5 5 5 5 5 5 5 5 5 5 6 5 6 5 5 6 5 5 5 6 5 5 5 5 5 5 5 5 5 5 5 5 5 5 5 5 5 5 5 5 5 5 5 5 5 5 5 5 5 5 5 5 5 5 5 5 5 5 5 5 5 5 5 5 5 5 5 6 5 5 5 5 5 5 5 5 5 5 5 5 5 5 6 5 5 5 5 5 5 5 5 5 5 5 5 5 5 5 5 5 5 5 5 5 5 5 5 5 5 5 5 6 5 5 6 5 5 5 5 5 5 5 5 5 5 6 6 5 6 5 5 5 5 6 6 5 6 5 5 5 6 5 5 6 5 5 5 5 5 5 5 5 5 5 6 5 5 5 5 5 6 5 6 5 5 5 6 5 6 5 5 5 5 5 5 6 5 6 5 5 5 5 5 5 5 5 5 6 5 5 5 5 5 5 5 5 5 5 5 5 5 5 6 5 5 5 6 5 5 5 5 5 6 5 5 5 5 5 5 5 5 5 6 5 5 5 5 6 5 5 5 5 5 5 5 5 5 5 5 5 5 5 5 5 5 5 5 5 5 5 5 5 5 5 5 6 5 5 5 5 5 5 5 5 5 5 5 5 5 5 5 5 5 5 5 5 5 5 5 5 5 5 5 5 5 5 5 5 5 5 5 5 5 5 5 5 5 5 5 6 5 5 5 5 5 5 5 5 5 5 5 5 5 5 5 5 5 5 5 5 5 5 5 5 5 5 5 5 5 5 5 5 5 5 5 5 5 5 5 5 5 6 5 5 5 5 5 5 5 5 5 5 5 5 5 5 6 5 5 5 5 6 5 5 5 5 5 6 5 5 5 5 5 5 5 6 5 5 5 5 5 5 6 5 5 5 5 5 5 5 5 5 5 5 5 5 5 5 6 5 5 5 5 6 5 5 5 5 5 5 5 5 5 5 5 5 5 5 6 5 6 5 5 5 6 6 5 5 5 5 5 5 6 5 6 5 5 5 5 5 5 5 5 5 5 5 5 5 5 5 5 6 5 5 5 5 5 6 5 5 6 5 5 5 5 5 6 5 5 6 6 5 5 5 5 5 5 5 5 6 5 5 5 6 6 6 5 6 5 5 5 5 5 5 6 5 6 5 5 6 5 5 5 5 5 5 5 5 6 5 6 5 5 5 6 5 5 5 6 5 5 5 5 6 5 5 5 6 5 5 5 5 5 5 5 5 5 5 5 5 5 5 6 5 6 5 5 5 5 5 5 6 5 6 5 6 5 5 5 5 5 5 5 5 5 5 5 5 5 5 5 5 5 5 5 5 5 5 5 5 5 6 5 5 5 5 5 6 5 5 5 5 6 5 5 6 5 5 5 5 6 5 5 6 5 6 5 5 5 5 6 5 6 5 5 5 5 5 5 5 6 5 6 5 5 6 6 5 5 6 6 5 5 5 6 5 5 6 5 6 5 5 5 5 5 5 5 5 5 5 5 5 5 6 6 5 5 5 5 5 5 5 5 5 5 5 5 5 5 5 5 5 5 5 5 5 5 5 5 5 5 5 5 5 5 5 5 6 5 5 5 6 5 5 6 5 6 6 5 5 6 6 5 5 5 5 5 5 6 6 5 6 5 5 5 6 5 5 6 5 5 5 5 5 5 5 5 5 5 5 5 5 5 5 5 5 5 5 5 5 5 5 5 5 5 5 5 5 5 5 5 5 5 5 6 5 6 5 6 5 5 6 5 5 5 5 5 5 5 5 5 5 5 5 5 5 5 5 5 6 5 5 5 5 5 5 5 5 5 6 5 5 5 5 5 5 5 6 5 5 6 5 5 5 5 5 5 5 5 5 5 6 5 5 5 5 5 5 5 5 5 5 5 5 5 6 5 5 6 5 5 5 5 5 5 5 5 5 5 6 5 5 5 5 5 5 5 5 5 5 5 5 5 5 5 5 5 6 5 5 5 5 5 5 5 5 5 5 5 5 6 5 5 5 5 5 5 5 6 5 6 5 5 5 5 5 5 5 6 5 5 6 5 5 5 5 5 6 5 5 5 5 5 6 5 5 5 5 5 5 5 5 5 5 5 5 5 5 5 5 5 5 5 5 5 5 5 5 5 5 5 5 5 5 6 6 5 5 5 5 5 5 5 6 5 5 5 5 5 5 5 5 5 6 5 5 6 5 5 5 5 5 5 6 5 6 5 5 5 5 5 5 5 5 6 5 6 5 5 5 5 5 5 6 5 5 5 5 5 5 5 6 5 5 5 5 5 5 5 5 6 5 5 5 5 5 5 5 5 6 5 5 5 6 5 5 5 5 6 5 5 5 6 6 5 5 5 5 5 6 6 5 5 5 6 6 5 5 5 5 6 5 6 5 6 5 5 5 5 5 5 5 5 5 5 5 5 5 5 6 5 5 5 5 5 5 5 5 5 5 6 5 5 6 6 6 5 5 5 5 6 5 5 5 5 5 6 5 5 5 5 5 5 5 5 5 5 5 6 5 5 5 6 6 5 5 5 5 5 5 5 6 5 5 6 5 6 5 5 5 5 6 5 5 5 6 5 5 6 5 6 5 5 5 5 5 5 5 5 5 5 5 5 5 5 5 5 6 5 5 5 5 5 5 5 5 5 5 5 5 6 5 6 5 5 5 5 5 6 5 5 5 5 5 5 5 5 5 5 5 6 5 6 5 5 6 5 5 5 5 5 6 5 5 5 5 5 5 5 5 5 5 6 5 5 5 5 5 5 5 5 5 5 5 5 5 6 5 5 5 6 5 5 5 5 5 6 5 5 5 5 5 5 6 5 6 6 6 5 5 5 5 5 6 5 5 5 5 5 5 6 5 6 6 5 5 6 6 5 6 5 5 6 5 5 5 5 5 5 5 5 5 5 5 5 5 5 5 5 5 5 5 5 6 5 5 5 5 5 5 5 5 5 5 5 5 5 5 5 5 5 5 5 5 6 5 5 5 5 5 6 5 5 5 5 5 5 5 6 5 5 6 5 5 5 5 5 5 5 5 5 5 5 5 5 5 5 5 5 6 5 5 5 5 6 5 5 6 5 6 5 5 5 5 5 5 5 5 5 5 5 5 5 6 5 5 5 5 5 5 5 5 6 5 5 5 5 6 5 5 5 5 5 5 5 6 5 5 5 5 5 5 5 5 5 5 5 5 5 5 5 5 5 6 5 5 5 5 5 6 5 5 5 5 5 5 6 5 5 5 6 5 5 5 5 5 6 6 5 5 5 5 6 5 6 5 6 5 5 5 5 5 5 5 5 5 5 5 5 6 6 5 6 5 5 5 5 5 5 5 5 5 5 5 5 5 5 5 5 5 5 5 5 5 5 6 5 5 5 5 5 5 5 6 5 6 5 5 6 6 5 5 5 5 6 5 5 5 5 5 5 6 5 5 5 5 5 5 6 5 5 5 5 5 6 5 5 5 5 5 5 5 6 6 5 5 5 5 5 5 5 5 6 5 6 5 5 6 6 6 5 5 5 5 5 5 5 6 5 6 5 6 6 5 6 6 5 5 5 6 6 5 5 5 5 5 6 5 6 6 6 5 5 5 5 6 5 6 5 5 5 5 5 6 6 5 5 5 5 5 6 5 5 5 5 5 6 5 5 5 5 5 5 5 5 6 6 5 6 5 5 6 5 5 5 6 6 6 5 6 5 6 6 5 5 6 5 5 5 5 5 5 5 5 5 5 5 5 5 6 6 5 6 5 6 5 5 5 5 6 6 5 5 5 5 6 5 5 5 5 5 5 5 5 5 5 5 5 5 6 5 5 6 5 5 5 5 5 5 5 5 5 5 5 5 5 5 5 5 5 5 5 6 5 5 5 6 5 5 5 6 5 5 6 5 6 5 6 5 5 5 5 5 5 5 5 5 5 5 6 5 5 5 5 6 5 5 6 5 5 5 5 5 5 6 5 5 6 5 5 5 5 5 5 6 5 5 6 5 5 6 5 5 6 5 5 5 5 5 5 6 5 5 5 5 6 5 5 5 6 5 5 5 5 5 5 5 5 5 5 5 5 5 6 5 5 5 6 6 5 5 6 5 5 6 6 5 5 5 5 5 5 6 5 5 6 5 5 5 5 5 5 5 5 6 5 5 6 6 5 5 5 5 6 5 5 5 5 6 5 5 5 5 5 5 5 5 5 5 5 5 5 5 5 5 5 5 5 5 5 5 5 5 5 5 5 6 5 5 5 6 5 5 5 5 5 6 5 5 5 5 5 5 5 5 5 5 5 5 5 5 5 6 6 5 5 5 5 5 5 5 5 5 5 5 5 6 6 5 5 6 5 5 5 6 5 5 5 5 5 5 5 5 5 5 5 5 5 5 5 5 5 5 5 5 5 5 5 5 5 6 5 5 5 5 5 5 5 5 5 5 5 5 5 6 5 5 5 5 5 5 5 5 5 5 5 5 5 6 5 5 5 5 5 5 5 5 5 5 5 5 5 5 5 5 5 5 5 6 5 5 5 5 5 5 5 5 6 5 5 5 6 5 5 5 5 5 5 5 5 5 5 5 5 5 5 5 5 5 5 5 5 5 5 5 5 5 6 5 5 5 6 5 5 5 5 5 5 5 5 5 5 5 5 6 5 5 5 5 5 6 5 5 6 5 5 6 5 6 5 5 5 6 5 5 5 6 5 5 5 5 6 5 5 5 5 5 5 5 6 6 5 5 5 6 5 5 5 6 5 5 5 5 5 5 5 5 5 6 5 5 5 5 5 5 5 5 6 5 5 5 5 5 5 5 5 5 5 6 5 6 5 5 5 5 5 6 6 5 5 5 5 5 5 5 6 5 5 5 5 5 5 5 5 5 6 5 5 5 5 5 5 5 5 5 6 5 5 5 6 5 5 5 6 5 6 5 5 5 5 5 5 5 5 5 5 5 5 5 5 5 5 5 5 5 5 5 5 5 5 5 5 5 5 5 5 5 5 5 5 5 5 5 5 5 5 5 5 6 5 5 5 5 5 5 5 5 5 5 5 6 5 5 5 5 5 5 5 5 5 5 5 5 5 5 5 5 5 5 5 5 5 5 5 5 5 5 5 5 5 5 5 5 5 5 5 5 5 5 5 5 5 5 5 5 5 5 5 5 5 5 5 5 5 5 5 5 5 5 5 5 5 5 5 5 5 5 6 6 5 5 5 5 5 6 5 6 5 5 6 5 5 5 5 5 5 5 5 5 5 6 5 5 5 5 5 5 5 5 5 5 5 5 5 5 5 5 5 5 5 5 5 5 5 5 5 5 5 5 5 6 5 5 6 5 5 5 5 5 5 5 5 5 5 5 5 5 6 5 5 5 5 5 6 5 5 5 5 6 5 5 5 6 5 5 5 6 5 5 5 5 5 5 5 6 5 5 6 5 5 5 5 5 5 5 5 5 5 5 6 5 5 5 5 5 5 5 6 5 5 5 5 5 5 5 5 5 5 5 5 5 5 5 5 5 5 5 5 5 5 6 5 5 5 6 5 5 5 5 6 5 5 5 5 5 5 5 5 6 6 5 5 5 5 5 5 5 5 5 5 5 5 5 5 5 5 5 5 5 5 5 5 5 5 5 5 5 5 5 5 6 6 5 5 5 5 5 5 6 6 5 5 5 5 5 5 5 5 5 5 5 5 5 5 5 5 6 5 6 5 6 5 6 6 5 5 6 5 5 5 5 5 5 5 5 5 5 5 5 5 5 5 6 6 6 5 5 5 6 5 5 5 5 5 5 5 5 6 6 5 5 5 5 5 5 5 5 5 6 5 6 6 5 5 5 5 5 6 5 5 5 5 5 5 5 5 5 5 5 6 5 5 5 5 5 5 5 5 6 5 5 5 5 5 5 5 5 5 5 5 5 5 5 5 5 5 5 6 5 5 5 5 5 5 5 5 5 5 6 5 6 5 5 5 5 5 5 5 5 5 5 5 6 5 5 6 5 5 5 5 5 5 5 6 5 5 5 6 5 5 5 5 5 5 5 5 5 6 5 5 5 5 5 6 6 5 6 6 5 5 5 5 5 5 5 5 5 6 5 5 6 5 5 5 5 5 5 5 5 5 5 5 5 5 5 5 5 5 5 5 5 6 5 5 6 5 5 5 5 5 6 5 5 5 5 5 5 5 5 5 5 5 5 5 5 5 5 6 5 5 5 5 5 5 5 5 5 5 5 5 5 5 5 6 5 5 5 5 5 5 5 5 6 5 5 5 5 6 6 5 6 5 5 5 5 5 6 5 5 5 5 5 5 5 5 5 6 5 5 5 5 5 5 5 5 5 5 5 5 5 5 5 5 5 5 5 5 5 5 5 5 5 5 5 5 5 5 5 5 5 5 5 5 5 5 5 5 5 5 5 5 5 5 5 5 5 5 5 5 5 6 5 5 5 5 5 5 5 5 5 5 5 5 5 5 5 5 5 5 5 5 5 5 5 5 5 6 6 5 5 5 5 6 5 5 5 6 5 5 5 5 6 5 5 5 5 5 5 5 5 6 5 5 5 5 5 6 5 5 5 5 5 5 5 6 5 6 5 5 6 5 5 5 5 5 5 5 5 5 6 5 5 6 5 5 6 6 5 5 5 5 5 5 5 5 5 5 5 5 5 5 5 5 5 6 5 5 5 5 5 5 5 5 5 5 6 5 5 5 5 6 5 5 5 5 5 5 5 5 6 5 5 5 5 5 6 5 5 5 5 6 5 5 5 5 5 5 6 5 5 6 5 5 5 6 5 5 5 5 5 5 5 5 5 5 6 6 5 5 5 5 5 5 5 5 5 5 5 5 5 5 5 6 5 5 6 5 5 5 5 5 5 5 6 5 5 5 5 6 5 5 5 6 5 5 5 5 5 5 5 6 5 5 5 6 5 5 6 5 5 5 5 5 6 6 5 5 5 5 5 5 6 5 5 5 5 5 5 5 6 5 5 5 5 5 6 5 5 5 5 5 6 5 5 5 6 5 5 5 5 5 5 5 5 5 5 5 5 5 5 5 5 5 6 5 5 5 5 5 5 5 5 5 5 5 5 6 5 5 5 6 5 5 5 5 5 6 5 6 5 5 5 5 5 5 5 5 5 5 5 6 5 5 5 5 5 5 6 5 5 5 5 5 5 5 5 5 5 5 6 5 5 5 5 5 5 5 5 5 6 5 5 5 6 5 5 5 5 5 6 5 5 5 5 5 5 5 5 6 6 5 5 6 5 5 5 5 5 5 5 5 6 5 6 5 5 5 5 5 5 5 5 5 5 5 5 5 5 5 5 5 5 5 5 5 5 6 5 5 5 5 5 5 5 5 5 5 5 5 5 5 5 5 5 5 5 5 5 5 5 6 5 5 5 5 6 5 5 5 5 5 5 5 5 6 5 5 5 5 5 5 5 5 6 5 5 5 5 5 5 5 5 5 5 5 5 6 5 5 5 6 5 5 5 5 5 5 6 5 5 5 5 5 5 5 5 5 6 5 5 6 5 6 5 5 6 5 5 5 6 5 5 5 5 5 6 5 6 5 6 5 5 5 5 6 6 5 5 5 5 5 5 5 5 6 5 5 5 5 5 6 5 5 5 5 5 5 5 6 5 5 5 5 5 5 5 5 5 5 5 5 5 5 5 5 5 5 5 5 5 5 5 6 5 6 5 5 5 5 5 5 5 5 5 5 5 5 5 5 5 5 5 5 5 5 5 5 5 5 5 5 5 5 5 5 5 5 5 5 5 5 6 5 5 6 5 5 5 5 5 6 5 5 6 5 6 5 5 6 5 5 5 5 5 5 5 6 5 5 5 5 6 5 5 5 5 5 5 6 5 5 5 6 5 5 5 5 5 5 5 5 5 5 6 5 5 5 5 5 6 6 5 5 5 5 5 5 6 5 6 5 5 5 5 5 5 6 5 5 5 6 5 5 5 6 5 5 5 5 5 5 6 5 5 5 6 5 5 5 5 5 5 5 6 5 5 5 5 6 5 5 5 5 5 5 6 5 5 5 5 5 5 6 5 5 5 5 5 6 5 5 5 5 5 5 5 5 5 5 5 5 5 5 5 5 5 5 5 5 5 5 5 5 5 5 5 5 5 5 5 5 5 5 5 5 5 5 5 5 5 5 5 5 5 5 5 5 5 5 5 5 5 5 5 5 5 5 5 5 5 5 6 5 5 5 5 5 5 5 6 5 6 5 5 6 5 5 5 6 5 5 5 5 5 6 5 5 6 5 6 6 5 5 5 6 5 5 5 5 5 5 5 5 5 5 5 5 5 5 5 5 6 5 5 5 5 6 5 5 5 6 5 6 5 5 5 5 6 5 5 5 5 6 5 5 5 5 5 5 5 6 5 5 5 5 5 5 5 5 5 6 5 5 5 5 5 5 5 5 5 6 5 5 6 5 5 5 5 5 5 6 5 5 5 6 5 5 5 5 6 5 5 6 5 5 6 5 5 5 5 5 6 5 5 5 5 5 5 5 5 5 5 5 5 5 5 5 5 5 5 5 5 6 5 5 5 6 5 5 5 5 5 5 5 5 5 5 5 6 6 5 5 5 6 5 6 5 5 5 5 5 5 5 5 5 5 5 5 5 5 5 5 5 5 5 5 5 5 6 5 5 5 5 5 5 6 5 5 5 5 5 5 6 5 5 5 5 5 6 5 5 5 5 5 5 5 6 5 6 5 5 5 6 5 5 5 5 5 5 5 5 5 6 6 5 5 5 5 5 5 6 5 5 5 5 6 5 5 5 5 5 5 5 6 5 5 5 5 5 5 5 5 5 5 5 5 5 5 5 5 6 5 5 5 5 5 5 5 5 5 5 5 5 5 6 5 5 5 6 6 5 5 6 5 5 5 5 6 5 5 5 6 5 5 5 5 5 6 5 5 6 5 5 5 6 6 5 5 6 5 5 5 5 5 5 5 5 6 5 5 5 5 5 5 5 5 5 5 5 5 5 5 6 5 5 5 5 5 5 6 5 5 5 6 5 5 5 5 5 5 5 5 5 5 6 5 5 5 5 5 5 5 5 5 5 6 5 5 5 5 5 5 5 5 5 5 5 5 5 5 5 5 5 5 5 5 5 5 5 5 5 5 5 5 5 5 5 5 5 5 5 5 6 5 5 5 5 5 5 5 5 5 5 5 5 5 5 5 6 5 5 5 5 5 5 5 5 6 5 5 5 5 5 5 5 5 5 5 5 5 5 5 6 6 5 5 5 5 5 5 5 5 6 5 5 5 5 5 5 5 5 5 5 5 5 5 5 5 5 5 5 5 5 5 5 6 5 5 5 5 5 5 5 5 5 5 5 5 5 5 5 5 5 5 5 5 5 5 5 5 5 5 5 5 5 5 5 5 5 5 5 5 5 5 5 5 6 5 6 5 5 5 5 5 5 5 5 5 5 6 5 5 5 5 5 5 5 5 5 5 5 5 5 5 5 5 5 5 5 5 5 5 5 5 5 5 5 5 5 5 5 5 5 5 5 5 5 5 5 5 5 5 5 5 5 5 5 5 6 5 5 6 5 5 5 5 5 6 5 5 5 5 5 5 6 5 5 5 5 5 5 6 5 5 5 5 6 5 5 6 5 5 5 5 5 5 5 5 5 5 5 5 5 5 5 6 5 5 5 5 5 5 5 6 5 5 5 6 5 5 5 5 5 5 5 5 5 5 5 5 5 5 5 5 5 5 5 5 5 5 5 5 6 5 5 5 5 5 5 5 5 6 5 5 5 6 5 5 5 5 5 5 5 5 5 5 5 5 5 5 5 5 5 5 5 5 5 5 5 5 5 5 5 5 6 5 5 5 5 5 5 5 5 5 5 5 5 5 5 5 5 5 5 5 5 6 5 5 5 5 5 5 5 6 5 5 5 5 6 5 5 5 5 5 5 5 5 5 5 5 5 5 5 5 5 5 5 5 5 5 5 5 5 5 5 5 5 5 5 5 5 5 5 5 5 5 5 5 5 5 5 5 5 5 5 5 5 5 5 5 5 5 5 5 5 5 5 5 5 5 5 6 5 5 5 5 5 5 5 5 5 5 5 5 5 5 5 5 5 5 5 5 5 5 5 5 5 5 5 6 6 5 5 6 5 6 5 5 5 5 5 5 5 6 5 5 5 6 5 5 5 5 5 5 5 5 5 5 5 5 5 5 5 5 5 5 5 6 5 5 5 5 5 5 5 5 5 5 5 5 5 5 5 5 5 5 5 5 5 5 5 5 5 5 5 6 5 5 5 5 5 5 5 5 5 5 5 5 5 5 5 5 5 5 5 5 5 5 5 5 5 5 5 5 5 5 5 5 5 5 6 5 5 5 5 5 5 5 5 5 5 5 5 5 5 5 5 5 5 5 5 5 5 5 5 5 5 5 5 5 6 5 5 5 5 5 5 6 5 5 5 5 5 5 5 5 5 5 5 5 5 5 5 5 5 5 5 5 5 5 5 5 5 5 5 5 5 5 5 5 5 5 5 5 5 5 5 5 5 5 5 5 5 5 5 5 5 5 5 5 5 5 5 5 5 5 5 5 5 5 5 5 5 5 5 5 5 5 5 5 5 5 5 5 5 5 5 5 5 6 5 5 6 5 5 5 5 5 5 5 5 5 5 5 5 5 5 5 5 5 5 5 5 5 5 5 5 5 5 5 5 5 5 5 5 5 5 5 5 5 5 5 5 5 5 5 5 5 5 5 5 5 5 5 5 5 5 5 5 5 5 5 5 5 5 5 5 5 5 5 5 5 5 5 5 5 5 5 5 5 5 5 5 5 6 5 5 5 5 5 5 6 5 5 6 5 5 5 5 5 5 5 5 5 5 5 5 5 5 5 5 5 5 5 5 5 5 5 5 5 5 5 5 5 5 5 5 6 6 5 5 6 5 5 6 5 5 5 5 5 5 5 5 5 5 5 5 5 5 5 6 5 5 5 5 5 6 5 5 5 6 6 5 5 6 5 6 5 5 6 5 5 5 6 6 5 5 5 5 5 6 5 5 5 5 5 5 5 5 5 5 5 5 5 6 5 5 5 5 6 6 5 5 5 5 5 5 5 5 5 5 5 5 5 5 5 5 5 5 5 5 5 5 5 5 5 5 5 5 5 5 5 5 5 5 5 5 5 5 6 5 5 6 5 5 5 5 5 5 5 5 5 6 5 5 6 5 5 5 5 5 5 5 5 5 6 5 5 5 6 5 5 6 5 5 5 6 5 5 5 5 6 5 5 5 5 5 5 5 5 5 5 5 5 5 5 6 5 5 5 5 6 5 5 
</DataArray>
<DataArray type="Float64" Name="stress" NumberOfComponents="9" format="ascii">
-468.33322154736015 1846.9459933687267 0 1846.9459933687267 -1.5402887677846593 0 0 0 0 13.382283773643545 4745.2235344404453 0 4745.2235344404453 -5772.6020000666613 0 0 0 0 -893.81252116554242 1985.8642876058875 0 1985.8642876058875 128.20073461568973 0 0 0 0 0.16593144630314782 2297.1543932097193 0 2297.1543932097193 2979.5019895237019 0 0 0 0 -10.035172077074833 14.723869920111611 0 14.723869920111611 -6.9118898498633712 0 0 0 0 959.1718995731062 1055.9264674256992 0 1055.9264674256992 317.34643046571 0 0 0 0 1124.7853565770201 2096.0886897474738 0 2096.0886897474738 -2110.573339967319 0 0 0 0 0.86601508973399177 2670.1327111779101 0 2670.1327111779101 -976.88247002667777 0 0 0 0 -34.424943083547987 1870.8030997749011 0 1870.8030997749011 338.84565301809403 0 0 0 0 -1513.5078219792922 4082.6130087432975 0 4082.6130087432975 -2147.8301823252996 0 0 0 0 -1459.1995861421747 3232.7769057357655 0 3232.7769057357655 -2160.8107096598969 0 0 0 0 634.0203538979822 2373.7318610701541 0 2373.7318610701541 658.42094879470824 0 0 0 0 415.59879828921112 1408.1326475996611 0 1408.1326475996611 -214.61367717351823 0 0 0 0 -12.388465477214424 17.070823393228039 0 17.070823393228039 -11.439171891365987 0 0 0 0 225.1368647718482 3203.1402297685199 0 3203.1402297685199 -7111.6330176921911 0 0 0 0 990.18604805981158 2028.2627256587184 0 2028.2627256587184 -5307.577308205131 0 0 0 0 -23.899473592408697 30.207233180602685 0 30.207233180602685 -15.836917169112496 0 0 0 0 -4811.2553275193932 2269.4701632913493 0 2269.4701632913493 2260.1826344791698 0 0 0 0 -2867.1804716853885 2881.9232882379092 0 2881.9232882379092 -1716.8204490478383 0 0 0 0 -1088.1491210914974 2331.0435224544344 0 2331.0435224544344 -1741.2146803916112 0 0 0 0 -2852.9844195512283 3548.2094776295107 0 3548.2094776295107 -703.91973063495243 0 0 0 0 142.36110634852776 3075.2115330917186 0 3075.2115330917186 -1543.9005364681943 0 0 0 0 -9.1607312475741196 13.485745386487565 0 13.485745386487565 -5.6799192155738183 0 0 0 0 -143.81230642262381 297.35617466994154 0 297.35617466994154 -1043.1885665608752 0 0 0 0 -907.02985201943375 2176.6527292395367 0 2176.6527292395367 -5285.7678940691403 0 0 0 0 -3155.2826636538084 4042.4968645013578 0 4042.4968645013578 -3156.6582182244456 0 0 0 0 -61.575517448402934 24.139260530349134 0 24.139260530349134 1.2385595584208104 0 0 0 0 87.9146661031279 77.276341683117607 0 77.276341683117607 0.49143180211598292 0 0 0 0 -2197.7082971585623 -437.7935798058752 0 -437.7935798058752 151.29220940505911 0 0 0 0 92.69702433902421 -978.36280212951533 0 -978.36280212951533 -672.82456521096901 0 0 0 0 718.40448564653343 867.70824378393445 0 867.70824378393445 893.51531006874575 0 0 0 0 -549.31306696442334 1196.8180613527329 0 1196.8180613527329 -2066.4580027200864 0 0 0 0 -277.06507057765702 1097.0270118560875 0 1097.0270118560875 -2273.3714724503661 0 0 0 0 -7698.5192370505247 1649.9623719595547 0 1649.9623719595547 -1816.5188310075318 0 0 0 0 -5720.8681542677514 988.86816205919604 0 988.86816205919604 269.02395903991419 0 0 0 0 -6808.5430267923475 4811.0554309044583 0 4811.0554309044583 -1929.0648610916978 0 0 0 0 -4382.9214435640897 3169.1573245791515 0 3169.1573245791515 -5630.0414916527079 0 0 0 0 -3640.4632342970872 5285.5558292299393 0 5285.5558292299393 -5255.922500534587 0 0 0 0 -1459.9286195652339 3194.9881036909455 0 3194.9881036909455 -3301.4987883927242 0 0 0 0 -1501.5086247436411 4141.9997134702135 0 4141.9997134702135 -3147.0631969106635 0 0 0 0 -1479.1270020877419 2370.3489191579647 0 2370.3489191579647 -697.97361052040651 0 0 0 0 -4090.4409713632922 3384.1505208650087 0 3384.1505208650087 -975.09149550169241 0 0 0 0 -3926.4377478469105 1622.520759594172 0 1622.520759594172 437.13614285332733 0 0 0 0 -3039.0337849043426 2213.6959372001584 0 2213.6959372001584 -626.21994183186325 0 0 0 0 -802.68026219448075 972.43725102343888 0 972.43725102343888 -470.90216371208953 0 0 0 0 -1965.1501417453474 625.32019576059065 0 625.32019576059065 209.94340275967261 0 0 0 0 77.775439070829407 58.442180209916501 0 58.442180209916501 -3.5475235435584409 0 0 0 0 -2423.7889565658006 1844.4350748433917 0 1844.4350748433917 -757.68987435581221 0 0 0 0 -293.12933037811308 1560.7536867413583 0 1560.7536867413583 -1844.4915465898303 0 0 0 0 -1682.2733794436062 2543.9721864520179 0 2543.9721864520179 -2457.9294943700952 0 0 0 0 -1026.0878428143478 1739.2874040579845 0 1739.2874040579845 -1886.1747232182825 0 0 0 0 -1659.0780521725828 1859.3146805203432 0 1859.3146805203432 -2185.1097612683625 0 0 0 0 -912.04456201216817 1527.5016790992158 0 1527.5016790992158 -2177.4330507482373 0 0 0 0 -269.49500484515738 2134.8245708519971 0 2134.8245708519971 -3270.4983685395855 0 0 0 0 -235.35088980547152 1341.5577724734248 0 1341.5577724734248 -2022.1524184758746 0 0 0 0 59.173116872386913 50.26979740178416 0 50.26979740178416 -5.3108541599224282 0 0 0 0 -861.33660985105962 1764.5934557683213 0 1764.5934557683213 -795.53877815606029 0 0 0 0 -3081.6331748460507 3250.1969054738875 0 3250.1969054738875 -2958.0924333504518 0 0 0 0 -3008.1386896107097 3977.4294625782345 0 3977.4294625782345 -4243.5794836124696 0 0 0 0 -601.79500359160011 1630.6062108022743 0 1630.6062108022743 -3597.6738168134507 0 0 0 0 -3660.5842652931897 2370.8885027350989 0 2370.8885027350989 -3432.8319186117733 0 0 0 0 5004.4366479726159 8.6932547149117454 0 8.6932547149117454 -2405.8246881744417 0 0 0 0 21.144413168696531 22.536602862184964 0 22.536602862184964 -2.642283540523124 0 0 0 0 575.49907820581575 1810.8539865660205 0 1810.8539865660205 -1130.5430989053675 0 0 0 0 -985.28193545604518 2228.1693826678347 0 2228.1693826678347 -880.71252415122581 0 0 0 0 5.6137358825293973 8.0794725940145895 0 8.0794725940145895 -2.2092032205520979 0 0 0 0 -1018.436775276874 3207.4346149598205 0 3207.4346149598205 -1250.6040828594851 0 0 0 0 -1205.7649080013798 1468.0491453404829 0 1468.0491453404829 -2711.0853717973878 0 0 0 0 907.48948730817392 3063.4328489304526 0 3063.4328489304526 -3102.2932166242244 0 0 0 0 -2.5310960241913563 2234.025184449787 0 2234.025184449787 -3726.5764504691761 0 0 0 0 5.9475887303517538 8.3917622732225823 0 8.3917622732225823 -4.1553867872302703 0 0 0 0 -698.11326653252763 1837.779131055504 0 1837.779131055504 -3084.540447205829 0 0 0 0 -1431.8546484954495 2532.0508763185571 0 2532.0508763185571 -1761.4645597522467 0 0 0 0 -116.61130502083688 3015.448098006993 0 3015.448098006993 -1963.3044704161584 0 0 0 0 -527.33929212558724 2791.665010103934 0 2791.665010103934 -1797.1779186967178 0 0 0 0 0.2008887107076589 2682.7998658608485 0 2682.7998658608485 -2215.3976425528599 0 0 0 0 602.42898128535307 2447.1269658195743 0 2447.1269658195743 -1733.0021095097181 0 0 0 0 -81.396417349547846 3274.0544039176821 0 3274.0544039176821 -2122.8724590851016 0 0 0 0 -145.41312752534577 3349.9233824785115 0 3349.9233824785115 -1899.0189593239484 0 0 0 0 -214.931115819767 3582.7144685169987 0 3582.7144685169987 -2078.9316914897499 0 0 0 0 -1841.7576709121859 3257.5805241421185 0 3257.5805241421185 -1561.4078476513387 0 0 0 0 281.2372112164885 2534.9030603478532 0 2534.9030603478532 -1326.0614336153667 0 0 0 0 -172.9414692114733 3612.0419384460565 0 3612.0419384460565 -1740.0378232355433 0 0 0 0 -446.53002941934392 3398.0820393962495 0 3398.0820393962495 -1903.202328906038 0 0 0 0 -1145.7847366765295 2119.4937764754636 0 2119.4937764754636 -1104.8932181777636 0 0 0 0 -1221.7798277090233 1467.591198345388 0 1467.591198345388 -628.69968358110054 0 0 0 0 -1617.7688946537237 2314.9759382234261 0 2314.9759382234261 -1179.5008807495688 0 0 0 0 -2157.9535109189164 2125.7119861399078 0 2125.7119861399078 -598.62273337620718 0 0 0 0 -1316.8094100775415 1467.3964531850361 0 1467.3964531850361 -182.51639286015416 0 0 0 0 -1102.9876520731341 2596.2593843017821 0 2596.2593843017821 -275.05815687606218 0 0 0 0 -1512.9762161770414 1783.2726810212771 0 1783.2726810212771 0.69279136467230273 0 0 0 0 -536.78317902743584 2204.6673932800404 0 2204.6673932800404 169.10805992182577 0 0 0 0 1.5495251434854822 8.6266874583570257 0 8.6266874583570257 7.1031264632458715 0 0 0 0 -2149.2946713192941 1669.38606033221 0 1669.38606033221 284.17955357941537 0 0 0 0 -753.03182463281701 1620.9022903557634 0 1620.9022903557634 -1386.9314545075758 0 0 0 0 -1878.3478125209513 1194.153414799177 0 1194.153414799177 -1929.9536810212157 0 0 0 0 -1670.8379928779541 1626.2017029914859 0 1626.2017029914859 -1306.5557184008067 0 0 0 0 -1655.1761729404898 1182.3316859121696 0 1182.3316859121696 -1505.1975217185391 0 0 0 0 -799.56716754496665 2180.243851700252 0 2180.243851700252 -1.0806450062445947 0 0 0 0 11.953751515144461 19.205419635065937 0 19.205419635065937 11.983852541071656 0 0 0 0 -1496.1165007661184 702.99614187338011 0 702.99614187338011 -1353.2768184786491 0 0 0 0 33.041502058069455 2159.2504077775084 0 2159.2504077775084 -827.02555802869028 0 0 0 0 -2299.0011944015569 2552.3654449547394 0 2552.3654449547394 -1306.8329764312075 0 0 0 0 -1332.1739379941696 1244.76438992872 0 1244.76438992872 63.612773913351703 0 0 0 0 -1369.5497703157889 1747.8175472233488 0 1747.8175472233488 -34.503077884903178 0 0 0 0 -2014.1278678457747 1079.4418089596447 0 1079.4418089596447 -671.28190863467171 0 0 0 0 -86.276444822637131 1681.5601193455514 0 1681.5601193455514 -599.81198197173944 0 0 0 0 766.84166045085294 1687.906609552083 0 1687.906609552083 -604.6932808285037 0 0 0 0 301.29845354937515 1413.180704391978 0 1413.180704391978 294.88229141809279 0 0 0 0 -78.674465526317363 1540.5827895448019 0 1540.5827895448019 326.38616063353402 0 0 0 0 -255.84237096231664 2190.340505547334 0 2190.340505547334 1510.0666830065311 0 0 0 0 360.87377672364528 1039.3376253367605 0 1039.3376253367605 -6140.6385517240888 0 0 0 0 -116.72690153316944 808.25236386992037 0 808.25236386992037 3481.6409760070092 0 0 0 0 9.9886977154831129 8.8159959003872927 0 8.8159959003872927 -3.2912731928808228 0 0 0 0 113.07856051389535 1057.6473227657261 0 1057.6473227657261 -2579.6746862368018 0 0 0 0 33.629491948961629 36.450272329171753 0 36.450272329171753 -6.337722177291667 0 0 0 0 -293.28329733264491 1574.6267446771192 0 1574.6267446771192 -2898.8992336751835 0 0 0 0 -1055.638473034589 2248.1468618456929 0 2248.1468618456929 -3245.1406721531239 0 0 0 0 579.06955839959369 547.38222453158801 0 547.38222453158801 -2283.7205112325464 0 0 0 0 -1934.2013627405104 2417.904503677506 0 2417.904503677506 -1992.5414693913676 0 0 0 0 8.5396761571580839 8.4255765658448354 0 8.4255765658448354 -1.8370087196479972 0 0 0 0 532.32178645595559 2172.1755193375429 0 2172.1755193375429 -2495.9394512942163 0 0 0 0 -403.78566436998517 2247.8620954434118 0 2247.8620954434118 -1929.2474956543883 0 0 0 0 -11.731927853434172 1331.0381092326352 0 1331.0381092326352 -2184.0070429162442 0 0 0 0 80.453224197051895 1387.4118568967169 0 1387.4118568967169 -1516.3860859275301 0 0 0 0 89.65865239516279 1406.7567102846806 0 1406.7567102846806 -2139.100067482228 0 0 0 0 -93.451500904346176 1449.3728761804741 0 1449.3728761804741 -1948.9703677275538 0 0 0 0 -757.23980561326607 2055.267644468564 0 2055.267644468564 -1994.4709927596825 0 0 0 0 -1271.8928836617197 1261.7864041009088 0 1261.7864041009088 -1112.021867846197 0 0 0 0 -1385.3715255823627 1490.6585641051279 0 1490.6585641051279 -942.72047335203388 0 0 0 0 -1442.4959295778535 1741.3394178527815 0 1741.3394178527815 -1705.0765523886221 0 0 0 0 -1342.5542896726256 1602.2301445547419 0 1602.2301445547419 -1991.2172073879192 0 0 0 0 17.85824974885341 19.192452279361987 0 19.192452279361987 3.6813892561202124 0 0 0 0 -1021.4242468213051 3358.4854738320792 0 3358.4854738320792 -2143.7021004478047 0 0 0 0 -1386.1133158053417 1748.8372987908715 0 1748.8372987908715 -2068.6032692882145 0 0 0 0 -1403.6363052393444 1800.0992512607645 0 1800.0992512607645 -2093.4623974749702 0 0 0 0 -1913.1816132554231 2418.6630400022623 0 2418.6630400022623 -3082.8287067785568 0 0 0 0 -7.9540067098358946 15.108681118250779 0 15.108681118250779 -20.730995101393262 0 0 0 0 -4933.4513416906047 1663.3389020312607 0 1663.3389020312607 -585.26730071967177 0 0 0 0 -1724.2247098618245 1715.595085282388 0 1715.595085282388 -1832.2747205878113 0 0 0 0 -1418.4018504151054 1571.2550354536315 0 1571.2550354536315 -1764.2008971499454 0 0 0 0 -2165.1214663440405 1653.2665217396425 0 1653.2665217396425 -870.22250338677259 0 0 0 0 -1444.1466356956807 834.37911357310804 0 834.37911357310804 -157.78346498602332 0 0 0 0 -889.34708886234148 548.34162092902989 0 548.34162092902989 -414.37641159977647 0 0 0 0 -1995.3910185829163 309.80551461472305 0 309.80551461472305 20.367441476526437 0 0 0 0 685.23751359626476 280.72947488334466 0 280.72947488334466 -563.930926712972 0 0 0 0 -1032.1496840413238 339.84891410523414 0 339.84891410523414 15.427421106025577 0 0 0 0 2040.0934857807333 1231.6547431754989 0 1231.6547431754989 -253.17104228190146 0 0 0 0 -17.5355423884331 37.451625515013447 0 37.451625515013447 -45.754887348220507 0 0 0 0 319.28452978403948 449.04084548405081 0 449.04084548405081 652.05405485248775 0 0 0 0 375.7590410732555 422.52473638379161 0 422.52473638379161 -428.44181146958726 0 0 0 0 -467.54785054924287 919.56194547931955 0 919.56194547931955 -712.57529952461482 0 0 0 0 2607.26377888774 855.51812474045801 0 855.51812474045801 -1850.748598346865 0 0 0 0 233.20182884914539 2225.85116902546 0 2225.85116902546 -2365.0878415973129 0 0 0 0 -219.68648757345363 895.10570119462864 0 895.10570119462864 -904.51316781275091 0 0 0 0 144.51150099490769 169.21157916246739 0 169.21157916246739 -56.940185757276595 0 0 0 0 127.32077884364116 18.014486375424895 0 18.014486375424895 -68.330827184496229 0 0 0 0 97.520090702048037 100.10505576027208 0 100.10505576027208 -253.37495808287349 0 0 0 0 77.320613724790746 54.462705007179466 0 54.462705007179466 -124.30998341416125 0 0 0 0 -50.383678865902766 198.91437785196467 0 198.91437785196467 -104.70645810931455 0 0 0 0 -124.1278967213002 142.63145362859359 0 142.63145362859359 -84.140775702385326 0 0 0 0 671.00114213743291 267.24606309888986 0 267.24606309888986 -73.453067865746561 0 0 0 0 381.82337898941478 153.86851025526266 0 153.86851025526266 -160.81556725334667 0 0 0 0 -22.541859227181021 47.472648764243708 0 47.472648764243708 -57.538971714427589 0 0 0 0 1189.4816205743064 1809.3983111650859 0 1809.3983111650859 637.84483569211443 0 0 0 0 818.15145261321595 1209.1579711907289 0 1209.1579711907289 -412.92546770672197 0 0 0 0 603.2471856908669 374.48152237061004 0 374.48152237061004 -174.33162409466604 0 0 0 0 1068.2241288700898 371.48964066467306 0 371.48964066467306 1768.7886461262824 0 0 0 0 -21.59914103745885 44.757432540797097 0 44.757432540797097 -50.692826725990869 0 0 0 0 100.99372094027058 244.16916507821588 0 244.16916507821588 -156.46517853846308 0 0 0 0 113.8545686709258 309.09611004386534 0 309.09611004386534 -107.35597678256454 0 0 0 0 -417.50985890322772 -117.1592985094685 0 -117.1592985094685 -14.334746298496611 0 0 0 0 -129.40714492066763 87.51881890380173 0 87.51881890380173 -110.36674914499599 0 0 0 0 -62.054576353926677 238.01204170138226 0 238.01204170138226 119.82329451615806 0 0 0 0 143.40990551673167 -26.191209376353072 0 -26.191209376353072 -3.6286308989219833 0 0 0 0 -384.1242148950987 350.32584038027562 0 350.32584038027562 -67.306286459643161 0 0 0 0 -841.64456175961823 451.84019490950595 0 451.84019490950595 -5.3377593517070636 0 0 0 0 -450.89890371024376 295.57158236738906 0 295.57158236738906 -53.131748350133421 0 0 0 0 -1165.852894478965 228.94479249072174 0 228.94479249072174 47.266951267061813 0 0 0 0 -774.0725949118787 492.44961925872121 0 492.44961925872121 9.6179617798043182 0 0 0 0 -1209.8972422094521 685.91111115232343 0 685.91111115232343 14.540790841456328 0 0 0 0 -1193.3386790888285 846.16342499278903 0 846.16342499278903 -236.82338434262783 0 0 0 0 -770.68584232612193 642.53124151058728 0 642.53124151058728 -34.589555197526352 0 0 0 0 5.8148295621940633 252.39358972906484 0 252.39358972906484 -234.03783514645374 0 0 0 0 -396.34419379400788 469.88822961242113 0 469.88822961242113 -243.05129886501527 0 0 0 0 -95.927130561736703 170.83367545144574 0 170.83367545144574 -132.56661629960581 0 0 0 0 -378.95731379048812 780.68720337406558 0 780.68720337406558 -743.94233304203954 0 0 0 0 -1314.5842833912393 1761.7760008310579 0 1761.7760008310579 -1206.6329688462283 0 0 0 0 -965.80197210305778 -29.711082243789861 0 -29.711082243789861 2427.7760412075004 0 0 0 0 -2053.381174092312 1198.1301457604059 0 1198.1301457604059 1053.8614525849916 0 0 0 0 -652.45122491091752 465.5152461416983 0 465.5152461416983 178.76406679977663 0 0 0 0 -1133.7821391993202 794.2281975709484 0 794.2281975709484 -6.6434557899283391 0 0 0 0 -1174.9620468813664 742.98319599861134 0 742.98319599861134 70.397754002042348 0 0 0 0 -651.6872087836673 858.34019759363582 0 858.34019759363582 1.5357882993412204 0 0 0 0 -1160.8156764719843 991.27731287385996 0 991.27731287385996 -389.43096814022283 0 0 0 0 -782.05580581401591 943.20773103710962 0 943.20773103710962 -487.6074627021153 0 0 0 0 -848.29876281766337 634.95079211406846 0 634.95079211406846 -62.757850272580981 0 0 0 0 -831.95991816738706 937.98986324486077 0 937.98986324486077 -257.76798281472293 0 0 0 0 -327.45698730876029 670.20067350802128 0 670.20067350802128 -117.04425099700165 0 0 0 0 -291.45018397205422 746.91990906698629 0 746.91990906698629 -764.05662990928249 0 0 0 0 -850.66367100385196 1400.9189810067855 0 1400.9189810067855 -1207.3991933515354 0 0 0 0 -103.01547838023544 942.3849926380899 0 942.3849926380899 -911.20109577130643 0 0 0 0 -327.75927664795017 696.46800262009856 0 696.46800262009856 -296.81836981195374 0 0 0 0 -373.67574856056308 904.17986682424089 0 904.17986682424089 -226.48859469318631 0 0 0 0 -151.68843901378568 717.69462668458436 0 717.69462668458436 207.38281929650111 0 0 0 0 -365.35439525991387 634.01959440812789 0 634.01959440812789 992.32490565109765 0 0 0 0 -1050.7649527087196 1868.6130966680503 0 1868.6130966680503 1081.3733419195096 0 0 0 0 -663.65962574513105 2398.7059456834686 0 2398.7059456834686 -556.57434395351447 0 0 0 0 -436.5330052212521 859.46075439947526 0 859.46075439947526 94.155554682365619 0 0 0 0 -415.84403969509003 990.53356256434927 0 990.53356256434927 149.94210471771657 0 0 0 0 -147.6331298325822 708.07363373915723 0 708.07363373915723 -91.557229007943533 0 0 0 0 454.67270389723126 1382.2496413524932 0 1382.2496413524932 191.93620661294335 0 0 0 0 -26.350441871336784 14.92621065958653 0 14.92621065958653 -5.3834106867205165 0 0 0 0 1833.911339885206 -545.19720319243788 0 -545.19720319243788 261.9446040259063 0 0 0 0 -844.75162984046619 -57.281076939223567 0 -57.281076939223567 -777.95855351575301 0 0 0 0 -51.050858008904243 29.287770166757269 0 29.287770166757269 -9.8939540987854357 0 0 0 0 -4263.3841300016793 3084.6744566974521 0 3084.6744566974521 -1876.6966023423738 0 0 0 0 1840.7364511630105 1584.6182522236561 0 1584.6182522236561 -2037.4858070223127 0 0 0 0 -1512.7135083890462 -86.492452248407062 0 -86.492452248407062 -1618.090055026405 0 0 0 0 -501.72246819085558 -269.12194260417891 0 -269.12194260417891 -3011.1756085035472 0 0 0 0 -389.3716502856405 147.79739695595345 0 147.79739695595345 -1493.7882742067741 0 0 0 0 -913.7693867366761 -654.2494015279226 0 -654.2494015279226 -1438.2843878758722 0 0 0 0 -1046.499301928241 2287.0006549176687 0 2287.0006549176687 -2372.4979128410851 0 0 0 0 224.64369848232309 525.56808086759702 0 525.56808086759702 -2704.6639053170511 0 0 0 0 -68.558677191642346 1613.5881232148604 0 1613.5881232148604 -4850.1973313876078 0 0 0 0 -1128.220951115738 1375.5359719453409 0 1375.5359719453409 -3048.4540522760944 0 0 0 0 -4.8681210236674133 1.5048803511237736 0 1.5048803511237736 -0.12388301996318773 0 0 0 0 -22.061826927623372 11.968927174597354 0 11.968927174597354 -6.0060971264457237 0 0 0 0 -2023.2803071123853 1054.7966087180757 0 1054.7966087180757 57.095053941739025 0 0 0 0 -53.619633177033393 -28.078623551824421 0 -28.078623551824421 -189.87591239178437 0 0 0 0 -1292.049418661918 1840.7698409659497 0 1840.7698409659497 -3009.5618319468117 0 0 0 0 -420.12515262102534 719.73578326527058 0 719.73578326527058 -1591.6993024788244 0 0 0 0 -1051.9716326297348 1551.2748738930677 0 1551.2748738930677 -1067.3756441466103 0 0 0 0 -1827.6601569344057 985.20984551098809 0 985.20984551098809 29.278128890349763 0 0 0 0 -215.81062379018113 923.86141957066138 0 923.86141957066138 -599.77980982459849 0 0 0 0 -1264.2105894759297 543.90330399227969 0 543.90330399227969 370.92930145107675 0 0 0 0 252.93379456388357 562.3326196338603 0 562.3326196338603 365.72880253890435 0 0 0 0 -672.13125092539121 -165.44848801953776 0 -165.44848801953776 729.37623998886556 0 0 0 0 -361.07669205697312 225.17212183914671 0 225.17212183914671 982.70882050946966 0 0 0 0 -132.06453140670783 17.285854905414453 0 17.285854905414453 224.02130984891846 0 0 0 0 -1372.0907226895069 -389.25667639964558 0 -389.25667639964558 95.560743178924895 0 0 0 0 -9.8996142344191185 3.6442859413441084 0 3.6442859413441084 -0.040305312447799224 0 0 0 0 -87.203737621020991 96.31296592009312 0 96.31296592009312 200.4748294246092 0 0 0 0 -57.816393510074704 157.17729947096086 0 157.17729947096086 449.61427666152304 0 0 0 0 -279.26553385826992 143.29730277814087 0 143.29730277814087 448.82657430124891 0 0 0 0 44.933153804886388 320.09336306421028 0 320.09336306421028 427.81482604138 0 0 0 0 58.968005974864354 -12.849892891852505 0 -12.849892891852505 -110.57414195044839 0 0 0 0 -54.996067250332203 17.939765344989894 0 17.939765344989894 -5.7759372786606633 0 0 0 0 -435.63674175099004 232.37702327224542 0 232.37702327224542 643.67444291362335 0 0 0 0 -662.48194999627594 2571.9633661757834 0 2571.9633661757834 -3402.3485861227819 0 0 0 0 -709.59499357879361 -925.7319991635444 0 -925.7319991635444 -548.94064737616281 0 0 0 0 -66.027765823891968 601.57103662657755 0 601.57103662657755 -2242.9899084185163 0 0 0 0 38.519406900973991 20.240572753922606 0 20.240572753922606 -406.8719456580402 0 0 0 0 1.8943685970393176 -1.4004767808153105 0 -1.4004767808153105 0.53034852015952083 0 0 0 0 168.4421206429106 99.477535512363829 0 99.477535512363829 -358.79830557534297 0 0 0 0 107.85114326862458 -54.052378360658622 0 -54.052378360658622 -179.51357280022057 0 0 0 0 -60.264962499597459 -57.826701481841155 0 -57.826701481841155 186.50984385386982 0 0 0 0 -5.5953818626730936 -292.94435754079313 0 -292.94435754079313 -115.28002022942383 0 0 0 0 -135.21714060430531 3.3772548833512701 0 3.3772548833512701 116.99542475590715 0 0 0 0 17.091109381522983 117.20843948822585 0 117.20843948822585 133.47079336665047 0 0 0 0 -8.4780719664252047 3.633525829621675 0 3.633525829621675 -0.2755380555352076 0 0 0 0 -144.34584915576852 -15.177701877459185 0 -15.177701877459185 101.24324400926707 0 0 0 0 -46.655343380301929 -40.983418309944682 0 -40.983418309944682 49.633346782356966 0 0 0 0 -64.064199483359118 22.079622278794716 0 22.079622278794716 -4.9839426202674701 0 0 0 0 -46.971574229821272 -63.108853361682122 0 -63.108853361682122 -63.048519367017434 0 0 0 0 -134.70812426273187 24.267556303821038 0 24.267556303821038 4.3316370887841913 0 0 0 0 133.83515102425008 132.47808721398178 0 132.47808721398178 102.84443786016345 0 0 0 0 7.4025312405929071 10.646435813142745 0 10.646435813142745 -5.9894330875696653 0 0 0 0 199.82641812140355 14.100000269419979 0 14.100000269419979 8.4332622090878431 0 0 0 0 170.01364365596964 143.83541102209347 0 143.83541102209347 -23.094083467382006 0 0 0 0 -230.97473487339448 61.908837427414255 0 61.908837427414255 49.072294971541851 0 0 0 0 -139.88704682877869 38.395608457431081 0 38.395608457431081 55.141898869842407 0 0 0 0 -31.458596512064872 36.568532543525407 0 36.568532543525407 -11.295832207659998 0 0 0 0 151.90916304491111 68.16685087022779 0 68.16685087022779 -50.928369649336673 0 0 0 0 155.79793599768891 69.563013704013429 0 69.563013704013429 -128.65681851550471 0 0 0 0 -15.811933685152326 190.08547675507725 0 190.08547675507725 40.577028757776134 0 0 0 0 -18.823858757512028 43.246997696034668 0 43.246997696034668 -8.2707888048322502 0 0 0 0 34.883953870562323 58.950848792085566 0 58.950848792085566 43.574387778456639 0 0 0 0 46.642130125859694 146.61679264459963 0 146.61679264459963 -40.649059970892267 0 0 0 0 4.7688471633898359 20.210535807541561 0 20.210535807541561 10.18425750054422 0 0 0 0 -5.2135287730197888 174.64187420357484 0 174.64187420357484 4.342362878320273 0 0 0 0 7.0985205076867715 94.086964131594868 0 94.086964131594868 -38.279366942413617 0 0 0 0 -16.323401722242124 147.8671840505267 0 147.8671840505267 -40.643441348802298 0 0 0 0 31.985496672336012 87.087022493506083 0 87.087022493506083 -17.592625223071082 0 0 0 0 24.044771551853046 100.91522392435581 0 100.91522392435581 104.03977688825398 0 0 0 0 164.65138863155153 64.413152701075887 0 64.413152701075887 -20.960697510992759 0 0 0 0 47.001836845760408 100.7742424266653 0 100.7742424266653 -73.939167740056291 0 0 0 0 88.659840404434362 46.285165324021364 0 46.285165324021364 -7.0680002880908432 0 0 0 0 -9.4705486685869005 -1.5518253373513033 0 -1.5518253373513033 6.3866850322739879 0 0 0 0 110.74024884255778 77.768811700720107 0 77.768811700720107 -7.6151843592524529 0 0 0 0 127.2705826528545 86.298013725681813 0 86.298013725681813 -36.436504467448685 0 0 0 0 110.29041297515505 21.936963898784597 0 21.936963898784597 -24.624520912242588 0 0 0 0 111.08058061949123 29.469843589951779 0 29.469843589951779 -129.14395037962822 0 0 0 0 203.15940292850428 20.222909739022725 0 20.222909739022725 -137.35217797102814 0 0 0 0 -3023.8496922490594 1732.5466038795275 0 1732.5466038795275 -344.26748084338033 0 0 0 0 -2919.0215388516081 1722.3668291443391 0 1722.3668291443391 -3212.1400165256055 0 0 0 0 541.93992079039162 -32.390276515860023 0 -32.390276515860023 167.04357503257052 0 0 0 0 -204.25141919283487 1925.4910625408957 0 1925.4910625408957 -4954.1425533211732 0 0 0 0 -163.86478073048056 82.956067652499769 0 82.956067652499769 -846.20294751657639 0 0 0 0 -22.138509683689335 -1203.4267328103742 0 -1203.4267328103742 -4231.8376245604177 0 0 0 0 -7.9830514704249254 24.235666600089232 0 24.235666600089232 -25.718204295720852 0 0 0 0 -1238.1705181462366 2626.5968622970909 0 2626.5968622970909 -2472.8350424813834 0 0 0 0 -1407.6476056304891 924.39945998553549 0 924.39945998553549 -204.80838192296505 0 0 0 0 340.20713176744175 1985.3565179784709 0 1985.3565179784709 -4502.6314839675688 0 0 0 0 -5.9083077456161845 2551.3952555640644 0 2551.3952555640644 -4229.2340761110754 0 0 0 0 -226.09498545342649 2520.6758637796956 0 2520.6758637796956 -3999.1392127747094 0 0 0 0 -348.88326578959823 2537.9078148007102 0 2537.9078148007102 -4032.9321378297464 0 0 0 0 -820.26165733326343 1588.107421952307 0 1588.107421952307 -4490.5002377824339 0 0 0 0 -816.68878801207757 2928.9553078026875 0 2928.9553078026875 -3279.1621238883235 0 0 0 0 -1335.145298133968 2398.5737324311776 0 2398.5737324311776 -3229.6291806290392 0 0 0 0 -1.9665159745782148 2730.4603192718714 0 2730.4603192718714 -3951.2637119982428 0 0 0 0 -1590.2680612680706 1821.197415537019 0 1821.197415537019 -2655.7993700698134 0 0 0 0 -1583.3266486367102 1804.4306754932322 0 1804.4306754932322 -3009.5278545068577 0 0 0 0 -2119.6265186913952 741.48098885965737 0 741.48098885965737 -4155.7403106943384 0 0 0 0 -4155.2060951175736 4652.5097989495625 0 4652.5097989495625 -3430.4513095793955 0 0 0 0 -1760.3188096876547 3488.1875763886637 0 3488.1875763886637 -5775.484743119101 0 0 0 0 -1999.6444672384532 4417.2732573473259 0 4417.2732573473259 -1671.6610177215189 0 0 0 0 -2317.5777174268151 3556.2400661089487 0 3556.2400661089487 3874.6353097290994 0 0 0 0 -26.207023910474561 31.746851728168778 0 31.746851728168778 -21.143070489714489 0 0 0 0 1998.1673667523428 3346.6063811825952 0 3346.6063811825952 -10664.328926200658 0 0 0 0 2942.4147663231124 3921.4428055259705 0 3921.4428055259705 -3731.0182127407461 0 0 0 0 -5696.869788990778 7547.8557570277262 0 7547.8557570277262 -5624.1224170503119 0 0 0 0 453.89260485803243 2984.0444201538121 0 2984.0444201538121 -6727.282084843444 0 0 0 0 -2362.2518839544064 3312.0408417081417 0 3312.0408417081417 -3713.6326626869413 0 0 0 0 162.39045095659094 1375.3210357132048 0 1375.3210357132048 -3951.383703474261 0 0 0 0 773.52489828273247 -33.832477489151643 0 -33.832477489151643 -525.22720338339059 0 0 0 0 -487.90919824328739 2225.603413954188 0 2225.603413954188 349.33458838135266 0 0 0 0 -822.75452811922878 1038.0928294842197 0 1038.0928294842197 -777.2347627881536 0 0 0 0 -1673.8812356799463 763.48049662933772 0 763.48049662933772 -627.53868938278174 0 0 0 0 -67.30408693280333 638.19769663146872 0 638.19769663146872 -652.50397909717867 0 0 0 0 270.94781443483953 477.46416347377817 0 477.46416347377817 -1795.5409516086947 0 0 0 0 537.85288745177968 1007.0200052806395 0 1007.0200052806395 -2652.3279439008256 0 0 0 0 219.60881029794109 983.66623763024108 0 983.66623763024108 -412.41083971330954 0 0 0 0 78.071330533188302 332.32932783434808 0 332.32932783434808 -77.764686545044242 0 0 0 0 744.18636082779267 321.40101665551629 0 321.40101665551629 91.522168042116391 0 0 0 0 -970.89282431072206 1301.8057192707493 0 1301.8057192707493 2944.1312574652984 0 0 0 0 53.36346375188441 -2.9213184856998851 0 -2.9213184856998851 1724.0657513071201 0 0 0 0 -46.400586522249966 51.060571263246686 0 51.060571263246686 -31.300165503000841 0 0 0 0 -23.700893537839875 1165.7075092183441 0 1165.7075092183441 2203.778479224784 0 0 0 0 -339.21994708309649 641.70118027372519 0 641.70118027372519 -2137.0610286590818 0 0 0 0 -837.20104901355808 -492.61466442979872 0 -492.61466442979872 -3178.8411177967064 0 0 0 0 -30.500500007788673 25.726827631856338 0 25.726827631856338 -11.328100911832678 0 0 0 0 -15.095078564800929 20.147757730219013 0 20.147757730219013 -14.210646234442919 0 0 0 0 2694.6898933713674 -2165.1252780446375 0 -2165.1252780446375 -4050.0134767432901 0 0 0 0 190.27187019784469 -193.86597996500495 0 -193.86597996500495 -1025.3444851772692 0 0 0 0 636.46528555039549 2002.6635111355645 0 2002.6635111355645 235.07832885821699 0 0 0 0 -58.624876215735526 61.644888880241012 0 61.644888880241012 -36.09421599068051 0 0 0 0 1723.729693231071 691.90418605202285 0 691.90418605202285 -2881.6686857511813 0 0 0 0 1379.9326909710362 -564.52210760609159 0 -564.52210760609159 -4267.906087371186 0 0 0 0 -5.2665837597676273 13.086952479617992 0 13.086952479617992 -7.355644596045849 0 0 0 0 769.08760875969892 662.92202191991964 0 662.92202191991964 -358.91772256906552 0 0 0 0 40.454034485286684 225.71193630849302 0 225.71193630849302 -549.42900571928476 0 0 0 0 1363.8452441814079 526.46309055020811 0 526.46309055020811 -1087.5197181090771 0 0 0 0 1345.4720930291805 325.98533037453308 0 325.98533037453308 -2948.5830410467752 0 0 0 0 508.33998353031348 -542.32243706224835 0 -542.32243706224835 -1549.0815215226612 0 0 0 0 909.25889438791273 585.30976053406448 0 585.30976053406448 -194.8888265491114 0 0 0 0 889.82301884592744 352.77005256933626 0 352.77005256933626 -620.67976620374247 0 0 0 0 723.5497941657668 -145.83981445658719 0 -145.83981445658719 61.545661903277505 0 0 0 0 906.34022780876694 201.69502049113635 0 201.69502049113635 -813.82349003310082 0 0 0 0 793.64286387985339 346.7791524448985 0 346.7791524448985 -794.50299044654821 0 0 0 0 738.49015117932868 422.39715174648882 0 422.39715174648882 -462.47448363476724 0 0 0 0 981.47298021506867 265.9526352526882 0 265.9526352526882 -362.12811059075466 0 0 0 0 624.55137960509455 1086.1620948812924 0 1086.1620948812924 545.19715708600415 0 0 0 0 13.434184041824267 38.168808476812494 0 38.168808476812494 -92.577477529857049 0 0 0 0 45.820444352953928 -41.392523997768876 0 -41.392523997768876 -1748.2038614639314 0 0 0 0 91.542493837216171 -59.714647237138706 0 -59.714647237138706 -1585.1854850198142 0 0 0 0 141.09020725282608 -302.43939090748427 0 -302.43939090748427 -1215.7751142490597 0 0 0 0 190.27745878885617 154.66489463522157 0 154.66489463522157 -1482.2875919831931 0 0 0 0 184.76505717360124 59.330560405178403 0 59.330560405178403 -850.03355425989139 0 0 0 0 372.35595444016508 558.16510663503141 0 558.16510663503141 -1237.9412922796109 0 0 0 0 231.90857922943542 -181.56215453783807 0 -181.56215453783807 -1076.4852059816913 0 0 0 0 680.95509114973538 922.64800650440156 0 922.64800650440156 -456.88662141954046 0 0 0 0 287.77930938261852 493.06990073696943 0 493.06990073696943 -150.56784308135684 0 0 0 0 9.7930426349630579 604.53734499474376 0 604.53734499474376 -704.11067389576056 0 0 0 0 141.58963305823272 1232.414530689668 0 1232.414530689668 -926.87555794726359 0 0 0 0 -134.6581762409478 1058.1513110994274 0 1058.1513110994274 -1856.3848306162126 0 0 0 0 -41.950741003092844 959.245235974362 0 959.245235974362 151.14159877638303 0 0 0 0 -335.66278518309991 1184.7760882591319 0 1184.7760882591319 10.509137061715592 0 0 0 0 -10.449087428742132 1293.5508740642199 0 1293.5508740642199 418.04639187517751 0 0 0 0 233.19163287962147 774.77506652766897 0 774.77506652766897 69.112205806552083 0 0 0 0 70.37934036218212 888.10716386495915 0 888.10716386495915 644.86426964741986 0 0 0 0 4.2547671298317482 48.347660185051524 0 48.347660185051524 -93.002311202004023 0 0 0 0 -229.64932558618602 972.52737423919461 0 972.52737423919461 -955.02752703739679 0 0 0 0 -314.27641583376681 825.45819418507745 0 825.45819418507745 1562.1055959355654 0 0 0 0 -136.16544942659675 1360.1580536651818 0 1360.1580536651818 1101.2764492997085 0 0 0 0 11.537184154816885 9.3051422637148562 0 9.3051422637148562 -29.487803306281137 0 0 0 0 63.555737478745868 90.2811810118219 0 90.2811810118219 -13.2811521145195 0 0 0 0 6.6457204034377355 136.88503094678163 0 136.88503094678163 9.6011204110163817 0 0 0 0 170.51490611810004 183.93537620787174 0 183.93537620787174 -1.9771556476189289 0 0 0 0 22.873509996454231 335.25066833989695 0 335.25066833989695 111.55561104553635 0 0 0 0 -0.58002683863429638 42.619726235286052 0 42.619726235286052 -99.241374674038809 0 0 0 0 -99.908202950784471 369.07173748169589 0 369.07173748169589 109.23730085537682 0 0 0 0 27.393844236299628 66.076623099783319 0 66.076623099783319 -398.88818833194091 0 0 0 0 32.416288344655186 759.13480845851882 0 759.13480845851882 -1239.9323919701274 0 0 0 0 255.13913158079959 222.60893056587884 0 222.60893056587884 -1122.4229288049391 0 0 0 0 62.952967896068003 390.62559420571779 0 390.62559420571779 -955.36388628248824 0 0 0 0 -104.52809279144174 76.473118769744929 0 76.473118769744929 -262.28424864143017 0 0 0 0 -406.06102238374297 312.57526766922092 0 312.57526766922092 -224.32975669031111 0 0 0 0 -1.2643389920206687 0.065199370952427671 0 0.065199370952427671 4.1203369635879596 0 0 0 0 -38.516126298636664 52.678984161582775 0 52.678984161582775 -49.373069125617121 0 0 0 0 -26.982623812233214 68.074755039990123 0 68.074755039990123 -89.321160108112963 0 0 0 0 -22.500690524780083 37.122213141107608 0 37.122213141107608 -55.584678104077312 0 0 0 0 -13.857319190065027 23.12297690145715 0 23.12297690145715 -48.369485001589055 0 0 0 0 -36.72733743347635 34.49947982257072 0 34.49947982257072 -14.83003305598686 0 0 0 0 -63.914124487972003 65.860222250648803 0 65.860222250648803 24.071071378610213 0 0 0 0 -34.982870957173873 20.724244995457411 0 20.724244995457411 -65.379395400712383 0 0 0 0 22.863177702078247 63.806436801733071 0 63.806436801733071 -42.236870019398339 0 0 0 0 34.725277593606734 106.32831476812498 0 106.32831476812498 2.4367683560412843 0 0 0 0 -8.1090812740148976 57.389863496217004 0 57.389863496217004 -6.8795231905896799 0 0 0 0 122.59856246851268 1104.1263344397776 0 1104.1263344397776 -574.8350641689467 0 0 0 0 -660.61953937620274 -667.54357741755121 0 -667.54357741755121 243.01535983051872 0 0 0 0 36.163111681420503 29.62489878203877 0 29.62489878203877 -2.2062775466850439 0 0 0 0 4.7031440644613554 4.8885730796818621 0 4.8885730796818621 -26.152481466166279 0 0 0 0 899.77747522524442 -215.89672695115587 0 -215.89672695115587 -4836.8940999836868 0 0 0 0 21.510260927636409 22.984547450287209 0 22.984547450287209 -11.604703274846543 0 0 0 0 -3.7809544083558535 5.4280148959205974 0 5.4280148959205974 -9.0608692483593813 0 0 0 0 -248.24912016698545 880.28391725749907 0 880.28391725749907 -650.82660535321338 0 0 0 0 -247.64920695754699 121.7402856484332 0 121.7402856484332 -1719.8108933150943 0 0 0 0 -11.418408349700258 37.393003763569141 0 37.393003763569141 -32.379899743929855 0 0 0 0 11.560922077386863 13.438568098311777 0 13.438568098311777 4.3945197861481518 0 0 0 0 -302.3729122892837 -89.582046719144273 0 -89.582046719144273 74.626542654568766 0 0 0 0 -7.9551357574433155 15.231070729873437 0 15.231070729873437 -20.654703583152923 0 0 0 0 206.31887345793075 340.38797035215975 0 340.38797035215975 -868.59490574368101 0 0 0 0 7.5291970625985414 10.244592756469501 0 10.244592756469501 -21.948854224443494 0 0 0 0 -13.842695144761819 31.971808726331801 0 31.971808726331801 -2.938529147519148 0 0 0 0 0.016280611569527537 20.908365121933457 0 20.908365121933457 -31.887273755157366 0 0 0 0 1.5061332536859027 2.244279582608641 0 2.244279582608641 -10.898778618549983 0 0 0 0 -12.370259424787946 35.051193148574384 0 35.051193148574384 -32.964637613404193 0 0 0 0 -8.6848012534319423 32.967959767302091 0 32.967959767302091 -30.018492779541702 0 0 0 0 -15.74319148589737 23.681179896890882 0 23.681179896890882 -30.58770684095316 0 0 0 0 -12.959018028341234 40.057260960296844 0 40.057260960296844 -32.306707402045504 0 0 0 0 -0.76511350095097441 37.66245194016301 0 37.66245194016301 -68.091476575631532 0 0 0 0 -0.015418372742715292 48.052103431979049 0 48.052103431979049 -41.430815866238845 0 0 0 0 -17.763673165376531 37.171155599251506 0 37.171155599251506 -67.910522435582607 0 0 0 0 -5.1647178127313964 40.51062580433063 0 40.51062580433063 -73.795423428324284 0 0 0 0 -14.236293141379065 59.820030822959779 0 59.820030822959779 -82.841908281494398 0 0 0 0 -0.67298734194361032 10.308360604732229 0 10.308360604732229 -19.726345226576967 0 0 0 0 -93.022460420732386 133.77691680608405 0 133.77691680608405 -204.08487454510396 0 0 0 0 -119.59938496435643 163.38107708006282 0 163.38107708006282 -192.05699401879974 0 0 0 0 -0.028236586615093984 39.47193162705662 0 39.47193162705662 -82.629996834544727 0 0 0 0 -99.570535120554268 143.97944920601003 0 143.97944920601003 -291.80528937843337 0 0 0 0 5.8330189562964847 -1.9325822403859547 0 -1.9325822403859547 -3.6745240432415898 0 0 0 0 -65.80901161604379 106.87439592670671 0 106.87439592670671 -200.14126685017254 0 0 0 0 -7.307079371087184 11.100609816850124 0 11.100609816850124 -10.399957050244183 0 0 0 0 -73.140864467990468 105.38587423160789 0 105.38587423160789 -186.62626995667233 0 0 0 0 -16.970290632236015 14.100053092580936 0 14.100053092580936 -22.150257867538897 0 0 0 0 -68.935579373122891 129.03407562001667 0 129.03407562001667 -215.39277541950287 0 0 0 0 -25.866612381375717 48.741589324760582 0 48.741589324760582 -68.629744290748022 0 0 0 0 -75.472581933427136 130.43363755331666 0 130.43363755331666 -185.17584391850141 0 0 0 0 -74.640977985050995 141.70901327286265 0 141.70901327286265 -230.97005319561868 0 0 0 0 -389.1818082019563 947.56414085121469 0 947.56414085121469 -323.07394498678332 0 0 0 0 8.076220731775436 15.339611460842463 0 15.339611460842463 -15.859331849914014 0 0 0 0 -93.249144755478483 167.56104678826523 0 167.56104678826523 -231.95158475466792 0 0 0 0 -534.37755976691551 822.04603262606543 0 822.04603262606543 423.54438328943797 0 0 0 0 -608.0044247405458 476.01918707807272 0 476.01918707807272 -473.0895401568996 0 0 0 0 -14.151443750980718 56.137608065654661 0 56.137608065654661 -64.016886113211456 0 0 0 0 -133.72787174890982 87.690158161014551 0 87.690158161014551 -15.473924222504138 0 0 0 0 -155.80056750908261 86.414467667069403 0 86.414467667069403 -15.477743231851491 0 0 0 0 -577.27178640245984 913.54895893850335 0 913.54895893850335 -1646.2937268806563 0 0 0 0 -46.807368784554342 43.130996457016323 0 43.130996457016323 25.399170974412215 0 0 0 0 -322.0799032835057 922.58047291841649 0 922.58047291841649 -1976.6884207180119 0 0 0 0 -22.685444842876791 12.466709921467611 0 12.466709921467611 23.709254182076052 0 0 0 0 28.980982641689479 77.60159435973037 0 77.60159435973037 -22.968186615034938 0 0 0 0 -105.06312697089743 31.461818055366166 0 31.461818055366166 30.602148777717957 0 0 0 0 -280.62199824050185 94.746097646668204 0 94.746097646668204 25.17269435030903 0 0 0 0 -3.0124101432319321 2.0429908219954029 0 2.0429908219954029 3.1624715455787964 0 0 0 0 -620.49844327955361 76.194862649252173 0 76.194862649252173 71.166339353425428 0 0 0 0 -284.48808146205556 44.096620648859243 0 44.096620648859243 56.057130195855279 0 0 0 0 654.86052786116488 817.56349818282251 0 817.56349818282251 128.10731396908523 0 0 0 0 -361.76838890295039 494.14276705484917 0 494.14276705484917 -184.87339032789168 0 0 0 0 -343.59702706380631 607.86852108385938 0 607.86852108385938 258.28015587955451 0 0 0 0 204.47649144870229 295.96753602034369 0 295.96753602034369 182.91112892561068 0 0 0 0 -495.69755587822874 685.76884799787877 0 685.76884799787877 68.505548746088607 0 0 0 0 39.397562547179405 480.75751663549454 0 480.75751663549454 125.5349313992192 0 0 0 0 200.17097830829152 489.4509692576612 0 489.4509692576612 -59.191738416920998 0 0 0 0 -31.300126900838222 673.12899358387949 0 673.12899358387949 225.69119792606944 0 0 0 0 14.660513558686944 543.30752677269629 0 543.30752677269629 -74.310787821596023 0 0 0 0 7.1324429734339105 0.57510917503213932 0 0.57510917503213932 0.79378641018497831 0 0 0 0 -482.21860965760425 385.03448613680303 0 385.03448613680303 1087.0243927721785 0 0 0 0 -1.7784386150239995 290.78392238574543 0 290.78392238574543 -258.60314910175657 0 0 0 0 -454.32780980560347 405.2663291585759 0 405.2663291585759 151.29322567064082 0 0 0 0 -535.24543816249934 481.31503748529212 0 481.31503748529212 271.19502481920426 0 0 0 0 -0.18867738515837118 935.97491010532758 0 935.97491010532758 83.885684336608392 0 0 0 0 -240.75059156469069 701.70388201207606 0 701.70388201207606 -141.19293407839723 0 0 0 0 0.4613109088386409 769.34630753856436 0 769.34630753856436 -288.83067181200022 0 0 0 0 -1174.453227153208 677.0956875271022 0 677.0956875271022 -4.4597851536418602 0 0 0 0 -126.94169501634315 405.56406151361989 0 405.56406151361989 38.297235008752978 0 0 0 0 -233.81152606320029 942.39482150181902 0 942.39482150181902 -439.97808060692478 0 0 0 0 65.647176587110152 683.24389791025169 0 683.24389791025169 -229.1060864749561 0 0 0 0 730.33286063768901 385.28361801479696 0 385.28361801479696 -124.98785400682027 0 0 0 0 84.993170261339401 257.94593668235393 0 257.94593668235393 130.51971518651771 0 0 0 0 97.038248594642937 361.29476745920147 0 361.29476745920147 261.48438610554149 0 0 0 0 -1.2940614121816054 6.1856313875548494 0 6.1856313875548494 -4.844933765997439 0 0 0 0 -1.104331287120921 9.6619354073863235 0 9.6619354073863235 -14.581812150426856 0 0 0 0 332.65314751240658 184.91519227271419 0 184.91519227271419 146.64212502017654 0 0 0 0 -116.87808105839122 293.5153533672356 0 293.5153533672356 304.75315613168641 0 0 0 0 -130.614865919772 -55.172623930093039 0 -55.172623930093039 85.041174187084835 0 0 0 0 347.95275113362004 94.720922989787141 0 94.720922989787141 -93.735895502815765 0 0 0 0 -0.29505360794963309 8.7343682778126777 0 8.7343682778126777 -18.968203579269527 0 0 0 0 313.17457121452026 111.23252556340049 0 111.23252556340049 120.73012913595994 0 0 0 0 -2.0801401459611952 649.48562633650727 0 649.48562633650727 -188.19155681001484 0 0 0 0 232.02964324177447 415.81971485018175 0 415.81971485018175 -1001.3418615728551 0 0 0 0 -170.25476147496374 716.53894194375243 0 716.53894194375243 -214.10907667682113 0 0 0 0 306.26157582209271 547.18406526705348 0 547.18406526705348 -158.16921296312648 0 0 0 0 398.06578898685984 16.616777332856145 0 16.616777332856145 -43.268870002693802 0 0 0 0 8.1058051114706586 6.6972182211314646 0 6.6972182211314646 3.2958257299727443 0 0 0 0 173.86126332328422 436.33924867798487 0 436.33924867798487 909.24182852838567 0 0 0 0 163.37719682419265 292.47561759030577 0 292.47561759030577 536.89574209515558 0 0 0 0 -6.1393824767834531 1.8571021831814107 0 1.8571021831814107 33.771365920412109 0 0 0 0 399.5929051371495 538.29508425196036 0 538.29508425196036 197.09785782604013 0 0 0 0 413.45837200060487 664.87293479514483 0 664.87293479514483 628.40250822502639 0 0 0 0 663.71784270438366 544.20609817795048 0 544.20609817795048 36.77053119946504 0 0 0 0 362.9153928302112 48.553080295136169 0 48.553080295136169 310.80600398279603 0 0 0 0 -18.909053770155879 471.29251124524853 0 471.29251124524853 -153.08000645521679 0 0 0 0 -151.81427496345714 56.717620599403745 0 56.717620599403745 59.366864019069908 0 0 0 0 -21.96950504022243 312.25544755128431 0 312.25544755128431 250.22528092992798 0 0 0 0 -49.257513046788517 479.34861311005079 0 479.34861311005079 677.99897742916073 0 0 0 0 458.46943456430017 691.39988868181445 0 691.39988868181445 264.39418584869418 0 0 0 0 93.274430322751869 449.03860774584973 0 449.03860774584973 184.00725440737006 0 0 0 0 79.790853009209968 403.93700460124819 0 403.93700460124819 43.278575022279256 0 0 0 0 118.00161444779951 452.94811751823545 0 452.94811751823545 62.173407125868835 0 0 0 0 345.08256552637613 307.14774110784856 0 307.14774110784856 -47.444560113697662 0 0 0 0 81.69528127743979 326.68103966961644 0 326.68103966961644 -26.767152286996861 0 0 0 0 161.97355071309721 158.83841299639607 0 158.83841299639607 -58.780784033893724 0 0 0 0 71.985389401350403 89.405802203636995 0 89.405802203636995 -12.963822606150643 0 0 0 0 66.550013993313769 96.602012929033663 0 96.602012929033663 -20.638730716804275 0 0 0 0 223.67140188423218 115.24605451441312 0 115.24605451441312 -24.30640724146906 0 0 0 0 729.58981461617805 384.21931351714557 0 384.21931351714557 -101.00772523383785 0 0 0 0 266.75368179116049 304.29753704541508 0 304.29753704541508 26.002054614007648 0 0 0 0 234.97994814353297 10.31207465623811 0 10.31207465623811 -46.034494249077397 0 0 0 0 353.12866778398165 95.885481410732609 0 95.885481410732609 -83.817699913415709 0 0 0 0 -49.128086731972871 34.438118485959421 0 34.438118485959421 20.523584785893036 0 0 0 0 -71.422384474193677 58.871865729510318 0 58.871865729510318 6.8051372387853917 0 0 0 0 -29.940143169213712 37.922855944084688 0 37.922855944084688 -2.6558315455226307 0 0 0 0 -56.27583771332138 52.322932672735988 0 52.322932672735988 -0.013041073281783611 0 0 0 0 -47.74837471434148 77.727324737061281 0 77.727324737061281 -25.422573141055182 0 0 0 0 76.320438345341245 -13.719196805301181 0 -13.719196805301181 -20.907781979316496 0 0 0 0 -19.179314564621905 20.878649266425896 0 20.878649266425896 8.1143932379055741 0 0 0 0 17.323076068045339 30.459134806667862 0 30.459134806667862 8.8807069386675721 0 0 0 0 -92.113550563786703 51.204963038384449 0 51.204963038384449 -4.1228768256405601 0 0 0 0 -19.719954473612219 50.435645097803842 0 50.435645097803842 -25.716732497420651 0 0 0 0 -56.320715422567446 19.688087194765103 0 19.688087194765103 11.59922430615552 0 0 0 0 -64.397589288488746 53.508217257215605 0 53.508217257215605 -21.395981166776536 0 0 0 0 -56.512377886348986 72.199234881903976 0 72.199234881903976 61.028412992054655 0 0 0 0 -196.7471004165418 264.13905124722805 0 264.13905124722805 74.763705388722883 0 0 0 0 -47.582152009253463 46.733841319183369 0 46.733841319183369 7.8453257885166749 0 0 0 0 -0.61326022114371881 83.486926938363467 0 83.486926938363467 -13.281827981463721 0 0 0 0 -53.469168738956796 137.66474172662129 0 137.66474172662129 -68.474209139138111 0 0 0 0 6.2756950216689802 225.30113388577388 0 225.30113388577388 -71.155469111618004 0 0 0 0 -61.407530793279875 208.81818815539009 0 208.81818815539009 -74.609975935542025 0 0 0 0 12.62851355058956 246.92793625240665 0 246.92793625240665 -201.90865845976805 0 0 0 0 -30.133540863054805 237.47631983121391 0 237.47631983121391 -306.37134300994512 0 0 0 0 -26.472085163299198 273.45586162637846 0 273.45586162637846 -217.85705799193238 0 0 0 0 -118.28623756353045 296.92212953403941 0 296.92212953403941 -188.33179544328596 0 0 0 0 -189.30005517648533 72.371452353851055 0 72.371452353851055 86.604144245909993 0 0 0 0 25.415889111406329 41.025979716023841 0 41.025979716023841 -23.209424563853801 0 0 0 0 -146.23845397506375 287.9779521136079 0 287.9779521136079 -469.99507430572703 0 0 0 0 -125.91960134886904 166.13190121843945 0 166.13190121843945 -268.45929139092914 0 0 0 0 -46.703761445472395 98.178478033432185 0 98.178478033432185 -53.221351477450753 0 0 0 0 -36.35402054147562 188.65822797724832 0 188.65822797724832 -247.96669678796752 0 0 0 0 -64.71882923731755 201.76006234157103 0 201.76006234157103 -210.04173340657144 0 0 0 0 -71.680333947355393 166.64866489848646 0 166.64866489848646 -281.48895138395164 0 0 0 0 -108.30429349720362 199.93738740608387 0 199.93738740608387 -230.48839120215416 0 0 0 0 221.86793248045433 262.37976124833585 0 262.37976124833585 -309.96275275685184 0 0 0 0 -230.48184702568687 231.25412210652576 0 231.25412210652576 62.653059755903087 0 0 0 0 -543.44831746254931 477.7631356233469 0 477.7631356233469 -85.731658435230202 0 0 0 0 15.661064878651814 312.95645087458797 0 312.95645087458797 -614.50777096382808 0 0 0 0 21.872471989307087 460.72664740517212 0 460.72664740517212 -1.0505514028118341 0 0 0 0 -124.41337199596455 457.83562423415424 0 457.83562423415424 -15.661586139649444 0 0 0 0 87.114826180259115 437.09104792756989 0 437.09104792756989 -46.933579613862094 0 0 0 0 -21.523821626935387 306.12808847297129 0 306.12808847297129 -94.370863500726045 0 0 0 0 118.52116991359799 360.74320763463402 0 360.74320763463402 -97.450202967622317 0 0 0 0 52.629717867035652 271.17807217796508 0 271.17807217796508 -79.779188993728894 0 0 0 0 -7.460427218786208 299.40600910189096 0 299.40600910189096 -92.799243567271333 0 0 0 0 -56.027792090135335 243.89418059918171 0 243.89418059918171 -179.45174962781311 0 0 0 0 -60.103056018706411 216.89439182900969 0 216.89439182900969 -213.59804112079291 0 0 0 0 18.562005833024159 257.8061735053634 0 257.8061735053634 -205.00949970690999 0 0 0 0 -0.86032753801555373 313.96754291466277 0 313.96754291466277 -143.87043928631465 0 0 0 0 -137.49193576269317 284.17057317946455 0 284.17057317946455 -150.36775403634238 0 0 0 0 -70.285076073691016 242.54081567277171 0 242.54081567277171 -124.99193283391651 0 0 0 0 -140.78857961573522 292.03195142082404 0 292.03195142082404 -67.969063335724059 0 0 0 0 -366.11458803179266 246.9541768991312 0 246.9541768991312 -41.645994429505663 0 0 0 0 -444.50763451648527 387.50386064372105 0 387.50386064372105 -28.644294977842947 0 0 0 0 -143.65353082708316 157.35879579655739 0 157.35879579655739 -11.532284451353917 0 0 0 0 -155.04658268338972 202.34489437347111 0 202.34489437347111 -143.55781335238134 0 0 0 0 -49.298491475638002 111.52186535442888 0 111.52186535442888 -91.499051681654237 0 0 0 0 -73.534263979585376 165.4434793123728 0 165.4434793123728 -210.30374708063027 0 0 0 0 -93.753824215906207 194.58581024031446 0 194.58581024031446 -177.78791971911414 0 0 0 0 -83.743977197294498 42.497244079996904 0 42.497244079996904 30.551255527043637 0 0 0 0 -320.28689898402081 520.77380110045488 0 520.77380110045488 -701.7014293410175 0 0 0 0 -116.07543454883853 155.24143823943814 0 155.24143823943814 -197.196338848491 0 0 0 0 -804.32147503338638 842.02040997287259 0 842.02040997287259 -825.45779375611164 0 0 0 0 -78.997896390887036 431.94539215298573 0 431.94539215298573 -889.80597674136516 0 0 0 0 -60.495501688322292 164.91344320714643 0 164.91344320714643 -185.43490876183205 0 0 0 0 -378.45665923805791 397.73931426117633 0 397.73931426117633 -879.7343065454188 0 0 0 0 -5.6409783353166745 2.2228103379811728 0 2.2228103379811728 1.8588292868196845 0 0 0 0 -368.78274653031258 958.15766862650344 0 958.15766862650344 -1696.8378290376277 0 0 0 0 -33.249868327256991 249.646766173988 0 249.646766173988 -331.07516552828019 0 0 0 0 -225.64057428388332 89.491600911762362 0 89.491600911762362 -358.30838657886488 0 0 0 0 143.84358115919167 78.061849168530898 0 78.061849168530898 -273.29397358780261 0 0 0 0 -3.538859989210323 330.95152160388534 0 330.95152160388534 -266.47480165092566 0 0 0 0 -163.12129606268718 113.050167390149 0 113.050167390149 -218.13480839424665 0 0 0 0 256.42754637895268 175.75441933790717 0 175.75441933790717 -297.68473460891983 0 0 0 0 -41.36547114700565 103.136728575809 0 103.136728575809 -51.032394889922728 0 0 0 0 -81.96619329333771 163.05937644274854 0 163.05937644274854 -270.12377839638793 0 0 0 0 107.74982798966812 109.88509165869618 0 109.88509165869618 -65.416771198564675 0 0 0 0 -34.123343231702165 22.000177965524927 0 22.000177965524927 -94.051311848132173 0 0 0 0 -16.558019115211721 21.519222566198891 0 21.519222566198891 8.4687739518412286 0 0 0 0 47.738691666593695 70.337459181351448 0 70.337459181351448 -66.175837029143594 0 0 0 0 -115.60198757165927 78.741572621500382 0 78.741572621500382 -161.11803588359908 0 0 0 0 111.18901374915731 92.564453873688763 0 92.564453873688763 -289.61192194906107 0 0 0 0 26.634913298919571 44.197956312010156 0 44.197956312010156 -109.07669235649394 0 0 0 0 323.68632301908656 623.87063340397799 0 623.87063340397799 -221.36388467087818 0 0 0 0 -228.60988110137987 135.13078442946426 0 135.13078442946426 -269.06862505081699 0 0 0 0 20.344113617403139 56.612445292329085 0 56.612445292329085 -90.559139567699162 0 0 0 0 -535.84183701456641 532.59408248477848 0 532.59408248477848 -682.25137998157879 0 0 0 0 -18.586306136043277 230.8386496497551 0 230.8386496497551 32.641040739621531 0 0 0 0 136.49903135027853 374.47349577760178 0 374.47349577760178 -555.58985179156298 0 0 0 0 -139.05881011400925 704.52697568378062 0 704.52697568378062 743.05958849981835 0 0 0 0 -82.055170136853121 389.23734264534869 0 389.23734264534869 -24.17170469732082 0 0 0 0 53.584195510149584 192.37402139567712 0 192.37402139567712 345.56933020299766 0 0 0 0 -74.56515215447871 325.89392700312601 0 325.89392700312601 252.60480738629121 0 0 0 0 72.765701436621384 229.49469140869587 0 229.49469140869587 111.72480915405322 0 0 0 0 85.859096824060543 165.24708028386522 0 165.24708028386522 28.863397999644803 0 0 0 0 33.477936328410578 265.83710785154108 0 265.83710785154108 -112.24404222512385 0 0 0 0 31.582393889955711 192.09806832275353 0 192.09806832275353 325.11307284496434 0 0 0 0 19.201355744880857 111.54963042365853 0 111.54963042365853 444.59480697379877 0 0 0 0 58.636269049695898 118.84711152351548 0 118.84711152351548 -21.814270467189637 0 0 0 0 99.017140049218142 146.30886663285946 0 146.30886663285946 211.45201433531474 0 0 0 0 123.25533754230128 82.878128285006824 0 82.878128285006824 255.85946430702461 0 0 0 0 -127.50281554256799 160.1808042128323 0 160.1808042128323 2.7548762084661575 0 0 0 0 115.87216907233233 121.94349586147291 0 121.94349586147291 218.37102294731449 0 0 0 0 46.216176864138106 94.804122952111356 0 94.804122952111356 216.37416646652764 0 0 0 0 20.350488501511904 19.163159342688857 0 19.163159342688857 8.3742943749096526 0 0 0 0 -53.218010310607497 12.269515549269272 0 12.269515549269272 171.62248240702684 0 0 0 0 34.785200477461331 77.45228359970497 0 77.45228359970497 276.13071903191303 0 0 0 0 3.9113828507252038 118.90158779593912 0 118.90158779593912 227.33066991907253 0 0 0 0 -47.214066661603283 18.449989748129155 0 18.449989748129155 168.25422690391861 0 0 0 0 -53.392053001443855 -35.15581138386915 0 -35.15581138386915 -227.31341584044276 0 0 0 0 -89.313062440865906 33.373235920975276 0 33.373235920975276 166.85078886174597 0 0 0 0 -5.4787287251925818 62.205229161460963 0 62.205229161460963 47.529322056958534 0 0 0 0 -33.110355032931864 2.9305010621845753 0 2.9305010621845753 51.482761368137545 0 0 0 0 -6.3085708161670482 62.386903852348041 0 62.386903852348041 207.45617297109857 0 0 0 0 -22.410396693022676 35.737344882004784 0 35.737344882004784 -5.972123407848045 0 0 0 0 -56.126907231788209 -58.495351488601955 0 -58.495351488601955 140.63825388283294 0 0 0 0 49.720190683205146 -32.012607950971869 0 -32.012607950971869 76.274940566647274 0 0 0 0 -77.756948606256628 97.649219146471296 0 97.649219146471296 23.258917124690925 0 0 0 0 -22.271342020828342 0.75943793608206533 0 0.75943793608206533 76.456941511587445 0 0 0 0 -330.41098484658141 -157.95556671394661 0 -157.95556671394661 117.66155579351471 0 0 0 0 -0.96924741528971481 3.7430793359682895 0 3.7430793359682895 -6.3978787283315377 0 0 0 0 -23.144670015142765 81.930052919888112 0 81.930052919888112 298.41691323196574 0 0 0 0 50.272466167016091 115.18916786236571 0 115.18916786236571 -34.688424012209133 0 0 0 0 78.669380238829035 37.723906006111065 0 37.723906006111065 91.791812722600298 0 0 0 0 -192.61407247192983 38.258063549976214 0 38.258063549976214 136.3112577356078 0 0 0 0 -178.2671100157022 47.699118482181802 0 47.699118482181802 124.17439596042095 0 0 0 0 -174.05537965844269 92.432709749584319 0 92.432709749584319 347.27186198472918 0 0 0 0 -6.8696631000348134 -48.621761330916343 0 -48.621761330916343 215.87629720426048 0 0 0 0 -8.1119851103964038 3.7112942902380723 0 3.7112942902380723 3.5534917033225497 0 0 0 0 -33.40583660823367 51.099733871782561 0 51.099733871782561 87.385469686747172 0 0 0 0 20.465291133335995 110.24179273027767 0 110.24179273027767 142.10024880059063 0 0 0 0 -203.82663951713766 -7.8206110683313455 0 -7.8206110683313455 18.670023883401882 0 0 0 0 -107.16681344734388 61.294997477292782 0 61.294997477292782 78.131543555529788 0 0 0 0 -17.014296457565365 41.934653483708615 0 41.934653483708615 28.387438432888217 0 0 0 0 -45.3441773665254 23.392829490199802 0 23.392829490199802 33.640630424866686 0 0 0 0 -34.041839994245208 18.726531971061718 0 18.726531971061718 15.485443847681154 0 0 0 0 -69.888945442411057 -2.211730518341767 0 -2.211730518341767 23.169194571136643 0 0 0 0 73.872611730213976 33.71866639846121 0 33.71866639846121 58.407779825181933 0 0 0 0 203.4411742969387 89.748112150344241 0 89.748112150344241 -60.872135308105499 0 0 0 0 21.365956471752725 195.55496717417554 0 195.55496717417554 47.666770069859922 0 0 0 0 -33.234559239528608 92.792182025921647 0 92.792182025921647 37.552967628056649 0 0 0 0 -274.68378313013818 236.13207819921081 0 236.13207819921081 24.586912276048679 0 0 0 0 64.92225266440073 99.950978268956533 0 99.950978268956533 -228.13383284267911 0 0 0 0 -216.23653668160841 22.597899541491643 0 22.597899541491643 8.4179407324554631 0 0 0 0 85.342591880370946 124.22542357837779 0 124.22542357837779 24.453923997149104 0 0 0 0 78.952760584652424 -113.62014353601262 0 -113.62014353601262 -49.490690181250102 0 0 0 0 -5.8387762970826032 11.974099364932499 0 11.974099364932499 15.816572108415073 0 0 0 0 830.17339593218639 129.49733953856048 0 129.49733953856048 17.553348258950791 0 0 0 0 -300.38453369343188 285.50999599188799 0 285.50999599188799 207.73055375686454 0 0 0 0 102.87173299019923 379.13604979281081 0 379.13604979281081 226.180453827983 0 0 0 0 133.13255391138955 426.69256104420856 0 426.69256104420856 125.58392670832109 0 0 0 0 -3.4980716322980925 1.5338775302880805 0 1.5338775302880805 -0.080369308788590388 0 0 0 0 -298.24006775068119 2.4625951222260483 0 2.4625951222260483 99.993773618890373 0 0 0 0 160.68072244699579 348.12198984665156 0 348.12198984665156 98.138156686312868 0 0 0 0 192.82917694709613 205.48809705358144 0 205.48809705358144 200.60233289320604 0 0 0 0 -27.901534724893281 235.01389482690138 0 235.01389482690138 197.11453573152539 0 0 0 0 -1616.7415341421147 -49.63792722891958 0 -49.63792722891958 1559.7092869014887 0 0 0 0 153.9739230553314 -52.501796085518436 0 -52.501796085518436 837.06267458252842 0 0 0 0 66.876579162567964 119.4490049654444 0 119.4490049654444 -22.704136118451 0 0 0 0 14.767652713882853 171.31295845381101 0 171.31295845381101 56.296173035152606 0 0 0 0 161.59761993867141 173.2015971586552 0 173.2015971586552 -339.4941263202345 0 0 0 0 -145.09001405535673 104.85751816480115 0 104.85751816480115 -115.36845720588462 0 0 0 0 9.092600316821347 4.0971045363359906 0 4.0971045363359906 2.9987806217002912 0 0 0 0 286.6431023489713 290.72408804565566 0 290.72408804565566 -229.62233102059008 0 0 0 0 -38.133038978994591 102.93804542215366 0 102.93804542215366 -201.54992475705239 0 0 0 0 363.4423127984337 401.92164418061293 0 401.92164418061293 -153.21191455649387 0 0 0 0 268.24816243429086 299.07415095132455 0 299.07415095132455 -230.9247810178058 0 0 0 0 213.11145235187178 361.14879078766398 0 361.14879078766398 -124.92958832906152 0 0 0 0 250.10527505693608 402.90931931808882 0 402.90931931808882 -79.239513340695339 0 0 0 0 349.35763036363278 480.42737124526502 0 480.42737124526502 -99.469427364456351 0 0 0 0 1549.0702336692484 40.945891524781473 0 40.945891524781473 339.24666685824923 0 0 0 0 63.987704910153639 118.81633707066669 0 118.81633707066669 -23.843584796237625 0 0 0 0 2134.292673549091 189.42811569389596 0 189.42811569389596 320.07835939608049 0 0 0 0 246.61947601383145 871.59103500044876 0 871.59103500044876 471.54879555295338 0 0 0 0 -285.60783272806293 156.82952482753717 0 156.82952482753717 310.11626517766854 0 0 0 0 -120.07918120796967 -644.64274361098433 0 -644.64274361098433 903.15582787274616 0 0 0 0 92.641791546077002 527.82512335141655 0 527.82512335141655 322.0667177246504 0 0 0 0 1.5203290321036036 2.6335169697831589 0 2.6335169697831589 5.3500449356180866 0 0 0 0 -62.346564859806676 320.70408984402093 0 320.70408984402093 45.715343000993016 0 0 0 0 -71.428170679236246 152.73176492511061 0 152.73176492511061 -65.193531646174961 0 0 0 0 207.55168036866235 400.04042763059988 0 400.04042763059988 -56.014553539331246 0 0 0 0 38.186414777490427 54.760734029598098 0 54.760734029598098 -97.001115537546866 0 0 0 0 -7.808365527933347 95.534364263065072 0 95.534364263065072 -18.991008809331106 0 0 0 0 100.30522105211276 229.70768502027204 0 229.70768502027204 -32.222052982600871 0 0 0 0 87.812355137109989 135.6670811644799 0 135.6670811644799 -240.90012566630321 0 0 0 0 -134.47698582622979 205.60114644184068 0 205.60114644184068 266.45451841989416 0 0 0 0 9.6821771993563743 179.9994871273957 0 179.9994871273957 210.60312417284877 0 0 0 0 45.149639734606239 127.62635705795093 0 127.62635705795093 -12.541598911707833 0 0 0 0 112.19620229720022 593.74463766751433 0 593.74463766751433 257.21290134225637 0 0 0 0 148.16083403121593 343.33402129645583 0 343.33402129645583 41.872028421588766 0 0 0 0 142.39092476738733 469.60553739928946 0 469.60553739928946 -53.449309200208518 0 0 0 0 172.14373687265834 216.25110601510823 0 216.25110601510823 -181.27863922566758 0 0 0 0 180.19356390233952 357.42674995823654 0 357.42674995823654 -61.120173287243233 0 0 0 0 172.58287682497757 288.0622671072706 0 288.0622671072706 -270.10361407125311 0 0 0 0 147.70792154197989 297.66529969821931 0 297.66529969821931 -130.63625128342392 0 0 0 0 169.18868690905947 368.91616286739736 0 368.91616286739736 -81.162725752146798 0 0 0 0 136.26475461803784 335.05953389164642 0 335.05953389164642 -58.263662576675415 0 0 0 0 178.8116733050847 354.50423507899905 0 354.50423507899905 -60.472551014725468 0 0 0 0 159.71627252621693 420.02697757028727 0 420.02697757028727 124.41701568207645 0 0 0 0 211.38567520435026 387.97627685144107 0 387.97627685144107 -71.832126619750852 0 0 0 0 62.631857843778562 270.17004163202364 0 270.17004163202364 252.45030811252218 0 0 0 0 62.63701522357804 280.44252184717703 0 280.44252184717703 58.522348566257278 0 0 0 0 19.218501553790702 238.36713877755255 0 238.36713877755255 -9.7614678523677867 0 0 0 0 17.041790591843892 261.91341213641135 0 261.91341213641135 53.774840916958055 0 0 0 0 121.38307932243333 332.07275934550125 0 332.07275934550125 2.1710542900509608 0 0 0 0 159.53827972858562 329.83665578229557 0 329.83665578229557 -91.03073638821661 0 0 0 0 108.08426125411643 247.45737583713344 0 247.45737583713344 -138.41678263223002 0 0 0 0 170.3648029487631 294.61743775157538 0 294.61743775157538 -103.54703261468967 0 0 0 0 46.370315944921458 262.15955679589752 0 262.15955679589752 -62.485162707322161 0 0 0 0 -50.401417209533975 173.28978968786396 0 173.28978968786396 -91.04973516688915 0 0 0 0 50.643091824909789 250.92235150829583 0 250.92235150829583 -37.968312172597507 0 0 0 0 110.24216341569081 225.1008585038303 0 225.1008585038303 -110.48353430333373 0 0 0 0 -41.013426004965822 175.47154175042203 0 175.47154175042203 -72.672952246517525 0 0 0 0 -165.42431490300805 113.92948154175247 0 113.92948154175247 -76.821786300546592 0 0 0 0 -69.627147640836483 201.5547525098882 0 201.5547525098882 -6.5469829061330529 0 0 0 0 -200.71899087078054 224.4079409300175 0 224.4079409300175 28.181132756522857 0 0 0 0 -150.89516944991192 185.22800793303031 0 185.22800793303031 -7.3690553284977796 0 0 0 0 -49.413092126662377 214.7380927438935 0 214.7380927438935 -10.603781075406005 0 0 0 0 -65.910641802445753 231.73107716995582 0 231.73107716995582 -5.9062029870547121 0 0 0 0 -52.80812495862483 245.75229715390742 0 245.75229715390742 42.959069001401076 0 0 0 0 -134.82177092685015 215.75240563305488 0 215.75240563305488 -45.12201775671565 0 0 0 0 -118.3493943985668 188.52483972542541 0 188.52483972542541 -1.2836004559503635 0 0 0 0 -143.7717602047087 151.96693960035236 0 151.96693960035236 -2.7268850070904591 0 0 0 0 -138.70213482234976 183.7956811113072 0 183.7956811113072 54.961529796589275 0 0 0 0 -151.67219430863042 155.63008879004701 0 155.63008879004701 -9.5250836791492475 0 0 0 0 -99.101590472855946 67.35706680361389 0 67.35706680361389 13.641273773146835 0 0 0 0 -149.53298942523543 196.22917023943592 0 196.22917023943592 -75.229061837366316 0 0 0 0 -18.981986775076194 4.2547475275165425 0 4.2547475275165425 -0.10521374506647874 0 0 0 0 805.70990556292236 173.88576446098295 0 173.88576446098295 63.72612773039873 0 0 0 0 -22.233605504894513 349.76569589830615 0 349.76569589830615 70.114452924270154 0 0 0 0 8.5834680839306543 34.065053248368173 0 34.065053248368173 -6.0012266304042026 0 0 0 0 -13.113213799297228 228.99545462811147 0 228.99545462811147 35.682236150561948 0 0 0 0 283.67019169969717 280.71160319544288 0 280.71160319544288 -489.81441513144819 0 0 0 0 80.751393622515025 159.49831573177289 0 159.49831573177289 69.279965859512231 0 0 0 0 4.1589251897667623 10.360942698259933 0 10.360942698259933 -0.41220006108494189 0 0 0 0 8.3467397716376581 306.1567248044139 0 306.1567248044139 611.59991551139319 0 0 0 0 79.408587996469578 157.15543404953132 0 157.15543404953132 192.39351786940097 0 0 0 0 166.06250841769361 -11.687546430652219 0 -11.687546430652219 -765.31667513297725 0 0 0 0 -90.172176501147987 -61.379286351366318 0 -61.379286351366318 -82.445561833177635 0 0 0 0 -53.380702481731987 -6.6697567077252415 0 -6.6697567077252415 -424.43308484245063 0 0 0 0 -66.945371953501308 182.38859721769768 0 182.38859721769768 -155.87952570700145 0 0 0 0 177.98215783147316 221.15783319570801 0 221.15783319570801 446.70006941072643 0 0 0 0 -57.829116421955405 52.938508453582472 0 52.938508453582472 -11.257242444626172 0 0 0 0 -56.555062461586203 48.498425263394893 0 48.498425263394893 2.2557576771159802 0 0 0 0 -54.470727038977202 51.095426004314504 0 51.095426004314504 -4.5725817042457493 0 0 0 0 -55.479314992408035 48.364815735716547 0 48.364815735716547 -2.5949502701660094 0 0 0 0 -51.386669793137116 68.91354764746211 0 68.91354764746211 -50.019069958172622 0 0 0 0 -44.408813407568914 27.53274248795347 0 27.53274248795347 24.724367331102904 0 0 0 0 -18.154312687525817 38.482872178659818 0 38.482872178659818 -33.868606252610334 0 0 0 0 -51.416527030116413 86.576312602530379 0 86.576312602530379 45.618699197544629 0 0 0 0 -36.547474548999446 34.286173311525602 0 34.286173311525602 21.172062607428558 0 0 0 0 -4.4226908111013472 47.585213156242389 0 47.585213156242389 -7.8583564598520752 0 0 0 0 -64.243428884801688 71.919750166125596 0 71.919750166125596 -18.946930543934286 0 0 0 0 0.075030045176390558 114.75788927352187 0 114.75788927352187 74.219368846046564 0 0 0 0 132.92729259343469 94.696425742306019 0 94.696425742306019 -154.50159084379266 0 0 0 0 -9.0912667587399483 70.848073215398472 0 70.848073215398472 91.941905330517329 0 0 0 0 -31.39880384963152 27.74731298740079 0 27.74731298740079 52.449598539953257 0 0 0 0 -12.251807207211186 113.97137396362768 0 113.97137396362768 11.078262853048813 0 0 0 0 -55.327459149347732 55.29643511140376 0 55.29643511140376 -8.1196080279054001 0 0 0 0 -75.244943039666396 64.948284688076455 0 64.948284688076455 12.045607584666868 0 0 0 0 4.455929887861771 11.396480174691646 0 11.396480174691646 5.9966376599041595 0 0 0 0 -197.56019485756406 276.40265748072125 0 276.40265748072125 109.29268897575821 0 0 0 0 -241.20640846589231 144.76309226888043 0 144.76309226888043 75.579646568716271 0 0 0 0 -192.55040961090708 239.90377823448216 0 239.90377823448216 -157.04934947844595 0 0 0 0 -202.38034261245048 268.53533309255727 0 268.53533309255727 -8.2927511514935759 0 0 0 0 -230.23492862208514 209.81547423519078 0 209.81547423519078 113.76853725206456 0 0 0 0 -238.93338174390374 258.37836482505372 0 258.37836482505372 65.539753237884725 0 0 0 0 -108.52492401389463 -9.1896306716262188 0 -9.1896306716262188 330.14996508683544 0 0 0 0 -66.407531777049684 29.137750165652236 0 29.137750165652236 6.2994155039154407 0 0 0 0 -35.06248680211138 297.47383859457477 0 297.47383859457477 65.059717104471929 0 0 0 0 -10.048164287943962 29.72617596146145 0 29.72617596146145 4.4470963035679354 0 0 0 0 -64.14761891872331 43.201166353105691 0 43.201166353105691 10.668902327197429 0 0 0 0 -59.150495152490123 48.571283342198512 0 48.571283342198512 9.3834620878146069 0 0 0 0 -47.684961125793052 57.895275375572965 0 57.895275375572965 23.773597395549587 0 0 0 0 -528.61619319274905 8.1259327928055427 0 8.1259327928055427 -15.949554164231813 0 0 0 0 -55.558731534399953 28.209158409803649 0 28.209158409803649 -1.1501581730500567 0 0 0 0 71.213029131176881 269.23959213038688 0 269.23959213038688 -465.21160835152841 0 0 0 0 -73.453815089771524 186.55712762328039 0 186.55712762328039 51.880430003362108 0 0 0 0 -67.834463678371037 57.771726993319277 0 57.771726993319277 -25.126659849290249 0 0 0 0 -154.78512203943683 154.66313312439524 0 154.66313312439524 45.345552689850592 0 0 0 0 -47.106777021424932 -57.768572849706516 0 -57.768572849706516 76.6707310407146 0 0 0 0 -438.06133436271921 -0.41512331580452155 0 -0.41512331580452155 106.820663976996 0 0 0 0 -404.81331816883176 97.080700909475127 0 97.080700909475127 346.37230643255134 0 0 0 0 -910.73251453030389 -39.678346988530393 0 -39.678346988530393 309.47455041347712 0 0 0 0 -17.876855005405616 4.1237886299766373 0 4.1237886299766373 -1.3868983071004162 0 0 0 0 1366.165833958803 658.99839566983792 0 658.99839566983792 -1557.5177954033788 0 0 0 0 -433.016682496469 -171.14514459525526 0 -171.14514459525526 113.75491195111317 0 0 0 0 -1620.3154018334462 -598.23829589541856 0 -598.23829589541856 423.9649129936879 0 0 0 0 914.64593930638512 426.27824619813691 0 426.27824619813691 -430.15411363893509 0 0 0 0 478.27554284781218 586.01509893431648 0 586.01509893431648 -312.73470346844624 0 0 0 0 -54.836392426952898 40.322400183324447 0 40.322400183324447 16.566066948984144 0 0 0 0 -592.53641227379558 660.0367127642894 0 660.0367127642894 34.070600729337457 0 0 0 0 -97.491541657233029 360.51149470357996 0 360.51149470357996 263.39000114337188 0 0 0 0 241.17410865903366 44.78855106289484 0 44.78855106289484 253.9745822423356 0 0 0 0 0.47627730931577617 0.32922968710082046 0 0.32922968710082046 15.256692978666536 0 0 0 0 -594.36395040014759 92.942466838227119 0 92.942466838227119 131.04691253653982 0 0 0 0 1624.7422491325997 665.10291439263165 0 665.10291439263165 22.000846172079036 0 0 0 0 0.39615943630610673 0.63635430454698394 0 0.63635430454698394 4.381477676977255 0 0 0 0 -415.29398240514274 186.96213050987535 0 186.96213050987535 89.592181920932489 0 0 0 0 -244.934111047638 147.59025471906716 0 147.59025471906716 171.01657428318867 0 0 0 0 -348.01794321062698 169.52516889572098 0 169.52516889572098 83.091804784940905 0 0 0 0 -373.61968898100895 68.55451291510326 0 68.55451291510326 122.48085054122203 0 0 0 0 -241.80166333800298 89.132993433420779 0 89.132993433420779 143.91113157919244 0 0 0 0 -155.81331512138422 179.52815451064271 0 179.52815451064271 14.075933736428851 0 0 0 0 -205.95420721772462 186.66643699667566 0 186.66643699667566 26.65526324295206 0 0 0 0 -264.71810423480929 246.92265508461242 0 246.92265508461242 -26.637165903284767 0 0 0 0 -356.47557432946633 147.64889646356096 0 147.64889646356096 68.778767219302608 0 0 0 0 -267.85741995472927 431.60816036230426 0 431.60816036230426 -404.78187162110771 0 0 0 0 -127.61096871190239 147.13401896622963 0 147.13401896622963 -102.13894976260235 0 0 0 0 -3.9551537452789489 55.220978096138424 0 55.220978096138424 144.44261842331616 0 0 0 0 -1.4284114393599339 8.963847795203634 0 8.963847795203634 4.7501411330056484 0 0 0 0 -156.72837176389294 13.279885608466429 0 13.279885608466429 640.32522751179204 0 0 0 0 -1.5804248477000442 5.8427479051719899 0 5.8427479051719899 3.3526995420964383 0 0 0 0 -214.65798621118302 -118.63211683944246 0 -118.63211683944246 1343.1309482674551 0 0 0 0 567.46533832358546 657.44475501528359 0 657.44475501528359 -1392.3187086049948 0 0 0 0 216.75472675638594 999.40830618303562 0 999.40830618303562 -275.98233454117872 0 0 0 0 399.99222672311589 -20.673503691032238 0 -20.673503691032238 -578.36110225485027 0 0 0 0 547.59545798259205 358.58901082615557 0 358.58901082615557 179.79485970310634 0 0 0 0 697.39338066021446 538.10396630235482 0 538.10396630235482 277.13008682753571 0 0 0 0 -486.1255326834289 124.80944786079817 0 124.80944786079817 -288.74917200170603 0 0 0 0 82.37366350684897 599.49793285703709 0 599.49793285703709 91.412366877113527 0 0 0 0 -90.959056902029261 103.37862060013958 0 103.37862060013958 255.65741407845417 0 0 0 0 180.36990274813434 427.29284982178069 0 427.29284982178069 202.93876741869826 0 0 0 0 109.78249351600243 4.4820484744759597 0 4.4820484744759597 16.090482758958387 0 0 0 0 406.28345464885933 354.96416563084131 0 354.96416563084131 -85.885277181387281 0 0 0 0 122.11140967366737 145.92318333166486 0 145.92318333166486 -55.26976802329591 0 0 0 0 -10.991493930373764 10.556518106627834 0 10.556518106627834 -10.489381498254787 0 0 0 0 157.14568815083476 29.460336121306682 0 29.460336121306682 -45.943039100900933 0 0 0 0 -55.283973104014876 117.06811867088345 0 117.06811867088345 60.164133128777394 0 0 0 0 7.1753436186373989 76.228469354686979 0 76.228469354686979 69.174519254622027 0 0 0 0 -25.190253793698503 260.05954950925661 0 260.05954950925661 -142.83674351596346 0 0 0 0 34.05303730299056 85.124079756337778 0 85.124079756337778 50.514126697413303 0 0 0 0 305.79596977094479 508.20844872375528 0 508.20844872375528 168.25006089805811 0 0 0 0 3.5869559823766508 23.036093521292756 0 23.036093521292756 -15.904352339031234 0 0 0 0 -7.054663205129394 75.330482498887136 0 75.330482498887136 54.216711089911271 0 0 0 0 50.734512244773214 92.704780535079408 0 92.704780535079408 53.716233864084643 0 0 0 0 -148.00391241781836 187.88703481990069 0 187.88703481990069 17.073662388291268 0 0 0 0 -159.47635339882981 173.01940783541068 0 173.01940783541068 44.317126285235645 0 0 0 0 -9.1334590495825978 119.88488245340341 0 119.88488245340341 -18.059989958819642 0 0 0 0 -128.98683387407073 158.34125985553874 0 158.34125985553874 -17.53159612980744 0 0 0 0 -10.477895959355124 24.691938638291958 0 24.691938638291958 19.124725001435891 0 0 0 0 -111.02409404714126 61.079652550733954 0 61.079652550733954 213.02081384177473 0 0 0 0 -80.086689450457925 193.52923853566608 0 193.52923853566608 83.512010282967822 0 0 0 0 26.025656289207326 76.30760873697642 0 76.30760873697642 50.207366228750999 0 0 0 0 328.70300929409859 326.13122717887381 0 326.13122717887381 -65.540533567917009 0 0 0 0 -22.747500839247607 14.03541931395651 0 14.03541931395651 17.378654179659776 0 0 0 0 148.91792515214183 -106.32634454338768 0 -106.32634454338768 61.695580215699692 0 0 0 0 -147.94753640731506 338.48651221836371 0 338.48651221836371 -26.687687629944548 0 0 0 0 -217.57265941708465 149.46167307952419 0 149.46167307952419 -61.355444322443873 0 0 0 0 -40.497219584940467 5.8705983559721062 0 5.8705983559721062 217.8132178617816 0 0 0 0 -260.03894379729172 -159.42649687766607 0 -159.42649687766607 438.57704968914913 0 0 0 0 -30.975218018598696 40.014709757128387 0 40.014709757128387 34.138478593543972 0 0 0 0 -281.60108073343872 562.48449900768719 0 562.48449900768719 -521.68554224112086 0 0 0 0 1608.9772807681002 -852.22755331867302 0 -852.22755331867302 355.06054328339815 0 0 0 0 -43.099302023765631 182.51864233399829 0 182.51864233399829 199.53379115055577 0 0 0 0 -853.08548099879408 696.08550632395054 0 696.08550632395054 1171.4563740676276 0 0 0 0 -6.2964644273597514 0.52124541154989856 0 0.52124541154989856 19.385658881779818 0 0 0 0 523.72098079300486 152.99338765330322 0 152.99338765330322 -298.71776279238111 0 0 0 0 198.54357825104671 -170.49971329867003 0 -170.49971329867003 410.17961863098753 0 0 0 0 68.693297290097689 76.914388199138557 0 76.914388199138557 -3.7775793666824029 0 0 0 0 108.55911940630176 543.33452710510937 0 543.33452710510937 -318.61089522326802 0 0 0 0 137.20685973361833 548.75613871393216 0 548.75613871393216 186.49508382705972 0 0 0 0 136.33613603096455 553.38912496790726 0 553.38912496790726 382.90910756107041 0 0 0 0 68.378291133441962 222.65048922978167 0 222.65048922978167 50.975807282426103 0 0 0 0 65.032086118066218 225.37640527604526 0 225.37640527604526 878.20604279846521 0 0 0 0 202.5032702046301 411.44332630970894 0 411.44332630970894 -38.634568898192811 0 0 0 0 -36.073840659457858 107.62585095075156 0 107.62585095075156 114.69618266517064 0 0 0 0 -163.8839800109854 639.0607615318404 0 639.0607615318404 -116.79217636935266 0 0 0 0 3.5683576977874054 14.736606887915698 0 14.736606887915698 -35.218964185130147 0 0 0 0 139.27261228940915 454.52537933795247 0 454.52537933795247 -103.17709358392312 0 0 0 0 -19.395863374054898 432.33397724415408 0 432.33397724415408 -18.442085012637108 0 0 0 0 -120.48957977748796 623.98917129853453 0 623.98917129853453 -381.7744615273914 0 0 0 0 -490.31059159002325 283.62812763594411 0 283.62812763594411 295.20790192732238 0 0 0 0 27.077514712756965 -24.094353355447311 0 -24.094353355447311 -535.91572379875288 0 0 0 0 -4.8644313936230219 4.0808463305015721 0 4.0808463305015721 -2.6346768797572224 0 0 0 0 11.389011918254255 157.84128599526957 0 157.84128599526957 194.57580378030252 0 0 0 0 -47.093891007207276 153.07715080465096 0 153.07715080465096 540.6323244609157 0 0 0 0 -20.071400519860617 22.921247853460955 0 22.921247853460955 154.10886068359832 0 0 0 0 33.826029984200431 96.416628727945863 0 96.416628727945863 206.84464943637431 0 0 0 0 -31.705753304922837 38.977228105137328 0 38.977228105137328 285.17298838140778 0 0 0 0 -31.525184173864545 9.2627151356588513 0 9.2627151356588513 -0.7641482269213089 0 0 0 0 -44.481998300804776 10.757274470132728 0 10.757274470132728 17.425094299590352 0 0 0 0 -71.333644236146938 36.625632188181044 0 36.625632188181044 312.24690901370195 0 0 0 0 -37.685416965563491 130.68995987085384 0 130.68995987085384 258.99867704824283 0 0 0 0 -56.065763983677812 79.297781771804765 0 79.297781771804765 155.18597719799203 0 0 0 0 -140.73403210367542 94.913819722962216 0 94.913819722962216 210.13270237488541 0 0 0 0 -1.2094089567811466 -7.5738567326230424 0 -7.5738567326230424 41.184838849495321 0 0 0 0 -22.091851894656429 308.81901498420666 0 308.81901498420666 -719.76775631669079 0 0 0 0 2.8704610727290856 122.24727351126421 0 122.24727351126421 -194.7619697524533 0 0 0 0 17.133446793402868 84.034131384627131 0 84.034131384627131 -20.57903967261651 0 0 0 0 -56.365000985399092 159.20758996038967 0 159.20758996038967 -20.964846870261681 0 0 0 0 3.3849705436292652 58.173075851031001 0 58.173075851031001 80.313534806075296 0 0 0 0 -39.638665487145772 72.726927013662134 0 72.726927013662134 118.81013385967981 0 0 0 0 -60.14804340711823 92.133851586949604 0 92.133851586949604 79.410451125839444 0 0 0 0 -8.0909280853596215 90.395972471394828 0 90.395972471394828 53.048981074054005 0 0 0 0 -44.251466814414755 59.094363411823977 0 59.094363411823977 109.6552481962743 0 0 0 0 -67.890095471611858 95.501201634579047 0 95.501201634579047 7.484441001281084 0 0 0 0 149.85142017637554 110.58057959930011 0 110.58057959930011 -45.506559685702086 0 0 0 0 -10.718547573852561 6.3795207882860154 0 6.3795207882860154 5.6587123037331537 0 0 0 0 17.234844244678243 -47.35497598888378 0 -47.35497598888378 82.962504025839735 0 0 0 0 -46.588181754021207 -3.1606135132096824 0 -3.1606135132096824 18.116059853345178 0 0 0 0 -167.06357543173363 12.269585619487771 0 12.269585619487771 303.66680798665675 0 0 0 0 -93.26326660218183 11.872743626536248 0 11.872743626536248 99.262708264378489 0 0 0 0 -223.17469525814522 227.45298251125496 0 227.45298251125496 -104.68200831239221 0 0 0 0 -42.806879944415414 14.923122746380614 0 14.923122746380614 3.954329253618198 0 0 0 0 -347.99912225305889 277.38681413760241 0 277.38681413760241 -22.626568589839735 0 0 0 0 -345.72147076310648 316.99875616198187 0 316.99875616198187 67.753616062102083 0 0 0 0 -608.91637419060862 555.5964670674748 0 555.5964670674748 -48.302493603918265 0 0 0 0 -500.27653564537468 586.63812174308259 0 586.63812174308259 -224.38578168073354 0 0 0 0 -123.86122800598969 201.1646367237081 0 201.1646367237081 -282.11802447053924 0 0 0 0 -40.990977931792827 94.980962049983361 0 94.980962049983361 4.3682260835496196 0 0 0 0 -48.130403393406596 306.25481729540752 0 306.25481729540752 -20.452080866045435 0 0 0 0 -271.99191477985005 199.90257060070871 0 199.90257060070871 86.072692465830187 0 0 0 0 -18.56077476802875 90.035571283165922 0 90.035571283165922 -0.74503549804261238 0 0 0 0 159.19946317902941 226.82177291893277 0 226.82177291893277 -88.381924753124622 0 0 0 0 164.63031046360265 106.89153687992348 0 106.89153687992348 -275.20871148414517 0 0 0 0 78.26182425476145 9.515984105913958 0 9.515984105913958 241.90844286574793 0 0 0 0 319.14581467256357 586.28591014171207 0 586.28591014171207 810.59810031231609 0 0 0 0 245.71099387960567 221.85374081977898 0 221.85374081977898 -78.612804380354646 0 0 0 0 51.221559353172779 -271.64940636876054 0 -271.64940636876054 564.78766204540443 0 0 0 0 -193.89331158035202 288.18099802031429 0 288.18099802031429 282.96932264749921 0 0 0 0 50.495641634130152 189.96556067770143 0 189.96556067770143 -72.455034679769597 0 0 0 0 50.481171657913364 215.57466094066331 0 215.57466094066331 -58.466955388605129 0 0 0 0 33.676678215675111 73.24077259174652 0 73.24077259174652 71.299814730923686 0 0 0 0 -91.409773562983901 164.11997938976378 0 164.11997938976378 71.020813320812522 0 0 0 0 -30.047861619550247 61.792852998779182 0 61.792852998779182 57.8156433998357 0 0 0 0 -13.928797594679054 219.16986867697415 0 219.16986867697415 -50.504757933722431 0 0 0 0 -5.2398565643392772 25.684524242220419 0 25.684524242220419 25.117174341272289 0 0 0 0 68.705120402388275 184.83736255750773 0 184.83736255750773 -71.474988918642339 0 0 0 0 35.599811173407943 66.712458119174698 0 66.712458119174698 35.243489445449086 0 0 0 0 -4.0843732847134788 84.744876123412809 0 84.744876123412809 63.978044867615559 0 0 0 0 -535.2571047359379 162.95182459904845 0 162.95182459904845 -27.98125881051601 0 0 0 0 28.899145903497015 60.970616500345017 0 60.970616500345017 46.266951009986336 0 0 0 0 -4.3420508205017541 24.550200187283735 0 24.550200187283735 -10.769254249185906 0 0 0 0 80.54899054748239 152.42281399758076 0 152.42281399758076 -147.49951143421822 0 0 0 0 2.4399749337899266 67.652386429962462 0 67.652386429962462 58.197768814130541 0 0 0 0 -1.5390593069081433 161.70141118139259 0 161.70141118139259 61.033592935482915 0 0 0 0 -15.072009138413705 81.67751521649916 0 81.67751521649916 22.80820141034792 0 0 0 0 -11.354011405426263 119.89469988641991 0 119.89469988641991 -14.195252152954836 0 0 0 0 -3.259540357441324 58.714233746290489 0 58.714233746290489 58.652523606673199 0 0 0 0 -11.373588555841707 92.106691309601956 0 92.106691309601956 50.52313264015163 0 0 0 0 18.674591295712162 202.0620030731352 0 202.0620030731352 -11.553322399260651 0 0 0 0 8.2338446072774047 57.56928171131986 0 57.56928171131986 -12.727183611156121 0 0 0 0 -7.9602410488572843 -1.0693369319372721 0 -1.0693369319372721 47.206591213649034 0 0 0 0 90.865801023537642 186.43555822005874 0 186.43555822005874 -23.714263443805976 0 0 0 0 48.346092468684219 -86.304956206007319 0 -86.304956206007319 588.31708989083927 0 0 0 0 -299.37829996476648 -129.72265337113276 0 -129.72265337113276 463.09248827312695 0 0 0 0 143.85124269785592 365.25482080254551 0 365.25482080254551 128.44126226898879 0 0 0 0 156.65590395426989 300.30553668057291 0 300.30553668057291 -348.66748422973615 0 0 0 0 -9.4248699513578345 -0.99443436864706314 0 -0.99443436864706314 11.450712997033975 0 0 0 0 18.207095656456659 -583.57245070905083 0 -583.57245070905083 169.08414154296406 0 0 0 0 1474.3814336727082 790.69132767260089 0 790.69132767260089 244.25424219120578 0 0 0 0 271.83922488233657 -508.67873417248029 0 -508.67873417248029 -389.00522209663359 0 0 0 0 -703.42077012758818 -141.66234300683254 0 -141.66234300683254 108.3574018025538 0 0 0 0 -338.43822947173612 36.980166122119044 0 36.980166122119044 -104.55577765281254 0 0 0 0 -38.732464042521315 -88.945126866816054 0 -88.945126866816054 -148.08314748157864 0 0 0 0 -41.529745015472145 -80.839334441557867 0 -80.839334441557867 -78.288469998426081 0 0 0 0 289.42675368089112 170.61996006996105 0 170.61996006996105 -300.48258849693775 0 0 0 0 227.85494887505774 161.66161905726585 0 161.66161905726585 -281.56688316200962 0 0 0 0 469.17806433251826 -137.57464704437189 0 -137.57464704437189 -252.20322029534691 0 0 0 0 807.38444288488245 230.00262609300262 0 230.00262609300262 -314.2362610713476 0 0 0 0 459.1863968699472 446.11914087849891 0 446.11914087849891 267.18960709082239 0 0 0 0 1015.455934935133 781.63980473911579 0 781.63980473911579 259.55045046540545 0 0 0 0 956.79100053966977 330.94518728869116 0 330.94518728869116 58.00016496886019 0 0 0 0 1131.7037534400297 291.47986710206897 0 291.47986710206897 -136.62405540329564 0 0 0 0 1326.8169932474266 1252.5246108766933 0 1252.5246108766933 896.81193975802307 0 0 0 0 868.0027337311767 1202.2402696463087 0 1202.2402696463087 1273.8637279613467 0 0 0 0 453.3700929658371 1236.4257011611644 0 1236.4257011611644 1336.310090527506 0 0 0 0 1158.8264556686045 1668.6696609053834 0 1668.6696609053834 1512.5636146825454 0 0 0 0 300.38969448854914 1716.9949044905688 0 1716.9949044905688 2399.5145033753288 0 0 0 0 -68.692563834076282 1460.2745178648365 0 1460.2745178648365 2013.6293419844451 0 0 0 0 350.51878529018722 1764.8794417134086 0 1764.8794417134086 2133.1910374937379 0 0 0 0 -196.34005229349714 1175.7925331034858 0 1175.7925331034858 1686.4387030408225 0 0 0 0 -22.805219922796823 1404.7232637245161 0 1404.7232637245161 1605.4506137391618 0 0 0 0 591.94190599161084 1357.0703014382079 0 1357.0703014382079 1159.8986213596654 0 0 0 0 -221.33419525658246 797.29010349239707 0 797.29010349239707 893.56279126510435 0 0 0 0 -313.96850955870468 1241.8596806206533 0 1241.8596806206533 2192.7106216165566 0 0 0 0 -441.46462455188157 1327.3591915681209 0 1327.3591915681209 2305.9148201510352 0 0 0 0 -199.56446635210887 1438.1313667550457 0 1438.1313667550457 2248.7618200608313 0 0 0 0 -318.32864737644559 1132.0205273979382 0 1132.0205273979382 2243.5373605636087 0 0 0 0 -248.91504908891511 1207.2666333943544 0 1207.2666333943544 1745.3221226007572 0 0 0 0 -341.93001628058755 191.47402314940911 0 191.47402314940911 1038.3202416845252 0 0 0 0 164.56684376980411 383.76925982079865 0 383.76925982079865 559.40224547513571 0 0 0 0 27.303108704711917 52.24844446540807 0 52.24844446540807 -14.798791358068172 0 0 0 0 -126.77591721698991 955.66750364366908 0 955.66750364366908 1882.258344557893 0 0 0 0 -133.16781835496658 849.19472537911497 0 849.19472537911497 927.34588639831782 0 0 0 0 511.56632680230541 405.33840408411379 0 405.33840408411379 -72.746677316343266 0 0 0 0 177.21288887568517 936.26613509618255 0 936.26613509618255 325.51558171942588 0 0 0 0 9.0068108526756987 1193.4674900534228 0 1193.4674900534228 794.12602912209695 0 0 0 0 88.701853500155266 245.38378096695669 0 245.38378096695669 382.42549422706099 0 0 0 0 -3.4181810263373364 49.128191584020442 0 49.128191584020442 6.5892953733838873 0 0 0 0 -512.24628193851095 370.95403513786277 0 370.95403513786277 -73.44794580936761 0 0 0 0 68.362630790274125 49.576865268843903 0 49.576865268843903 -45.730231300698506 0 0 0 0 0.76353244862481517 40.707931290075408 0 40.707931290075408 -69.385478773415244 0 0 0 0 27.337639363133349 51.107272773693694 0 51.107272773693694 -8.5867119196704493 0 0 0 0 22.539536134456284 39.186311602365095 0 39.186311602365095 -35.368324449675129 0 0 0 0 -1.2731552611658117 48.478591905442954 0 48.478591905442954 -34.585654492617323 0 0 0 0 34.40054409541699 29.137568807730077 0 29.137568807730077 -52.603518688192707 0 0 0 0 35.534124039550079 34.457077918697905 0 34.457077918697905 -70.766752254377934 0 0 0 0 32.753059919690713 53.990173202422739 0 53.990173202422739 -79.389660658885987 0 0 0 0 31.144207830424421 49.197801866543159 0 49.197801866543159 -51.742537694412249 0 0 0 0 -115.78754710944486 -39.621722510941254 0 -39.621722510941254 73.658715043013217 0 0 0 0 490.05838095214858 109.93559070060019 0 109.93559070060019 -253.85268958802044 0 0 0 0 -1.3097751997702289 10.644111151215839 0 10.644111151215839 -47.13647138518354 0 0 0 0 -3.1756447892512369 70.349277512524168 0 70.349277512524168 -14.127413801543298 0 0 0 0 8.2174646018247586 54.276609447313604 0 54.276609447313604 -65.43353513896227 0 0 0 0 -0.5918139681671164 56.844989501533746 0 56.844989501533746 -16.753135615044812 0 0 0 0 -20.626187968169688 33.107459478041022 0 33.107459478041022 -25.529035269235916 0 0 0 0 -7.589898678343161 45.197462555043785 0 45.197462555043785 -32.271764305944089 0 0 0 0 -2.5917847876402789 6.2133481949916813 0 6.2133481949916813 24.127149895151657 0 0 0 0 243.60695806550211 645.16720754828293 0 645.16720754828293 3688.3587544507486 0 0 0 0 494.18886106317223 1251.1798254726857 0 1251.1798254726857 3759.9209472303992 0 0 0 0 4.7309463603664881 46.430396470764933 0 46.430396470764933 1.0208646965649459 0 0 0 0 -362.01665162552763 597.5042971064388 0 597.5042971064388 2608.9282394563143 0 0 0 0 326.06162301503355 -467.14819839552729 0 -467.14819839552729 839.73906938305504 0 0 0 0 399.53563379694242 1155.5879914784773 0 1155.5879914784773 2144.6583835674646 0 0 0 0 -320.18269885081099 1130.6758652626395 0 1130.6758652626395 2254.2159422035293 0 0 0 0 766.66610199226125 575.04177645771074 0 575.04177645771074 2249.3510448338948 0 0 0 0 45.76711110791075 865.67557873058468 0 865.67557873058468 2334.9590880124215 0 0 0 0 197.62523050908931 1202.1700122534721 0 1202.1700122534721 2127.0801208620323 0 0 0 0 258.22628896546667 661.68762010005321 0 661.68762010005321 2189.4351701839059 0 0 0 0 594.14221328179701 858.96307174973094 0 858.96307174973094 2190.6656729894839 0 0 0 0 78.384879338162136 582.67386917312297 0 582.67386917312297 1953.9390501715015 0 0 0 0 404.59656446683221 420.13242377167273 0 420.13242377167273 2128.7290508192141 0 0 0 0 1001.3435679528047 1018.7817595099011 0 1018.7817595099011 1871.8543425606485 0 0 0 0 15.101906935547277 4.4659652865952175 0 4.4659652865952175 -2.7723816960399037 0 0 0 0 106.18654482510465 1015.2791246533623 0 1015.2791246533623 3954.6261212513336 0 0 0 0 410.33355343576113 1345.6182531429308 0 1345.6182531429308 3509.4844495345524 0 0 0 0 -3.8580829443084212 -1.8092541898029708 0 -1.8092541898029708 9.350074493818223 0 0 0 0 103.99766458617523 844.87754093267517 0 844.87754093267517 2412.698667401276 0 0 0 0 0.8064058203890454 515.86825529893486 0 515.86825529893486 933.30809954245854 0 0 0 0 86.640572633230477 693.79195339329362 0 693.79195339329362 1900.3783861773072 0 0 0 0 0.67363028817635495 498.9561793632206 0 498.9561793632206 2082.4103177941993 0 0 0 0 132.7663885592483 863.12798341441021 0 863.12798341441021 1357.5779497321455 0 0 0 0 37.317760600184556 698.63502220576765 0 698.63502220576765 2263.6518988465587 0 0 0 0 32.65392085610074 537.24582917158114 0 537.24582917158114 1044.1356931911087 0 0 0 0 -39.259347859682748 450.00194619357717 0 450.00194619357717 1132.6019169247438 0 0 0 0 0.11606961867073551 444.63119251493117 0 444.63119251493117 1028.3121613088697 0 0 0 0 188.96421928294876 20.310382868873603 0 20.310382868873603 -34.79203385388567 0 0 0 0 887.39114560358576 1026.6141886780979 0 1026.6141886780979 449.17158738536818 0 0 0 0 99.162395180479507 36.970915947836147 0 36.970915947836147 334.76407185383732 0 0 0 0 13.416473916386167 41.956037990181812 0 41.956037990181812 -52.431001891101914 0 0 0 0 2.4642534061313199 0.8535346278141418 0 0.8535346278141418 -7.8310875587249491 0 0 0 0 -17.759372256304061 20.803419648977496 0 20.803419648977496 -24.338145184139321 0 0 0 0 -546.69529723798041 -312.68151285973363 0 -312.68151285973363 477.16965779993325 0 0 0 0 254.35071418166626 322.84417884516824 0 322.84417884516824 -1173.4852996028931 0 0 0 0 147.01048935414292 137.82746422450327 0 137.82746422450327 -786.99218465691229 0 0 0 0 44.752179260744015 486.00483529252597 0 486.00483529252597 804.46161068474248 0 0 0 0 21.434195114765316 21.612005584076542 0 21.612005584076542 -100.86897126238409 0 0 0 0 1.8645929471763338 -4.050763651859711 0 -4.050763651859711 0.27776471225700838 0 0 0 0 338.55952158087166 283.11577829575845 0 283.11577829575845 120.64123668445245 0 0 0 0 2.5188158765530488 -0.044717853671400576 0 -0.044717853671400576 -9.1184419588310881 0 0 0 0 -9.0152782859183844 13.473944043809809 0 13.473944043809809 -16.720031860592456 0 0 0 0 359.32339090586174 -86.674506203002238 0 -86.674506203002238 -475.32123645630054 0 0 0 0 13.345749364685616 33.338119264424677 0 33.338119264424677 -35.230193341434415 0 0 0 0 -8.1209466504806187 11.488982821390891 0 11.488982821390891 11.421209435884521 0 0 0 0 13.345749364700168 5.1204928907663998 0 5.1204928907663998 -46.297827539205173 0 0 0 0 -0.032500900400918908 27.980495514708309 0 27.980495514708309 -43.149934287295764 0 0 0 0 0.044478137686382979 33.390188467845292 0 33.390188467845292 13.730348074916719 0 0 0 0 134.54116333804268 -54.509140943571765 0 -54.509140943571765 -451.2349338046115 0 0 0 0 -302.03321661458904 -822.00864381498877 0 -822.00864381498877 -850.77469535409546 0 0 0 0 -5.484059824290398 3.7726169499118498 0 3.7726169499118498 -4.2509180179207107 0 0 0 0 -419.90162786984001 732.12873051350471 0 732.12873051350471 -229.83206445551696 0 0 0 0 -398.19932930447976 709.02486636036701 0 709.02486636036701 -207.72398957754922 0 0 0 0 -445.67449686172768 716.60419721472317 0 716.60419721472317 -189.41305364088475 0 0 0 0 -0.52710933004230043 5.1654227739732335 0 5.1654227739732335 -9.2503435313641091 0 0 0 0 753.15490848536137 -265.2229913407682 0 -265.2229913407682 -488.93274041275436 0 0 0 0 324.21977054266608 -410.15978586817073 0 -410.15978586817073 166.85854848785675 0 0 0 0 1099.8074068058049 379.11441309439215 0 379.11441309439215 -549.03322573682817 0 0 0 0 -314.1393732787983 -381.88760047683536 0 -381.88760047683536 -255.6996234986218 0 0 0 0 -499.97260633221595 545.20577954399505 0 545.20577954399505 -335.26401158884255 0 0 0 0 -429.7925028205791 695.98957853353204 0 695.98957853353204 -163.45245725853601 0 0 0 0 35.051090173321427 -87.306685977873713 0 -87.306685977873713 -1300.325816806675 0 0 0 0 -61.756228858153918 -44.363418194152473 0 -44.363418194152473 -267.69057344333123 0 0 0 0 180.61549319981714 4.7966126909741433 0 4.7966126909741433 -173.92115187408126 0 0 0 0 -6.9656417775925092 2.5296721602127121 0 2.5296721602127121 -1.2291995660210944 0 0 0 0 -309.61214600941457 422.98059902976274 0 422.98059902976274 326.67621692184912 0 0 0 0 -17.140373588686089 9.704113705232885 0 9.704113705232885 -5.7487796550756798 0 0 0 0 215.61508354896796 127.78145001558369 0 127.78145001558369 76.897292486184597 0 0 0 0 57.553079884412 -119.03544985354529 0 -119.03544985354529 -486.05881612773373 0 0 0 0 264.90599514618225 179.01479611880859 0 179.01479611880859 -345.41765582097287 0 0 0 0 437.15306514919212 360.95914994548184 0 360.95914994548184 -173.29708867076988 0 0 0 0 209.64922855055192 172.96461161139086 0 172.96461161139086 -75.088394967352542 0 0 0 0 846.79739752783644 705.20789971846443 0 705.20789971846443 64.274359563423786 0 0 0 0 391.32555714459158 385.13440412145792 0 385.13440412145792 125.60322891709984 0 0 0 0 978.39111521851737 126.55268807230095 0 126.55268807230095 -86.321426910330956 0 0 0 0 -4.1021394377519016 4.3951863080319526 0 4.3951863080319526 -2.8256037919600203 0 0 0 0 447.1350747908873 228.63460540477172 0 228.63460540477172 283.04949962743558 0 0 0 0 -135.94076693605166 122.58427530614972 0 122.58427530614972 -98.930670215660939 0 0 0 0 118.44657423719764 196.41099827065773 0 196.41099827065773 -172.51356575591745 0 0 0 0 -24.387399841557681 18.401165099505079 0 18.401165099505079 -13.01171568703905 0 0 0 0 19.601292940802523 78.077668019686826 0 78.077668019686826 132.60221183435351 0 0 0 0 97.912181107705692 83.106728903585463 0 83.106728903585463 -28.208164763171226 0 0 0 0 733.39858647182336 346.49864428749152 0 346.49864428749152 12.627210286314948 0 0 0 0 8.4635974427176848 2.0801228626803123 0 2.0801228626803123 -10.54713457866427 0 0 0 0 671.11073943521478 209.08173093816731 0 209.08173093816731 -67.560738024665625 0 0 0 0 21.860983077000128 62.329351425128152 0 62.329351425128152 -67.908077526524721 0 0 0 0 -7.3960659728831715 24.871293144873675 0 24.871293144873675 -48.312434119301955 0 0 0 0 -69.471488909635809 113.19394970034955 0 113.19394970034955 15.762609950579645 0 0 0 0 69.295242463158502 59.052621009738687 0 59.052621009738687 -180.03879013027472 0 0 0 0 38.787294722656952 104.75729778921959 0 104.75729778921959 38.041838504319458 0 0 0 0 49.678129661828279 52.864233676489675 0 52.864233676489675 -219.0620895567954 0 0 0 0 0.85272595256731165 -3.2630858520097377 0 -3.2630858520097377 -0.49243451986633957 0 0 0 0 39.867548223410267 79.79998141881515 0 79.79998141881515 -162.20399981694936 0 0 0 0 16.95203427496017 23.280482484075947 0 23.280482484075947 -108.36537892063643 0 0 0 0 20.754702653503045 18.221954136988643 0 18.221954136988643 -180.69660615246175 0 0 0 0 -23.785302380303619 18.321656275365967 0 18.321656275365967 -72.151876958052071 0 0 0 0 3.234870693704579 38.645195202492687 0 38.645195202492687 -122.11043560369944 0 0 0 0 1.0723527090576681 -3.5833494955023895 0 -3.5833494955023895 0.33961635970661153 0 0 0 0 136.30004583203117 -61.482080697300262 0 -61.482080697300262 71.710207115282174 0 0 0 0 158.28088994779773 -105.18939611440578 0 -105.18939611440578 -37.8385078265419 0 0 0 0 -3.3137048980715917 30.46638867709953 0 30.46638867709953 42.33477401644268 0 0 0 0 3.1863909899550578 0.15489387242352848 0 0.15489387242352848 -24.180074136669987 0 0 0 0 3378.6119078529409 -38.643321443461446 0 -38.643321443461446 -124.30670129396094 0 0 0 0 1862.9042470640779 1456.0578104492215 0 1456.0578104492215 1621.3997618895992 0 0 0 0 -2739.3551653532486 2189.5821718683069 0 2189.5821718683069 -695.27624524937755 0 0 0 0 -1203.855563805133 842.11345925437809 0 842.11345925437809 -407.05124561213597 0 0 0 0 -1256.1986033403664 659.14166762810464 0 659.14166762810464 -1044.0272492742047 0 0 0 0 -720.30609751416648 885.81222106991856 0 885.81222106991856 452.99819766691508 0 0 0 0 -708.22934137448169 77.776927955160886 0 77.776927955160886 71.560427880507632 0 0 0 0 -605.81708466070995 480.49669995588374 0 480.49669995588374 641.74914377980167 0 0 0 0 695.41086010314757 765.51967235763732 0 765.51967235763732 356.47642109215849 0 0 0 0 592.56850080264849 1292.1585278741604 0 1292.1585278741604 1724.7163227905648 0 0 0 0 834.93834764751227 1176.7677390707468 0 1176.7677390707468 -1675.8360274209263 0 0 0 0 1789.2993970180905 -402.85528274055741 0 -402.85528274055741 749.2206384787678 0 0 0 0 1.0177070327594464 0.78197312058200907 0 0.78197312058200907 6.5306476448179041 0 0 0 0 5304.489563093397 3460.0348482710342 0 3460.0348482710342 -2506.6287373525211 0 0 0 0 -3125.8211075738654 -336.804729915606 0 -336.804729915606 159.11593079947488 0 0 0 0 -985.79739905052702 -707.9411342611711 0 -707.9411342611711 -258.65081832539454 0 0 0 0 -1425.0832455519121 498.43669089384275 0 498.43669089384275 -287.83443432467175 0 0 0 0 539.20532462609117 -531.1382306533269 0 -531.1382306533269 187.0644153497251 0 0 0 0 302.34027639456326 1741.0559373915407 0 1741.0559373915407 -314.47378107328228 0 0 0 0 -597.66215147871117 822.92559369153241 0 822.92559369153241 -540.30704715505271 0 0 0 0 -747.83910131864832 262.3655394596226 0 262.3655394596226 -458.77483597275477 0 0 0 0 -1930.6442844739213 777.46052096550466 0 777.46052096550466 -249.71423128302195 0 0 0 0 -16.536890096391517 86.308778624771492 0 86.308778624771492 -75.338127976601726 0 0 0 0 -5.7523377922298096 349.33788544476374 0 349.33788544476374 -277.77676573595818 0 0 0 0 -1460.8858588580333 1909.2660736010448 0 1909.2660736010448 906.87861030415354 0 0 0 0 -3082.3831968326558 717.92125081040012 0 717.92125081040012 302.86280444760632 0 0 0 0 -1793.9973700688861 1612.2009402020194 0 1612.2009402020194 -321.75272250633793 0 0 0 0 1.415066199612852 -2.3203056862399478 0 -2.3203056862399478 -7.8104806240187372 0 0 0 0 1117.5570434673864 736.2522387355184 0 736.2522387355184 794.88864571342151 0 0 0 0 1639.1160589464853 830.26338346671946 0 830.26338346671946 73.165596691531391 0 0 0 0 1484.9318552645273 563.75870605500404 0 563.75870605500404 -308.77735105435568 0 0 0 0 -1937.0172751368373 251.40150511016327 0 251.40150511016327 82.190344288879714 0 0 0 0 -1512.3289463559049 204.01893679956629 0 204.01893679956629 86.994236918764727 0 0 0 0 -232.14569796614524 382.46905930644425 0 382.46905930644425 -298.38439476912026 0 0 0 0 13.004459249488484 13.525061392300742 0 13.525061392300742 -15.350305591098333 0 0 0 0 948.13835996403941 578.87102690124993 0 578.87102690124993 -235.60495235460257 0 0 0 0 69.567084634138155 374.42580870987149 0 374.42580870987149 1003.7793224881389 0 0 0 0 -712.8065611631464 1093.6352520744222 0 1093.6352520744222 -169.50033493694536 0 0 0 0 -1029.9721400155104 408.72137541658958 0 408.72137541658958 -191.2414587294661 0 0 0 0 -1717.6891817039614 908.37668056526263 0 908.37668056526263 -483.33135142954416 0 0 0 0 -648.19077243471111 999.76346424305848 0 999.76346424305848 -182.53477810818276 0 0 0 0 -1574.9766188092617 395.96979521117873 0 395.96979521117873 39.486763842320215 0 0 0 0 1091.4760408088841 212.4530975036887 0 212.4530975036887 10.652061441713158 0 0 0 0 451.87976280220028 1191.6335541038388 0 1191.6335541038388 -57.739885199493528 0 0 0 0 -530.53643310088228 719.8051133658937 0 719.8051133658937 -333.06140932708331 0 0 0 0 -481.41161351963819 557.42875261433255 0 557.42875261433255 -114.72227862086584 0 0 0 0 50.620122494766491 91.978929997014319 0 91.978929997014319 70.950865115498658 0 0 0 0 -276.49433262529055 1064.7638478959689 0 1064.7638478959689 -124.33513706485036 0 0 0 0 136.54426294912264 82.437939783009369 0 82.437939783009369 -24.114251975447587 0 0 0 0 11.601654610852336 20.435324792416878 0 20.435324792416878 8.9068524794581165 0 0 0 0 -1475.7340049785271 499.59064952041444 0 499.59064952041444 -27.837842974407977 0 0 0 0 110.56439942620636 79.607246182971721 0 79.607246182971721 -32.737838978013315 0 0 0 0 32.943682549158467 60.378354018495507 0 60.378354018495507 -24.103524024472094 0 0 0 0 54.421455686868285 313.9295132218831 0 313.9295132218831 236.54694901817493 0 0 0 0 3.1149200492381084 48.904435218986208 0 48.904435218986208 -70.020235096026397 0 0 0 0 4.4896462572133302 40.226404465794403 0 40.226404465794403 -36.951689582416961 0 0 0 0 186.09737870711251 332.97355361816517 0 332.97355361816517 177.36069536772266 0 0 0 0 118.71206166256161 90.685815472535069 0 90.685815472535069 2.4008131574955769 0 0 0 0 -16.059732537356467 146.60358917323629 0 146.60358917323629 301.98247568328225 0 0 0 0 115.32947195876477 244.72397111392911 0 244.72397111392911 182.28548729637259 0 0 0 0 -26.580007589582237 190.50151947333507 0 190.50151947333507 196.93969833759002 0 0 0 0 74.128607786425562 95.824541148964755 0 95.824541148964755 89.253487535561831 0 0 0 0 -188.3726600438531 -98.420089879393345 0 -98.420089879393345 519.69758354953592 0 0 0 0 252.36218674929114 868.01420491572026 0 868.01420491572026 -943.82818644363033 0 0 0 0 1460.8566367477943 -384.91922121101788 0 -384.91922121101788 152.44059677050245 0 0 0 0 199.11210378828218 70.040956635981729 0 70.040956635981729 -506.25965634753447 0 0 0 0 553.35201719621546 441.65568925147454 0 441.65568925147454 -116.82297049553381 0 0 0 0 -1603.2122527012179 1173.1507369526844 0 1173.1507369526844 -508.0165200993747 0 0 0 0 1244.0634913354988 -342.01481193975633 0 -342.01481193975633 -402.88754848941244 0 0 0 0 3.0100277125911319 -7.6317689839153076 0 -7.6317689839153076 -66.071481634200296 0 0 0 0 -1194.8872966802446 668.50577392390414 0 668.50577392390414 -545.43332129967894 0 0 0 0 -253.86805793143867 80.525857217229714 0 80.525857217229714 156.95431011498476 0 0 0 0 -191.86943955793686 457.64299896488956 0 457.64299896488956 -711.25684901658042 0 0 0 0 -1070.3845058180304 1149.5599890643753 0 1149.5599890643753 -685.64033921353439 0 0 0 0 -1003.4738507115617 1100.2383727711092 0 1100.2383727711092 -649.95582660848231 0 0 0 0 -293.59450320113683 1105.6633867162673 0 1105.6633867162673 -1161.7698024690508 0 0 0 0 -1428.8260372371587 1254.2875948436417 0 1254.2875948436417 -541.73663185329383 0 0 0 0 -1055.8489013550698 1278.6706744776784 0 1278.6706744776784 -598.41547250638905 0 0 0 0 -1662.1507509685252 312.33393228169723 0 312.33393228169723 57.544013260517175 0 0 0 0 -2790.2959668876429 2379.4601942985282 0 2379.4601942985282 -1262.5908531029381 0 0 0 0 -3631.3466332916287 3.1706243851622276 0 3.1706243851622276 -259.23727316453369 0 0 0 0 -1611.2997288677489 679.84846183108971 0 679.84846183108971 -311.11986078254631 0 0 0 0 -530.5185132947372 129.23193553418696 0 129.23193553418696 -44.709539818359872 0 0 0 0 -866.22386399585776 532.0455289863163 0 532.0455289863163 -184.10115425626532 0 0 0 0 -826.90605911413149 511.55291819086642 0 511.55291819086642 -440.94646388088933 0 0 0 0 -1200.704283129111 1078.1520960515304 0 1078.1520960515304 -507.56836645591176 0 0 0 0 -23.569663623529294 3.1468049484294536 0 3.1468049484294536 0.91572946515155706 0 0 0 0 -64.510544182689046 564.88793827404879 0 564.88793827404879 -1400.1445689392076 0 0 0 0 -429.28552552232577 -162.21548672615336 0 -162.21548672615336 237.11560599955192 0 0 0 0 -8.9820404280654884 31.318591640862792 0 31.318591640862792 -51.208836935404968 0 0 0 0 -156.55424874928576 1632.3418088789958 0 1632.3418088789958 -1750.3348307810957 0 0 0 0 500.27693782595452 35.900325180502477 0 35.900325180502477 -625.24085405108053 0 0 0 0 -1247.1449308065003 -1104.3480215006762 0 -1104.3480215006762 -408.02697157235889 0 0 0 0 -811.84494492140129 190.31177466003209 0 190.31177466003209 236.06363832847524 0 0 0 0 -412.21625802565541 -91.065739322468289 0 -91.065739322468289 335.1009156878464 0 0 0 0 -544.85127197451402 -83.427922327685792 0 -83.427922327685792 348.36873074775212 0 0 0 0 -455.42309791981825 -30.147409106966734 0 -30.147409106966734 355.05580626423398 0 0 0 0 -225.24931031273445 -117.55866011257422 0 -117.55866011257422 246.7693090789835 0 0 0 0 -1110.9575056388712 68.041299177131549 0 68.041299177131549 394.45391097535321 0 0 0 0 -8.6183398879401238 25.089065117952288 0 25.089065117952288 -31.099448458342792 0 0 0 0 219.23628768669005 24.031058713302173 0 24.031058713302173 -53.225555396445998 0 0 0 0 -582.92031309136655 -157.61073321906224 0 -157.61073321906224 287.55205103847993 0 0 0 0 -90.748640256613726 21.45902289471087 0 21.45902289471087 178.73366402398369 0 0 0 0 -333.72371172673593 43.812807166526909 0 43.812807166526909 190.83104258354797 0 0 0 0 -571.11220544930984 33.927667709518573 0 33.927667709518573 -316.81752701174082 0 0 0 0 -469.07190376429935 364.73158344593867 0 364.73158344593867 -694.12947709758009 0 0 0 0 -540.27724853419932 15.401431494065037 0 15.401431494065037 5.1587518062017352 0 0 0 0 -979.44915725322062 471.30525112302416 0 471.30525112302416 -61.3869316344053 0 0 0 0 -359.6193551207316 183.38217270747771 0 183.38217270747771 160.65748025677021 0 0 0 0 -388.68303755726083 91.187457782560159 0 91.187457782560159 198.04173563906988 0 0 0 0 -750.64328737341566 347.74885584582717 0 347.74885584582717 98.020557446274324 0 0 0 0 -567.73764654541446 69.418231470039245 0 69.418231470039245 218.55202335850026 0 0 0 0 -345.64636639556738 292.41741265879818 0 292.41741265879818 465.8456814902238 0 0 0 0 -382.70353646727744 404.55629190896434 0 404.55629190896434 600.31067068086486 0 0 0 0 -362.07565833983244 298.69337732466374 0 298.69337732466374 383.79538890391996 0 0 0 0 -497.31671485674451 292.6395062941192 0 292.6395062941192 515.57457870454527 0 0 0 0 -542.80564141982904 122.93119996200585 0 122.93119996200585 411.40525292473467 0 0 0 0 -331.73658676675404 234.24103659813954 0 234.24103659813954 274.67512737221068 0 0 0 0 -311.02423851409549 180.4383659869136 0 180.4383659869136 278.5541891830544 0 0 0 0 -366.90222397079924 258.13633731334994 0 258.13633731334994 308.98579988461643 0 0 0 0 -217.51445671314286 451.05440971019561 0 451.05440971019561 190.36021466979764 0 0 0 0 -216.95519377024459 469.59655540535766 0 469.59655540535766 380.01958007058056 0 0 0 0 -72.288924559441512 483.63646068214257 0 483.63646068214257 374.33538407434753 0 0 0 0 -2080.9618784360573 -15.269861962752657 0 -15.269861962752657 183.17315978209081 0 0 0 0 -5.7320338067257737 13.62112392806776 0 13.62112392806776 -7.7179026410469262 0 0 0 0 508.40739339556603 281.81448440696386 0 281.81448440696386 -102.19916682159237 0 0 0 0 -84.032039055673522 589.34915137904409 0 589.34915137904409 -210.34284027526883 0 0 0 0 -400.49396188311221 906.98553851784891 0 906.98553851784891 -125.93799588192906 0 0 0 0 -382.28701395708777 -131.04723935811126 0 -131.04723935811126 380.62392978126445 0 0 0 0 -706.66292306013565 338.08318303008946 0 338.08318303008946 300.05469293835631 0 0 0 0 -493.76836032140636 767.98332408023998 0 767.98332408023998 -306.07546985048248 0 0 0 0 -198.80799952744565 473.88693055081967 0 473.88693055081967 -40.993530207633739 0 0 0 0 -100.18357405325514 619.73308983133211 0 619.73308983133211 -985.56538503245247 0 0 0 0 2.9238598545343848 -430.12459264428253 0 -430.12459264428253 233.57706243331631 0 0 0 0 -7.2536036293604411 171.50296116545724 0 171.50296116545724 -340.45974446456967 0 0 0 0 -82.252048595422821 -0.22143545502967754 0 -0.22143545502967754 215.83937569677801 0 0 0 0 -93.649356125708437 88.132291900379641 0 88.132291900379641 256.73603719089078 0 0 0 0 122.70724480329955 22.646057058063889 0 22.646057058063889 25.989138958211697 0 0 0 0 -8.1823457959752659 -2.3118669804489116 0 -2.3118669804489116 -2.5394698732740437 0 0 0 0 -41.464067431516014 238.28921806330254 0 238.28921806330254 220.79746890744718 0 0 0 0 138.46060999856854 425.03206982732627 0 425.03206982732627 314.58695095734583 0 0 0 0 -290.14696046069002 97.925909384335682 0 97.925909384335682 1023.2990872328701 0 0 0 0 -899.86908311863954 644.80043735892104 0 644.80043735892104 536.17669828774524 0 0 0 0 -412.64717757257677 995.37242746410448 0 995.37242746410448 -524.15330181840545 0 0 0 0 353.36211226596788 544.86170721941016 0 544.86170721941016 -681.29481622952517 0 0 0 0 -1552.2246892777766 728.9771132013957 0 728.9771132013957 -355.5845580072455 0 0 0 0 -43.637586032891704 1525.6176874281591 0 1525.6176874281591 -3328.4900438968398 0 0 0 0 983.32956699283386 15.025719354285684 0 15.025719354285684 -1524.9901108173235 0 0 0 0 -755.71840044898272 589.64779472569353 0 589.64779472569353 -1436.0573603586818 0 0 0 0 -33.626063659242618 3.4026370653727227 0 3.4026370653727227 -1.8190320921348686 0 0 0 0 67.331866456137504 196.29306541563346 0 196.29306541563346 200.51863863776452 0 0 0 0 -1420.1040027228009 1482.7456209736702 0 1482.7456209736702 -1731.1299330327129 0 0 0 0 -122.14086209408924 1180.945180550083 0 1180.945180550083 -1725.2562355580885 0 0 0 0 662.73062075096095 -49.593873181498566 0 -49.593873181498566 -1769.7488178087515 0 0 0 0 -10.309192461784775 5.724079672286507 0 5.724079672286507 -0.55075150325649247 0 0 0 0 -607.20906625399948 -149.7548760114114 0 -149.7548760114114 -834.29559435766714 0 0 0 0 -0.13858521206429941 9.182439558674119 0 9.182439558674119 -4.0170708844374019 0 0 0 0 -153.40057372584124 156.97796971423668 0 156.97796971423668 -122.783470880815 0 0 0 0 42.705788253442734 -0.37307718903321074 0 -0.37307718903321074 -65.62693888778449 0 0 0 0 -400.11489973857533 183.90812392900989 0 183.90812392900989 -994.83010303755873 0 0 0 0 -141.49780420752359 142.70275522830343 0 142.70275522830343 -106.9343590379649 0 0 0 0 -381.22882551283692 216.14062922653102 0 216.14062922653102 -50.559438841213705 0 0 0 0 -62.96553291323653 242.77718848030054 0 242.77718848030054 -50.89937244525936 0 0 0 0 -217.68393430775905 101.72931127346601 0 101.72931127346601 -64.625338128666044 0 0 0 0 24.011935409638681 136.40269232523315 0 136.40269232523315 122.18203252592502 0 0 0 0 -19.780755287336227 31.65937589802013 0 31.65937589802013 -40.080822453212306 0 0 0 0 175.641670645251 294.08708305101391 0 294.08708305101391 -79.95724336942294 0 0 0 0 597.36512574963854 595.16672201400797 0 595.16672201400797 133.96818791320584 0 0 0 0 226.68114386302477 577.81964278493797 0 577.81964278493797 508.23497237612901 0 0 0 0 -870.62148288886237 163.22677138793006 0 163.22677138793006 -81.996227769377583 0 0 0 0 507.87083768770572 78.714495829593034 0 78.714495829593034 -197.04204730488709 0 0 0 0 -14.589909230252445 52.850200499553296 0 52.850200499553296 -78.415140429527952 0 0 0 0 -616.40320505917771 43.08475402622571 0 43.08475402622571 -72.270610996605683 0 0 0 0 -404.90938204668782 267.17652310925405 0 267.17652310925405 -170.00406953183119 0 0 0 0 -734.52906551679189 371.2942578574075 0 371.2942578574075 -326.45702109087142 0 0 0 0 -659.55021676616889 241.32897269879322 0 241.32897269879322 -161.85696659574751 0 0 0 0 1133.3313417737227 1143.913145353099 0 1143.913145353099 953.71291710744481 0 0 0 0 17.492866065969196 12.486827675604658 0 12.486827675604658 -17.96260471626497 0 0 0 0 -569.71728205643012 374.26344878406235 0 374.26344878406235 -486.88070518594759 0 0 0 0 -19.000830170201567 26.77491575651824 0 26.77491575651824 42.68705891311469 0 0 0 0 -1417.3495838769377 538.25936936014887 0 538.25936936014887 627.00743890993499 0 0 0 0 2074.5240552917567 1458.977016172631 0 1458.977016172631 652.29886601193721 0 0 0 0 -25.661815004452365 780.07159480078553 0 780.07159480078553 1050.4590770363648 0 0 0 0 -42.420587367989356 469.50767171773623 0 469.50767171773623 522.69154328295008 0 0 0 0 -334.42475108264034 474.26995307473658 0 474.26995307473658 745.06386806006776 0 0 0 0 172.57208560727304 753.91676453725631 0 753.91676453725631 559.20513355976436 0 0 0 0 1121.366138456985 850.82435336385129 0 850.82435336385129 469.47873986384366 0 0 0 0 -205.29156001421507 433.00222983711137 0 433.00222983711137 -271.71548654112848 0 0 0 0 -141.83103855248191 366.20068776379048 0 366.20068776379048 -307.06441483769595 0 0 0 0 -15.33672583848238 328.09123756527697 0 328.09123756527697 -297.60987492165441 0 0 0 0 -135.0050370930694 413.14299021071201 0 413.14299021071201 -254.56919705701148 0 0 0 0 -24.238929928295306 86.322917113165914 0 86.322917113165914 -76.165185835204881 0 0 0 0 -1581.7926219766669 297.43572948423935 0 297.43572948423935 1399.9795112294032 0 0 0 0 -437.08370329259196 158.53036715756753 0 158.53036715756753 -557.66443707819417 0 0 0 0 -524.86601932882331 160.23513979228665 0 160.23513979228665 -346.14826989917492 0 0 0 0 -428.027049533237 373.77771959664096 0 373.77771959664096 -220.09951170685235 0 0 0 0 -293.45060953474604 356.66308539779129 0 356.66308539779129 -312.77425810837667 0 0 0 0 -452.31693770937272 292.61313601987058 0 292.61313601987058 -215.54925062136317 0 0 0 0 -441.88498839869862 280.51713738912804 0 280.51713738912804 -418.86198973003775 0 0 0 0 -446.77617334619572 316.34469251132577 0 316.34469251132577 -41.932746729318751 0 0 0 0 -251.8792111396906 328.20249195418728 0 328.20249195418728 -227.71725197321575 0 0 0 0 -277.40585432408261 395.05218957826673 0 395.05218957826673 -122.34685215172067 0 0 0 0 -327.9853682830726 383.76131181353048 0 383.76131181353048 -210.57187011608039 0 0 0 0 -127.57142631468014 376.97855995429563 0 376.97855995429563 -225.76278472799459 0 0 0 0 -75.290573083839263 371.87030256349681 0 371.87030256349681 -227.80665081347252 0 0 0 0 -155.90574609556279 455.89403125244644 0 455.89403125244644 -115.90706259798026 0 0 0 0 -90.034609410489793 459.00329010138375 0 459.00329010138375 -129.87183232357347 0 0 0 0 -96.775823666546785 478.27405073746013 0 478.27405073746013 -98.278637966839597 0 0 0 0 -24.007090689934557 326.90906542541779 0 326.90906542541779 -104.88918270374052 0 0 0 0 -204.3692706690199 353.5312924430109 0 353.5312924430109 546.5091634131968 0 0 0 0 371.63393885761616 -5.6514559652059688 0 -5.6514559652059688 313.99186934490717 0 0 0 0 217.18657799050561 280.76669308563578 0 280.76669308563578 -77.682712594541954 0 0 0 0 -329.8345168956148 361.46347920880362 0 361.46347920880362 60.203149526729248 0 0 0 0 -273.64504440108431 303.44522856365802 0 303.44522856365802 -45.951095378321043 0 0 0 0 -296.00251046738413 341.7276986644647 0 341.7276986644647 119.62965428331518 0 0 0 0 -176.21957219220349 375.25495833581954 0 375.25495833581954 107.78478595224442 0 0 0 0 -311.33231738200993 385.38997173708049 0 385.38997173708049 276.20654571120394 0 0 0 0 -311.91450042711222 429.10662590201537 0 429.10662590201537 1.7650692968454678 0 0 0 0 -184.73754950048169 442.88206981883559 0 442.88206981883559 -91.229852094227681 0 0 0 0 17.591503571391428 11.052428689651151 0 11.052428689651151 1.3949195268502166 0 0 0 0 623.76831000921084 169.45309939151048 0 169.45309939151048 -2242.0271905240515 0 0 0 0 -792.30669448865228 901.81702640332878 0 901.81702640332878 -1290.4655711795676 0 0 0 0 -244.90529963700101 806.19819048309728 0 806.19819048309728 -351.20881694182026 0 0 0 0 600.78737918325351 183.7718624103145 0 183.7718624103145 -1302.3402103623666 0 0 0 0 -282.02170209170436 813.61742127106118 0 813.61742127106118 289.78521702592298 0 0 0 0 -37.406393703873619 46.632403234456433 0 46.632403234456433 712.15107668103519 0 0 0 0 -367.81191299358034 475.45270199635706 0 475.45270199635706 1007.8520104745112 0 0 0 0 70.533605426360737 179.59538839268498 0 179.59538839268498 -2222.1713759165641 0 0 0 0 -5.7187862504683835 8.9160844122761773 0 8.9160844122761773 -1.9328187701703694 0 0 0 0 550.77551165729528 687.06546842472017 0 687.06546842472017 -456.17027453390983 0 0 0 0 -14.892928420017142 16.17601812770873 0 16.17601812770873 -2.2742138346820866 0 0 0 0 -184.61937460310583 42.567541911575972 0 42.567541911575972 -1204.9390347892477 0 0 0 0 202.49498791944643 586.16099371030214 0 586.16099371030214 -498.49835647606233 0 0 0 0 494.55705733216746 814.96832471633752 0 814.96832471633752 -397.36772885361279 0 0 0 0 465.73281894868705 411.99616678102029 0 411.99616678102029 -514.35547445774137 0 0 0 0 -146.3009594429459 962.55582630616846 0 962.55582630616846 -171.98421989032067 0 0 0 0 166.72725001466461 442.0571693863385 0 442.0571693863385 -278.93174512683618 0 0 0 0 -500.27390907661174 795.78779308652156 0 795.78779308652156 -432.02989218397124 0 0 0 0 -5128.3653036484866 -865.85041958008333 0 -865.85041958008333 1054.2597987780828 0 0 0 0 284.31278825958725 324.00223921269207 0 324.00223921269207 -803.90116847765603 0 0 0 0 -1373.0163087355904 123.63620400316722 0 123.63620400316722 -404.34764142087079 0 0 0 0 -2750.6220410112583 1539.258057279003 0 1539.258057279003 -956.50762857960945 0 0 0 0 1560.3697975588148 -514.42274038819596 0 -514.42274038819596 -2271.6686747952626 0 0 0 0 -925.5881595046958 311.80591585976072 0 311.80591585976072 -37.857796484466235 0 0 0 0 422.32141550899541 836.34234403967093 0 836.34234403967093 101.82859951617138 0 0 0 0 240.93913669441827 443.09949550189049 0 443.09949550189049 -243.16686716787081 0 0 0 0 197.69852951589564 333.06120990182899 0 333.06120990182899 644.38907428385573 0 0 0 0 -75.028918997675646 901.84857249846391 0 901.84857249846391 483.53922823647372 0 0 0 0 -8.5123560397771598 12.483636916574753 0 12.483636916574753 -0.80733655962104933 0 0 0 0 29.955377085425425 185.78091647664405 0 185.78091647664405 1166.4637185082538 0 0 0 0 -94.707552393432707 652.7321891009924 0 652.7321891009924 1229.4177090498979 0 0 0 0 -577.40554300734948 723.51167664535024 0 723.51167664535024 2294.8133247192927 0 0 0 0 61.587588821676036 372.22000114304683 0 372.22000114304683 -1294.0214798906527 0 0 0 0 -116.44485196149617 824.5318622951163 0 824.5318622951163 -12.162815848951141 0 0 0 0 -65.575809108777321 1289.3417477203911 0 1289.3417477203911 1168.31332134486 0 0 0 0 -567.51713607922284 1104.9009873925679 0 1104.9009873925679 308.31331990651233 0 0 0 0 -8.2269712876162657 13.860225729703899 0 13.860225729703899 -9.4854467529369515 0 0 0 0 1818.8099921374378 2462.1380976078435 0 2462.1380976078435 -1031.8834022446299 0 0 0 0 3502.5110541317699 1909.8208183422503 0 1909.8208183422503 -1095.436387975773 0 0 0 0 248.59930353393429 916.55586935582687 0 916.55586935582687 1121.7492160701768 0 0 0 0 1908.5002575410035 370.87548002509902 0 370.87548002509902 392.77807135042531 0 0 0 0 1398.0355605646619 1554.6301530675519 0 1554.6301530675519 177.55237463696176 0 0 0 0 -26.170610775286363 40.470673154574826 0 40.470673154574826 -31.850180255221346 0 0 0 0 -2663.885331141355 -1049.6440601840886 0 -1049.6440601840886 -70.554805428750115 0 0 0 0 -2068.9956052561465 251.63954587077023 0 251.63954587077023 596.31538563213326 0 0 0 0 -686.45053510828438 251.02872480739825 0 251.02872480739825 79.909724868462945 0 0 0 0 -51.332900945802976 274.48395495499972 0 274.48395495499972 -193.33762915273837 0 0 0 0 -124.26058181634289 318.6397702062095 0 318.6397702062095 -205.09905642530066 0 0 0 0 -213.66684479126707 94.963163494438049 0 94.963163494438049 -20.720797833593679 0 0 0 0 -340.31238550673879 440.8099869226171 0 440.8099869226171 77.160036792149185 0 0 0 0 -73.339622400616463 687.13633981825922 0 687.13633981825922 131.76819713284931 0 0 0 0 -70.607092252743314 392.75232363000396 0 392.75232363000396 -170.39748251142009 0 0 0 0 -2907.9851642259164 -1680.2479128075138 0 -1680.2479128075138 361.12059703739214 0 0 0 0 0.23013767834945575 -1.9827587200867072 0 -1.9827587200867072 13.95396927392585 0 0 0 0 359.47760934548569 194.8867640127537 0 194.8867640127537 -993.80583922789083 0 0 0 0 -293.54412399353896 782.49890792684755 0 782.49890792684755 -1409.2337417838644 0 0 0 0 -1144.9988517476741 1042.7233928450278 0 1042.7233928450278 -490.49538409604429 0 0 0 0 -930.73915509831568 626.76892020657033 0 626.76892020657033 -61.700217221365165 0 0 0 0 -1000.5036683243088 412.89363862737446 0 412.89363862737446 135.10660759415987 0 0 0 0 -1492.1135936188512 567.62361050643085 0 567.62361050643085 68.683063970125659 0 0 0 0 -1009.5859115616986 198.14781457343634 0 198.14781457343634 -582.51412291939778 0 0 0 0 -757.69927767509944 594.63500428051702 0 594.63500428051702 4.8833579756210383 0 0 0 0 -387.37452425553056 548.9841181885713 0 548.9841181885713 -5.9051468260295223 0 0 0 0 -633.56733915096265 332.87142105143539 0 332.87142105143539 -122.73694464949585 0 0 0 0 -504.07304002433375 458.30434236688961 0 458.30434236688961 -29.684033441648353 0 0 0 0 -353.81114464894927 505.7322525095442 0 505.7322525095442 -220.33520571744157 0 0 0 0 -111.35781903149837 387.35085050422094 0 387.35085050422094 -163.43822014478064 0 0 0 0 -402.99024354608264 768.59024069496809 0 768.59024069496809 489.41835185353557 0 0 0 0 223.24091671141377 711.81478175984648 0 711.81478175984648 103.21048320691625 0 0 0 0 -279.47142178505601 1143.0434010690551 0 1143.0434010690551 328.49500302308661 0 0 0 0 -361.85077795303368 916.33666673276457 0 916.33666673276457 -290.53135251664207 0 0 0 0 -518.44956734715379 968.77844349864608 0 968.77844349864608 124.56995769208697 0 0 0 0 -754.63699984054256 831.98308914510926 0 831.98308914510926 220.72839662205661 0 0 0 0 -397.66407696905617 665.83255711781953 0 665.83255711781953 -336.5189554197932 0 0 0 0 -1374.8778251344265 704.15781370976219 0 704.15781370976219 263.94651302170678 0 0 0 0 -791.63197584987211 1005.9826561106493 0 1005.9826561106493 -502.30961184463331 0 0 0 0 -362.95230523560895 318.92707717597295 0 318.92707717597295 232.83663954074518 0 0 0 0 -598.97381046654482 -134.50178863696783 0 -134.50178863696783 711.84132185160888 0 0 0 0 -12.228194716908547 6.2193384454802043 0 6.2193384454802043 -0.030332436039850919 0 0 0 0 -434.08180841551803 496.05227371989349 0 496.05227371989349 149.8567393715457 0 0 0 0 -65.837231940648053 475.73913530381469 0 475.73913530381469 -108.02856980124488 0 0 0 0 -16.116902420813403 126.34467691435995 0 126.34467691435995 94.370096367959817 0 0 0 0 -540.890508213266 -197.37043657352729 0 -197.37043657352729 194.11694667725715 0 0 0 0 -397.55488242644788 265.96082954225312 0 265.96082954225312 156.2368388141258 0 0 0 0 -606.1623346617198 757.71544547296799 0 757.71544547296799 -290.77237279235851 0 0 0 0 171.49175635001302 186.09232889878967 0 186.09232889878967 82.05520450300537 0 0 0 0 -13.358158749266295 17.463870496187155 0 17.463870496187155 314.48177818635486 0 0 0 0 20.087439041774587 131.15949451905391 0 131.15949451905391 97.137589225771677 0 0 0 0 -451.83420492622827 875.9056390194819 0 875.9056390194819 -285.41488851289614 0 0 0 0 -421.01321573066525 896.62576614038699 0 896.62576614038699 -465.54991050846729 0 0 0 0 5.6403149638936156 737.9053102798498 0 737.9053102798498 -1206.0638521745568 0 0 0 0 129.88613173089107 1129.028407031321 0 1129.028407031321 -1540.4045272751864 0 0 0 0 39.233820036748114 159.27709904178175 0 159.27709904178175 101.54334961546846 0 0 0 0 53.043577602758887 61.975530996779526 0 61.975530996779526 307.62999094003317 0 0 0 0 311.83657435762871 197.82388561875086 0 197.82388561875086 143.7014264558311 0 0 0 0 157.47924363701168 31.18834887858884 0 31.18834887858884 0.50158245582861127 0 0 0 0 -197.09490576231474 140.57305248793182 0 140.57305248793182 228.24052355595632 0 0 0 0 105.25468234117579 139.57682392583638 0 139.57682392583638 170.30457019362802 0 0 0 0 -244.02551233625854 318.7499990715296 0 318.7499990715296 130.11289694861262 0 0 0 0 -59.871242692745 251.73938454098698 0 251.73938454098698 -8.084126388799632 0 0 0 0 -168.6381956717596 316.31413270286066 0 316.31413270286066 -450.65609021259297 0 0 0 0 -336.85125570867967 274.04194753960837 0 274.04194753960837 48.241667010584933 0 0 0 0 -227.89271347296017 320.31064421825795 0 320.31064421825795 19.117946412015954 0 0 0 0 -202.44545764617214 292.93781840605152 0 292.93781840605152 35.871544406247267 0 0 0 0 -218.8862120704398 394.52995742785106 0 394.52995742785106 196.23835487132601 0 0 0 0 598.66480926542067 -437.33729052934899 0 -437.33729052934899 -671.38221489711577 0 0 0 0 2.7530249377402023 13.948755306212007 0 13.948755306212007 -52.140080386678598 0 0 0 0 -7.3214132554840887 0.032150868206898053 0 0.032150868206898053 2.8200986959009882 0 0 0 0 -1317.4513977944589 1335.4449962787585 0 1335.4449962787585 -1284.6876251709582 0 0 0 0 -2550.5346901084413 -1929.1705275479235 0 -1929.1705275479235 2894.2050596543231 0 0 0 0 1491.6159508311539 1475.4050380645749 0 1475.4050380645749 914.80586790173402 0 0 0 0 2616.4682389187583 716.49753651184164 0 716.49753651184164 -1084.2578420306127 0 0 0 0 0.4525929938064337 75.321451367132397 0 75.321451367132397 -73.707078997104077 0 0 0 0 1685.3259188598313 -235.89348481637899 0 -235.89348481637899 -1429.9831564885044 0 0 0 0 -88.679312847249093 142.92951855145293 0 142.92951855145293 -12.307800769644928 0 0 0 0 -111.12781157731661 98.892149698751382 0 98.892149698751382 180.26982542082987 0 0 0 0 920.17657301884174 359.75662588203886 0 359.75662588203886 201.18405747670477 0 0 0 0 124.27759212095407 160.98007345407314 0 160.98007345407314 -218.52236309144064 0 0 0 0 754.03997891022641 214.71000848043656 0 214.71000848043656 -750.15852782635193 0 0 0 0 -1373.7204672458756 20.688260531880587 0 20.688260531880587 494.96975900337202 0 0 0 0 -4.3276909476960741 16.064523512739456 0 16.064523512739456 49.952623179737856 0 0 0 0 -1747.7514056315849 812.03674349450193 0 812.03674349450193 -615.31021193522429 0 0 0 0 660.58077172424237 780.13363404857046 0 780.13363404857046 -442.46178150038759 0 0 0 0 -146.94460748576967 776.64712969878201 0 776.64712969878201 -438.49399216338497 0 0 0 0 -30.349487201462523 86.614438242583205 0 86.614438242583205 -51.970321334432811 0 0 0 0 -1613.8992917312353 779.5227367397747 0 779.5227367397747 -1418.2600275692021 0 0 0 0 -24.540584601141745 1099.8624377692431 0 1099.8624377692431 -928.22022297673175 0 0 0 0 -1553.1688900159352 1091.9088275488148 0 1091.9088275488148 -1736.3214033871845 0 0 0 0 -1631.8820517456734 1343.18312906349 0 1343.18312906349 -1141.5115721971961 0 0 0 0 -2746.5157805792696 3894.0891337660505 0 3894.0891337660505 -3866.8787051816162 0 0 0 0 -6.5434652246035512 -12.855626648542691 0 -12.855626648542691 -11.567335250453965 0 0 0 0 -1016.9421579124901 -638.24481964420374 0 -638.24481964420374 2003.3752821142152 0 0 0 0 -94.390070823792257 126.75955650865589 0 126.75955650865589 157.25988544209019 0 0 0 0 -104.52115070169384 346.04756069276573 0 346.04756069276573 639.5514632804925 0 0 0 0 -70.332472646196976 22.844742193569534 0 22.844742193569534 21.280412725948622 0 0 0 0 -110.45630634395638 345.43347092869772 0 345.43347092869772 357.15893261439624 0 0 0 0 12.02788013323152 384.48889060317174 0 384.48889060317174 299.70699408413748 0 0 0 0 -130.44086644180061 432.46521372296911 0 432.46521372296911 -21.411697975471725 0 0 0 0 74.271923307220277 195.18952331347919 0 195.18952331347919 460.00617476365915 0 0 0 0 -891.89417550619692 -49.158461865820755 0 -49.158461865820755 232.09821256529585 0 0 0 0 -771.81366045886534 401.21703180108364 0 401.21703180108364 409.83727440144412 0 0 0 0 -1975.8024697345973 698.13562754052964 0 698.13562754052964 423.96430868287234 0 0 0 0 -2148.3130471202749 516.51557588908599 0 516.51557588908599 245.91900711755079 0 0 0 0 -2654.0083346240863 1106.8059859982905 0 1106.8059859982905 530.65542898604076 0 0 0 0 -3376.4188186844985 2107.3780511065233 0 2107.3780511065233 -584.45528830740113 0 0 0 0 -2752.1987500746181 553.15537099964058 0 553.15537099964058 1279.6557441779933 0 0 0 0 -2.3718324530032637 7.1558133606312424 0 7.1558133606312424 -14.775711473187172 0 0 0 0 -2156.6819415700593 1608.9040505402645 0 1608.9040505402645 -2843.1876394561259 0 0 0 0 -1713.1937784296911 1970.4076913126257 0 1970.4076913126257 180.04348008403758 0 0 0 0 -3821.1175208058921 2155.3530695903955 0 2155.3530695903955 500.96488092147047 0 0 0 0 20.78525054817004 21.382825482701907 0 21.382825482701907 -2.8336926810470686 0 0 0 0 313.18938544965931 663.92019674833136 0 663.92019674833136 1055.2443522931317 0 0 0 0 4795.9511313565308 -1898.2268715070386 0 -1898.2268715070386 193.83283354364175 0 0 0 0 2662.2032892901916 2302.4426336461584 0 2302.4426336461584 -960.14157758225701 0 0 0 0 1240.3533931078273 -398.15943887772664 0 -398.15943887772664 -902.88351978889114 0 0 0 0 1126.6828530836792 -201.70131160446181 0 -201.70131160446181 233.66213568756876 0 0 0 0 2460.8288503246586 304.25792279098641 0 304.25792279098641 -659.03655296974375 0 0 0 0 1655.8906692568307 -468.10152223018724 0 -468.10152223018724 -900.13417597796251 0 0 0 0 1241.0641529704735 830.82904043543022 0 830.82904043543022 -2471.7217591366261 0 0 0 0 -956.10538822006492 2343.9748793916833 0 2343.9748793916833 -1130.5040599519443 0 0 0 0 -296.88924595950812 942.18487743088895 0 942.18487743088895 551.36208649718697 0 0 0 0 309.62249826761399 100.26212025732093 0 100.26212025732093 -54.235410500949001 0 0 0 0 3.4576388112331387 11.532446884008579 0 11.532446884008579 -47.318237807046074 0 0 0 0 -18.87991074137971 50.108066463727056 0 50.108066463727056 -38.755876004569259 0 0 0 0 776.41526508513198 1420.2780071882662 0 1420.2780071882662 -54.655076269340498 0 0 0 0 -571.98323666657961 321.75226959089105 0 321.75226959089105 241.07035832079418 0 0 0 0 -6.5650093150540414 21.300060538622489 0 21.300060538622489 -37.272631039037762 0 0 0 0 -4248.8851282555406 1336.4804980909594 0 1336.4804980909594 101.70188703457097 0 0 0 0 -699.42074908403447 -404.71486448860378 0 -404.71486448860378 -491.15961658838205 0 0 0 0 -6.3328995910101895 14.375282963129052 0 14.375282963129052 10.501662672734099 0 0 0 0 1577.3298409071176 113.59931651787247 0 113.59931651787247 -979.92185017168231 0 0 0 0 -1604.922822122433 395.35285846514489 0 395.35285846514489 354.21268612190124 0 0 0 0 958.60654633035301 329.58513874914206 0 329.58513874914206 -999.85686296650601 0 0 0 0 -629.24539249411464 1419.4507519872604 0 1419.4507519872604 -1098.5918170228615 0 0 0 0 -588.9615485266404 1362.9188367270945 0 1362.9188367270945 -1052.3469988495199 0 0 0 0 -2106.2241325678733 1254.9889709874237 0 1254.9889709874237 321.08998907744535 0 0 0 0 -1439.5536059822189 935.82203474153039 0 935.82203474153039 418.22596933071145 0 0 0 0 -1483.1150576710061 1354.227438621499 0 1354.227438621499 555.72027868981877 0 0 0 0 -1053.1877626965652 1270.97181427588 0 1270.97181427588 459.79926670423083 0 0 0 0 -1967.6907985271318 596.54288638453477 0 596.54288638453477 480.67765375720614 0 0 0 0 -1235.7700149672528 770.29889547422567 0 770.29889547422567 506.43452522127006 0 0 0 0 -552.8895045510726 386.33576595785962 0 386.33576595785962 119.62046921791989 0 0 0 0 -895.33414399475441 932.80014748101166 0 932.80014748101166 -252.70480614122062 0 0 0 0 100.67656580452467 267.37973117455022 0 267.37973117455022 -241.52971534016251 0 0 0 0 104.90014744040366 400.94221050409374 0 400.94221050409374 91.48871322344894 0 0 0 0 -64.311298167915083 549.98012357705011 0 549.98012357705011 -204.97469898652639 0 0 0 0 -169.57684563428484 404.16357107985459 0 404.16357107985459 -260.68642637937955 0 0 0 0 137.95885423442814 16.647636828878603 0 16.647636828878603 -466.87245816823724 0 0 0 0 328.46902724738902 -622.88946709285665 0 -622.88946709285665 563.6574812246472 0 0 0 0 141.42458808837955 -26.041598453785241 0 -26.041598453785241 -34.143713635996392 0 0 0 0 145.57171791839937 152.32232238291908 0 152.32232238291908 92.189801864195033 0 0 0 0 -199.19025587651413 575.41549416266207 0 575.41549416266207 1188.9759367518418 0 0 0 0 -78.421031957230298 69.57728290027444 0 69.57728290027444 565.12676436777838 0 0 0 0 -55.28266244961074 16.618022980610462 0 16.618022980610462 0.1020472010707163 0 0 0 0 430.63871505908173 266.57340595362075 0 266.57340595362075 449.62818932848313 0 0 0 0 222.56336855560221 1137.521647302292 0 1137.521647302292 748.53365384486642 0 0 0 0 -452.74357731036434 443.43488036834242 0 443.43488036834242 2453.6510502970887 0 0 0 0 -4335.8274586564439 1710.1997979625394 0 1710.1997979625394 35.184468713625392 0 0 0 0 1197.835213503291 52.109738374587323 0 52.109738374587323 -2780.5307490983359 0 0 0 0 -74.367953068538867 24.585319293373381 0 24.585319293373381 -0.013904522649335505 0 0 0 0 874.43909345805878 -1139.3909014360015 0 -1139.3909014360015 -2038.7100493039252 0 0 0 0 1908.9830920183449 -263.96860503131757 0 -263.96860503131757 -2421.861465587921 0 0 0 0 -1560.1369016206299 3337.1431566650845 0 3337.1431566650845 -2694.5207159565034 0 0 0 0 1480.9750241041911 1555.848845766257 0 1555.848845766257 -3854.4632480561559 0 0 0 0 -1.3232895385632446 9.5071294324145015 0 9.5071294324145015 0.059286790130311573 0 0 0 0 -30.467564200946072 697.22738797422062 0 697.22738797422062 878.03986047329818 0 0 0 0 -200.77597078177496 288.43703455945433 0 288.43703455945433 1590.2070615182038 0 0 0 0 -16.027660101448419 154.44048825639948 0 154.44048825639948 -778.55633633858815 0 0 0 0 -123.30407477437984 102.46033504873049 0 102.46033504873049 -506.48193543670095 0 0 0 0 87.443751750244701 244.51239964036358 0 244.51239964036358 -1520.1382127962388 0 0 0 0 214.04418236189667 376.37254287494397 0 376.37254287494397 528.22339914647455 0 0 0 0 -2.1631974408986707 0.29931567807796711 0 0.29931567807796711 0.49354797315761978 0 0 0 0 -38.182833321072394 -158.3096294279203 0 -158.3096294279203 764.09267414408532 0 0 0 0 -425.07250450161519 281.25087693006208 0 281.25087693006208 2088.1475867780264 0 0 0 0 -128.70889549907588 406.63594805132016 0 406.63594805132016 427.85714017842838 0 0 0 0 -133.44935463764705 364.70446371478465 0 364.70446371478465 63.6472178703807 0 0 0 0 -217.81840026621649 425.63919281429298 0 425.63919281429298 141.83170347908526 0 0 0 0 -139.00269862830464 608.55485878677428 0 608.55485878677428 -764.27537486342408 0 0 0 0 -90.265955625187303 128.31611413371257 0 128.31611413371257 97.785108405298502 0 0 0 0 562.07669846738099 393.45576719525616 0 393.45576719525616 -115.67221565190266 0 0 0 0 256.90385788440472 299.92741702133935 0 299.92741702133935 -112.26723428381956 0 0 0 0 -99.57549758995458 144.68702417694189 0 144.68702417694189 58.391145792329056 0 0 0 0 336.29624322639575 99.94890882220534 0 99.94890882220534 -18.879797380344826 0 0 0 0 7.6047725650354749 48.643535207464495 0 48.643535207464495 -4.0402477296308019 0 0 0 0 7.4002199125825427 453.4444501154212 0 453.4444501154212 57.127482442176643 0 0 0 0 -1.8573424354199233 47.468509732050833 0 47.468509732050833 4.068506378365095 0 0 0 0 -269.64442030519422 178.23805725447528 0 178.23805725447528 449.43582152525778 0 0 0 0 -270.88560907382634 176.19593289310797 0 176.19593289310797 591.7297146918645 0 0 0 0 -53.29655265022302 39.415223328385764 0 39.415223328385764 -158.8338458582075 0 0 0 0 -554.45144619091297 241.0793616535957 0 241.0793616535957 549.31622912713283 0 0 0 0 -460.90114985324544 649.21888965822473 0 649.21888965822473 -153.6319442250242 0 0 0 0 -233.43209991125332 563.0949039068073 0 563.0949039068073 -692.40753005346278 0 0 0 0 -232.35188731954258 -0.84407638691118336 0 -0.84407638691118336 -784.01752123417646 0 0 0 0 -152.93136779477936 234.19237340778636 0 234.19237340778636 -897.02629017882282 0 0 0 0 -340.62056084178039 466.99528394915251 0 466.99528394915251 -74.17589076749573 0 0 0 0 155.97409879166298 129.20113425117006 0 129.20113425117006 -546.71624441277527 0 0 0 0 185.09451856551459 510.51404448148241 0 510.51404448148241 -552.01279950259277 0 0 0 0 -331.65017217124114 191.65325603514066 0 191.65325603514066 467.69752964465442 0 0 0 0 -66.773587899224367 638.53961110033561 0 638.53961110033561 -49.580208079124532 0 0 0 0 45.804322163763572 250.86036347750996 0 250.86036347750996 490.5923100558357 0 0 0 0 -86.468871159362607 114.50455418913043 0 114.50455418913043 105.16929475299548 0 0 0 0 -55.330038543092087 116.60680945937929 0 116.60680945937929 64.642229396034963 0 0 0 0 -41.446277285437731 60.548675590881871 0 60.548675590881871 120.92916291938246 0 0 0 0 -75.41746858391349 66.377279275927009 0 66.377279275927009 10.799266478270813 0 0 0 0 -311.66599516785209 276.36362451647437 0 276.36362451647437 -167.65595545562974 0 0 0 0 -173.13584881357383 -9.6687282329949085 0 -9.6687282329949085 196.31637652513746 0 0 0 0 32.410033042498981 17.98572709938162 0 17.98572709938162 -276.65983908691851 0 0 0 0 -4.9269395299900651 26.696201377593553 0 26.696201377593553 9.6353697893326284 0 0 0 0 -366.75124931383107 414.32543996175445 0 414.32543996175445 40.555061057893909 0 0 0 0 -14.262591297359904 142.30060020365636 0 142.30060020365636 126.8211346666958 0 0 0 0 -51.005560043231526 104.05707902418362 0 104.05707902418362 97.814559753693175 0 0 0 0 -71.164642864021971 93.484199200672407 0 93.484199200672407 0.43721348859772036 0 0 0 0 -0.32571306018144242 293.47745815694725 0 293.47745815694725 372.10609652865242 0 0 0 0 -69.673799838550337 81.877259231165112 0 81.877259231165112 87.016797565202893 0 0 0 0 27.488082799507538 192.46269966960608 0 192.46269966960608 72.533347586133459 0 0 0 0 69.214704131049075 359.30564804853202 0 359.30564804853202 -608.39880627154344 0 0 0 0 -77.085643497436251 136.50473411768226 0 136.50473411768226 -15.527845941848284 0 0 0 0 6.0174979077229125 36.990614718421966 0 36.990614718421966 5.3713190492149998 0 0 0 0 -5.2955319932952989 319.36808163248497 0 319.36808163248497 -461.31210173994987 0 0 0 0 -71.775962817511754 342.79219744717921 0 342.79219744717921 -53.937526649031497 0 0 0 0 66.658680608601571 387.43298408225382 0 387.43298408225382 13.257693196675973 0 0 0 0 52.543578603850619 68.227498218489927 0 68.227498218489927 -110.41906544157791 0 0 0 0 23.259838388155913 88.324398279040906 0 88.324398279040906 -96.603849298677233 0 0 0 0 36.674138055670483 31.140163963282248 0 31.140163963282248 8.3996156577268266 0 0 0 0 -11.849102982450859 32.76518991663761 0 32.76518991663761 154.10556268680375 0 0 0 0 -28.516983873400022 74.50433219048864 0 74.50433219048864 51.996368762091151 0 0 0 0 19.204271092153363 51.339845334979657 0 51.339845334979657 0.35115793469469736 0 0 0 0 79.998090056824367 148.2256930149415 0 148.2256930149415 97.686441861835192 0 0 0 0 102.6172850597286 134.15036987101121 0 134.15036987101121 70.499272266337357 0 0 0 0 -96.1464459216877 119.38972437347547 0 119.38972437347547 115.94171333812119 0 0 0 0 -63.23420761807678 82.941168623005495 0 82.941168623005495 85.797663188345723 0 0 0 0 -58.994223520334344 118.38259709911654 0 118.38259709911654 103.62781868108141 0 0 0 0 57.158533486086526 124.7518751726675 0 124.7518751726675 124.7291822678344 0 0 0 0 -42.421465649811424 67.654872181156037 0 67.654872181156037 62.725077886336237 0 0 0 0 -43.746691364445724 131.41018550732406 0 131.41018550732406 94.602624367395038 0 0 0 0 -18.877488720873913 65.307819613754418 0 65.307819613754418 13.02937507024788 0 0 0 0 -62.628890727370162 145.79321115458151 0 145.79321115458151 76.280116324691335 0 0 0 0 -5.7226530760055994 52.213234376482944 0 52.213234376482944 11.602874271713617 0 0 0 0 -63.777368505776394 99.498002465785248 0 99.498002465785248 114.63102030362643 0 0 0 0 4.4458889474844909 84.609234512507101 0 84.609234512507101 101.09043230873067 0 0 0 0 243.77947441083961 451.81032341885293 0 451.81032341885293 -1171.9830843498057 0 0 0 0 90.693100411335763 412.56068702428456 0 412.56068702428456 -1385.9428150757085 0 0 0 0 -87.035093822305498 167.82742497751315 0 167.82742497751315 -1249.8438941965032 0 0 0 0 -244.17920660602977 70.622924714189139 0 70.622924714189139 -1497.2205134108663 0 0 0 0 378.17667322420311 337.53958684233294 0 337.53958684233294 -1643.1870255361428 0 0 0 0 232.90801771524639 63.875780794547609 0 63.875780794547609 -1777.3068803580827 0 0 0 0 24.95209128256829 319.83261665190366 0 319.83261665190366 -646.17740501902881 0 0 0 0 -16.747925172228861 159.52409957468626 0 159.52409957468626 179.75653320438869 0 0 0 0 -252.0561550666971 824.63589831873105 0 824.63589831873105 -540.27153647503292 0 0 0 0 343.00007719636051 667.00900172355614 0 667.00900172355614 -570.51155286219728 0 0 0 0 -66.030553613582015 534.01608654982556 0 534.01608654982556 -471.77091676816053 0 0 0 0 -108.84122910247243 535.94931386855023 0 535.94931386855023 470.8596650563004 0 0 0 0 211.16292805111516 382.10990122471412 0 382.10990122471412 -432.15670743428927 0 0 0 0 -164.05440643904149 550.09118193588802 0 550.09118193588802 415.0628082535186 0 0 0 0 41.241603507402033 626.86943338521814 0 626.86943338521814 -187.77613168951939 0 0 0 0 59.11778766732823 519.52515777392182 0 519.52515777392182 -374.26129110460897 0 0 0 0 -24.249953117694531 280.04265903547275 0 280.04265903547275 -528.56668755917417 0 0 0 0 88.439051596606078 388.75036042592365 0 388.75036042592365 -556.2909924366395 0 0 0 0 10.90709886593686 749.54153621606383 0 749.54153621606383 -1261.9431309502907 0 0 0 0 -32.042713296366856 223.3452083227603 0 223.3452083227603 -1005.1471913935384 0 0 0 0 0.95362384082289964 -2.3467063664868704 0 -2.3467063664868704 -3.7625858014066154 0 0 0 0 41.386920914803341 -14.61897687038072 0 -14.61897687038072 -141.85310142094386 0 0 0 0 58.798785588172905 -80.35267602949898 0 -80.35267602949898 -29.280314028488647 0 0 0 0 99.22316223551752 29.979335815409286 0 29.979335815409286 -25.35056213200005 0 0 0 0 30.155399188281962 33.396231782641863 0 33.396231782641863 -10.817834798043563 0 0 0 0 20.437930841766516 28.293136947872981 0 28.293136947872981 -14.481690775518089 0 0 0 0 109.63233626996953 31.676697224698728 0 31.676697224698728 -207.44365008092063 0 0 0 0 11.523971908973181 -1.8037636545486748 0 -1.8037636545486748 132.59796691656811 0 0 0 0 25.69578358375793 110.00309853394447 0 110.00309853394447 132.41149369788764 0 0 0 0 151.43783789884765 79.978645496710669 0 79.978645496710669 136.20456445340096 0 0 0 0 137.23711736661789 180.04959226110805 0 180.04959226110805 210.71975820473835 0 0 0 0 5.7011233067823923 64.887035907562677 0 64.887035907562677 220.55731226390344 0 0 0 0 2.0548870105634478 -6.1240935640992404 0 -6.1240935640992404 -22.761995241666668 0 0 0 0 41.707073376219626 18.623428957548327 0 18.623428957548327 -1.6780406460369477 0 0 0 0 17.237063951535674 138.67670578299294 0 138.67670578299294 -84.947341607046837 0 0 0 0 61.140206005871732 142.1720052543933 0 142.1720052543933 324.94249755075725 0 0 0 0 -19.233320342019624 9.1864234742291728 0 9.1864234742291728 0.88358179718255769 0 0 0 0 -86.026486413677048 130.44959864693374 0 130.44959864693374 345.16372113436228 0 0 0 0 23.037684416325646 239.03054293368768 0 239.03054293368768 451.43979636137374 0 0 0 0 -79.236055686982581 -62.076154986367328 0 -62.076154986367328 1386.9939272160627 0 0 0 0 -544.00237362069311 408.49031291434221 0 408.49031291434221 -317.7717039140698 0 0 0 0 15.701048438930911 2.9621530276808414 0 2.9621530276808414 1.9200219489341492 0 0 0 0 -424.88603048674122 762.85630771769502 0 762.85630771769502 -994.79448257543845 0 0 0 0 -290.68954886074789 481.78096212374658 0 481.78096212374658 -650.47191241875407 0 0 0 0 -637.99586172284035 666.97688479405042 0 666.97688479405042 -474.30482250769273 0 0 0 0 -175.08375909879396 53.300743648615025 0 53.300743648615025 176.35024226333189 0 0 0 0 -774.89613609009393 910.32332670051619 0 910.32332670051619 -167.59167473875277 0 0 0 0 -875.97086018030677 574.40200477255348 0 574.40200477255348 530.04307818211964 0 0 0 0 -786.67069461160281 1006.1725574647062 0 1006.1725574647062 863.29680740922049 0 0 0 0 -290.54217245507749 1356.6726996015846 0 1356.6726996015846 -491.7144773350592 0 0 0 0 -549.57097873838211 1079.7436081268897 0 1079.7436081268897 -562.31497893160849 0 0 0 0 -673.56997185402724 860.4300070468671 0 860.4300070468671 -492.88085582504573 0 0 0 0 -182.41744784568436 522.41172300915059 0 522.41172300915059 -1135.9765883356449 0 0 0 0 -422.07048578184185 1008.7463719784828 0 1008.7463719784828 -736.58017539080174 0 0 0 0 -474.25252287372132 873.83876203054388 0 873.83876203054388 -826.05388725758894 0 0 0 0 -1239.9433449889984 1329.2216256718712 0 1329.2216256718712 -958.12051998626703 0 0 0 0 -2318.9042187623418 464.67438494692942 0 464.67438494692942 1212.4671409634393 0 0 0 0 -14.153484803802343 11.352183462525048 0 11.352183462525048 -3.430568159782581 0 0 0 0 129.646476144997 482.43497747900619 0 482.43497747900619 -1723.0207064838032 0 0 0 0 20.514617058659496 -4.4420927583814773 0 -4.4420927583814773 -331.02567298612848 0 0 0 0 -125.26811197795905 210.01786509792873 0 210.01786509792873 27.950133903381357 0 0 0 0 -8.4970299066492032 -3.681960390411902 0 -3.681960390411902 -0.39614613814870125 0 0 0 0 273.9424996992675 -41.808881142176688 0 -41.808881142176688 -3245.5304211203329 0 0 0 0 -885.42026891870773 731.2087079090561 0 731.2087079090561 -1651.0703833367152 0 0 0 0 -1313.7311981625057 17.683892936445091 0 17.683892936445091 -1343.1244917025906 0 0 0 0 -656.98053851266741 -1.7209383762528887 0 -1.7209383762528887 -1691.1334506700077 0 0 0 0 -875.62438279094931 934.33139513522474 0 934.33139513522474 -1463.1325228958622 0 0 0 0 28.062616383125714 72.674002877422026 0 72.674002877422026 -1261.0575361614865 0 0 0 0 -1017.2999918671267 723.28476447548383 0 723.28476447548383 307.18335614843818 0 0 0 0 390.34998320282466 -209.02799194319164 0 -209.02799194319164 686.92030220097513 0 0 0 0 1151.2931376127472 -50.715215659903151 0 -50.715215659903151 -2231.8949069940209 0 0 0 0 509.90869364817627 1481.948765845962 0 1481.948765845962 -4273.8074077488163 0 0 0 0 -33.370753126361507 6.3586897256776496 0 6.3586897256776496 -0.94790046515248783 0 0 0 0 -1799.713373565166 97.687649276227603 0 97.687649276227603 3172.4806732886282 0 0 0 0 -1494.0624659694004 521.14243734056436 0 521.14243734056436 1205.5623136392439 0 0 0 0 576.30428810742887 1885.5265984747748 0 1885.5265984747748 -617.22583961604687 0 0 0 0 58.015458378897165 205.74152134302858 0 205.74152134302858 20.468068456702895 0 0 0 0 -21.312788412044426 22.812447712098631 0 22.812447712098631 -18.75215708711093 0 0 0 0 -167.82449333336081 29.367375827104297 0 29.367375827104297 47.092552815956878 0 0 0 0 19.13994690157233 30.953738144314229 0 30.953738144314229 41.78895878973708 0 0 0 0 1150.2564363712645 362.95587670803525 0 362.95587670803525 -96.547992622916354 0 0 0 0 1179.8008640665648 -77.009608842661692 0 -77.009608842661692 -701.54865807372335 0 0 0 0 -2.6280451349147427 26.45741820975914 0 26.45741820975914 -26.140282295628367 0 0 0 0 -3029.2750513871724 1666.8505860144978 0 1666.8505860144978 -764.45813416972669 0 0 0 0 -646.15825239576225 -723.06871644756757 0 -723.06871644756757 -555.80229360862631 0 0 0 0 -738.05345698306701 535.57482160908967 0 535.57482160908967 -370.5986080696166 0 0 0 0 -898.7333604462292 -77.437981441197735 0 -77.437981441197735 210.32037553019472 0 0 0 0 12.871392958448268 -243.94723017794604 0 -243.94723017794604 73.298565620127192 0 0 0 0 -48.708779721870087 -596.21067452841817 0 -596.21067452841817 -264.47937588364221 0 0 0 0 1009.6328376574238 -114.62124189335009 0 -114.62124189335009 -186.34535419316671 0 0 0 0 14.340453398850514 -183.32008402966676 0 -183.32008402966676 401.61639142596687 0 0 0 0 -108.48919869102247 38.333631874076673 0 38.333631874076673 98.644370256947923 0 0 0 0 1019.5114050928314 -284.05296392041419 0 -284.05296392041419 57.252147838080418 0 0 0 0 -9.4939037241124424 12.716160144773312 0 12.716160144773312 -8.3733228087757539 0 0 0 0 675.4882202543813 -91.997531553599401 0 -91.997531553599401 152.20048759183555 0 0 0 0 84.694143582832567 110.44014625802991 0 110.44014625802991 80.018365810764806 0 0 0 0 20.911707813088221 -5.117213991202874 0 -5.117213991202874 -115.53589677445564 0 0 0 0 -439.67368738244113 368.13648004343304 0 368.13648004343304 -496.21914289208507 0 0 0 0 522.5872516098425 186.34626336812198 0 186.34626336812198 -683.97583802427653 0 0 0 0 -177.11364639922976 186.01740051424713 0 186.01740051424713 92.806493412088912 0 0 0 0 183.68931200611405 -402.59524942783173 0 -402.59524942783173 281.9419804246063 0 0 0 0 -248.42071671572194 125.66089379917139 0 125.66089379917139 14.352623545571987 0 0 0 0 -516.2661995170638 -68.806652302644579 0 -68.806652302644579 380.81248404318467 0 0 0 0 91.946822820351372 30.91252617042619 0 30.91252617042619 328.99262520987395 0 0 0 0 -483.9331009300513 157.04650595532803 0 157.04650595532803 339.83763036681194 0 0 0 0 -138.55651956843212 579.42356893292163 0 579.42356893292163 -5.2537340956550906 0 0 0 0 294.33109689886624 250.22065193615344 0 250.22065193615344 165.43410827086518 0 0 0 0 734.52876991535595 767.83475865942455 0 767.83475865942455 -21.542141305144469 0 0 0 0 206.89188886340708 796.31576875006067 0 796.31576875006067 -847.63195221345813 0 0 0 0 -112.5232223872772 286.27264031370487 0 286.27264031370487 -184.88525767987448 0 0 0 0 548.2605984545371 726.82247978277155 0 726.82247978277155 -2260.6310385005772 0 0 0 0 601.24804680270609 151.86137323069852 0 151.86137323069852 197.18419873645144 0 0 0 0 908.51421508100793 -58.985691111152846 0 -58.985691111152846 -1034.7286639597296 0 0 0 0 -900.59100107006088 1011.7806174766301 0 1011.7806174766301 -718.59143860120821 0 0 0 0 -553.9772647008358 372.17333564026194 0 372.17333564026194 -715.10708867084372 0 0 0 0 -674.57594519277336 207.47514845350815 0 207.47514845350815 -392.90313967686234 0 0 0 0 -825.18667048793577 344.49602483071794 0 344.49602483071794 36.252552000878495 0 0 0 0 1169.7713022057142 321.54907149297833 0 321.54907149297833 -793.68368343765724 0 0 0 0 -7.0125046572628449 19.43147532137786 0 19.43147532137786 -27.946410716314304 0 0 0 0 -254.06605376999505 744.39349988675531 0 744.39349988675531 -673.18428213568404 0 0 0 0 -242.28311507945182 293.23669894334307 0 293.23669894334307 -310.67724262483898 0 0 0 0 -365.33543491744877 556.0587130901788 0 556.0587130901788 312.6953931568496 0 0 0 0 -1152.503549027635 1481.7977692870918 0 1481.7977692870918 -490.35563736110635 0 0 0 0 -2473.0990598781136 308.71073285400962 0 308.71073285400962 2248.9277996535384 0 0 0 0 92.06451436376301 -694.55995114049165 0 -694.55995114049165 622.12140584903682 0 0 0 0 -3419.4698482264976 1624.2975363582691 0 1624.2975363582691 -308.95232348132413 0 0 0 0 -2473.4313109454233 688.59174345355314 0 688.59174345355314 607.86962776674773 0 0 0 0 -2276.3660587634513 1259.7319960947334 0 1259.7319960947334 -2593.5418927694373 0 0 0 0 -5.676336163534117 19.033310130321013 0 19.033310130321013 -3.7246010316534495 0 0 0 0 -3307.0426326063462 1225.4427798588404 0 1225.4427798588404 186.86335133319517 0 0 0 0 -2769.8390791484999 2077.0895544109553 0 2077.0895544109553 -948.2676045586486 0 0 0 0 -124.35038315181737 348.18062643473968 0 348.18062643473968 -576.04151151689439 0 0 0 0 18.640373338987622 -2.8063498374432641 0 -2.8063498374432641 1.7685064568457349 0 0 0 0 635.11191760304791 262.89035129953299 0 262.89035129953299 -897.19273264673393 0 0 0 0 -496.68815773264214 682.08562432200051 0 682.08562432200051 -640.13687714350817 0 0 0 0 -221.37135913598468 1235.4707907846823 0 1235.4707907846823 -2527.3260209106356 0 0 0 0 -100.76994501457375 5.8177417736314965 0 5.8177417736314965 -1582.4645411602924 0 0 0 0 233.80426276536309 497.47682474660542 0 497.47682474660542 -877.8311473072572 0 0 0 0 -12.655636172094091 68.480020118531684 0 68.480020118531684 -14.494487537529494 0 0 0 0 -88.033758930032491 -509.16863583253325 0 -509.16863583253325 15.635800844234836 0 0 0 0 24.422222578028254 33.998197829995192 0 33.998197829995192 -19.506067510107794 0 0 0 0 87.692153877983088 90.273521266382915 0 90.273521266382915 -15.767060762396412 0 0 0 0 -0.12758295290404931 62.296921244025725 0 62.296921244025725 -18.356978216135758 0 0 0 0 33.169240899092983 29.508296057545522 0 29.508296057545522 -1.3154075942293275 0 0 0 0 26.958906794596871 42.817051004663767 0 42.817051004663767 -3.3440902653064342 0 0 0 0 3.0245028630739625 34.881773743560885 0 34.881773743560885 6.2743099791210852 0 0 0 0 462.84477637776126 741.24873492991605 0 741.24873492991605 18.301043140614638 0 0 0 0 -10.514278520528109 58.092697532803314 0 58.092697532803314 19.415257020548395 0 0 0 0 462.84477637776126 741.24873492988399 0 741.24873492988399 18.301043140643742 0 0 0 0 1468.7014875595196 88.648684281703026 0 88.648684281703026 -287.46106928337758 0 0 0 0 462.84477637773671 741.24873492988627 0 741.24873492988627 18.301043140614638 0 0 0 0 11.119532207815297 52.650196019380388 0 52.650196019380388 7.053633965952784 0 0 0 0 580.57500785500451 589.74817337376953 0 589.74817337376953 124.24547588218411 0 0 0 0 -36.62021812472085 50.812917001985625 0 50.812917001985625 -11.022353775100783 0 0 0 0 51.733298729043554 67.570397488716651 0 67.570397488716651 30.381628330620842 0 0 0 0 -15.398513917280894 48.448929654181185 0 48.448929654181185 10.388482741777537 0 0 0 0 -3175.0772430135185 2153.0369821537533 0 2153.0369821537533 -42.177698071871419 0 0 0 0 32.764048544268007 202.34649604340393 0 202.34649604340393 18.157493544662429 0 0 0 0 -1832.0250383446401 975.35375578085223 0 975.35375578085223 -95.672009826856083 0 0 0 0 131.71136176571599 -4.5891311839077389 0 -4.5891311839077389 -606.75180452733184 0 0 0 0 -2201.1165838572779 2216.8015978239528 0 2216.8015978239528 -1401.9433901818556 0 0 0 0 -965.54159194687963 542.03734346331476 0 542.03734346331476 -2211.0625050338276 0 0 0 0 -206.76373852996039 108.11208187438751 0 108.11208187438751 83.73645583364123 0 0 0 0 -1868.0559544673015 -597.51658171220333 0 -597.51658171220333 -892.64305013311241 0 0 0 0 -63.515774870145833 -1086.046228938023 0 -1086.046228938023 -96.764472304839728 0 0 0 0 -5.1825197371706224 16.93108301625864 0 16.93108301625864 14.500869962551121 0 0 0 0 -734.20388731836283 -459.24438901250687 0 -459.24438901250687 66.178992192493752 0 0 0 0 -263.78067052761617 10.790426911829854 0 10.790426911829854 519.42359148175456 0 0 0 0 494.93416817544494 143.00543106224541 0 143.00543106224541 -707.52289590208966 0 0 0 0 8.1031532213042787 25.533449897039475 0 25.533449897039475 -15.280076558423701 0 0 0 0 43.65790081795322 57.136526586482191 0 57.136526586482191 18.796921257694805 0 0 0 0 146.60627359520004 34.032866027377167 0 34.032866027377167 -64.362531268016028 0 0 0 0 35.080761702425661 41.426670890667083 0 41.426670890667083 48.353631516656606 0 0 0 0 81.661249432669138 314.90413616967635 0 314.90413616967635 -75.659165641642176 0 0 0 0 384.48194158036495 -431.19455061506596 0 -431.19455061506596 -73.736411751616771 0 0 0 0 -136.35761734984408 -103.2704824036482 0 -103.2704824036482 226.86148445185972 0 0 0 0 22.471577250595146 84.730707614002313 0 84.730707614002313 -278.79089915191435 0 0 0 0 -971.16813361103414 504.85014717328158 0 504.85014717328158 305.89429309994284 0 0 0 0 -1040.6688380014311 770.1752295086153 0 770.1752295086153 -486.55171461087593 0 0 0 0 3.7061163666205061 3.2526178685058085 0 3.2526178685058085 3.4409436123495425 0 0 0 0 -882.30639592425723 1870.0044328929907 0 1870.0044328929907 -1761.4602725943223 0 0 0 0 -1659.641005120473 974.05915009126329 0 974.05915009126329 201.4488797198519 0 0 0 0 -2613.4610447962914 779.04505872264053 0 779.04505872264053 257.06071642909956 0 0 0 0 -399.46739793589586 748.78134157616569 0 748.78134157616569 -420.9578671458803 0 0 0 0 -570.57814439619688 1030.9282556148792 0 1030.9282556148792 -611.64254101729966 0 0 0 0 -624.5863781759399 542.74788830643229 0 542.74788830643229 -58.731283027678728 0 0 0 0 -726.06433334428584 1109.3369895849246 0 1109.3369895849246 -512.55662015061534 0 0 0 0 167.68176640407728 -471.31373927500863 0 -471.31373927500863 378.60831801805762 0 0 0 0 2.4047462001608437 1.5038333114209763 0 1.5038333114209763 -1.1561074323059302 0 0 0 0 -149.30498229133809 162.68497807219319 0 162.68497807219319 235.82028675104084 0 0 0 0 264.0996874741686 -126.13095739500568 0 -126.13095739500568 20.365602122430573 0 0 0 0 -180.72342632318032 -107.16112278723449 0 -107.16112278723449 279.84283314773347 0 0 0 0 -141.17802935439977 -72.5884949078918 0 -72.5884949078918 -218.50742006496876 0 0 0 0 -438.22966345519671 491.9420951909924 0 491.9420951909924 162.26387124726898 0 0 0 0 -330.22927077689383 241.27141955015395 0 241.27141955015395 268.45068528455886 0 0 0 0 -215.01978651731042 265.62421452457056 0 265.62421452457056 -19.362323253008071 0 0 0 0 -217.89219864128103 7.7103307411645403 0 7.7103307411645403 621.53942074072256 0 0 0 0 3.1629735236825809 77.338059976364704 0 77.338059976364704 65.036114573112854 0 0 0 0 -121.39430874600657 281.60404054628452 0 281.60404054628452 -251.31039610767039 0 0 0 0 260.51163312979043 450.60382887715241 0 450.60382887715241 -57.536163858778309 0 0 0 0 -100.03988163865952 66.862154147674175 0 66.862154147674175 17.311747118762014 0 0 0 0 -40.356634252355434 71.695950543569779 0 71.695950543569779 -275.58241602969792 0 0 0 0 1125.1628161493427 169.7240625410559 0 169.7240625410559 -180.37165003683185 0 0 0 0 887.25154882290371 720.26133908838165 0 720.26133908838165 227.70553612764343 0 0 0 0 4.3220198102253846 16.105351149696958 0 16.105351149696958 -24.706828713644825 0 0 0 0 47.337308380893816 62.851120490013983 0 62.851120490013983 43.468048969815555 0 0 0 0 -214.90953848157369 101.16792440116114 0 101.16792440116114 224.44088065749384 0 0 0 0 -502.18388558833249 211.69626591984706 0 211.69626591984706 248.24597955435456 0 0 0 0 -235.67913573843907 249.45475258046281 0 249.45475258046281 673.90561097902537 0 0 0 0 -383.17414268103312 330.89061088739254 0 330.89061088739254 851.12779770372435 0 0 0 0 -470.18238625834056 -85.282536339855142 0 -85.282536339855142 214.12692062857968 0 0 0 0 -654.66891651046899 622.3291234518656 0 622.3291234518656 -1971.7132730305602 0 0 0 0 -1809.7180643756874 635.68969571290654 0 635.68969571290654 801.29596374416724 0 0 0 0 125.72420003772277 1337.8008655021458 0 1337.8008655021458 130.93275529003586 0 0 0 0 -529.97922053890943 1581.6664134007478 0 1581.6664134007478 43.072622911102371 0 0 0 0 -910.13063308864366 637.97559990683658 0 637.97559990683658 -404.7105994870326 0 0 0 0 -175.46283162481109 48.939471848421988 0 48.939471848421988 -204.04420144454343 0 0 0 0 -1417.0626692110091 1029.5569967558513 0 1029.5569967558513 -310.97051997913513 0 0 0 0 2.7367312800932488 9.8501970341772562 0 9.8501970341772562 -14.341391609596201 0 0 0 0 1923.1443349486726 -591.70897486829199 0 -591.70897486829199 -787.20263778022309 0 0 0 0 1461.6174355670646 -154.22021132212649 0 -154.22021132212649 -92.623048151523108 0 0 0 0 -2086.9344161317022 780.43593459922522 0 780.43593459922522 105.33898292007507 0 0 0 0 -45.459164938171 1.6593027095853756 0 1.6593027095853756 -23.092237520983417 0 0 0 0 -178.68888400577998 1328.5379047809256 0 1328.5379047809256 71.127432866089293 0 0 0 0 -123.10013673357911 62.865002920205889 0 62.865002920205889 32.19655566928077 0 0 0 0 -108.78412168059594 70.636734564932112 0 70.636734564932112 -29.737932884338079 0 0 0 0 -649.23515191243496 593.03433020375087 0 593.03433020375087 -516.64518366692937 0 0 0 0 -786.70127193969165 1128.0107533745759 0 1128.0107533745759 -707.40626582210825 0 0 0 0 -328.92565674655816 467.64551962471887 0 467.64551962471887 -531.00902589759062 0 0 0 0 -386.1149152957928 383.62414245488799 0 383.62414245488799 -165.65341855880979 0 0 0 0 -406.54466934672928 431.24617000402577 0 431.24617000402577 -234.16134477697051 0 0 0 0 -323.22111555795118 415.59034740876086 0 415.59034740876086 -235.32523429953289 0 0 0 0 -156.89840273987528 80.657818442149818 0 80.657818442149818 85.245540988744153 0 0 0 0 -987.68679973522376 903.06948871351779 0 903.06948871351779 -761.73824652272742 0 0 0 0 -67.882442123397666 -13.795291785070816 0 -13.795291785070816 20.914317087062358 0 0 0 0 -8.5021871679964534 20.522797536410508 0 20.522797536410508 -81.297284892727475 0 0 0 0 -637.46072446952121 502.29242995870982 0 502.29242995870982 -283.57635720768303 0 0 0 0 -617.47703684711087 319.03711242275313 0 319.03711242275313 -331.50470199091069 0 0 0 0 -504.70335499594876 352.09049025864806 0 352.09049025864806 -322.74484061224939 0 0 0 0 -492.14007856553872 531.45903293705487 0 531.45903293705487 -280.00542315076382 0 0 0 0 -390.75602493806127 449.67527098948995 0 449.67527098948995 -214.14735651829687 0 0 0 0 -271.75392646519322 586.08960834069512 0 586.08960834069512 -209.3769703493017 0 0 0 0 -90.047235891093806 413.39553194198379 0 413.39553194198379 -155.62191010682727 0 0 0 0 -303.05078207676706 508.02787570629152 0 508.02787570629152 -190.12057289426593 0 0 0 0 -185.27803925741955 610.67972241658208 0 610.67972241658208 -116.91754224986653 0 0 0 0 -574.47160436890863 408.35091742035365 0 408.35091742035365 -152.59770279494114 0 0 0 0 -526.77121280085612 324.13767222637398 0 324.13767222637398 -4.8051989759260323 0 0 0 0 21.814155539575296 54.599236855087746 0 54.599236855087746 23.504072895101046 0 0 0 0 83.051601632005259 256.50498141023854 0 256.50498141023854 -61.506842721271823 0 0 0 0 -285.19398533829008 257.4784078366938 0 257.4784078366938 13.479837774906628 0 0 0 0 206.68695659650939 583.1278626257299 0 583.1278626257299 -155.44314675625355 0 0 0 0 120.68816801473724 206.25965306998387 0 206.25965306998387 4.5165217975154519 0 0 0 0 12.61430369008534 48.022209628510076 0 48.022209628510076 29.963941600857254 0 0 0 0 776.12927915577984 199.98542099738552 0 199.98542099738552 -25.760823062100826 0 0 0 0 -1864.4671484710379 826.64666227521229 0 826.64666227521229 167.31879419212783 0 0 0 0 464.61297051619295 444.81807391567781 0 444.81807391567781 54.048180154990405 0 0 0 0 10.436333118676508 20.047783545778444 0 20.047783545778444 6.2065383166760739 0 0 0 0 663.05474444276479 318.88154941176617 0 318.88154941176617 -400.02882747073454 0 0 0 0 -567.75337930932801 437.42470225925354 0 437.42470225925354 -306.24049072835624 0 0 0 0 -566.35566121546071 470.52800935602863 0 470.52800935602863 44.288605542264122 0 0 0 0 -357.70955131990013 514.38202253685813 0 514.38202253685813 -260.32579442150745 0 0 0 0 -496.08656830209884 411.82290558171735 0 411.82290558171735 -321.89199854769686 0 0 0 0 -527.65777774607704 347.05195628187721 0 347.05195628187721 -55.932812283499516 0 0 0 0 -810.38012738336602 538.91866798131468 0 538.91866798131468 -134.96436052015633 0 0 0 0 -32.362054502254438 49.377658953683635 0 49.377658953683635 21.85556447621309 0 0 0 0 -236.46724346731526 132.89910066783341 0 132.89910066783341 -320.44373142137192 0 0 0 0 -864.2908933882718 1006.172661503093 0 1006.172661503093 -194.72588122447632 0 0 0 0 -986.59058709436795 230.8284633007861 0 230.8284633007861 271.66348482608737 0 0 0 0 -133.87031418863171 62.804672843957462 0 62.804672843957462 36.216840579476695 0 0 0 0 -1299.8534650330839 389.97970639403502 0 389.97970639403502 518.2260232790868 0 0 0 0 -469.73339410260814 470.95187790855198 0 470.95187790855198 -434.91144754005654 0 0 0 0 184.09543050131833 504.96822652029732 0 504.96822652029732 31.396104845916852 0 0 0 0 -225.46384352674067 6.2820151401683688 0 6.2820151401683688 291.16745761616767 0 0 0 0 -391.16694741792162 188.05001814800198 0 188.05001814800198 -203.31897524319356 0 0 0 0 -328.06525285773387 78.74536756069574 0 78.74536756069574 -14.607471188855015 0 0 0 0 -605.05278132281092 192.77492198484106 0 192.77492198484106 -82.054211136637605 0 0 0 0 -482.56094223471155 -12.411411247339856 0 -12.411411247339856 -155.36611848095345 0 0 0 0 -55.379220108074776 0.98710786596438993 0 0.98710786596438993 -2.2390260800224269 0 0 0 0 -77.853203979910177 727.59651428996585 0 727.59651428996585 908.4095016780193 0 0 0 0 8.4562963131902507 242.6613112318646 0 242.6613112318646 -277.89631208602805 0 0 0 0 -54.186932855714986 371.82957598773646 0 371.82957598773646 193.08577804101515 0 0 0 0 -41.287670691390304 291.74798390854812 0 291.74798390854812 265.29730836940871 0 0 0 0 86.559815503100253 463.24681634930312 0 463.24681634930312 292.08574728984968 0 0 0 0 -1.5026791247946676 284.50482364610798 0 284.50482364610798 234.02461162832333 0 0 0 0 25.787362895433034 250.45845414272844 0 250.45845414272844 -207.25296971501666 0 0 0 0 -1.8616678795660846 153.30839117907453 0 153.30839117907453 -193.86137981381944 0 0 0 0 -2.822800472684321 194.08222143355306 0 194.08222143355306 -333.86534382266109 0 0 0 0 -450.26843564292358 277.26720009034034 0 277.26720009034034 -241.67854540613189 0 0 0 0 30.374351491114794 216.05813908849814 0 216.05813908849814 -690.89969564671628 0 0 0 0 -104.02955115684017 -15.403601639001863 0 -15.403601639001863 -100.00555309280753 0 0 0 0 -93.801072205824312 -251.07433453190606 0 -251.07433453190606 -540.88675145877642 0 0 0 0 -33.921504707133863 67.973758781285142 0 67.973758781285142 -118.85001651172388 0 0 0 0 -15.26906611166487 4.4537773870906676 0 4.4537773870906676 -403.59066127461847 0 0 0 0 -6.9535978187341243 65.042946898556693 0 65.042946898556693 -148.4209788946755 0 0 0 0 8.1820065814536065 122.20244717417518 0 122.20244717417518 -251.80832858469512 0 0 0 0 -27.152302850445267 10.615604493723367 0 10.615604493723367 -146.46468323752697 0 0 0 0 -29.7131870909406 26.671711313112823 0 26.671711313112823 17.388490876390108 0 0 0 0 -105.09324691778065 61.19464900822841 0 61.19464900822841 11.257445387304301 0 0 0 0 -627.76221736767366 409.33751724563263 0 409.33751724563263 -39.357870395135251 0 0 0 0 -437.71314420893032 -18.197003708184639 0 -18.197003708184639 -418.33278714168409 0 0 0 0 -571.7495031041035 227.79420399240917 0 227.79420399240917 -682.37065863481257 0 0 0 0 -178.96719299463439 565.10109267532971 0 565.10109267532971 -91.413103531580418 0 0 0 0 -99.191621735619606 61.662548388320602 0 61.662548388320602 7.5389518797491064 0 0 0 0 -163.6311432487928 177.58130514921504 0 177.58130514921504 -116.53865003746387 0 0 0 0 -34.854866304391393 4.7676212163526515 0 4.7676212163526515 2.2844304879740776 0 0 0 0 -1345.3402756067189 482.35259004736145 0 482.35259004736145 10.631982965656789 0 0 0 0 -354.46595297680324 274.92827478074469 0 274.92827478074469 -185.79319104454771 0 0 0 0 -464.48113253853626 624.30883061916938 0 624.30883061916938 -298.79080106889887 0 0 0 0 -659.84347690999311 186.79686545553704 0 186.79686545553704 -251.49083933138172 0 0 0 0 129.86383982055668 305.19587960911304 0 305.19587960911304 -208.31858048764116 0 0 0 0 -62.645966108120774 632.27692567748454 0 632.27692567748454 -75.043762715285993 0 0 0 0 489.14467231957769 -60.398397048917104 0 -60.398397048917104 -18.453099126883899 0 0 0 0 -19.488825097605343 9.7519745523352128 0 9.7519745523352128 11.951572709444889 0 0 0 0 -150.37639677192783 -54.047070063097635 0 -54.047070063097635 140.06814071978806 0 0 0 0 5.8430696972045553 80.023002286518022 0 80.023002286518022 -26.311750471984851 0 0 0 0 9.8671809043663643 17.188881889021928 0 17.188881889021928 -3.6210950585386286 0 0 0 0 -41.589800545232805 49.693859788532535 0 49.693859788532535 16.907515424283019 0 0 0 0 -43.087804040573246 40.472645868241671 0 40.472645868241671 14.549989546212601 0 0 0 0 -24.999543656615799 57.775379808978386 0 57.775379808978386 26.128886357336626 0 0 0 0 -27.71203487767724 38.897901516834629 0 38.897901516834629 -1.5294003785227801 0 0 0 0 -37.418478988916831 111.50570603525557 0 111.50570603525557 196.57623541937937 0 0 0 0 -21.997077947269837 55.365392674583134 0 55.365392674583134 51.274616265925829 0 0 0 0 -48.784091688052285 107.14033001811185 0 107.14033001811185 94.967320211042534 0 0 0 0 -25.203936991297127 34.007949480886325 0 34.007949480886325 -25.392186479543682 0 0 0 0 19.976585192707716 45.247219198077801 0 45.247219198077801 -14.379674264662754 0 0 0 0 29.89917549573147 124.65932011017139 0 124.65932011017139 59.812845914297213 0 0 0 0 61.850251505544293 91.066886802596855 0 91.066886802596855 14.36056520936836 0 0 0 0 -27.255908333327213 53.63112516521177 0 53.63112516521177 40.780988139540568 0 0 0 0 58.406306994804254 185.05017473675252 0 185.05017473675252 267.00763023158652 0 0 0 0 -264.61564098068629 137.22953187931125 0 137.22953187931125 82.006542230235937 0 0 0 0 -321.91179560185356 850.3270083927091 0 850.3270083927091 -183.25164091680199 0 0 0 0 415.71438613936516 176.17587293587712 0 176.17587293587712 79.747914266306907 0 0 0 0 439.6477713125314 79.92427659144596 0 79.92427659144596 -64.641339818321285 0 0 0 0 550.48494551535259 622.83308621761535 0 622.83308621761535 667.08131650476571 0 0 0 0 84.099826088853661 621.16485589804142 0 621.16485589804142 648.89689619778073 0 0 0 0 283.99414442230773 119.17093162696983 0 119.17093162696983 182.29763065611769 0 0 0 0 -1047.30238692276 -15.076883678033482 0 -15.076883678033482 -141.13140654900053 0 0 0 0 21.517016655259795 380.76588152680051 0 380.76588152680051 182.25013931500143 0 0 0 0 -144.89998381901887 868.57768846302588 0 868.57768846302588 584.30238319856289 0 0 0 0 -3303.4829427378663 1333.7168751117279 0 1333.7168751117279 1170.9635364702172 0 0 0 0 4.3942117133839584 14.267339651744408 0 14.267339651744408 11.052228029306946 0 0 0 0 1435.3487971911145 230.15609081623552 0 230.15609081623552 317.11072142552439 0 0 0 0 4363.1949344509085 784.22945166487079 0 784.22945166487079 -543.46607292587578 0 0 0 0 9.7534386998116602 36.535584057599301 0 36.535584057599301 26.990928264318882 0 0 0 0 -3039.2477257820929 600.81265494451873 0 600.81265494451873 496.13509780805907 0 0 0 0 1688.2513224316781 503.58973416614572 0 503.58973416614572 -1.0203224155120552 0 0 0 0 1029.1297872019186 310.91021141454257 0 310.91021141454257 76.161783946725336 0 0 0 0 -457.44273052233984 684.31586775062897 0 684.31586775062897 -516.81274126275821 0 0 0 0 -516.35902191550849 575.07177215059892 0 575.07177215059892 230.902768163156 0 0 0 0 -630.39617729169549 1263.9978903966403 0 1263.9978903966403 -113.29420312315847 0 0 0 0 -2089.9386670668573 827.35383723743143 0 827.35383723743143 215.44113785534864 0 0 0 0 2.3789446637630043 8.402066277759431 0 8.402066277759431 0.90171980032249621 0 0 0 0 1810.4510408710503 -60.774253120776848 0 -60.774253120776848 -595.06730680112378 0 0 0 0 -26.991916185040594 48.050859744108024 0 48.050859744108024 -69.15768310323881 0 0 0 0 106.07805960687983 105.88782050607551 0 105.88782050607551 -101.85835982517983 0 0 0 0 62.025464023903325 112.85140830014558 0 112.85140830014558 126.10263158540647 0 0 0 0 45.787232635389955 496.66997377516964 0 496.66997377516964 -150.55365302204336 0 0 0 0 14.486733594749239 83.350941047996457 0 83.350941047996457 -40.768217271324829 0 0 0 0 -2.9176606384308315 71.219070287287849 0 71.219070287287849 -64.530581020480781 0 0 0 0 -97.867397954745684 195.40472496395523 0 195.40472496395523 -32.028683736105449 0 0 0 0 -6.9879700166020484 155.35659600159124 0 155.35659600159124 -72.96079403902695 0 0 0 0 19.294873404166822 68.023432381354212 0 68.023432381354212 55.025142199284858 0 0 0 0 -3.7029878901266784 56.526035047772893 0 56.526035047772893 54.149637864669785 0 0 0 0 -12.62575103079871 161.12154779914272 0 161.12154779914272 11.957251617772272 0 0 0 0 -14.037029853179156 85.772301057103817 0 85.772301057103817 41.982891001700295 0 0 0 0 -56.141896669305424 120.92747801526275 0 120.92747801526275 105.76979024636967 0 0 0 0 -69.071288269624347 70.585773613858692 0 70.585773613858692 102.99173474617419 0 0 0 0 -110.72389167517395 200.53165474401612 0 200.53165474401612 103.62255740525143 0 0 0 0 -16.117123779516987 157.96216279401779 0 157.96216279401779 118.89700507701491 0 0 0 0 -73.237003884260048 123.39229428397084 0 123.39229428397084 122.20977076342388 0 0 0 0 -120.44546849390917 156.65827272814204 0 156.65827272814204 169.11434724880382 0 0 0 0 -74.400440869560498 90.197950102244477 0 90.197950102244477 207.82737108007132 0 0 0 0 -9.5361492710180755 76.014160341153911 0 76.014160341153911 122.7950558855191 0 0 0 0 -64.382153717808251 177.9608324376386 0 177.9608324376386 178.6653629381326 0 0 0 0 -26.415636202076712 117.03081278179161 0 117.03081278179161 189.55145511496812 0 0 0 0 -84.581313129894625 134.64846075548849 0 134.64846075548849 89.502392876995145 0 0 0 0 70.47701494696615 85.559250812657467 0 85.559250812657467 107.15309444584585 0 0 0 0 -138.40259808156407 300.89704047168198 0 300.89704047168198 47.653787185663532 0 0 0 0 40.765996050620743 243.16825381039234 0 243.16825381039234 97.969661385199288 0 0 0 0 -104.24795492853445 158.81806327987579 0 158.81806327987579 94.222252293198835 0 0 0 0 42.138017705903621 211.27244367268577 0 211.27244367268577 202.31231674604351 0 0 0 0 262.64539439091823 215.45599733818381 0 215.45599733818381 -16.091847041927394 0 0 0 0 251.92764416753198 182.35636014329066 0 182.35636014329066 0.182227126781072 0 0 0 0 629.98293265321263 392.24663010199583 0 392.24663010199583 108.91486657445785 0 0 0 0 160.30762315796505 278.03168273992219 0 278.03168273992219 555.60374375812535 0 0 0 0 165.28003766451002 190.16884789853793 0 190.16884789853793 172.11236932033717 0 0 0 0 17.524314956119269 193.70823276061128 0 193.70823276061128 306.37298827404447 0 0 0 0 73.543259290272545 17.580240784394846 0 17.580240784394846 277.55541594051465 0 0 0 0 95.996675569651416 59.222909408199484 0 59.222909408199484 119.11552027575635 0 0 0 0 -9.4027589694705966 69.23964447059825 0 69.23964447059825 250.13897483664914 0 0 0 0 210.27649472645862 113.89089831700403 0 113.89089831700403 208.61149206533082 0 0 0 0 59.33925066197844 79.223877775373694 0 79.223877775373694 231.54648667889705 0 0 0 0 145.23380854575225 171.04353359503511 0 171.04353359503511 283.36675017292146 0 0 0 0 595.15240030332643 15.793680297181709 0 15.793680297181709 332.76638286473462 0 0 0 0 429.24268183926324 519.14912844648097 0 519.14912844648097 290.31663247826509 0 0 0 0 72.426221079273091 172.21814426545097 0 172.21814426545097 257.07280732005893 0 0 0 0 116.46206961763164 456.6163419968434 0 456.6163419968434 288.13790674199117 0 0 0 0 352.98275839180133 198.17547238343832 0 198.17547238343832 227.32976789092208 0 0 0 0 31.482215451964294 414.95153974655113 0 414.95153974655113 478.58763309778715 0 0 0 0 -34.870953974277654 144.80222708013753 0 144.80222708013753 -87.602415974106407 0 0 0 0 712.10296306321106 -69.515946105966577 0 -69.515946105966577 -77.247322111899848 0 0 0 0 8.0682458366848664 2.3554422505095829 0 2.3554422505095829 -2.0333445931564711 0 0 0 0 -90.404882685812481 441.65491020095214 0 441.65491020095214 531.97835887809924 0 0 0 0 160.54806940913113 -26.698023028751777 0 -26.698023028751777 -3.6267462946052547 0 0 0 0 123.61366402543354 54.599866239586845 0 54.599866239586845 -63.038131144974614 0 0 0 0 -6.0043023302960137 224.38351342445776 0 224.38351342445776 -145.88183599861804 0 0 0 0 15.439654903891523 6.4006502673537398 0 6.4006502673537398 0.22262888176123852 0 0 0 0 8.9391685537641479 41.69470068525834 0 41.69470068525834 -11.361726237577386 0 0 0 0 124.68480970679229 33.628178023558576 0 33.628178023558576 -18.189895767405687 0 0 0 0 377.24322317211772 129.10888487291959 0 129.10888487291959 -90.061585057177581 0 0 0 0 161.86903097564118 155.0633961692829 0 155.0633961692829 -17.219448720672517 0 0 0 0 17.965310049915388 66.888658179606864 0 66.888658179606864 9.157957183488179 0 0 0 0 58.993032348693305 219.58925280284973 0 219.58925280284973 -28.024518415360944 0 0 0 0 -17.840828517903617 17.321117930010359 0 17.321117930010359 -17.82716833390208 0 0 0 0 45.842908504091611 60.90208524451009 0 60.90208524451009 9.2246811387400385 0 0 0 0 284.06704946659738 244.48823888209881 0 244.48823888209881 -43.883927355898777 0 0 0 0 -7.2216908214294619 5.8309980461419997 0 5.8309980461419997 -4.2275354272145478 0 0 0 0 218.58691718374757 -199.46841339179082 0 -199.46841339179082 -611.71171037516615 0 0 0 0 19.140921076323139 -173.66313780096243 0 -173.66313780096243 163.55372719066509 0 0 0 0 50.929161298506415 148.16694661741576 0 148.16694661741576 -6.1625421151256887 0 0 0 0 227.3813717130397 191.75967638452857 0 191.75967638452857 -23.603826723348902 0 0 0 0 254.06965092829705 283.87933785379937 0 283.87933785379937 292.74894985454739 0 0 0 0 8.5444894552056212 -117.09809669964307 0 -117.09809669964307 730.06687887779844 0 0 0 0 -561.75063037771906 435.99988269790629 0 435.99988269790629 32.223393486554414 0 0 0 0 -383.84573102777358 4.9854018680780428 0 4.9854018680780428 320.53941585394205 0 0 0 0 -270.79543707262201 91.072825620009098 0 91.072825620009098 -132.08346732056089 0 0 0 0 401.66475275912853 123.44762165086468 0 123.44762165086468 -53.57204660269781 0 0 0 0 30.767502230197408 39.020023794391221 0 39.020023794391221 47.634106771447023 0 0 0 0 47.824056993116244 173.65586448601078 0 173.65586448601078 -2.4856230646983022 0 0 0 0 216.94431825661013 78.808099230023799 0 78.808099230023799 -54.468609180655335 0 0 0 0 240.33688293128944 122.6118042163107 0 122.6118042163107 -90.16205890798301 0 0 0 0 48.698797085051524 233.22525892502193 0 233.22525892502193 -72.68470070931653 0 0 0 0 -270.14908114822902 643.20206183405753 0 643.20206183405753 -168.16886463650735 0 0 0 0 -224.23014998734652 142.31702626979495 0 142.31702626979495 -19.486153511097655 0 0 0 0 50.201790704626575 65.445063414919787 0 65.445063414919787 79.978427202454043 0 0 0 0 -480.1377779893046 639.78192774765193 0 639.78192774765193 -108.66286956364638 0 0 0 0 -615.68276758327374 271.21466596608843 0 271.21466596608843 279.4917980262544 0 0 0 0 -350.95441850687712 85.603473346593091 0 85.603473346593091 46.758083088090643 0 0 0 0 -386.57555350054463 -7.0726933671539882 0 -7.0726933671539882 674.46702591408393 0 0 0 0 -401.27742208647396 68.537507753208047 0 68.537507753208047 294.72641035821289 0 0 0 0 -371.80404355449718 48.494992987689329 0 48.494992987689329 111.07464405687642 0 0 0 0 14.006414555252377 -115.7831007955956 0 -115.7831007955956 454.28892086201813 0 0 0 0 -68.544003785595123 309.12108381934377 0 309.12108381934377 220.69098100550764 0 0 0 0 50.547400514697074 99.820142546173884 0 99.820142546173884 132.25246886698369 0 0 0 0 4.4947989511856576 -124.93965036875306 0 -124.93965036875306 446.80644121296064 0 0 0 0 -43.113235871482175 -132.59287491528085 0 -132.59287491528085 631.38433400316717 0 0 0 0 -47.322657170698221 60.075264170205628 0 60.075264170205628 1975.6685991854392 0 0 0 0 5.1433306729844332 8.6395827455018548 0 8.6395827455018548 10.185162938168901 0 0 0 0 68.391222944102992 224.40561894944585 0 224.40561894944585 938.5310193694022 0 0 0 0 586.02062475033745 521.03198677791806 0 521.03198677791806 312.31818218764965 0 0 0 0 101.3132404850403 225.4268074882566 0 225.4268074882566 146.88795128570928 0 0 0 0 509.19216761834832 124.40366703479231 0 124.40366703479231 -86.449510381236905 0 0 0 0 78.759694859618321 424.19629785887082 0 424.19629785887082 223.9809695665208 0 0 0 0 432.51030958373303 401.86396559236891 0 401.86396559236891 -64.975280386293889 0 0 0 0 -402.22409725699254 682.3572107900909 0 682.3572107900909 -610.3187560399565 0 0 0 0 -827.55477321182661 134.66853132278356 0 134.66853132278356 166.49932057762635 0 0 0 0 -858.98489570998208 452.45202275729707 0 452.45202275729707 -5.2327523920394015 0 0 0 0 -513.62622484067833 191.16133888676995 0 191.16133888676995 355.21850969141815 0 0 0 0 -580.15776621751866 424.51855366574455 0 424.51855366574455 -3.7008341377554643 0 0 0 0 12.863827822572603 19.574765058411856 0 19.574765058411856 21.52900526485007 0 0 0 0 44.700291827866749 208.31636282870022 0 208.31636282870022 287.34026118900147 0 0 0 0 -513.84468646860842 455.08996181128896 0 455.08996181128896 -283.51399718137691 0 0 0 0 45.822422545301379 69.098557290941244 0 69.098557290941244 -72.026158057393332 0 0 0 0 13.138557358955438 24.2677639770111 0 24.2677639770111 28.697498801387326 0 0 0 0 -2.3953344633852396 -0.86352548956347164 0 -0.86352548956347164 7.709196224439836 0 0 0 0 -171.012244886806 -204.37808179744752 0 -204.37808179744752 359.15758250051294 0 0 0 0 112.66168493808436 -76.242446726870185 0 -76.242446726870185 -7.1743250958970748 0 0 0 0 -411.93774005658634 -36.710568782917107 0 -36.710568782917107 397.82401392515749 0 0 0 0 -229.20095127259265 -75.018599260292831 0 -75.018599260292831 91.984429694683058 0 0 0 0 -418.11022485190915 268.42704902564583 0 268.42704902564583 59.66755145474508 0 0 0 0 3.8235453899313683 8.6269175752788101 0 8.6269175752788101 8.4595200124683743 0 0 0 0 -50.006204609686392 125.75426610336581 0 125.75426610336581 -97.258567165175918 0 0 0 0 -227.28522757143946 136.1454972041829 0 136.1454972041829 -94.660517784344847 0 0 0 0 -217.77195425012178 212.04181378977228 0 212.04181378977228 -96.140945928564179 0 0 0 0 -383.77108520259208 -166.97265864882502 0 -166.97265864882502 259.00418747856747 0 0 0 0 -305.67325310737397 140.6597467111169 0 140.6597467111169 56.609394479048206 0 0 0 0 13.722556687003816 -49.619193421778618 0 -49.619193421778618 162.97634176915744 0 0 0 0 -8.5907573336589849 237.33210624757339 0 237.33210624757339 52.68170185899362 0 0 0 0 -147.41185488214614 181.26959975542559 0 181.26959975542559 30.339977778232424 0 0 0 0 -28.239870222678292 50.179370750644011 0 50.179370750644011 -4.6218972952337936 0 0 0 0 17.258233936768121 22.622108228477146 0 22.622108228477146 17.950619880173747 0 0 0 0 -18.644223190312914 31.237126117310254 0 31.237126117310254 18.128632005827967 0 0 0 0 48.787486546127184 214.98958883864543 0 214.98958883864543 -440.58834747466972 0 0 0 0 -0.80265399616888544 19.339902392458328 0 19.339902392458328 22.599889694625233 0 0 0 0 131.19307225700322 114.66795152511622 0 114.66795152511622 -387.22076222742908 0 0 0 0 -225.20573978735774 471.51680466135804 0 471.51680466135804 149.9852261103224 0 0 0 0 -187.91197662961349 461.63120485479885 0 461.63120485479885 -303.26277364167618 0 0 0 0 -2.4282853940307803 18.361040537928687 0 18.361040537928687 30.052856859581482 0 0 0 0 -352.51960441908523 115.57578662883316 0 115.57578662883316 34.879594435158651 0 0 0 0 -224.18543738174776 119.2468867944699 0 119.2468867944699 40.525487128001259 0 0 0 0 -263.4205590215206 276.00621520621644 0 276.00621520621644 323.03845191129949 0 0 0 0 -392.78263992977736 2.50733376511198 0 2.50733376511198 271.60807717106218 0 0 0 0 -411.53713972708897 -6.9639926729319086 0 -6.9639926729319086 315.53627443269943 0 0 0 0 -390.44366524057568 35.040042949907729 0 35.040042949907729 634.8345551850216 0 0 0 0 626.20894195594883 -1036.6625788686069 0 -1036.6625788686069 -912.96376644846168 0 0 0 0 9.7986630280060609 11.700466845905567 0 11.700466845905567 16.068430239277177 0 0 0 0 -156.53656758635043 -138.42758634272468 0 -138.42758634272468 275.8234129435441 0 0 0 0 -151.16284042062671 -95.915726562812779 0 -95.915726562812779 581.43415994243696 0 0 0 0 -52.971947063691914 329.07305513783649 0 329.07305513783649 296.12572476631613 0 0 0 0 -4.2616091957597746 578.72328544502489 0 578.72328544502489 985.54360520027694 0 0 0 0 927.55552183452437 -627.60257899163253 0 -627.60257899163253 695.27469798712991 0 0 0 0 1028.8073416701955 333.885927260475 0 333.885927260475 -130.66680618666578 0 0 0 0 41.032362507801736 -13.236008277104702 0 -13.236008277104702 291.12885045174335 0 0 0 0 1698.2024351017881 751.2712684325088 0 751.2712684325088 -519.45493204388185 0 0 0 0 41.346996435459005 651.91511703079595 0 651.91511703079595 1506.2262316284032 0 0 0 0 -53.694682316840044 228.93879243117408 0 228.93879243117408 91.82614971541625 0 0 0 0 -73.65702356009615 294.74639827087958 0 294.74639827087958 157.12819684014539 0 0 0 0 -405.00467057912465 210.56290026263741 0 210.56290026263741 606.31079895849689 0 0 0 0 -270.37989324279988 -318.4190715113873 0 -318.4190715113873 210.99687939291471 0 0 0 0 -193.33923009016871 68.376338702924841 0 68.376338702924841 -697.53020524504245 0 0 0 0 -147.32776399299473 -170.59166911098146 0 -170.59166911098146 -42.123332944669528 0 0 0 0 107.42510741900333 -17.138430050617899 0 -17.138430050617899 -79.51824220753042 0 0 0 0 509.68388118943403 422.52663893921999 0 422.52663893921999 -142.15691894308111 0 0 0 0 467.58831597570679 -249.78113571186259 0 -249.78113571186259 -200.66058892116416 0 0 0 0 275.73393412368023 -11.752087048036628 0 -11.752087048036628 -492.43589392839931 0 0 0 0 81.042413198949362 -92.966151949935011 0 -92.966151949935011 -442.62432417167292 0 0 0 0 -111.31162866059458 -192.10410020741983 0 -192.10410020741983 -470.97001843392718 0 0 0 0 -125.20697591966177 244.5019289676639 0 244.5019289676639 39.521784030104754 0 0 0 0 -3.849269459714094 2.946486131803141 0 2.946486131803141 -3.7537944842507045 0 0 0 0 -566.69611587072723 -875.23960551180062 0 -875.23960551180062 587.31781799766759 0 0 0 0 -22.133554906555219 -436.92218242841955 0 -436.92218242841955 -830.7012413868797 0 0 0 0 90.855941729205369 158.01134257188824 0 158.01134257188824 5.5354138848197181 0 0 0 0 -20.859203026504254 53.237985138203655 0 53.237985138203655 -15.367004143393444 0 0 0 0 -80.377761464933428 74.723602210098761 0 74.723602210098761 28.673936337436317 0 0 0 0 -23.73056971814367 11.051362489874009 0 11.051362489874009 6.1846070847241208 0 0 0 0 -127.69967985561806 24.645374681627686 0 24.645374681627686 87.27038461714983 0 0 0 0 -12.401543049978756 13.154205948962598 0 13.154205948962598 -3.4749325372579278 0 0 0 0 -6.3014714918373045 2.4999134534789391 0 2.4999134534789391 4.216500635484465 0 0 0 0 -14.866633283920237 45.435379724309314 0 45.435379724309314 128.89785119754379 0 0 0 0 -3.1870541058306117 33.096037385388627 0 33.096037385388627 57.909934495750349 0 0 0 0 -66.292638449478545 44.220122291677399 0 44.220122291677399 79.519494048843626 0 0 0 0 -58.567683596833376 38.309403788589407 0 38.309403788589407 84.022911432795809 0 0 0 0 -42.237683869490866 57.234493248717627 0 57.234493248717627 44.188168245571433 0 0 0 0 -23.189062461620779 36.669228081678739 0 36.669228081678739 33.30358552467078 0 0 0 0 -52.338034900283674 54.42401174310362 0 54.42401174310362 23.018664617178729 0 0 0 0 -17.576357999540097 50.962346490320826 0 50.962346490320826 -20.014047300028949 0 0 0 0 -54.255817725512316 54.381615460806643 0 54.381615460806643 9.6325278268632246 0 0 0 0 -49.897478470882561 41.208662753717363 0 41.208662753717363 28.448702512599993 0 0 0 0 2966.6640000917414 -601.67320583638502 0 -601.67320583638502 118.16796326544136 0 0 0 0 4293.3793741980771 -605.92924820620101 0 -605.92924820620101 59.976379096857272 0 0 0 0 8.9069027745999421 17.284304908175642 0 17.284304908175642 -2.4104692941257895 0 0 0 0 -100.7853497172855 44.498498250144621 0 44.498498250144621 14.281102955399547 0 0 0 0 1280.0664378341535 1336.8619848166563 0 1336.8619848166563 1327.7619812373887 0 0 0 0 -0.80859090450392657 1.4649461187274966 0 1.4649461187274966 0.5901568491436251 0 0 0 0 -48.239820843002235 65.434330867959943 0 65.434330867959943 0.015448057441972196 0 0 0 0 -38.93353746336652 62.25563181049074 0 62.25563181049074 -4.7183402262744494 0 0 0 0 -43.899808356705762 55.613953579886584 0 55.613953579886584 -12.602184157731244 0 0 0 0 -40.009264895052183 28.325262459577061 0 28.325262459577061 16.64242587411718 0 0 0 0 -31.656566644596751 63.641525146027561 0 63.641525146027561 -28.960694191424409 0 0 0 0 -35.27718731626743 23.012449798985017 0 23.012449798985017 11.155103754323079 0 0 0 0 -36.207100001440267 35.530995096603874 0 35.530995096603874 10.326507782163389 0 0 0 0 -37.24235923535889 53.724316675878072 0 53.724316675878072 -40.782885308435652 0 0 0 0 -12.459773368924573 23.680141487742105 0 23.680141487742105 12.606244929332547 0 0 0 0 -25.010226904490992 53.986890560412576 0 53.986890560412576 8.0994247226335574 0 0 0 0 -16.313142942788545 44.338809139328077 0 44.338809139328077 -32.727865349210333 0 0 0 0 -30.31452517283924 64.364329031535817 0 64.364329031535817 -71.858683131431462 0 0 0 0 -37.743475302791921 89.273672632058151 0 89.273672632058151 -58.680778783280402 0 0 0 0 3.6464126548925719 7.9207828372495612 0 7.9207828372495612 -8.6203723325548935 0 0 0 0 -23.479524335358292 57.611298178555444 0 57.611298178555444 -6.4589361868274864 0 0 0 0 -17.151475737686269 53.648776238784194 0 53.648776238784194 -4.1844637194881216 0 0 0 0 -38.275660192899522 71.749291893647751 0 71.749291893647751 -3.0678205176373012 0 0 0 0 -22.799147411613376 59.335924237821018 0 59.335924237821018 -12.97806524184125 0 0 0 0 -18.740499576655566 68.027193415960937 0 68.027193415960937 -0.0024367696896661073 0 0 0 0 -32.1754858935019 53.964071005058941 0 53.964071005058941 -4.4509509163040093 0 0 0 0 -16.892340758320643 57.989238961075898 0 57.989238961075898 -11.599093607917894 0 0 0 0 16.266915008454816 58.651037506118882 0 58.651037506118882 -12.580963143147528 0 0 0 0 -417.5112774426525 400.52848564833403 0 400.52848564833403 -9.5332606211595703 0 0 0 0 -3.8729336757096604 -3.0652593184560999 0 -3.0652593184560999 2.3475017469979775 0 0 0 0 31.40491316434418 26.169114666525275 0 26.169114666525275 -15.041259249846917 0 0 0 0 -50.067182494858571 32.730823997510015 0 32.730823997510015 -7.256812728010118 0 0 0 0 -22.348156344303959 17.972358740957304 0 17.972358740957304 16.649458786982223 0 0 0 0 -13.489769614241951 2.6125664364547276 0 2.6125664364547276 1.8265007529264494 0 0 0 0 -35.54883536088164 39.60718831277336 0 39.60718831277336 -8.6395550834276946 0 0 0 0 -8.5360811363740368 7.1368120714197403 0 7.1368120714197403 -2.6787171495400912 0 0 0 0 -27.610705814993707 22.330283276038244 0 22.330283276038244 -15.045404050048091 0 0 0 0 -10.731753280182602 53.67909104435239 0 53.67909104435239 -8.9279890137840994 0 0 0 0 -49.149591831577709 25.436533046799013 0 25.436533046799013 -15.695442343421746 0 0 0 0 -33.389092567933062 14.490530089410669 0 14.490530089410669 -0.5932748287547156 0 0 0 0 -33.939383157579158 5.041818905569869 0 5.041818905569869 6.5738569471308779 0 0 0 0 -14.686039266846592 7.8836106183180163 0 7.8836106183180163 3.612388082084351 0 0 0 0 -20.118319118832005 7.4312308621883858 0 7.4312308621883858 10.154360393469688 0 0 0 0 -56.997235529241152 33.579102679272182 0 33.579102679272182 -20.572750085382722 0 0 0 0 -38.443707538768507 54.280998141038197 0 54.280998141038197 -3.6061531940101759 0 0 0 0 -72.396365845784203 14.493821180039049 0 14.493821180039049 33.194763767183758 0 0 0 0 -73.556387853016531 33.209782504254235 0 33.209782504254235 8.5064309913723264 0 0 0 0 -37.999800462470546 24.560968185301718 0 24.560968185301718 13.543792493739602 0 0 0 0 -21.77697634814831 19.860822630202165 0 19.860822630202165 27.377973014510644 0 0 0 0 -28.659494966472266 27.465077581262449 0 27.465077581262449 19.037742301887192 0 0 0 0 -16.836109865267645 37.886380298550648 0 37.886380298550648 28.219525043197791 0 0 0 0 -26.889211009854534 63.397982139985288 0 63.397982139985288 46.359809687593952 0 0 0 0 -7.6227756361674892 25.417411614527055 0 25.417411614527055 21.449059630465058 0 0 0 0 -13.296064919169567 57.688826058028553 0 57.688826058028553 48.44085122316028 0 0 0 0 -19.489470173662994 33.220625493486295 0 33.220625493486295 22.569529644737486 0 0 0 0 -25.511874071441582 13.875866869783437 0 13.875866869783437 11.503949639069731 0 0 0 0 -18.841539106200798 31.348620497534284 0 31.348620497534284 22.309446082188515 0 0 0 0 -169.30832971577911 -9.317228847037768 0 -9.317228847037768 106.07376261183526 0 0 0 0 -178.75207238262919 75.610941691922562 0 75.610941691922562 54.02682669274509 0 0 0 0 3.0636390977043249 23.555923166130242 0 23.555923166130242 30.973127787571968 0 0 0 0 -19.529437142446113 33.470993820214062 0 33.470993820214062 21.117599228804465 0 0 0 0 -1202.5293235642166 739.72353375067178 0 739.72353375067178 -2.0293990086065752 0 0 0 0 -106.76368820024072 -60.678505160685745 0 -60.678505160685745 115.61342354369117 0 0 0 0 -2.2351876744360197 -63.966740384508739 0 -63.966740384508739 44.875333366551786 0 0 0 0 -5.3864425479010407 2.4989185233093281 0 2.4989185233093281 1.6716727795087536 0 0 0 0 20.504719956916233 75.624105124712514 0 75.624105124712514 71.405251345931902 0 0 0 0 -56.57912857500196 28.614273611528915 0 28.614273611528915 243.35810522735119 0 0 0 0 -132.03216665075161 -213.91274833337229 0 -213.91274833337229 265.23777043574592 0 0 0 0 -12.463476351855888 1.3927560667878538 0 1.3927560667878538 0.30262929970882624 0 0 0 0 -198.81802423597401 -100.9799137747832 0 -100.9799137747832 -52.208572528601508 0 0 0 0 -2385.8385924190879 1046.4954561169579 0 1046.4954561169579 -479.89241095866601 0 0 0 0 -2154.1783940659807 1243.0153943312907 0 1243.0153943312907 -314.57809532587999 0 0 0 0 -13.022978091928479 -0.47973689945291653 0 -0.47973689945291653 2.5364448690079371 0 0 0 0 -24.568047869135626 2.2253889707208145 0 2.2253889707208145 -33.743371113974717 0 0 0 0 -2146.799628933135 734.98869306931738 0 734.98869306931738 -416.13736470357253 0 0 0 0 -36.716929922025884 18.941435005064704 0 18.941435005064704 10.213583669188665 0 0 0 0 -24.898926291090902 16.042600989108905 0 16.042600989108905 -6.7106939852237701 0 0 0 0 -22.859890980510073 10.525121853415499 0 10.525121853415499 -0.56303605449755878 0 0 0 0 -31.084154785533329 12.741822962312426 0 12.741822962312426 -2.6846367423386823 0 0 0 0 -27.164352110086838 10.54809334487436 0 10.54809334487436 -637.35075924501871 0 0 0 0 1916.0663185831472 -742.80091882755369 0 -742.80091882755369 -125.88164400807 0 0 0 0 -2656.9984993801772 393.56087281086366 0 393.56087281086366 -330.4532365799605 0 0 0 0 -9.7269798177513564 9.1603179732298088 0 9.1603179732298088 -8.7252568077853994 0 0 0 0 -3183.6676935340438 1864.1279985758738 0 1864.1279985758738 -719.97392790540471 0 0 0 0 -11.788998919675947 6.2987408344822029 0 6.2987408344822029 2.7028351830451243 0 0 0 0 -3111.9610700452249 1815.3105586769379 0 1815.3105586769379 -1577.4175186280627 0 0 0 0 -1862.8510372550008 2499.2150860344482 0 2499.2150860344482 -1855.7202950500796 0 0 0 0 -3604.4250787165547 1623.0043541446012 0 1623.0043541446012 -203.87662942201132 0 0 0 0 -3533.0937699277129 1089.2323067238176 0 1089.2323067238176 -62.23870828357758 0 0 0 0 -2949.7148129684483 1421.2192030410606 0 1421.2192030410606 -242.58268782967934 0 0 0 0 -2905.605507545406 791.8258766172512 0 791.8258766172512 37.039758215891197 0 0 0 0 -527.85011890853639 802.1737452155794 0 802.1737452155794 -833.45254583243513 0 0 0 0 -684.41976875410182 1529.6621110899141 0 1529.6621110899141 -1324.3197944133426 0 0 0 0 -9.8816020871817329 3.9794821165771168 0 3.9794821165771168 2.525693766433676 0 0 0 0 -1079.4128214004886 586.71293556236196 0 586.71293556236196 750.43185837026249 0 0 0 0 -861.66624376297841 1399.2854563864385 0 1399.2854563864385 -1219.8415735624149 0 0 0 0 -1182.3768039076094 1631.4619345565734 0 1631.4619345565734 -829.44082855649071 0 0 0 0 -1275.4719417318629 1445.6357953231854 0 1445.6357953231854 -1111.2195532624755 0 0 0 0 -2076.4193280259296 1634.3263921704383 0 1634.3263921704383 -662.0864125417429 0 0 0 0 -1734.5138897982542 1345.9355539778189 0 1345.9355539778189 -595.30826168585918 0 0 0 0 -7.0301428051084258 -0.37424376253522951 0 -0.37424376253522951 1.5073477947588003 0 0 0 0 -2476.595455580602 1593.5754322029097 0 1593.5754322029097 -649.21438573990599 0 0 0 0 -543.93814457322878 1246.310437954111 0 1246.310437954111 -1252.945053687974 0 0 0 0 -1510.4515613776166 923.26316221765592 0 923.26316221765592 -561.35086967998723 0 0 0 0 35.230722134721873 -135.67288171019754 0 -135.67288171019754 1722.5606776594796 0 0 0 0 -20.582465500685956 37.385370004705749 0 37.385370004705749 25.951067518406177 0 0 0 0 -238.92471863944229 -140.28918307926506 0 -140.28918307926506 2672.5894206829398 0 0 0 0 -2839.8124653541599 2512.9954149040277 0 2512.9954149040277 -5002.1512353658327 0 0 0 0 -63.93031719967621 2212.1589957759134 0 2212.1589957759134 -6044.6523249022721 0 0 0 0 -8.8132233420992634 15.609353906829 0 15.609353906829 -15.091721483631886 0 0 0 0 -1281.4054803458857 2543.549250188531 0 2543.549250188531 1865.8167492826469 0 0 0 0 -1677.4071806055836 4065.0369694760593 0 4065.0369694760593 -3967.0071482186177 0 0 0 0 1506.7898375475415 3671.0140808175784 0 3671.0140808175784 -5868.4079423461517 0 0 0 0 56.188717138652919 194.49351809475047 0 194.49351809475047 178.77777606200834 0 0 0 0 -11.996879844515206 73.394861851164023 0 73.394861851164023 1109.4026093196881 0 0 0 0 -334.41894228822639 1839.8147813517426 0 1839.8147813517426 -3534.3943301516811 0 0 0 0 -21.09005600110499 2.4518734635741453 0 2.4518734635741453 11.586524549708152 0 0 0 0 -24.171013387195124 54.434163214406283 0 54.434163214406283 18.982197799456912 0 0 0 0 -64.719447115809373 64.971771704696778 0 64.971771704696778 26.467385821507385 0 0 0 0 2.0180257128158701 52.905492332574795 0 52.905492332574795 666.61811915952421 0 0 0 0 -5.7329104078653721 12.785801183493447 0 12.785801183493447 -16.105546219992334 0 0 0 0 -65.894014259836752 37.247048828764264 0 37.247048828764264 803.27616811101325 0 0 0 0 31.706623185080389 322.43168989048718 0 322.43168989048718 1081.5868939869542 0 0 0 0 -64.611076900990611 80.402795720526228 0 80.402795720526228 1231.4006243022013 0 0 0 0 1.9248767733333807 525.26182141011668 0 525.26182141011668 1209.6116947709593 0 0 0 0 -122.0875021546326 609.26166053115958 0 609.26166053115958 1563.9474598419911 0 0 0 0 3.8321971811910771 446.16883349869022 0 446.16883349869022 850.658004701545 0 0 0 0 270.42941444480675 332.94025963228341 0 332.94025963228341 664.76111192369717 0 0 0 0 605.35645826802465 771.12242063458689 0 771.12242063458689 995.81828098355618 0 0 0 0 -28.174273947319307 1431.1098681340445 0 1431.1098681340445 1153.8830514344972 0 0 0 0 -699.65564993571934 909.9195463705255 0 909.9195463705255 1536.1287923280324 0 0 0 0 -248.83503354760614 355.65847366258822 0 355.65847366258822 651.67150365182079 0 0 0 0 -331.17695263532005 515.10749929493613 0 515.10749929493613 1858.652472063226 0 0 0 0 -62.55432195582398 344.16746893084201 0 344.16746893084201 2103.1754695859636 0 0 0 0 -102.38122674126589 205.37063898740234 0 205.37063898740234 1892.5382214480924 0 0 0 0 38.948582698689279 960.58402526903592 0 960.58402526903592 1759.3166017857002 0 0 0 0 539.08552703234818 446.1854234617349 0 446.1854234617349 680.71658543291051 0 0 0 0 223.03955230760585 329.88033880268631 0 329.88033880268631 1409.7127411089168 0 0 0 0 951.21983034963705 1769.39745725377 0 1769.39745725377 2057.1328562659546 0 0 0 0 -118.82889753385302 -200.64017340581404 0 -200.64017340581404 4957.1053351851006 0 0 0 0 -604.84753002865909 -91.965870195039315 0 -91.965870195039315 252.39328806316189 0 0 0 0 -58.37273131612983 172.93977515335973 0 172.93977515335973 -60.654997840116266 0 0 0 0 527.76841965617496 703.69050949830853 0 703.69050949830853 617.79894546408104 0 0 0 0 596.3252246061877 95.803569968193187 0 95.803569968193187 125.61335854584468 0 0 0 0 686.07877092170384 805.05762148785288 0 805.05762148785288 408.15121519730019 0 0 0 0 -26.41289202653423 56.279824651050419 0 56.279824651050419 23.451051021076637 0 0 0 0 -307.15299516136292 -173.42023033525038 0 -173.42023033525038 -1260.9764238841599 0 0 0 0 1742.2901142879691 1234.5815351765195 0 1234.5815351765195 -201.5971169056138 0 0 0 0 -543.77543816372781 -104.57995959387335 0 -104.57995959387335 67.355364936549449 0 0 0 0 -23.895345928208144 56.604025667819698 0 56.604025667819698 -1.5033540765935527 0 0 0 0 1067.854534609407 997.21879760971569 0 997.21879760971569 451.78084988267801 0 0 0 0 1995.3741773618276 206.76068188603676 0 206.76068188603676 -250.45932428401375 0 0 0 0 1198.4704984728014 2282.3982849831373 0 2282.3982849831373 -6663.4409095680821 0 0 0 0 -3.1855320210522109 15.034504692124756 0 15.034504692124756 7.4872698733249763 0 0 0 0 420.2215667734672 -99.053644113679184 0 -99.053644113679184 -662.69841450243257 0 0 0 0 188.45898176978517 2384.5220814573331 0 2384.5220814573331 -1506.3555197977403 0 0 0 0 181.79982710698823 -463.5771074749573 0 -463.5771074749573 -2532.5964262638881 0 0 0 0 -14.485001728566743 27.855361087991326 0 27.855361087991326 -25.83706865364303 0 0 0 0 -116.3815960285483 1135.7542085083624 0 1135.7542085083624 276.55421838795883 0 0 0 0 1188.6249144248486 1408.1214760204311 0 1408.1214760204311 941.6294882066868 0 0 0 0 720.42787204652268 1020.1970312469857 0 1020.1970312469857 66.530065509374253 0 0 0 0 -0.27419288852685497 19.204111961950616 0 19.204111961950616 -21.016458637271626 0 0 0 0 403.25907213868777 675.10576166833198 0 675.10576166833198 675.11142766840931 0 0 0 0 2504.8410845212748 611.55040759937037 0 611.55040759937037 -124.95063573273364 0 0 0 0 907.31495098881896 700.36533397268795 0 700.36533397268795 643.7012608187797 0 0 0 0 1132.8025425725173 739.80350768010248 0 739.80350768010248 650.59823339299692 0 0 0 0 1699.6626031656815 1727.7615371528409 0 1727.7615371528409 1622.7813854752458 0 0 0 0 3917.4378495727397 1864.2719477550418 0 1864.2719477550418 779.44048039251356 0 0 0 0 2981.9483073814408 817.52121162590629 0 817.52121162590629 -374.61282859178027 0 0 0 0 3133.3795635608476 2602.4723213925463 0 2602.4723213925463 1633.5214063436335 0 0 0 0 1677.5152306882665 -875.66516085098556 0 -875.66516085098556 -2184.5695635437442 0 0 0 0 4.6160361022149488 7.0110247497499358 0 7.0110247497499358 -8.2965282312653699 0 0 0 0 5911.8660137366987 2611.4514052577324 0 2611.4514052577324 -1254.4746187641867 0 0 0 0 101.76754347278074 633.03519621844316 0 633.03519621844316 -44.769384579907637 0 0 0 0 1609.2302758713802 687.48845645421488 0 687.48845645421488 -53.606650710105896 0 0 0 0 818.43471285267515 1055.5084440775317 0 1055.5084440775317 1.2875293068063911 0 0 0 0 3794.4429384745054 795.79151575479773 0 795.79151575479773 -1.5724641723645618 0 0 0 0 1696.9264089072713 -335.8282954525348 0 -335.8282954525348 725.32181550805399 0 0 0 0 827.52348162665658 806.27212763838907 0 806.27212763838907 80.123914842231898 0 0 0 0 649.62187531754535 848.19414435062208 0 848.19414435062208 71.18650080196312 0 0 0 0 373.91387519715954 1093.1520956361164 0 1093.1520956361164 -0.69455584844399709 0 0 0 0 -174.87336455480909 721.15703514303459 0 721.15703514303459 300.74300068714365 0 0 0 0 -1209.0540380338753 1337.2694212315982 0 1337.2694212315982 0.99372378771658987 0 0 0 0 -1034.3412051541727 839.51953771866101 0 839.51953771866101 487.0909083350125 0 0 0 0 -160.10570172621647 683.3088222261722 0 683.3088222261722 270.4386090458429 0 0 0 0 346.16470678986843 844.07073439894884 0 844.07073439894884 236.89400483876489 0 0 0 0 -229.76363932236472 301.03152184459395 0 301.03152184459395 522.9997809187189 0 0 0 0 -958.58943099534736 764.77403590675931 0 764.77403590675931 21.683260183490347 0 0 0 0 -1054.4920994533861 1296.2849382281602 0 1296.2849382281602 -724.9961660161207 0 0 0 0 -1817.6520146636683 2309.3813117094305 0 2309.3813117094305 -502.58247982655303 0 0 0 0 -1822.4558160122294 1752.0913735000129 0 1752.0913735000129 549.76260778683354 0 0 0 0 -855.8259567669611 1012.3657501256384 0 1012.3657501256384 576.7338820756504 0 0 0 0 319.07806199990046 -94.989232862328208 0 -94.989232862328208 1223.1823283392005 0 0 0 0 -637.45039036477021 858.41167540200695 0 858.41167540200695 -566.47341437783325 0 0 0 0 -239.21779852333202 1381.7491877741413 0 1381.7491877741413 -891.13804847650317 0 0 0 0 -549.11633634526788 813.24484194497927 0 813.24484194497927 -1004.6336802594888 0 0 0 0 -1197.7362455666334 826.4512892788407 0 826.4512892788407 290.04884397570277 0 0 0 0 -1060.9091284085789 758.1764396640483 0 758.1764396640483 267.67628639089526 0 0 0 0 -648.29256418205887 1455.2831750040932 0 1455.2831750040932 -261.88893809431465 0 0 0 0 -1.2405189388138886 3.479338107401361 0 3.479338107401361 -4.7001269701560204 0 0 0 0 322.83301456870828 1535.9663494059496 0 1535.9663494059496 -360.44520409993129 0 0 0 0 -96.030440296877714 35.649126842523401 0 35.649126842523401 692.13890239293687 0 0 0 0 -1807.8434399399512 342.96085395837144 0 342.96085395837144 646.55234228463087 0 0 0 0 -1.6195527042466722 3.3258571449347585 0 3.3258571449347585 -4.7515700254493822 0 0 0 0 -346.21045478830439 186.51727363563623 0 186.51727363563623 367.16455041995505 0 0 0 0 318.17701379623827 930.27566892805044 0 930.27566892805044 0.33690914335602429 0 0 0 0 -1623.2387373336605 1143.4111950100269 0 1143.4111950100269 0.034077915037691635 0 0 0 0 -2315.868753457773 -234.37583655226263 0 -234.37583655226263 56.846732505800901 0 0 0 0 -5.5124335844679138 4.7893723647291608 0 4.7893723647291608 -6.1939073093981847 0 0 0 0 -591.74390946737594 75.089882272615796 0 75.089882272615796 103.88204626131301 0 0 0 0 -1678.5116570931923 842.17498065855762 0 842.17498065855762 315.83964349007692 0 0 0 0 -92.707267667455199 -118.16244288854432 0 -118.16244288854432 -59.867456712890998 0 0 0 0 -381.5017452709817 14.900263337462093 0 14.900263337462093 -0.017956825002329424 0 0 0 0 27.066224567664904 53.343810019665398 0 53.343810019665398 -0.088973098512343043 0 0 0 0 -108.65754600122455 106.330653177778 0 106.330653177778 -12.567187175736763 0 0 0 0 -13.518288669756913 13.690962927957116 0 13.690962927957116 -14.686913374172377 0 0 0 0 -243.32337816753079 -88.080621477369277 0 -88.080621477369277 -68.156701613625046 0 0 0 0 -307.63575210621019 201.56127858136642 0 201.56127858136642 -120.80884931416949 0 0 0 0 -175.95825795896371 -85.095613219244115 0 -85.095613219244115 353.72894959236146 0 0 0 0 -90.472127341264596 62.43301570183138 0 62.43301570183138 15.300457422911443 0 0 0 0 -14.507863261574357 -14.818158634934662 0 -14.818158634934662 -71.494128895719768 0 0 0 0 -48.077418094087989 31.230066430180159 0 31.230066430180159 -9.3752630875751493 0 0 0 0 -239.23669044650981 398.47216027439572 0 398.47216027439572 -256.26368890304821 0 0 0 0 -1376.1654616705132 935.81808445928618 0 935.81808445928618 -264.03299814583443 0 0 0 0 -305.36742900713489 320.44953761722718 0 320.44953761722718 -323.92091379343765 0 0 0 0 -442.05800562320326 294.84034069051995 0 294.84034069051995 272.04595662970678 0 0 0 0 -463.66314747572778 -17.91789101647737 0 -17.91789101647737 535.32348529290175 0 0 0 0 -142.64734825968787 587.33657779234636 0 587.33657779234636 -418.12113164112088 0 0 0 0 179.77121337291646 124.3528840947547 0 124.3528840947547 -108.58587028158945 0 0 0 0 -476.70023072683057 250.2287663264724 0 250.2287663264724 122.23271391280286 0 0 0 0 -1500.7254784254803 787.35781725600827 0 787.35781725600827 -266.51304435142083 0 0 0 0 -18.725845162065525 63.581544185450184 0 63.581544185450184 661.47705367657909 0 0 0 0 -14.272665922713259 339.91324852107209 0 339.91324852107209 -143.18278122533229 0 0 0 0 -99.363857420848944 39.106501686543197 0 39.106501686543197 708.91711106165894 0 0 0 0 -28.545089851402736 5.0324784694530535 0 5.0324784694530535 724.89924172159226 0 0 0 0 -0.33400502060908366 147.10720930153821 0 147.10720930153821 715.50011333882867 0 0 0 0 -124.46088685893483 48.978094278572826 0 48.978094278572826 771.88766430689429 0 0 0 0 -99.815915897601371 77.665982314189023 0 77.665982314189023 677.00239428754139 0 0 0 0 -76.636209788361157 22.039367808014504 0 22.039367808014504 576.61105250476794 0 0 0 0 -80.632657884270316 65.558116937458408 0 65.558116937458408 12.56915989279387 0 0 0 0 -74.449179245902087 69.838999928902922 0 69.838999928902922 429.29675453480741 0 0 0 0 -26.035755390328632 258.53724936527942 0 258.53724936527942 83.7878776017169 0 0 0 0 -181.94965166544353 61.337842684391944 0 61.337842684391944 563.84473815034107 0 0 0 0 -386.97956973339024 319.8099173160881 0 319.8099173160881 612.40729810050107 0 0 0 0 -445.0827699910933 323.58667851742211 0 323.58667851742211 816.75628924946068 0 0 0 0 -222.24562022990358 295.85563965280016 0 295.85563965280016 590.90016553777969 0 0 0 0 -382.0238273047371 308.90732788536843 0 308.90732788536843 536.42350773376529 0 0 0 0 -558.0294688415479 557.65223346465064 0 557.65223346465064 429.36057347946917 0 0 0 0 -842.56410727793264 674.3122232546375 0 674.3122232546375 666.23254321109562 0 0 0 0 -583.47535160418556 534.15297494884726 0 534.15297494884726 573.83355973318976 0 0 0 0 -473.45004782185788 659.24539566665044 0 659.24539566665044 685.15997041720038 0 0 0 0 -435.49390363193743 526.43216212309198 0 526.43216212309198 1148.8567333423707 0 0 0 0 18.247500195033354 302.10262625176256 0 302.10262625176256 872.7318891228424 0 0 0 0 -134.74215504732638 123.33594301124322 0 123.33594301124322 877.65253962561837 0 0 0 0 -982.29881428715271 293.36870145352077 0 293.36870145352077 184.98225460364483 0 0 0 0 -820.92972574964369 445.98701203751625 0 445.98701203751625 211.57978533950518 0 0 0 0 -874.65152029369347 219.27307057450889 0 219.27307057450889 107.21070221855189 0 0 0 0 -848.55007420096808 207.32936984080879 0 207.32936984080879 155.12569220781006 0 0 0 0 -728.13066207326119 340.74332367975148 0 340.74332367975148 180.4218334033967 0 0 0 0 -826.23694154129771 271.14328042291163 0 271.14328042291163 131.88377940157079 0 0 0 0 -698.31960002904452 537.04788812930201 0 537.04788812930201 230.08418969278137 0 0 0 0 -766.00076854080544 791.14499244175386 0 791.14499244175386 250.65779383509653 0 0 0 0 -722.30472273976557 681.26228467404144 0 681.26228467404144 411.64844959518086 0 0 0 0 -702.4369271971882 453.05997977980587 0 453.05997977980587 230.37594694666041 0 0 0 0 -839.66238799974599 465.53016703281173 0 465.53016703281173 194.92375884854846 0 0 0 0 -977.22808628344137 324.15721902267524 0 324.15721902267524 -43.267903026746353 0 0 0 0 -1012.6492016513548 498.25999546052481 0 498.25999546052481 301.68922507238312 0 0 0 0 -588.4582714630651 583.23177863515957 0 583.23177863515957 267.81047920821584 0 0 0 0 -667.81669572801184 414.91518500064558 0 414.91518500064558 363.13320913003554 0 0 0 0 -497.87475417186215 557.65522437460459 0 557.65522437460459 41.385764339735033 0 0 0 0 -1073.4194096235005 287.92521560210298 0 287.92521560210298 114.39720807774574 0 0 0 0 -725.65315111551627 568.35004133704388 0 568.35004133704388 114.30219693743857 0 0 0 0 -1305.3103666588941 266.2208461378541 0 266.2208461378541 66.574842756817816 0 0 0 0 -1460.2334803017366 21.852427735662786 0 21.852427735662786 12.85290905399961 0 0 0 0 -1109.8618566247533 377.85425497840333 0 377.85425497840333 -45.318483039212879 0 0 0 0 -1156.7632336915453 140.11839298035375 0 140.11839298035375 -340.21723624679726 0 0 0 0 -1270.1135015575128 -139.60593289032113 0 -139.60593289032113 -393.69157825637376 0 0 0 0 -1490.8754988402798 88.751112409008783 0 88.751112409008783 -331.02254370535229 0 0 0 0 -1288.3342266397503 118.58112911581702 0 118.58112911581702 -80.918522496853257 0 0 0 0 -1147.8690646213508 133.04504143813392 0 133.04504143813392 -390.81158354880608 0 0 0 0 -1137.1383911337725 295.05155687071965 0 295.05155687071965 200.76662642111569 0 0 0 0 -999.59231323882886 215.74523714961106 0 215.74523714961106 -84.927045159100089 0 0 0 0 -1099.6630940712093 156.90157174989872 0 156.90157174989872 95.247057695873082 0 0 0 0 -914.87635411610972 138.67169592639402 0 138.67169592639402 -239.90472066702205 0 0 0 0 -990.38259744960851 116.9372638258792 0 116.9372638258792 -599.71978284245415 0 0 0 0 -1029.0734967406279 142.06203151669251 0 142.06203151669251 -238.02900673274416 0 0 0 0 -12952.61642414302 -5220.2020252004149 0 -5220.2020252004149 -1217.1160120637505 0 0 0 0 -424.5753247867251 308.15590835249168 0 308.15590835249168 644.28986654485925 0 0 0 0 -103.10967754993348 12.595269567023706 0 12.595269567023706 -13.53248272628295 0 0 0 0 3374.7758775083421 -1769.9983973257476 0 -1769.9983973257476 -5068.5511877941317 0 0 0 0 1435.1690906672893 -1387.4679656366134 0 -1387.4679656366134 699.62806354180793 0 0 0 0 419.93237790083367 34.46764505689498 0 34.46764505689498 39.241783567238599 0 0 0 0 164.03782240629153 413.65636675761198 0 413.65636675761198 257.15292274038075 0 0 0 0 -1179.5181397411179 -213.06398348973016 0 -213.06398348973016 -827.57754135609866 0 0 0 0 -61.583610979131187 72.509662736908524 0 72.509662736908524 -25.767947719673458 0 0 0 0 -517.37439619565703 131.34558488350012 0 131.34558488350012 488.87224901899754 0 0 0 0 -692.27976799895532 1134.2403934126087 0 1134.2403934126087 -778.73986940830946 0 0 0 0 -569.22005897281997 299.60675096727209 0 299.60675096727209 -62.337376948591555 0 0 0 0 -242.43936152676179 155.09409788528865 0 155.09409788528865 -180.04556799336569 0 0 0 0 -936.73151096751462 666.17024387461424 0 666.17024387461424 -48.18833845732297 0 0 0 0 -553.26534500954585 310.88010934607883 0 310.88010934607883 -63.448749187025896 0 0 0 0 -350.71530207958131 36.650394602875167 0 36.650394602875167 -84.811175917595392 0 0 0 0 -87.884903282210871 -135.23668136512424 0 -135.23668136512424 -13.360279622313101 0 0 0 0 -208.56170106081117 301.85722786403494 0 301.85722786403494 236.49784302304033 0 0 0 0 -199.0945523622795 179.47949785531091 0 179.47949785531091 -48.602882435981883 0 0 0 0 -95.50369793649773 72.701207593885272 0 72.701207593885272 -5.3593877329582824 0 0 0 0 -975.84986387229583 399.99798963699141 0 399.99798963699141 148.15164515416109 0 0 0 0 -72.39568909345121 -58.381597247431273 0 -58.381597247431273 93.192070349134156 0 0 0 0 -31.945060226675896 18.182328418533302 0 18.182328418533302 -3.9604374241924916 0 0 0 0 -5874.2427719304105 -3179.8682414825016 0 -3179.8682414825016 2030.4030703610042 0 0 0 0 -113.79232402932418 68.759796894389439 0 68.759796894389439 7.5394864088380373 0 0 0 0 -1156.2132751472018 104.7508189652508 0 104.7508189652508 -755.02713644783944 0 0 0 0 -292.12111553694012 -1778.9781748055175 0 -1778.9781748055175 -3352.7236999435117 0 0 0 0 -36.683166932560638 -14.103701620706119 0 -14.103701620706119 24.478672081622761 0 0 0 0 -1255.1603686348681 239.27547683600278 0 239.27547683600278 342.37373926975852 0 0 0 0 -2746.1581763254271 564.16818398184841 0 564.16818398184841 353.65737754074507 0 0 0 0 -721.39881858166336 87.122409208124736 0 87.122409208124736 -33.110693303184235 0 0 0 0 -1115.5393876513735 -109.71193723499891 0 -109.71193723499891 120.64047282158572 0 0 0 0 -186.81215310713378 -417.57206618635973 0 -417.57206618635973 -270.54215150242089 0 0 0 0 -967.22567963675647 117.44388878069731 0 117.44388878069731 183.5532072155911 0 0 0 0 -870.79185327571577 97.912895818120887 0 97.912895818120887 0.25036412330518942 0 0 0 0 -648.71697503422547 -117.0694699108135 0 -117.0694699108135 120.04550172444351 0 0 0 0 -701.97281466412824 236.94024954915221 0 236.94024954915221 -27.495334983213979 0 0 0 0 -708.52722205185455 155.84272923962772 0 155.84272923962772 -51.880905138881644 0 0 0 0 -854.62296742484432 199.79856646944154 0 199.79856646944154 0.31677002145443112 0 0 0 0 -862.86312029319379 157.6600618768498 0 157.6600618768498 103.68280274636345 0 0 0 0 -748.71104732473032 149.68921037658583 0 149.68921037658583 -0.069995081823435612 0 0 0 0 -696.82432184596837 148.39156190532958 0 148.39156190532958 -49.484333599713864 0 0 0 0 -1010.893189957802 59.0784269124415 0 59.0784269124415 -41.512400980776874 0 0 0 0 -890.04095629242511 420.6269527963741 0 420.6269527963741 -249.31798273038294 0 0 0 0 -6.9398645918480497 2.2052976977340109 0 2.2052976977340109 4.8639666674771433 0 0 0 0 -167.24721442295777 169.81878694064653 0 169.81878694064653 -162.29595936469559 0 0 0 0 -687.77476752985422 119.49097278584486 0 119.49097278584486 0.018808740671374835 0 0 0 0 -221.29100744661264 128.00699199496012 0 128.00699199496012 -44.339620054422994 0 0 0 0 -37.699761711697647 2.0657218127598753 0 2.0657218127598753 -0.20730284202727489 0 0 0 0 -405.97538540435926 671.14206121375901 0 671.14206121375901 -637.39985267906741 0 0 0 0 -6.3713049282626457 3.3317249571927334 0 3.3317249571927334 4.713344173896644 0 0 0 0 -369.65179624749726 376.21485513790685 0 376.21485513790685 -193.37586635092157 0 0 0 0 -284.92839300133346 323.53945950203342 0 323.53945950203342 -456.6736568237684 0 0 0 0 -348.68521735275317 221.87120534902351 0 221.87120534902351 -102.51266393772676 0 0 0 0 -279.37206602384686 424.834987336013 0 424.834987336013 -341.93489712238079 0 0 0 0 -318.03242821822641 437.43700215581339 0 437.43700215581339 -24.168531519579119 0 0 0 0 -9.2933938474124602 3.1830948964218067 0 3.1830948964218067 6.1751347985334064 0 0 0 0 -356.00626449250558 691.20021752762841 0 691.20021752762841 -236.14798711333424 0 0 0 0 -345.24178555800609 328.9296209893655 0 328.9296209893655 -300.60675106564304 0 0 0 0 -38.792292607280615 530.50604863550871 0 530.50604863550871 -736.35636245313799 0 0 0 0 -97.043844319105119 342.24806421515132 0 342.24806421515132 -207.70682940015104 0 0 0 0 69.467442998015031 -54.494038863049354 0 -54.494038863049354 -501.41439993708627 0 0 0 0 -277.05929491662391 159.00210735137807 0 159.00210735137807 -18.719797955098329 0 0 0 0 -92.023595796345035 53.930541115121741 0 53.930541115121741 111.72607498065918 0 0 0 0 -80.031615521904314 331.18404802943405 0 331.18404802943405 -201.35741723410683 0 0 0 0 42.211754225296318 158.17489149996254 0 158.17489149996254 -313.78035612434905 0 0 0 0 -32.716110932562344 39.731290562303826 0 39.731290562303826 19.964416549357523 0 0 0 0 -4.5500798741507822 7.1243635268743049 0 7.1243635268743049 -6.5376294732686233 0 0 0 0 -25.343283410883487 64.831316405079633 0 64.831316405079633 -106.48268918339454 0 0 0 0 -33.566435344633646 66.042945130553562 0 66.042945130553562 99.882860711528338 0 0 0 0 -27.771357205536333 60.656566752062645 0 60.656566752062645 95.056002841494774 0 0 0 0 -31.795415845757361 45.415333172996441 0 45.415333172996441 18.734036164288696 0 0 0 0 -39.95307830566162 71.185649341525277 0 71.185649341525277 65.922320240264526 0 0 0 0 -48.862657273726654 64.190388875606004 0 64.190388875606004 98.357262355930288 0 0 0 0 -123.74550799407007 78.126626637502341 0 78.126626637502341 31.517511639278382 0 0 0 0 -37.969536367279943 91.584536749913241 0 91.584536749913241 97.91690324555384 0 0 0 0 -59.560886458064488 50.840284553036327 0 50.840284553036327 85.900768875944777 0 0 0 0 -96.018960887100548 70.919567396776984 0 70.919567396776984 172.88543291162932 0 0 0 0 -34.002639477448199 18.946402609242227 0 18.946402609242227 9.5120165576254578 0 0 0 0 -53.315296907328559 23.795388864151178 0 23.795388864151178 81.900444188156257 0 0 0 0 -4911.8877481366198 2765.6128700587433 0 2765.6128700587433 -3390.6088500550686 0 0 0 0 -15.709606295928097 -19.91210723479162 0 -19.91210723479162 50.77470238613023 0 0 0 0 -96.919675998615276 -11.655296080309199 0 -11.655296080309199 240.31791139696725 0 0 0 0 2594.6014366526506 7027.9903919950011 0 7027.9903919950011 -6125.5454418254594 0 0 0 0 -33.436095590754121 -98.755398650246207 0 -98.755398650246207 79.375947350432398 0 0 0 0 -4126.1231531014782 3494.3104644248961 0 3494.3104644248961 -3140.4531321944669 0 0 0 0 -53.899105765734404 10.394527860757535 0 10.394527860757535 2.3532926663738749 0 0 0 0 -824.88043345838378 -663.86303957630298 0 -663.86303957630298 158.34615357140137 0 0 0 0 -2058.1084866572437 3825.6169266784054 0 3825.6169266784054 -3073.4465315535781 0 0 0 0 -34.726799498093364 6.451783818302431 0 6.451783818302431 -0.42979589939744756 0 0 0 0 -6012.1114766762366 4248.8626308097009 0 4248.8626308097009 -2969.6435307360662 0 0 0 0 1512.9785994656404 4972.8562228304145 0 4972.8562228304145 -5538.4026959855109 0 0 0 0 -14.56395879786578 -424.29199666110799 0 -424.29199666110799 144.32351245754398 0 0 0 0 -987.74933930471161 -294.69185745629511 0 -294.69185745629511 615.89707191073103 0 0 0 0 -821.36875513312407 -483.04601319787616 0 -483.04601319787616 156.77054150119875 0 0 0 0 -480.87093920611369 19.772377481946023 0 19.772377481946023 -32.941186647687573 0 0 0 0 -794.60122234217124 -408.90677908150246 0 -408.90677908150246 679.49526654568035 0 0 0 0 -259.874195233715 298.93057776876958 0 298.93057776876958 696.2798043640214 0 0 0 0 -11.275222627925881 2.5658303445839579 0 2.5658303445839579 3.8637496237355435 0 0 0 0 -2680.8374144661066 358.93281563686469 0 358.93281563686469 731.88003013795242 0 0 0 0 -1734.7878202150241 -779.36253437610867 0 -779.36253437610867 382.75081734651758 0 0 0 0 -3.8695048511257255 25.588840560379907 0 25.588840560379907 17.69766614985366 0 0 0 0 -7.8997276708832942 -2.7957088574621594 0 -2.7957088574621594 14.127683835540665 0 0 0 0 -8.6847216926398687 2.7255542705970583 0 2.7255542705970583 35.851847531594103 0 0 0 0 24.358890554343816 39.368969602001016 0 39.368969602001016 -0.0099520564690465108 0 0 0 0 4.8160294067248515 1.9499573089420323 0 1.9499573089420323 -5.2750825901316034 0 0 0 0 -100.84256014182756 -20.566181377318571 0 -20.566181377318571 12.60212323826272 0 0 0 0 -25.765619816636899 110.54361217880796 0 110.54361217880796 0.24232897050387692 0 0 0 0 -110.86583871651965 64.967017356648284 0 64.967017356648284 28.629509822843829 0 0 0 0 -15.403355126327369 73.687926985721788 0 73.687926985721788 29.263073857524432 0 0 0 0 6.7764215126953786 59.499152805001359 0 59.499152805001359 33.580658040358685 0 0 0 0 92.871030000038445 40.935008714615833 0 40.935008714615833 -10.942837583803339 0 0 0 0 3.6108467060548861 -4.675460481779993 0 -4.675460481779993 -4.7105748257558275 0 0 0 0 24.985312255601457 84.354013050440699 0 84.354013050440699 55.561006725038169 0 0 0 0 198.8878906727623 160.59040840373927 0 160.59040840373927 -126.55703469293076 0 0 0 0 -11.394437302471488 118.61289948195918 0 118.61289948195918 -46.275211907981429 0 0 0 0 5.6794477461662609 276.62783179279631 0 276.62783179279631 -185.22785211502924 0 0 0 0 -382.10585054570402 243.13790460568271 0 243.13790460568271 -1.4668457536172355 0 0 0 0 -294.65662349766353 309.15629508515121 0 309.15629508515121 -287.90389695958584 0 0 0 0 -522.2219159729284 405.92258297365333 0 405.92258297365333 -155.46071084216237 0 0 0 0 -437.80196536409494 205.9332950208991 0 205.9332950208991 -30.915669529756997 0 0 0 0 -185.77419028876466 -11.543454128070152 0 -11.543454128070152 27.366726256368565 0 0 0 0 -198.91331556296791 224.94366151746362 0 224.94366151746362 -128.19176609136048 0 0 0 0 -27.5530415368994 132.51179462537402 0 132.51179462537402 -49.218497443325759 0 0 0 0 -93.548921583058473 -32.364635544508928 0 -32.364635544508928 97.586909381585428 0 0 0 0 -38.58659276358614 42.457139253799994 0 42.457139253799994 27.225129231871506 0 0 0 0 -12.823804809464491 61.73177420796128 0 61.73177420796128 -48.868985097011318 0 0 0 0 19.684485794845386 96.286727700178744 0 96.286727700178744 -91.784869592636824 0 0 0 0 -48.481775346597715 66.425503827096691 0 66.425503827096691 117.41704616531206 0 0 0 0 -1.6569785458954414 2.4463961279821262 0 2.4463961279821262 11.430471374179838 0 0 0 0 -29.579191441479608 46.390892842545128 0 46.390892842545128 24.68665698769496 0 0 0 0 -26.09732232199076 84.04771978550616 0 84.04771978550616 -105.27456646080827 0 0 0 0 -87.964805937015626 124.96715878326359 0 124.96715878326359 45.164190875089844 0 0 0 0 3.6123822301998132 10.928150049546531 0 10.928150049546531 4.5552430262461598 0 0 0 0 -11.309658724465407 -80.012255076813744 0 -80.012255076813744 131.17440983018605 0 0 0 0 23.014097777391726 66.240038980300596 0 66.240038980300596 6.3413483977783471 0 0 0 0 7.1941254379635211 123.13303957825701 0 123.13303957825701 5.1978396103659179 0 0 0 0 26.474188836149267 44.691062809984686 0 44.691062809984686 28.562057147989066 0 0 0 0 2.130924420656811 113.14423812385394 0 113.14423812385394 77.892855889513157 0 0 0 0 -17.263628205400892 86.177763968982617 0 86.177763968982617 42.205946348811267 0 0 0 0 24.456754665050539 59.069339370995294 0 59.069339370995294 115.69361626174214 0 0 0 0 75.689534167278907 142.23915019542619 0 142.23915019542619 31.821790546731791 0 0 0 0 57.104488832686911 72.91897863750637 0 72.91897863750637 -86.344535720243584 0 0 0 0 -5.0433466679623962 61.787478078415916 0 61.787478078415916 -16.584574221429648 0 0 0 0 182.71255940414267 244.13866381421394 0 244.13866381421394 -111.9830059796077 0 0 0 0 202.33684518845621 46.191071575086426 0 46.191071575086426 -188.17155023186933 0 0 0 0 140.5771153740061 75.284874135744758 0 75.284874135744758 -186.52193755275948 0 0 0 0 16.465159779894748 161.23738579284691 0 161.23738579284691 -152.41422885803331 0 0 0 0 0.18705780979030351 -6.0105623450630503 0 -6.0105623450630503 0.78495584780145222 0 0 0 0 91.284004180899501 63.781702748656244 0 63.781702748656244 -337.20325606348342 0 0 0 0 26.603820176540466 129.87479951423302 0 129.87479951423302 -119.97040687769186 0 0 0 0 -0.7771503351686988 171.91777344704315 0 171.91777344704315 352.33132273929368 0 0 0 0 2.205394767333928 123.84732543883729 0 123.84732543883729 -66.292758222218254 0 0 0 0 4.499494233843933 17.270596742833476 0 17.270596742833476 -6.841208016700115 0 0 0 0 -42.414531507269608 70.116689272453428 0 70.116689272453428 -41.610226578320635 0 0 0 0 -250.2532490212634 13.293053453660832 0 13.293053453660832 123.20674283971312 0 0 0 0 2.9250618503574515 143.67161252612277 0 143.67161252612277 -101.65447212647996 0 0 0 0 50.440285707307339 -7.7876736689795507 0 -7.7876736689795507 -17.922097287893848 0 0 0 0 128.33622313103569 382.12314352466456 0 382.12314352466456 179.47939241642598 0 0 0 0 -45.664498441861639 68.429307454964203 0 68.429307454964203 -5.7572878861019312 0 0 0 0 -66.585866218141746 40.514783413542318 0 40.514783413542318 151.52383255262976 0 0 0 0 62.889425874338485 56.39826600280503 0 56.39826600280503 -348.9785533749382 0 0 0 0 -37.664569317006681 -156.20902765322535 0 -156.20902765322535 264.21488424678682 0 0 0 0 -39.544151327036644 52.780993973223275 0 52.780993973223275 -7.566645339293764 0 0 0 0 73.94814851141382 419.62812965574176 0 419.62812965574176 28.663149010681082 0 0 0 0 -186.96853998530423 233.49503263707447 0 233.49503263707447 175.64395267303189 0 0 0 0 658.76775196795279 151.70160848342493 0 151.70160848342493 -83.054500950544025 0 0 0 0 -416.30637253338318 134.04641665525742 0 134.04641665525742 139.62903285297216 0 0 0 0 -0.53226193858637671 -2.132801023175432 0 -2.132801023175432 5.7602470679647126 0 0 0 0 -162.97933752931931 106.75118724560161 0 106.75118724560161 -11.070217448010226 0 0 0 0 213.51293093286222 97.804606350200629 0 97.804606350200629 -66.018534105096478 0 0 0 0 3.2529906682556433 7.729691678494568 0 7.729691678494568 15.519604475101119 0 0 0 0 -1.5500757884074119 79.415457857132424 0 79.415457857132424 -4.0705036473809741 0 0 0 0 106.49375950289686 153.59132609243534 0 153.59132609243534 45.14602705235302 0 0 0 0 179.22288658605248 23.177963460955652 0 23.177963460955652 90.51834671915276 0 0 0 0 64.885667188267689 215.77326110838476 0 215.77326110838476 -5.5289416158821041 0 0 0 0 -93.480907255208876 139.47184688264315 0 139.47184688264315 48.742961416734033 0 0 0 0 -32.701560961462803 70.650220286752798 0 70.650220286752798 -13.410626318637583 0 0 0 0 -3.9032626527186949 177.57559322765883 0 177.57559322765883 3.9397559718345292 0 0 0 0 10.425662011479545 83.820894379897055 0 83.820894379897055 48.588788433330961 0 0 0 0 23.927651558533086 65.766683318564731 0 65.766683318564731 31.405970754622814 0 0 0 0 324.49233661767357 389.8362704957799 0 389.8362704957799 -352.47140477076755 0 0 0 0 248.74666498099396 180.60872428612493 0 180.60872428612493 -181.86132123732386 0 0 0 0 5.646207950456926 6.8454748169274922 0 6.8454748169274922 -15.016819891499949 0 0 0 0 -178.35931306156635 -53.674248457278736 0 -53.674248457278736 318.3362892238074 0 0 0 0 -133.27062846590161 41.096137130996794 0 41.096137130996794 -111.70611543193809 0 0 0 0 -988.58739359624087 82.292531692248303 0 82.292531692248303 32.138577268000518 0 0 0 0 -620.76586563780438 135.23931906832149 0 135.23931906832149 26.812146987889719 0 0 0 0 -57.825583771932401 75.656886879694042 0 75.656886879694042 -43.477905375712311 0 0 0 0 -879.38295300936079 68.514095548933255 0 68.514095548933255 -534.48900136334123 0 0 0 0 -7158.6050759781547 1672.0826049832103 0 1672.0826049832103 1806.3568431967069 0 0 0 0 -845.71023191304539 289.19555265115196 0 289.19555265115196 -221.07260179959121 0 0 0 0 -257.10529673503243 101.57564832025673 0 101.57564832025673 1776.0987479506584 0 0 0 0 1.7646458242961671 159.20224558957852 0 159.20224558957852 251.4142657677221 0 0 0 0 -34.310805378255075 83.897122035101347 0 83.897122035101347 -17.308517951618256 0 0 0 0 -96.957240020964846 31.363801234815639 0 31.363801234815639 40.404126005236279 0 0 0 0 -36.42597015664569 497.16872992950084 0 497.16872992950084 454.18729374709073 0 0 0 0 -707.94698424005992 -75.950580111048112 0 -75.950580111048112 -14.15972280628921 0 0 0 0 -75.905447107768126 70.454924287653995 0 70.454924287653995 158.2258212704445 0 0 0 0 -48.301768664370684 130.66387631964972 0 130.66387631964972 142.85807813834981 0 0 0 0 -32.420982226173635 65.63103605099991 0 65.63103605099991 20.371316649398366 0 0 0 0 27.382521270304977 42.961031953347003 0 42.961031953347003 -1.8477153645232107 0 0 0 0 -23.836895272354013 105.9138395862974 0 105.9138395862974 141.33178355405107 0 0 0 0 -0.44411061483697267 228.36607086767617 0 228.36607086767617 -210.57550279568932 0 0 0 0 -87.915199680304795 94.344048060520436 0 94.344048060520436 110.09434471299755 0 0 0 0 -70.217813496412418 148.68769504008378 0 148.68769504008378 70.995430737646529 0 0 0 0 -134.19140511484875 143.81875371262868 0 143.81875371262868 46.415278425700308 0 0 0 0 -216.79856643493986 173.57980222163314 0 173.57980222163314 92.504148888852797 0 0 0 0 -110.69525836475805 105.59094916519098 0 105.59094916519098 45.149049560830463 0 0 0 0 -17.032557902726865 83.851130302431997 0 83.851130302431997 4.4021432547316977 0 0 0 0 25.34749863396064 122.70600114791887 0 122.70600114791887 9.1046389150287723 0 0 0 0 25.516369651322748 124.82607777520752 0 124.82607777520752 35.578709703455388 0 0 0 0 -69.977215026679914 161.57121039142658 0 161.57121039142658 99.131838749231974 0 0 0 0 -76.276517084519583 113.04090579286276 0 113.04090579286276 -23.657571110903518 0 0 0 0 -19.689139557356665 76.412405365380408 0 76.412405365380408 -16.835340798779271 0 0 0 0 -81.758193742018193 69.072337119461736 0 69.072337119461736 10.629196981055429 0 0 0 0 -205.88013701844466 43.556163253611885 0 43.556163253611885 -18.12281976864324 0 0 0 0 -118.05455872536368 84.92457065290364 0 84.92457065290364 -16.011925270780921 0 0 0 0 -131.07317672533827 108.56825414852938 0 108.56825414852938 -37.987033255085407 0 0 0 0 -164.97146077959906 153.93056144988805 0 153.93056144988805 -2.5726783181016799 0 0 0 0 -328.94009965084115 69.546282075272757 0 69.546282075272757 25.254366717374069 0 0 0 0 -437.66588136983955 -16.202498696686234 0 -16.202498696686234 49.165064308952424 0 0 0 0 -638.62780600750557 47.259055466391146 0 47.259055466391146 85.737443325429922 0 0 0 0 -957.02407556588514 121.75819594757559 0 121.75819594757559 133.80323911600863 0 0 0 0 -633.69446517802862 225.09118580876748 0 225.09118580876748 125.44633444823558 0 0 0 0 -699.4644184495919 187.6853147817601 0 187.6853147817601 116.44352834090387 0 0 0 0 -701.7952438302782 172.82984633243177 0 172.82984633243177 139.9427613789594 0 0 0 0 -707.82035371063057 337.23762689937757 0 337.23762689937757 -164.35541312416899 0 0 0 0 -643.82331490298748 776.0503205394416 0 776.0503205394416 -831.64268425932096 0 0 0 0 -157.81607220307342 299.80431385371776 0 299.80431385371776 -513.37374681395886 0 0 0 0 -676.82191434744254 454.92069217853532 0 454.92069217853532 -218.84842182093416 0 0 0 0 -38.606737745824056 13.727459114788161 0 13.727459114788161 -1.6896501784432303 0 0 0 0 -700.21933834197262 94.232910056889523 0 94.232910056889523 498.96672173804836 0 0 0 0 -135.02948646667744 51.315448941653358 0 51.315448941653358 -93.175584414624609 0 0 0 0 -283.71289446641094 208.02158254646929 0 208.02158254646929 -65.117499548898195 0 0 0 0 -449.18631538143381 289.15212127345148 0 289.15212127345148 -34.494373385066865 0 0 0 0 -228.53136379915304 218.53530511975259 0 218.53530511975259 -117.92527237576724 0 0 0 0 50.895998881462219 138.36418924658938 0 138.36418924658938 -136.73856587965565 0 0 0 0 -28.295051681862127 83.741706745296838 0 83.741706745296838 -31.648411737692811 0 0 0 0 -140.62230920552975 87.981240693516156 0 87.981240693516156 -15.780697560792305 0 0 0 0 -146.27982272002191 89.815252312648227 0 89.815252312648227 5.8206459761713631 0 0 0 0 -25.966580846521538 97.414089004858397 0 97.414089004858397 -38.730126548209228 0 0 0 0 -53.529285942031386 49.847789462520211 0 49.847789462520211 29.049596486138313 0 0 0 0 30.265803856052898 72.18702504255954 0 72.18702504255954 46.046750844500934 0 0 0 0 -32.634702145573101 94.213263048236513 0 94.213263048236513 -39.757144826362492 0 0 0 0 203.21543436584398 167.88437370603788 0 167.88437370603788 20.89483038506296 0 0 0 0 -31.167257873690261 23.597011619947295 0 23.597011619947295 24.778092223337012 0 0 0 0 57.303837642751205 109.20450095949764 0 109.20450095949764 -8.5267328498448478 0 0 0 0 -15.740246060326488 91.11563592280126 0 91.11563592280126 14.072522740584986 0 0 0 0 -341.6093693189614 -24.974566728858917 0 -24.974566728858917 137.27783885560348 0 0 0 0 -259.65022102608827 37.25728937877102 0 37.25728937877102 113.15949487086618 0 0 0 0 -25.95204169901168 107.77588096125206 0 107.77588096125206 84.789688569290377 0 0 0 0 21.137552638665056 142.63715241921818 0 142.63715241921818 181.33495978178689 0 0 0 0 68.494572230280028 51.06225601654296 0 51.06225601654296 70.395384436822496 0 0 0 0 -264.65002801468654 107.917143848048 0 107.917143848048 77.319112561948714 0 0 0 0 -265.09137527015628 169.14468542051327 0 169.14468542051327 200.04281124360932 0 0 0 0 -153.99507914904098 104.30823188350769 0 104.30823188350769 157.11776424902928 0 0 0 0 -330.47842249981159 167.0897647530528 0 167.0897647530528 485.41595627233619 0 0 0 0 -736.67526681646996 -36.142222261340066 0 -36.142222261340066 384.58628672617488 0 0 0 0 -7.168005060980434 -6.5701764308632846 0 -6.5701764308632846 -2.3179791407499124 0 0 0 0 86.300323230693721 -386.6379845365791 0 -386.6379845365791 312.71020355071232 0 0 0 0 -316.85075974970641 -172.24772865404339 0 -172.24772865404339 254.2943925124564 0 0 0 0 -430.8599457184464 219.76753542106599 0 219.76753542106599 132.27839163008321 0 0 0 0 369.36932387444358 269.73023665999062 0 269.73023665999062 -211.031258195173 0 0 0 0 -196.30926476521563 51.336932649282971 0 51.336932649282971 28.579741149398615 0 0 0 0 19.136642189908898 50.461386623810313 0 50.461386623810313 -64.073259729789555 0 0 0 0 77.705333725501987 245.00274296615771 0 245.00274296615771 -5.3169872939761262 0 0 0 0 73.158535814165745 112.7916879261263 0 112.7916879261263 62.906401583406137 0 0 0 0 42.570853784865903 353.157083979037 0 353.157083979037 -12.684398089535534 0 0 0 0 -20.61086379207336 90.392242081245058 0 90.392242081245058 4.4977197663101833 0 0 0 0 10.501565696147736 -76.185181235217897 0 -76.185181235217897 76.892250958560908 0 0 0 0 12.630466405037723 94.021106862693784 0 94.021106862693784 -40.591784232646773 0 0 0 0 41.507467441906755 73.086837614656062 0 73.086837614656062 9.1845112890327414 0 0 0 0 157.52804959501009 266.88122979680702 0 266.88122979680702 -71.39241400656465 0 0 0 0 -589.89416411181446 164.90401712909807 0 164.90401712909807 17.862875927239656 0 0 0 0 254.00477536438848 94.380487384216394 0 94.380487384216394 -34.035077435648418 0 0 0 0 1.7057623564759581 -3.7164838935603655 0 -3.7164838935603655 -5.584423034524832 0 0 0 0 462.94323998890832 251.6167841161332 0 251.6167841161332 -111.6633373980294 0 0 0 0 -243.4062451851205 106.44379197632952 0 106.44379197632952 86.239098665428173 0 0 0 0 129.84249013151566 188.75214288901043 0 188.75214288901043 60.033558848401299 0 0 0 0 34.803833635461494 20.413656812909153 0 20.413656812909153 -2.0092904580091613 0 0 0 0 -168.66392609489412 58.103691512595105 0 58.103691512595105 -57.712390623350075 0 0 0 0 -154.66248016994359 128.6177462594278 0 128.6177462594278 1.1322348616013187 0 0 0 0 147.79478778933844 87.520768553600647 0 87.520768553600647 -112.27943533487269 0 0 0 0 13.052196553325018 60.778679524518424 0 60.778679524518424 45.437910184968757 0 0 0 0 -1131.3375555908424 797.51739118843398 0 797.51739118843398 223.34661280293949 0 0 0 0 -286.92496713279252 -16.024759826097579 0 -16.024759826097579 -23.387722586769087 0 0 0 0 -238.72418969855062 62.121913426088213 0 62.121913426088213 40.974563224270241 0 0 0 0 11.823118421802064 160.21348907594802 0 160.21348907594802 -70.490085618919693 0 0 0 0 37.943810811630101 14.625927880493691 0 14.625927880493691 84.172939670505002 0 0 0 0 -54.436685013468377 89.451798654190497 0 89.451798654190497 -136.46256178186741 0 0 0 0 26.583984774212595 78.30424089785339 0 78.30424089785339 -75.011407148831154 0 0 0 0 1.683476708724271 -1.2555004022087246 0 -1.2555004022087246 -5.9032223857663553 0 0 0 0 -3.5650482851107217 6.9363318177731657 0 6.9363318177731657 1.9572137067507356 0 0 0 0 -75.435121580694158 58.089570903337972 0 58.089570903337972 48.367255891294917 0 0 0 0 75.964549493626691 183.58217862301535 0 183.58217862301535 -25.884988871017413 0 0 0 0 -213.66730304489465 160.30994806581293 0 160.30994806581293 204.45944644803967 0 0 0 0 -209.00443589141014 160.07968657908077 0 160.07968657908077 61.632612391244038 0 0 0 0 32.11019609777577 132.26295021646729 0 132.26295021646729 26.297796408187423 0 0 0 0 26.748058822187886 54.620117479651029 0 54.620117479651029 70.982247541127947 0 0 0 0 -6.0545829589478899 71.467556919435282 0 71.467556919435282 29.8604683990892 0 0 0 0 233.89176916761062 527.48661842195543 0 527.48661842195543 -10.873549690033542 0 0 0 0 -300.01663912049844 117.61309885859373 0 117.61309885859373 329.99610267976095 0 0 0 0 282.55684619748718 556.25166994222354 0 556.25166994222354 285.49933690931357 0 0 0 0 336.18793202796951 261.20958696056914 0 261.20958696056914 -27.81712808112934 0 0 0 0 229.24934990193287 44.371944315382279 0 44.371944315382279 -15.875015231635189 0 0 0 0 134.18860209659033 61.621419456143485 0 61.621419456143485 -173.54762993918121 0 0 0 0 9.890774671841541 1.4013427045259164 0 1.4013427045259164 -7.99617190719691 0 0 0 0 -745.23938301530143 20.38301825794224 0 20.38301825794224 551.38252767753147 0 0 0 0 -34.867446316254501 51.027710322703427 0 51.027710322703427 44.902922266776613 0 0 0 0 162.56790332964738 -66.954474215635855 0 -66.954474215635855 79.085065249720174 0 0 0 0 -0.76666283256781753 61.58282785177289 0 61.58282785177289 57.871234477819598 0 0 0 0 21.724868360908658 109.40654568903574 0 109.40654568903574 77.305736353424436 0 0 0 0 134.97764494779403 110.0362141176447 0 110.0362141176447 23.781011619095807 0 0 0 0 18.089164643461118 94.317123855835234 0 94.317123855835234 17.684437571715534 0 0 0 0 41.525416095764228 55.48727380219124 0 55.48727380219124 73.715962358395643 0 0 0 0 -75.07174614176256 150.66733353641575 0 150.66733353641575 50.287245806859573 0 0 0 0 -165.98718858016582 256.13498112280649 0 256.13498112280649 2.8140340121517511 0 0 0 0 -14.532948643414784 73.20675539214426 0 73.20675539214426 24.569258651172277 0 0 0 0 43.245466117044771 59.824666466987502 0 59.824666466987502 72.376989088045462 0 0 0 0 -75.326205893825318 139.02866209660988 0 139.02866209660988 101.49202271417016 0 0 0 0 -13.119907505179185 14.953599744034506 0 14.953599744034506 21.628456230167373 0 0 0 0 -7.9901355076872278 129.39962929596368 0 129.39962929596368 64.271655282500433 0 0 0 0 -22.329626597394963 164.74058446473646 0 164.74058446473646 9.7622130042582285 0 0 0 0 11.952616637950996 176.96345343860594 0 176.96345343860594 77.397435211654738 0 0 0 0 6.1285059205547441 125.22550449289702 0 125.22550449289702 66.425120553318266 0 0 0 0 -39.481498968572851 128.76022041748001 0 128.76022041748001 69.570047754445113 0 0 0 0 32.329669184851809 91.245296091845375 0 91.245296091845375 70.525659192860189 0 0 0 0 9.5249170317329117 114.16943286786955 0 114.16943286786955 70.325663992742193 0 0 0 0 -81.633038400784244 99.4512261549512 0 99.4512261549512 70.580443140061107 0 0 0 0 4.883683092368301 107.59249007189646 0 107.59249007189646 65.906740665428515 0 0 0 0 70.351007228917297 65.48060661008094 0 65.48060661008094 64.63302695924358 0 0 0 0 142.6844420076377 106.87462924775173 0 106.87462924775173 50.828215915322289 0 0 0 0 -29.503694035227156 46.756285872579241 0 46.756285872579241 55.381588454366323 0 0 0 0 -401.48962010614912 398.59090050723717 0 398.59090050723717 681.49766125826864 0 0 0 0 -391.65170129639591 501.88619941349316 0 501.88619941349316 176.99029340263223 0 0 0 0 -217.11172585353415 327.31654790622997 0 327.31654790622997 350.51015016519523 0 0 0 0 -329.35782705877637 154.43843085768549 0 154.43843085768549 258.88550523511367 0 0 0 0 -195.17465769844057 190.81306544161271 0 190.81306544161271 159.68733782350319 0 0 0 0 -33.239637222083019 109.06922852041772 0 109.06922852041772 49.280635355217157 0 0 0 0 85.953898952982854 113.587111310193 0 113.587111310193 -15.769441793236183 0 0 0 0 -17.255830412595969 211.11036821565358 0 211.11036821565358 -12.833394350654999 0 0 0 0 -235.97107273046686 245.9229630572936 0 245.9229630572936 100.44146777666174 0 0 0 0 46.219019718722848 271.12463828289037 0 271.12463828289037 99.669160353649204 0 0 0 0 170.94584059598856 261.98804087052304 0 261.98804087052304 -292.18499494194111 0 0 0 0 129.80701922636581 269.66225683682569 0 269.66225683682569 -78.020899073366309 0 0 0 0 -7.7355732172007343 122.43044106485027 0 122.43044106485027 16.620094935911879 0 0 0 0 41.524802690786601 122.58887883189891 0 122.58887883189891 -19.582877274544444 0 0 0 0 128.89571309403982 99.29792837145942 0 99.29792837145942 269.56280038703699 0 0 0 0 -42.474814134140615 202.73084352591104 0 202.73084352591104 308.32066215237137 0 0 0 0 12.152373484602492 141.50800961150469 0 141.50800961150469 87.029763560989466 0 0 0 0 472.05004745512269 95.288431280292571 0 95.288431280292571 -343.82747772778384 0 0 0 0 28.361461990380789 8.3860792193655556 0 8.3860792193655556 -19.77705800872954 0 0 0 0 286.71400982898558 174.39314387589548 0 174.39314387589548 -159.92477593061631 0 0 0 0 32.125717865341883 86.566177119664417 0 86.566177119664417 15.497886238967851 0 0 0 0 132.52625556282874 206.44363345673628 0 206.44363345673628 27.780470281970338 0 0 0 0 190.96782478362206 75.576333981142554 0 75.576333981142554 14.154818937951305 0 0 0 0 -92.457144777690701 92.261918843563762 0 92.261918843563762 243.60437245926005 0 0 0 0 142.89125656216856 216.47694856047019 0 216.47694856047019 -15.295760521519696 0 0 0 0 320.82805545751035 214.00535767229303 0 214.00535767229303 -87.952640906136367 0 0 0 0 40.449897771811415 5.4960244113317174 0 5.4960244113317174 -15.114113571297707 0 0 0 0 227.94254304661797 82.290261517284236 0 82.290261517284236 19.889310309290352 0 0 0 0 87.121469796999008 311.99343329461408 0 311.99343329461408 -391.26099437023731 0 0 0 0 418.47624366650416 81.827734551923641 0 81.827734551923641 -164.79241271977662 0 0 0 0 -73.88749587555867 415.53983746123413 0 415.53983746123413 -72.745011042803526 0 0 0 0 -45.846535986620438 539.08621249969292 0 539.08621249969292 162.38916092445652 0 0 0 0 -174.8317597651976 1011.6074625754609 0 1011.6074625754609 -649.66620715832687 0 0 0 0 -176.34094407653174 1019.7615922482655 0 1019.7615922482655 -693.72239443220315 0 0 0 0 45.906604035786586 516.56636632399568 0 516.56636632399568 -1405.4078360488929 0 0 0 0 -1096.8355000029987 168.54550065018702 0 168.54550065018702 31.68534315488796 0 0 0 0 -645.05528312094975 1097.3645689624827 0 1097.3645689624827 -689.76286849994358 0 0 0 0 1711.646982058639 183.41601957089733 0 183.41601957089733 -711.44539260057354 0 0 0 0 -74.66588273744992 -128.23710782577473 0 -128.23710782577473 -138.46155104956415 0 0 0 0 -31.268545220817032 -312.6860051988333 0 -312.6860051988333 -1782.4229784366398 0 0 0 0 -527.85590304724792 896.56743020920476 0 896.56743020920476 779.07339125437284 0 0 0 0 -8.6260079444469113 9.0839508849016966 0 9.0839508849016966 -8.8133875497248084 0 0 0 0 -40.982115740553127 270.46043898018252 0 270.46043898018252 636.73495739442842 0 0 0 0 506.35561627291463 631.34183431452402 0 631.34183431452402 593.17738379878574 0 0 0 0 387.64993748064808 955.62462837156272 0 955.62462837156272 925.88830787608458 0 0 0 0 -192.690837954975 559.11957479788543 0 559.11957479788543 590.25292662253469 0 0 0 0 -87.674875176075147 390.77262897301989 0 390.77262897301989 608.40216442610563 0 0 0 0 342.76000090611706 671.04419511491869 0 671.04419511491869 576.36376337958791 0 0 0 0 -331.04018816514508 165.00263987912331 0 165.00263987912331 489.24699625698122 0 0 0 0 -202.52310233157914 462.73540557338856 0 462.73540557338856 598.28853248051018 0 0 0 0 -32.920241955229898 40.556836677977998 0 40.556836677977998 -34.548362227933723 0 0 0 0 684.17108793955413 726.27881510872248 0 726.27881510872248 458.85266636332381 0 0 0 0 -1572.3911786558128 2097.6170655747992 0 2097.6170655747992 399.70199278010114 0 0 0 0 629.4135713048363 656.99920824318542 0 656.99920824318542 480.95015167741803 0 0 0 0 592.59857280634969 806.01699958252721 0 806.01699958252721 454.8509596560034 0 0 0 0 274.87521628327158 611.1895247322027 0 611.1895247322027 862.26376829207584 0 0 0 0 -23.685302411278194 28.058870653012136 0 28.058870653012136 -26.951574631038284 0 0 0 0 -1196.1825314300004 1856.4457728982234 0 1856.4457728982234 -3015.4087121873163 0 0 0 0 1032.5667666284098 -165.54291413437386 0 -165.54291413437386 -252.98112757348645 0 0 0 0 -12.056027724705142 13.293292099506509 0 13.293292099506509 15.545875319858226 0 0 0 0 -1936.8227837802951 -303.85179710166994 0 -303.85179710166994 -499.6268841108249 0 0 0 0 -2.1307929894114075 8.560593267943581 0 8.560593267943581 1.2521158098374485 0 0 0 0 -10.363720451872773 12.82451426357143 0 12.82451426357143 -15.934343966147424 0 0 0 0 379.79339025044192 458.24088931207007 0 458.24088931207007 -86.30065104602545 0 0 0 0 -2187.9814217020639 -1700.3703844248967 0 -1700.3703844248967 2365.5504688411893 0 0 0 0 1094.1846815945792 -2.7948117101186654 0 -2.7948117101186654 -455.28500790151156 0 0 0 0 792.99013237070176 635.79712518222368 0 635.79712518222368 87.635824932418473 0 0 0 0 -1083.0908978199259 591.01995760220962 0 591.01995760220962 -58.788542275819054 0 0 0 0 -23.462718032130709 38.93716479871496 0 38.93716479871496 -46.918310091092451 0 0 0 0 1975.1535429160795 948.98031750624796 0 948.98031750624796 -575.75622240376106 0 0 0 0 -84.218131711204478 700.02800147767266 0 700.02800147767266 36.58482984922739 0 0 0 0 -308.84243234431051 714.4594337299277 0 714.4594337299277 55.504021357843158 0 0 0 0 -359.51319347669778 558.53263231626624 0 558.53263231626624 93.977536827114818 0 0 0 0 -493.0449460450036 665.20956759954424 0 665.20956759954424 115.73147211466676 0 0 0 0 -438.87952160728855 722.5078878442946 0 722.5078878442946 136.80931663175579 0 0 0 0 -646.07704956337693 818.76807414762879 0 818.76807414762879 116.43355139547566 0 0 0 0 -548.5486502638596 690.69984043951263 0 690.69984043951263 193.49287158684456 0 0 0 0 -630.76140897648293 639.99567902586568 0 639.99567902586568 206.43901345266568 0 0 0 0 -317.83209134162098 144.92263707161328 0 144.92263707161328 205.87221640937787 0 0 0 0 -339.43872330150407 505.98044042122638 0 505.98044042122638 236.13388131718966 0 0 0 0 -231.78795563290987 552.02413863764377 0 552.02413863764377 -184.61514329200145 0 0 0 0 -243.57763421644995 694.01451242262556 0 694.01451242262556 -73.871490570294554 0 0 0 0 -395.9812556350771 621.35477535770769 0 621.35477535770769 7.2475876425910428 0 0 0 0 -364.97445640223668 735.09478550998756 0 735.09478550998756 -72.978544370518648 0 0 0 0 -376.14787397676628 722.56075062225864 0 722.56075062225864 13.059084360636007 0 0 0 0 -91.264386860813829 807.72069952420861 0 807.72069952420861 -58.846793995398912 0 0 0 0 -61.577821743292589 558.66764497390977 0 558.66764497390977 -95.533296744833933 0 0 0 0 388.38820119340198 398.72311025794988 0 398.72311025794988 28.409005183093541 0 0 0 0 468.52676590974079 887.48922641204263 0 887.48922641204263 -215.27696302846743 0 0 0 0 -733.5831775655497 906.13292330637705 0 906.13292330637705 118.65627095382661 0 0 0 0 -310.41763589695256 873.6818820896442 0 873.6818820896442 -60.480352420534473 0 0 0 0 -335.1105411905055 936.47518208892143 0 936.47518208892143 36.597910625205259 0 0 0 0 -148.17228571132728 1263.8791329741252 0 1263.8791329741252 -131.801300060426 0 0 0 0 -1066.1020657621521 239.20173276586866 0 239.20173276586866 54.185039977077395 0 0 0 0 -808.664710809393 389.44327165121649 0 389.44327165121649 93.287598087044898 0 0 0 0 -1095.5455656841514 233.98922961809149 0 233.98922961809149 198.88994199565786 0 0 0 0 -1094.6470891044446 753.20690678161918 0 753.20690678161918 187.66727661740515 0 0 0 0 -679.29745153421754 854.23492280788923 0 854.23492280788923 -59.731952827729401 0 0 0 0 -1411.9289325836216 1126.8179760269704 0 1126.8179760269704 -148.24969542908366 0 0 0 0 -1956.2981005598886 1177.8537700830057 0 1177.8537700830057 -97.454477165894787 0 0 0 0 -1095.7289997571843 118.90855129975535 0 118.90855129975535 -185.76818083564285 0 0 0 0 -1892.2770299621843 719.07836004767159 0 719.07836004767159 -123.19850663169927 0 0 0 0 -1600.7888298140388 372.92489371849661 0 372.92489371849661 -41.961352647369495 0 0 0 0 -1339.8439580735212 420.10161868184514 0 420.10161868184514 93.03317282050557 0 0 0 0 -1129.3191087561172 512.82945286106042 0 512.82945286106042 -71.622712879208848 0 0 0 0 -1141.0930618982675 307.32083458008128 0 307.32083458008128 -66.443125440331642 0 0 0 0 -1685.257529432638 230.65778610268899 0 230.65778610268899 -64.525359577324707 0 0 0 0 -1383.3408350439277 -48.106802879367024 0 -48.106802879367024 -143.94373652909417 0 0 0 0 -1383.340835043753 -48.106802879308816 0 -48.106802879308816 -143.94373652909417 0 0 0 0 -1383.3408350439859 -48.106802879439783 0 -48.106802879439783 -143.94373652921058 0 0 0 0 -10.300268131051839 32.781171164354788 0 32.781171164354788 -22.989447334200804 0 0 0 0 -3187.5106655505806 392.8751446029346 0 392.8751446029346 148.40808298262709 0 0 0 0 -2054.3073540234618 -23.175683463501628 0 -23.175683463501628 -139.85585694317706 0 0 0 0 -2456.9050304734265 460.85616440028389 0 460.85616440028389 -30.91326566511998 0 0 0 0 -2174.8596259873993 581.91632376066264 0 581.91632376066264 -185.74824726115185 0 0 0 0 -1780.014163861917 792.08021856777486 0 792.08021856777486 -138.08481759711867 0 0 0 0 -2198.3059334931113 917.08267576718208 0 917.08267576718208 -74.260420140402857 0 0 0 0 -2177.7955457548705 576.14361704855719 0 576.14361704855719 529.85936012258753 0 0 0 0 -5295.5499963881994 499.45247586572077 0 499.45247586572077 618.24737945683592 0 0 0 0 -2320.2937497627499 765.64287499120474 0 765.64287499120474 -327.28390620756545 0 0 0 0 850.93397965241275 737.41518081466347 0 737.41518081466347 267.24289989551471 0 0 0 0 -2239.5597306050495 986.62859358472633 0 986.62859358472633 25.010970651273965 0 0 0 0 -4.0785259304233232 10.982156465502353 0 10.982156465502353 -0.37288679421232018 0 0 0 0 1410.2118454565498 989.1116602085167 0 989.1116602085167 -84.102830058953259 0 0 0 0 475.72092200918632 524.11463925538192 0 524.11463925538192 -721.66309194326459 0 0 0 0 -34.893672276633879 548.49627009964024 0 548.49627009964024 409.3418717940549 0 0 0 0 1345.5423137650362 1347.6951947102079 0 1347.6951947102079 234.43037838653254 0 0 0 0 -4.617568576627729 13.979912306187316 0 13.979912306187316 0.92313127273189366 0 0 0 0 1364.5156633739634 726.65135899228335 0 726.65135899228335 207.07969810593931 0 0 0 0 -2.0519819094011638 5.7044898488124112 0 5.7044898488124112 2.3674077990065143 0 0 0 0 -1332.0058029202046 -604.75305002222012 0 -604.75305002222012 541.46186766216124 0 0 0 0 396.27752867673189 1374.30360698 0 1374.30360698 1643.6356948815301 0 0 0 0 -3.955927625296189 11.035894327436704 0 11.035894327436704 -7.117430905145568 0 0 0 0 -1242.4736818688343 1459.9739246162935 0 1459.9739246162935 -665.91827439251938 0 0 0 0 -994.19950296061688 207.6313413562093 0 207.6313413562093 508.72285982933681 0 0 0 0 -1309.6665701199527 671.41726178563113 0 671.41726178563113 657.90622335980879 0 0 0 0 -369.12922204799179 993.74221463174035 0 993.74221463174035 351.57503544152132 0 0 0 0 -1156.7145129185778 1405.805271451678 0 1405.805271451678 151.96530077929492 0 0 0 0 340.3774185970924 1530.7001315629459 0 1530.7001315629459 -37.983804485193104 0 0 0 0 509.22607174289442 534.61085491414997 0 534.61085491414997 -95.707161041020299 0 0 0 0 -154.34812405045886 270.93343599171931 0 270.93343599171931 66.738378462818218 0 0 0 0 -496.36557140838795 650.58814327275104 0 650.58814327275104 42.620220593395061 0 0 0 0 -280.32257098818081 621.00152586646436 0 621.00152586646436 -51.195777615539555 0 0 0 0 -433.32397969172416 304.3212190380309 0 304.3212190380309 20.465575228095986 0 0 0 0 -1026.0309544550946 356.11031260450545 0 356.11031260450545 99.075918571357761 0 0 0 0 -718.36697513764602 224.74032699971576 0 224.74032699971576 120.80543797719292 0 0 0 0 -1311.1239209124906 71.032025549022364 0 71.032025549022364 -8.9747213032969739 0 0 0 0 -596.1717418539447 129.25509226936992 0 129.25509226936992 -141.13444236030045 0 0 0 0 -1257.6102397411159 716.69804880995071 0 716.69804880995071 -213.17929536921292 0 0 0 0 -411.90863747864933 416.60636876385979 0 416.60636876385979 128.17974441463593 0 0 0 0 -190.02768322588236 557.658485984648 0 557.658485984648 -365.16867997090594 0 0 0 0 -203.55598239043411 542.89587537454645 0 542.89587537454645 331.09252694995666 0 0 0 0 -810.40031582893835 546.50741085063692 0 546.50741085063692 435.63307080850063 0 0 0 0 -105.59901336859548 365.80963756340498 0 365.80963756340498 440.2123634643649 0 0 0 0 315.76800879599432 762.50718528694415 0 762.50718528694415 259.46852307321387 0 0 0 0 333.24816963264857 695.83249306937068 0 695.83249306937068 503.43247043646988 0 0 0 0 597.35490048223437 868.53866726862907 0 868.53866726862907 298.98717341016163 0 0 0 0 1316.4802463838764 774.26157056611373 0 774.26157056611373 142.48388974764384 0 0 0 0 824.22742392362488 716.13458918438118 0 716.13458918438118 377.80158067289449 0 0 0 0 896.81340543518309 581.13923338512541 0 581.13923338512541 475.03965977322514 0 0 0 0 2681.7752026878716 925.08864402134168 0 925.08864402134168 -204.15217727985873 0 0 0 0 811.76533629138066 913.89184634971753 0 913.89184634971753 309.05197937581397 0 0 0 0 597.44381141282065 600.48978743093903 0 600.48978743093903 258.2514666244233 0 0 0 0 341.20615137634013 849.77922779618893 0 849.77922779618893 131.09829490608536 0 0 0 0 0.0088788150751497597 41.028521036103484 0 41.028521036103484 -9.1643893806030974 0 0 0 0 8.0801411001593806 35.735546925214294 0 35.735546925214294 -31.566028390167048 0 0 0 0 6.2144142160541378 41.552567572536645 0 41.552567572536645 -8.9315303774637869 0 0 0 0 9.6285512242902769 34.075792708390509 0 34.075792708390509 -5.7709777882264461 0 0 0 0 -13.319064564458074 25.099220183068212 0 25.099220183068212 -18.628057157966111 0 0 0 0 20.386054918169975 43.553611045877915 0 43.553611045877915 -18.773551361082355 0 0 0 0 3.2797491907258518 46.151431714679347 0 46.151431714679347 -7.0770603927157936 0 0 0 0 -2.5582449377761804 46.195521903409826 0 46.195521903409826 -5.0825280347053194 0 0 0 0 7.2855067022028379 50.301917316588515 0 50.301917316588515 -7.6104967037899769 0 0 0 0 3.8011914685484953 56.489222573054576 0 56.489222573054576 -16.291880572855007 0 0 0 0 19.892256155079849 73.130898774347315 0 73.130898774347315 0.81234790271264501 0 0 0 0 -17.190871553582838 21.046987981870188 0 21.046987981870188 -16.748240364337107 0 0 0 0 -12.111514115851605 56.251787832843547 0 56.251787832843547 18.366949153984024 0 0 0 0 1.2746000523329712 49.863389693247882 0 49.863389693247882 -6.0073280532233184 0 0 0 0 -16.305088775727199 32.895433795216377 0 32.895433795216377 -16.545788797920977 0 0 0 0 -25.112712930596899 37.552975324673753 0 37.552975324673753 -18.594006194573012 0 0 0 0 -13.401485508773476 32.901093193038832 0 32.901093193038832 -31.474424877233105 0 0 0 0 -17.13354596652789 42.606528957920091 0 42.606528957920091 -52.814335607079556 0 0 0 0 9.2245998224246932 24.207971833252714 0 24.207971833252714 5.7064254892120267 0 0 0 0 -8.3109362875111401 44.653678991009656 0 44.653678991009656 -40.630608983323327 0 0 0 0 5.439993924998987 3.2687627815797669 0 3.2687627815797669 -10.936566188837702 0 0 0 0 15.870029876590706 19.149230931070633 0 19.149230931070633 -96.701868824762641 0 0 0 0 102.84971572150243 101.48766189035086 0 101.48766189035086 -29.843063943946618 0 0 0 0 59.316349152766634 43.861092916617054 0 43.861092916617054 -66.60648771742126 0 0 0 0 97.811164089624071 116.84242523246212 0 116.84242523246212 -0.69328632167889737 0 0 0 0 -2.4016215772135183 2.6594678701949306 0 2.6594678701949306 111.94315668923446 0 0 0 0 41.939982845215127 92.769730789194 0 92.769730789194 116.7807789160579 0 0 0 0 0.10744483845417108 1.4998206349363841 0 1.4998206349363841 -1.8026086305159339 0 0 0 0 -0.90066282945917919 10.843198515620315 0 10.843198515620315 15.414838940356276 0 0 0 0 -17.079929133877158 -8.4899673236068338 0 -8.4899673236068338 42.338861011870904 0 0 0 0 -0.20629506958734822 1.828917187849612 0 1.828917187849612 -0.33593674303347143 0 0 0 0 -4.245626330783125 25.969036632537609 0 25.969036632537609 -21.817369055352174 0 0 0 0 -24.04166523690219 60.780357994110091 0 60.780357994110091 -6.3909085952909663 0 0 0 0 -15.548503174916789 26.460084195066855 0 26.460084195066855 -3.6274610237129643 0 0 0 0 -45.182634940065327 47.769487528446916 0 47.769487528446916 14.744521333079319 0 0 0 0 5.399973361072 27.502386488048955 0 27.502386488048955 -5.5970512522525837 0 0 0 0 -41.90608381020138 20.599027021220536 0 20.599027021220536 17.827565738232806 0 0 0 0 -22.890931057045236 17.929281046628603 0 17.929281046628603 26.201928794675041 0 0 0 0 -12.002092947252095 34.764678370323963 0 34.764678370323963 22.702212738222443 0 0 0 0 -22.788898219354451 19.482860358431935 0 19.482860358431935 23.37573063837408 0 0 0 0 -10.459138178528519 38.560538772049767 0 38.560538772049767 32.02814900665544 0 0 0 0 -20.136027295375243 28.687668488477357 0 28.687668488477357 53.911122218763921 0 0 0 0 -20.455596707819495 27.739341339241946 0 27.739341339241946 17.286193722917233 0 0 0 0 -6.2118482377825899 19.078581793809121 0 19.078581793809121 0.58859960533152389 0 0 0 0 -20.867388286569621 34.66170230487478 0 34.66170230487478 21.73073136236053 0 0 0 0 -8.1121296051340721 18.133429190078971 0 18.133429190078971 6.6237667579334811 0 0 0 0 1.8057259798806626 46.838591988780536 0 46.838591988780536 1.0517022649873979 0 0 0 0 -53.956224791967543 14.059067326787044 0 14.059067326787044 55.718528657249408 0 0 0 0 3.3247117248538416 38.993478295276873 0 38.993478295276873 -2.2044888868695125 0 0 0 0 -3.3372703328667512 15.842408407015114 0 15.842408407015114 2.0727201093132521 0 0 0 0 3.0426153109583538 16.199003466972499 0 16.199003466972499 4.8025778826558962 0 0 0 0 -22.686552957893582 42.742624281629105 0 42.742624281629105 -40.297348650856293 0 0 0 0 3.5663607955228827 2.1938649490665085 0 2.1938649490665085 -3.1044928155774585 0 0 0 0 -32.797574001189787 -10.881910650059581 0 -10.881910650059581 63.327471550321206 0 0 0 0 61.495297379093245 23.566061605903087 0 23.566061605903087 -9.834608588978881 0 0 0 0 4.9250932014437581 21.304506029589646 0 21.304506029589646 -9.8899659878010198 0 0 0 0 3.5276548478507266 1.567458404895774 0 1.567458404895774 -0.9935514627604789 0 0 0 0 31.904959661595058 -9.628596587019274 0 -9.628596587019274 15.393895646673627 0 0 0 0 5.6563172263450383 31.519811405107987 0 31.519811405107987 -7.2496936050382033 0 0 0 0 -23.721436958439881 40.034698525298154 0 40.034698525298154 -26.390194379811874 0 0 0 0 -16.351168255136969 30.892649753817977 0 30.892649753817977 -29.51997079857199 0 0 0 0 23.780727928526176 27.540407748048892 0 27.540407748048892 -59.266225226194365 0 0 0 0 24.387867716010078 44.697916671844723 0 44.697916671844723 -83.755111600068631 0 0 0 0 -0.0041297768912045285 48.243163195766101 0 48.243163195766101 -44.863512423748034 0 0 0 0 -73.668272072944092 58.23220539255999 0 58.23220539255999 53.638519259847271 0 0 0 0 0.75901873602504111 -1.1857411674699279 0 -1.1857411674699279 -5.0724279560670809 0 0 0 0 0.082461630459874868 113.70200173620833 0 113.70200173620833 -89.805710600034217 0 0 0 0 120.13563360241824 206.99326225183904 0 206.99326225183904 -228.84144911932526 0 0 0 0 -12.248736168665346 -132.47286712980713 0 -132.47286712980713 159.94947529439378 0 0 0 0 3.3088199965415583 -3.143520985249495 0 -3.143520985249495 -2.129856618616401 0 0 0 0 4.6024470455755022 -1.8362205047850608 0 -1.8362205047850608 -3.5536196212156028 0 0 0 0 -27.589938822900876 -53.399245186155895 0 -53.399245186155895 190.21688898961293 0 0 0 0 56.527466794621432 -111.63257667340804 0 -111.63257667340804 -120.32227321169921 0 0 0 0 -1.0635970357106999 372.75279210336157 0 372.75279210336157 146.1054462563261 0 0 0 0 1.5715005505033446 3.8032593069380312 0 3.8032593069380312 -0.68051284208364393 0 0 0 0 -78.493313173239585 26.674508870375575 0 26.674508870375575 154.97133469931578 0 0 0 0 -10.434434083552333 71.998570300944266 0 71.998570300944266 -56.530685119476402 0 0 0 0 1.5633421430829912 15.782624241343001 0 15.782624241343001 -23.595035239646677 0 0 0 0 -108.82303674978903 60.515711402753368 0 60.515711402753368 47.019149235376972 0 0 0 0 -127.03953511902364 157.15247647480282 0 157.15247647480282 84.825994745770004 0 0 0 0 23.860304848735836 11.942551706885183 0 11.942551706885183 1.1378404845437196 0 0 0 0 16.091107531858142 105.01089980118559 0 105.01089980118559 -92.058268637265428 0 0 0 0 897.1224480982055 703.65150483592879 0 703.65150483592879 436.87057095473574 0 0 0 0 181.54267399078526 1190.5483870735479 0 1190.5483870735479 910.51281721191481 0 0 0 0 1.7781619046581909 649.11672292821459 0 649.11672292821459 -210.00747463419975 0 0 0 0 269.00429273035843 1967.9936690517643 0 1967.9936690517643 4195.9439972545897 0 0 0 0 9.6756052210026837 3.1094109685725755 0 3.1094109685725755 3.5897355062055532 0 0 0 0 2.5538184416873264 3209.9822185931771 0 3209.9822185931771 1880.9244135193076 0 0 0 0 2271.3692178477068 2577.087994676971 0 2577.087994676971 1010.1916393374231 0 0 0 0 1546.5793839946127 1497.8083373573827 0 1497.8083373573827 -571.44021182786673 0 0 0 0 3094.5470809860271 4295.1844175862316 0 4295.1844175862316 0.36554044006334152 0 0 0 0 5563.8917670958035 1736.8295920616656 0 1736.8295920616656 -608.84223701953306 0 0 0 0 809.93768348899903 3768.201590888475 0 3768.201590888475 634.04689619119745 0 0 0 0 155.49240325442224 26.461647846081178 0 26.461647846081178 -50.403048129490344 0 0 0 0 -204.644093812356 175.77932934332057 0 175.77932934332057 0.84802035865141079 0 0 0 0 14.529632170277182 56.379104657389689 0 56.379104657389689 0.038399913769417426 0 0 0 0 53.941018551762681 45.056837514101062 0 45.056837514101062 -12.865684955730103 0 0 0 0 6.9626652356350007 0.56818890964319735 0 0.56818890964319735 -0.67823518396494364 0 0 0 0 -27.932762189360801 36.323288718966069 0 36.323288718966069 14.734396489919163 0 0 0 0 4050.6799921114871 -1114.9029256394424 0 -1114.9029256394424 9.3009222259861417 0 0 0 0 12.340070418650342 0.47607902581728467 0 0.47607902581728467 -0.26554853281209034 0 0 0 0 15.78911812061915 9.541689559085583 0 9.541689559085583 3.5492722258785534 0 0 0 0 27.078566041367594 27.98676332141622 0 27.98676332141622 -0.085753406711381749 0 0 0 0 31.896510789840249 10.162328722872189 0 10.162328722872189 6.9845073047326878 0 0 0 0 3.6770557205462069 14.745146501915158 0 14.745146501915158 10.802900095748043 0 0 0 0 8.7865305728377621 13.876750807699068 0 13.876750807699068 0.65692800918532157 0 0 0 0 12.438795578695135 11.674089375926997 0 11.674089375926997 5.8022541438258486 0 0 0 0 6.7755900960935378 17.415268242610779 0 17.415268242610779 7.9155540585812787 0 0 0 0 2096.5868052329388 710.45962505312491 0 710.45962505312491 -74.808776244404726 0 0 0 0 126.41275184089318 70.262544103999971 0 70.262544103999971 401.96597826000652 0 0 0 0 6.9943664000711578 27.887660126423725 0 27.887660126423725 18.271098354351125 0 0 0 0 10.018014641010495 18.9543160740659 0 18.9543160740659 17.332420530301306 0 0 0 0 20.698470196293783 37.122103342800983 0 37.122103342800983 19.850470513119944 0 0 0 0 22.40377210776569 36.243209529076921 0 36.243209529076921 20.302063845781959 0 0 0 0 12.124678737687645 34.667551006830763 0 34.667551006830763 25.380739098181948 0 0 0 0 23.075127406069441 30.00324434106642 0 30.00324434106642 26.870369624171872 0 0 0 0 18.051914075266495 20.216350623502308 0 20.216350623502308 -4.7482028810894299 0 0 0 0 22.2812120198505 37.571666457661195 0 37.571666457661195 31.690546574711334 0 0 0 0 21.388869808833306 30.583869886924049 0 30.583869886924049 16.972775900466957 0 0 0 0 180.21479405910941 69.785561620665248 0 69.785561620665248 105.72886724758791 0 0 0 0 17.762696908350335 21.36596435411775 0 21.36596435411775 6.8746407763101161 0 0 0 0 7.6484036262487507 15.43377136205072 0 15.43377136205072 1.4446117788849051 0 0 0 0 1.7625142043193236 19.45137123389631 0 19.45137123389631 15.503291719036156 0 0 0 0 5.9249315944937848 22.821204642599071 0 22.821204642599071 10.320148411251012 0 0 0 0 9.6711196955147898 32.522385051212041 0 32.522385051212041 6.8634451806428842 0 0 0 0 -3.6580302528383299 24.471531822232407 0 24.471531822232407 7.4409089804077553 0 0 0 0 30.585528582741972 15.041773849632591 0 15.041773849632591 -7.4546253560401965 0 0 0 0 11.315935472841375 33.543292730799294 0 33.543292730799294 5.3161400484968908 0 0 0 0 7.4025016898067193 23.063459180872968 0 23.063459180872968 2.7587621008759697 0 0 0 0 10.31132630049251 33.61525185831124 0 33.61525185831124 7.2213576391950483 0 0 0 0 -5.4752762016458973 10.211495781904546 0 10.211495781904546 -2.8857839155066927 0 0 0 0 -14.109248387394473 14.352003023144789 0 14.352003023144789 8.4519713576883078 0 0 0 0 5.30856342279003 13.702411456091795 0 13.702411456091795 -0.7040957176941447 0 0 0 0 1.333410883105671 13.201445827965131 0 13.201445827965131 -1.9466309915357556 0 0 0 0 10.24476769049943 30.957784203572373 0 30.957784203572373 4.5179660749272443 0 0 0 0 10.565801728895167 29.367632799796411 0 29.367632799796411 12.166469551972114 0 0 0 0 3.4232112036972921 27.219955304980544 0 27.219955304980544 -3.3302364489562564 0 0 0 0 2.761609562963713 21.88516093819635 0 21.88516093819635 9.0098937150323763 0 0 0 0 -12.92827120974826 16.559092147386821 0 16.559092147386821 4.1047743149645726 0 0 0 0 27.908178551235324 38.604804054871238 0 38.604804054871238 -18.048732446099166 0 0 0 0 9.3926006525871344 20.503092462400673 0 20.503092462400673 3.3510097893122293 0 0 0 0 9.485136392580273 18.110372037060472 0 18.110372037060472 -7.0320564787282365 0 0 0 0 22.401626177917933 -4.1960238762258086 0 -4.1960238762258086 -30.42741934559308 0 0 0 0 2.7688892055014662 7.93561450925651 0 7.93561450925651 -9.7109052439110997 0 0 0 0 51.747157822130248 -3.2658919732493814 0 -3.2658919732493814 -21.303373300252133 0 0 0 0 -12.196531564190082 10.887499420268796 0 10.887499420268796 -12.347745488252258 0 0 0 0 114.29436608556716 66.057583700589021 0 66.057583700589021 -19.949535683263093 0 0 0 0 1.1109519420424476 38.767708557759761 0 38.767708557759761 13.204065476267715 0 0 0 0 49.162641076822183 47.813733048838913 0 47.813733048838913 -17.843806736244005 0 0 0 0 22.604672008700504 20.246579911166208 0 20.246579911166208 -3.1580082996688361 0 0 0 0 9.9892798575551467 20.025842702664789 0 20.025842702664789 8.6257613341193746 0 0 0 0 14.343826020194165 18.410955363335148 0 18.410955363335148 0.12094509916653351 0 0 0 0 -7.6371610474598128 33.688983647967689 0 33.688983647967689 47.808458688537939 0 0 0 0 4.4674162339797476 18.161551583878463 0 18.161551583878463 0.31920903180161986 0 0 0 0 6.8930961676815059 31.734243427283218 0 31.734243427283218 -1.3301131544576492 0 0 0 0 4.4275818343651849 27.74059724117933 0 27.74059724117933 7.7556324259192628 0 0 0 0 -7.8152362963101041 15.85525144460189 0 15.85525144460189 -34.888064208702417 0 0 0 0 10.649431233187926 23.668258464509762 0 23.668258464509762 -13.899577828588463 0 0 0 0 20.541977470855443 32.908541503770834 0 32.908541503770834 -14.734425708627882 0 0 0 0 13.686110101465601 36.754675503500039 0 36.754675503500039 -11.155146188513754 0 0 0 0 19.634065239632037 35.016867933925823 0 35.016867933925823 -17.55847587925382 0 0 0 0 31.535946166241871 21.819067395186082 0 21.819067395186082 -19.401179437860321 0 0 0 0 16.323516349802958 58.915382105391473 0 58.915382105391473 33.609442772816692 0 0 0 0 -0.10255809456793941 48.144268423293397 0 48.144268423293397 74.23776689497754 0 0 0 0 16.245371205208357 32.004032014971017 0 32.004032014971017 19.215235112860682 0 0 0 0 1.278799027543073 14.618355760005613 0 14.618355760005613 8.781773239326867 0 0 0 0 17.814132602594327 21.101697456731927 0 21.101697456731927 -17.280417296249652 0 0 0 0 11.42046236564056 13.861401767630014 0 13.861401767630014 -19.106602543586632 0 0 0 0 11.207064705334346 17.442581156893311 0 17.442581156893311 0.57928433151069214 0 0 0 0 10.716482628064284 24.623509882407831 0 24.623509882407831 20.120161869744436 0 0 0 0 -5.3412668828605092 66.86972742814396 0 66.86972742814396 61.763527251663618 0 0 0 0 -8.1798969450907748 3.8809834311040277 0 3.8809834311040277 7.6166195910373062 0 0 0 0 23.974847667763242 63.501470260234782 0 63.501470260234782 -42.24299654897186 0 0 0 0 2.4303903547063896 1.5922599611920703 0 1.5922599611920703 -4.7113195473239671 0 0 0 0 -193.42138847699243 341.75822840631736 0 341.75822840631736 -321.20682166784536 0 0 0 0 -40.803232163598295 12.294761671771994 0 12.294761671771994 20.631537297260365 0 0 0 0 -96.718778654641937 -354.00438758167729 0 -354.00438758167729 -106.81344746841933 0 0 0 0 4.4418480921033847 5.4827568170094878 0 5.4827568170094878 -0.31021114934594607 0 0 0 0 -35.007302785554202 71.662108178832568 0 71.662108178832568 61.629692096496001 0 0 0 0 42.591998040676117 23.360679697245359 0 23.360679697245359 9.2788051113020629 0 0 0 0 -73.449720758857438 50.851737698059878 0 50.851737698059878 50.50738715485204 0 0 0 0 110.09817679372645 -185.27449944842374 0 -185.27449944842374 -579.85614672236261 0 0 0 0 97.402048938616645 147.58347791389679 0 147.58347791389679 0.33496869039663579 0 0 0 0 93.191229635209311 193.32616860570852 0 193.32616860570852 -62.367638597235782 0 0 0 0 779.52276153481216 -84.5193191000144 0 -84.5193191000144 -581.11965780194237 0 0 0 0 3.7941405986794052 5.7032905859223888 0 5.7032905859223888 6.5352530871609531 0 0 0 0 153.78482643631287 172.2622889248305 0 172.2622889248305 -69.699829586563283 0 0 0 0 174.9653840115061 161.18160278699361 0 161.18160278699361 -65.785599782175268 0 0 0 0 -651.9101236552815 311.29156668762153 0 311.29156668762153 392.18308384306147 0 0 0 0 223.82257633702829 99.078600647335406 0 99.078600647335406 -0.25333222647896037 0 0 0 0 -3.6406170929419659 -3.0726002465980855 0 -3.0726002465980855 2.9029392340167988 0 0 0 0 483.19454778634827 542.193851195756 0 542.193851195756 -261.850716320012 0 0 0 0 -160.77434851253201 151.92621936935029 0 151.92621936935029 -0.40885781850374769 0 0 0 0 73.634289855108364 -178.50907915266725 0 -178.50907915266725 53.373367657506606 0 0 0 0 -4.3558756866101476 0.092726759306998474 0 0.092726759306998474 5.2166730975749829 0 0 0 0 56.774012567824684 170.91405627899803 0 170.91405627899803 -11.159609856928 0 0 0 0 43.636455219690106 183.24791021165584 0 183.24791021165584 -22.737725698461873 0 0 0 0 62.174458382069133 143.90702772185614 0 143.90702772185614 33.872608819132438 0 0 0 0 -54.683545226016577 102.71710122135846 0 102.71710122135846 116.65753056117683 0 0 0 0 125.90700588301115 36.077045792466379 0 36.077045792466379 -159.36926332213625 0 0 0 0 23.040697837810683 11.638483355400439 0 11.638483355400439 -4.3592652033830461 0 0 0 0 28.862228672820549 30.573078062443642 0 30.573078062443642 -5.6489871809946948 0 0 0 0 65.517081296631886 -1.1452808296529611 0 -1.1452808296529611 -75.941046541251126 0 0 0 0 42.982877252201433 71.713262800531083 0 71.713262800531083 26.46985230332939 0 0 0 0 33.61536064275424 31.388226947557996 0 31.388226947557996 -65.536492199607892 0 0 0 0 13.83708039305202 73.917441540081199 0 73.917441540081199 -32.546365531947231 0 0 0 0 8.5900755056390494 29.551343221212193 0 29.551343221212193 -1.2130611199672359 0 0 0 0 0.037259593874580332 0.40521440495072625 0 0.40521440495072625 -1.0314534964642874 0 0 0 0 8.2070606806082651 53.984564822385437 0 53.984564822385437 69.704582964608562 0 0 0 0 42.733891330717597 60.348529756593052 0 60.348529756593052 33.359290093007075 0 0 0 0 53.447181667608675 68.565245425095782 0 68.565245425095782 33.999549744796241 0 0 0 0 76.343131516710855 64.435864389310154 0 64.435864389310154 15.118595356849255 0 0 0 0 51.351479027944151 48.781569441256579 0 48.781569441256579 18.83833787335243 0 0 0 0 64.003092213984928 57.648912273609312 0 57.648912273609312 19.915151373017579 0 0 0 0 79.400400664519111 57.942010914670391 0 57.942010914670391 -16.024952322579338 0 0 0 0 -6.533750955549209 21.577456327665857 0 21.577456327665857 -13.199527683074962 0 0 0 0 55.35846592298185 57.33287483832828 0 57.33287483832828 7.5728881153627299 0 0 0 0 53.423029074344129 20.608916940425075 0 20.608916940425075 -8.7652485590572908 0 0 0 0 62.957901384419529 24.425887225290353 0 24.425887225290353 -57.945081580837723 0 0 0 0 36.36118875379907 22.361264665094495 0 22.361264665094495 -24.066662713215919 0 0 0 0 18.755161194516404 47.772710213002938 0 47.772710213002938 -4.1193331853719428 0 0 0 0 19.069975151156541 29.605759834768833 0 29.605759834768833 -5.3132586347510369 0 0 0 0 16.95107701271624 24.729647795299741 0 24.729647795299741 -8.362477385620025 0 0 0 0 48.773499999311753 22.195003508044465 0 22.195003508044465 -24.421982233601739 0 0 0 0 15.940581165999959 15.221967908056968 0 15.221967908056968 -16.019516115590761 0 0 0 0 22.83216856373889 22.050378705965642 0 22.050378705965642 -2.4729123136885107 0 0 0 0 35.829145185125526 45.32569579014671 0 45.32569579014671 -6.8118729362249724 0 0 0 0 22.891232975889579 58.302978851694206 0 58.302978851694206 3.1615375619439874 0 0 0 0 55.040227959310869 54.749446173911565 0 54.749446173911565 -9.0798428327543661 0 0 0 0 29.623566669957654 46.205332187049862 0 46.205332187049862 18.120312701794319 0 0 0 0 30.044513382345031 43.656778857085556 0 43.656778857085556 -10.219059118331643 0 0 0 0 3.1968265705509111 31.486008737090742 0 31.486008737090742 -1.3461316578741389 0 0 0 0 14.94839199718507 30.158349523427816 0 30.158349523427816 8.6175454087166941 0 0 0 0 4.5841779271722771 28.769236123393057 0 28.769236123393057 -2.5452037244103849 0 0 0 0 24.856396766682693 19.126176630761449 0 19.126176630761449 -16.422002725469042 0 0 0 0 20.23290257222834 8.8256200000869285 0 8.8256200000869285 -55.058795800548978 0 0 0 0 33.633250990198576 79.596100991686399 0 79.596100991686399 63.866084388006129 0 0 0 0 -14.240119471825892 -8.7694605331053026 0 -8.7694605331053026 46.374048303820018 0 0 0 0 113.96428549606935 79.015355040712166 0 79.015355040712166 -68.017399270116584 0 0 0 0 2.480363744318538 -0.33493631336654062 0 -0.33493631336654062 -0.57094318313630765 0 0 0 0 -0.28347962591215037 -14.951976237345662 0 -14.951976237345662 -19.272910739906365 0 0 0 0 23.734490861869176 27.289467034643252 0 27.289467034643252 2.1612510815126988 0 0 0 0 9.4976755697208262 29.151921129170574 0 29.151921129170574 9.5900586240662165 0 0 0 0 -45.249336930517529 88.19722091672611 0 88.19722091672611 52.691726839344483 0 0 0 0 23.455197292409139 30.300847953541961 0 30.300847953541961 -9.4165195069326728 0 0 0 0 1.1216434160365338 40.294666524575177 0 40.294666524575177 13.076694534926986 0 0 0 0 -16.246460375317838 -21.737239190537366 0 -21.737239190537366 47.35741955338699 0 0 0 0 -76.123701923352201 41.608153049826797 0 41.608153049826797 7.8610845298971981 0 0 0 0 -6.9023669449707086 58.223396073610274 0 58.223396073610274 85.287283537443727 0 0 0 0 80.751259456039406 114.88426381409954 0 114.88426381409954 25.957379284394847 0 0 0 0 97.376124035592511 33.366206774926468 0 33.366206774926468 -40.638143634918379 0 0 0 0 25.488287019892596 25.311046375536534 0 25.311046375536534 -48.909561349981232 0 0 0 0 37.936765799036948 58.513427543366561 0 58.513427543366561 -29.32913930893119 0 0 0 0 21.181911994202892 60.566397598625827 0 60.566397598625827 -23.508420691417996 0 0 0 0 -110.7904156827135 17.113759561325423 0 17.113759561325423 2.161087853484787 0 0 0 0 2.2400767416984309 36.378022332923138 0 36.378022332923138 -54.971699827263365 0 0 0 0 12.823196313218943 -0.3556041613443881 0 -0.3556041613443881 -3.1619826192523988 0 0 0 0 3.7586249659652822 30.300505364532 0 30.300505364532 -32.761616311094258 0 0 0 0 -14.898432778281858 19.564322125341278 0 19.564322125341278 -43.875891499119462 0 0 0 0 4.1166845359241506 31.107544020736071 0 31.107544020736071 -15.035582438463052 0 0 0 0 122.02007173816673 1.2383712901573745 0 1.2383712901573745 -32.020749522393089 0 0 0 0 -17.786870262032608 38.808126239920966 0 38.808126239920966 -6.688654121804575 0 0 0 0 -13.895680736080976 56.183776273981493 0 56.183776273981493 -45.120420180843212 0 0 0 0 35.68456209237047 51.104866743240564 0 51.104866743240564 -4.9039715449216601 0 0 0 0 12.049655028941345 4.1355541226389505 0 4.1355541226389505 -26.868240129020364 0 0 0 0 34.68900592243881 21.973786652641138 0 21.973786652641138 13.616577475040685 0 0 0 0 38.820336569537176 170.35400486097205 0 170.35400486097205 31.721895914026391 0 0 0 0 66.563531662544847 23.6054421412382 0 23.6054421412382 -5.211660450702766 0 0 0 0 60.986856252518919 38.428268782665327 0 38.428268782665327 -13.638882513943827 0 0 0 0 74.113985902389686 0.12193902130456991 0 0.12193902130456991 -13.871010345174 0 0 0 0 1.8728800744134375 21.566787156038259 0 21.566787156038259 -1.9694461868268149 0 0 0 0 1.7525456008372373 4.0308900876202927 0 4.0308900876202927 -2.395601627029464 0 0 0 0 128.43327180391498 10.76450003449645 0 10.76450003449645 -25.083015155352768 0 0 0 0 38.908247670908167 0.87393210279878986 0 0.87393210279878986 -13.891690443007974 0 0 0 0 6.425460929225693 14.191127646942562 0 14.191127646942562 -12.136287701651156 0 0 0 0 239.20447421603603 87.005426312425698 0 87.005426312425698 4.9969963854746311 0 0 0 0 153.79671744635561 98.445101334218634 0 98.445101334218634 10.890802546549821 0 0 0 0 155.94377776591091 38.222807999002839 0 38.222807999002839 -14.56514568561397 0 0 0 0 147.95301268788171 90.859232778137084 0 90.859232778137084 -3.7061694337899098 0 0 0 0 65.401540619612206 17.48792309788405 0 17.48792309788405 18.147589839565626 0 0 0 0 142.68853328432306 73.698303046381625 0 73.698303046381625 -12.512822032298573 0 0 0 0 127.85720000357833 100.95209121834341 0 100.95209121834341 57.898090018090443 0 0 0 0 156.57670622962178 61.796896735242626 0 61.796896735242626 59.349614611579455 0 0 0 0 232.73508010254591 135.50255396788998 0 135.50255396788998 45.085154001048068 0 0 0 0 269.29067801970814 93.720233432235545 0 93.720233432235545 46.740291162597714 0 0 0 0 0.67370849854088277 2.2894002998319252 0 2.2894002998319252 1.0241121277381353 0 0 0 0 642.24601223135687 105.802120011841 0 105.802120011841 -24.945697412505979 0 0 0 0 -265.83968564940733 92.976577571811504 0 92.976577571811504 76.238399586683954 0 0 0 0 370.14992857110337 245.85670682110504 0 245.85670682110504 111.81828156997108 0 0 0 0 79.672234766072052 312.61332109746991 0 312.61332109746991 -84.175707294547465 0 0 0 0 -19.655281524348538 95.264446776207478 0 95.264446776207478 5.8370345317198371 0 0 0 0 -82.544087855392718 192.72817864521494 0 192.72817864521494 128.84999987763149 0 0 0 0 -69.02429324190598 95.045593429036671 0 95.045593429036671 8.8726750007372175 0 0 0 0 204.73464392751339 76.521667360146239 0 76.521667360146239 14.861443339381367 0 0 0 0 172.9373571278411 189.76160021964461 0 189.76160021964461 24.611462868189847 0 0 0 0 210.07973412037245 120.15801361262129 0 120.15801361262129 121.30977338312368 0 0 0 0 229.47865466057556 104.22678165925026 0 104.22678165925026 -10.245969759969739 0 0 0 0 117.58876431389945 120.92199528723722 0 120.92199528723722 -60.8817029894999 0 0 0 0 114.23837478642963 105.84745522903359 0 105.84745522903359 18.251448916402296 0 0 0 0 -3.0728822269347802 170.32087060347681 0 170.32087060347681 5.1111374484462431 0 0 0 0 -4.1157275658915751 148.80177448039467 0 148.80177448039467 43.519272238234407 0 0 0 0 8.2898403524122841 152.62960491874401 0 152.62960491874401 -57.530506788898492 0 0 0 0 31.628230628884921 114.91797770706762 0 114.91797770706762 -15.305007338087307 0 0 0 0 98.513161065871827 160.67276410789054 0 160.67276410789054 -38.732651008511311 0 0 0 0 86.837202834272944 75.301298187686996 0 75.301298187686996 46.797104626465114 0 0 0 0 77.136319336044835 126.80018208300316 0 126.80018208300316 -27.230128951006918 0 0 0 0 77.136319335899316 126.80018208287947 0 126.80018208287947 -27.230128950963262 0 0 0 0 42.44069667891938 24.751722656076481 0 24.751722656076481 -55.224565105723684 0 0 0 0 77.136319335899316 126.80018208309775 0 126.80018208309775 -27.230128951050574 0 0 0 0 66.588454164477298 26.075143887232116 0 26.075143887232116 -41.684782772310427 0 0 0 0 47.836560595103947 23.484377121534635 0 23.484377121534635 -39.429182556865271 0 0 0 0 43.667138458273257 33.701930306593567 0 33.701930306593567 -31.109369410696672 0 0 0 0 67.093042834254447 41.365253078809474 0 41.365253078809474 -35.843250968086068 0 0 0 0 153.88850529014599 126.35953755753872 0 126.35953755753872 -29.088844793921453 0 0 0 0 2.5121329519568008 -12.62561608967988 0 -12.62561608967988 -17.510113255074348 0 0 0 0 35.720126074348002 11.826387429216311 0 11.826387429216311 -52.621825934534399 0 0 0 0 168.15905185780139 -26.999105577153387 0 -26.999105577153387 -77.306608445273014 0 0 0 0 114.97828271802427 138.95662206357883 0 138.95662206357883 49.921487743296893 0 0 0 0 221.69322917200043 93.27659591480915 0 93.27659591480915 0.75855425954796374 0 0 0 0 16.703787224973553 7.8665978303685051 0 7.8665978303685051 -25.273790405681694 0 0 0 0 43.744965614288049 10.853328264143499 0 10.853328264143499 -16.609012232056926 0 0 0 0 69.327522255349322 34.026342080564064 0 34.026342080564064 -48.641995293832224 0 0 0 0 35.256776933703804 15.971610003951355 0 15.971610003951355 -36.31218628201168 0 0 0 0 65.083339049768256 24.105341677815886 0 24.105341677815886 -19.455996365373721 0 0 0 0 0.07689894560789412 22.084401574416177 0 22.084401574416177 1.4153035479320693 0 0 0 0 89.173379255924374 76.903631354420213 0 76.903631354420213 -2.5784214985615108 0 0 0 0 64.664396628708346 58.579654375076643 0 58.579654375076643 14.019703954705619 0 0 0 0 60.337069574045017 41.135931538436125 0 41.135931538436125 -25.907054072566098 0 0 0 0 24.063068199570068 55.607514281826511 0 55.607514281826511 49.105683646044895 0 0 0 0 61.821649881625945 52.106360990198539 0 52.106360990198539 -34.588761233404512 0 0 0 0 71.086362158838654 31.261905400254136 0 31.261905400254136 -23.41744981490217 0 0 0 0 47.865709613601211 28.844797934041708 0 28.844797934041708 -43.10489005711861 0 0 0 0 61.97822724384605 63.673371002005297 0 63.673371002005297 0.42003486878820695 0 0 0 0 -153.20000717317453 481.30246440012706 0 481.30246440012706 -337.67732702690409 0 0 0 0 -293.31557910799529 111.31644262746522 0 111.31644262746522 47.001706706010737 0 0 0 0 32.555831189284191 32.045603839032893 0 32.045603839032893 8.6144234091335079 0 0 0 0 1.7342099833529119 10.659983394058429 0 10.659983394058429 6.5272789925974024 0 0 0 0 -456.08851923281327 439.89865252681193 0 439.89865252681193 -224.71407194164931 0 0 0 0 -230.95326221164578 471.53193825772178 0 471.53193825772178 -267.55285300593823 0 0 0 0 -206.86772815891891 478.90204392393935 0 478.90204392393935 -265.68804327890393 0 0 0 0 78.34285263082711 59.102732944840682 0 59.102732944840682 -5.744585948108579 0 0 0 0 38.823604509708332 34.653371105571125 0 34.653371105571125 8.4048624019931424 0 0 0 0 2.2013048020889983 50.377031469979556 0 50.377031469979556 -49.153817819373216 0 0 0 0 7.2758855010770276 32.255098179759045 0 32.255098179759045 24.757629274120077 0 0 0 0 16.526657384936698 34.325883127079578 0 34.325883127079578 13.026205738962744 0 0 0 0 11.949830479265586 23.459094211381853 0 23.459094211381853 8.8015900203610613 0 0 0 0 49.474497724322731 27.5443681719035 0 27.5443681719035 -6.1388579440122726 0 0 0 0 16.890605806809617 43.086779807053972 0 43.086779807053972 -214.70055540561225 0 0 0 0 19.18991785729304 -18.261716157168848 0 -18.261716157168848 -5.1745633989339694 0 0 0 0 1.8602148981480013 1.9598036015456586 0 1.9598036015456586 1.7460438961147133 0 0 0 0 8.7979160581121505 3.1510404330967958 0 3.1510404330967958 -3.1543531230911412 0 0 0 0 -830.65343982036575 180.24310348529252 0 180.24310348529252 -36.974769783613738 0 0 0 0 -57.855553967092419 -17.983425720813102 0 -17.983425720813102 11.863489214505535 0 0 0 0 -436.05077291025373 497.04563273732492 0 497.04563273732492 -101.5891124837508 0 0 0 0 -303.75655887174798 370.08216168778745 0 370.08216168778745 181.99948233884061 0 0 0 0 -295.89424051801325 328.97720938693965 0 328.97720938693965 -65.143903882679297 0 0 0 0 -50.728211768619985 -4.379981303225577 0 -4.379981303225577 114.82682276458945 0 0 0 0 -691.2494002480671 543.50621767905977 0 543.50621767905977 -72.492817202233709 0 0 0 0 -87.671315142448293 379.88204114942346 0 379.88204114942346 -359.15049103664933 0 0 0 0 -520.71587647023262 47.082922362285899 0 47.082922362285899 -47.978880325157661 0 0 0 0 -41.395593145978637 273.95796143834013 0 273.95796143834013 0.3941188674652949 0 0 0 0 -398.41923492030764 343.14313867637247 0 343.14313867637247 -151.83373138672869 0 0 0 0 -23.183040794901899 82.380488587245054 0 82.380488587245054 0.037627615733072162 0 0 0 0 0.073155744642775744 0.80927140785166785 0 0.80927140785166785 6.3935241780495176 0 0 0 0 715.70964251436817 125.88786909113696 0 125.88786909113696 -263.19385141816747 0 0 0 0 43.428501356465858 716.2551481926057 0 716.2551481926057 6.275212810457802 0 0 0 0 1.7512926983996522 -2.8710454643531307 0 -2.8710454643531307 -2.4413644818952775 0 0 0 0 -209.6363800640429 482.35314575135635 0 482.35314575135635 13.934806381643284 0 0 0 0 235.9687885323583 38.092982718186249 0 38.092982718186249 66.690308806515532 0 0 0 0 911.30438734025302 -234.49069350882564 0 -234.49069350882564 25.334518379881047 0 0 0 0 387.42393430741504 62.120466580345237 0 62.120466580345237 -150.82894670388487 0 0 0 0 59.519567601033486 91.260281531809596 0 91.260281531809596 -100.01394703645201 0 0 0 0 -165.56955345039023 513.88647763084737 0 513.88647763084737 -200.0203783881152 0 0 0 0 449.89900312964164 132.99742382219119 0 132.99742382219119 -228.31843930433388 0 0 0 0 0.94191217193588983 -1.8139848344948746 0 -1.8139848344948746 -2.1368188081978587 0 0 0 0 -15.81689227532479 148.89942151715513 0 148.89942151715513 -58.031998157297494 0 0 0 0 6.2850324538594577 148.28485391067807 0 148.28485391067807 -129.5107668628043 0 0 0 0 -173.28535797318909 356.36437778532854 0 356.36437778532854 -384.50225971448526 0 0 0 0 -124.77019020848093 400.75223769489094 0 400.75223769489094 -349.50688357604668 0 0 0 0 60.946705005492049 62.504048246205755 0 62.504048246205755 49.516291150401088 0 0 0 0 51.01603473679279 419.1511818067811 0 419.1511818067811 -505.63467295205919 0 0 0 0 263.40435088044615 35.693717232425115 0 35.693717232425115 -237.38500814369763 0 0 0 0 208.99217511774623 122.54432429844019 0 122.54432429844019 -420.09606000271742 0 0 0 0 -248.59284941790975 187.13650505484839 0 187.13650505484839 -121.95759186701616 0 0 0 0 55.191764416609658 -140.43975326186046 0 -140.43975326186046 -187.9864987434994 0 0 0 0 134.84990153589752 -63.807202272786526 0 -63.807202272786526 37.55902341377805 0 0 0 0 250.90041845502856 145.26971568338922 0 145.26971568338922 -52.200258909113472 0 0 0 0 339.11484030660358 103.3529272755477 0 103.3529272755477 -106.96626220759936 0 0 0 0 14.542939633840788 14.551541350447025 0 14.551541350447025 -33.968712653212208 0 0 0 0 53.934375632044976 32.196791916474467 0 32.196791916474467 -30.152375233185012 0 0 0 0 23.320314480690286 212.61560527828988 0 212.61560527828988 -84.050842017182731 0 0 0 0 -11.953078923209617 50.852785966181045 0 50.852785966181045 -71.421689598031207 0 0 0 0 4.7438860695990286 35.055393557504033 0 35.055393557504033 3.5214262730652308 0 0 0 0 -176.79314438999427 38.300676656312135 0 38.300676656312135 36.673892940423684 0 0 0 0 -433.77426706247934 252.07171702951018 0 252.07171702951018 73.806487327412469 0 0 0 0 252.59985484430217 177.21608057172853 0 177.21608057172853 -133.00078644133464 0 0 0 0 457.95710655128642 -222.01115278140787 0 -222.01115278140787 -73.769239052249759 0 0 0 0 2.655522228189902 -0.31033613318305697 0 -0.31033613318305697 -7.9289792632251874 0 0 0 0 22.287651386650396 63.993708676556707 0 63.993708676556707 -32.994935871887719 0 0 0 0 3.0612062503841457 8.4530136710355492 0 8.4530136710355492 12.222431413782829 0 0 0 0 97.044005229261529 -36.259518354578177 0 -36.259518354578177 -32.994935871873025 0 0 0 0 -97.757170935728936 260.79837603708438 0 260.79837603708438 -195.19807568244869 0 0 0 0 -75.614549713442102 178.26052327288198 0 178.26052327288198 -40.77114040160086 0 0 0 0 -244.88565772777656 299.51299486117932 0 299.51299486117932 406.1035505317268 0 0 0 0 -31.437598448887002 114.69052458351507 0 114.69052458351507 -55.821416828723159 0 0 0 0 -454.84200719450018 -121.19842884245736 0 -121.19842884245736 -75.242404265089135 0 0 0 0 108.21904655659455 152.93576534644671 0 152.93576534644671 -83.335896669494105 0 0 0 0 -346.58444951707497 316.58755647020735 0 316.58755647020735 -0.31228933614329435 0 0 0 0 -925.87309928728791 166.2696691835954 0 166.2696691835954 316.07762251381064 0 0 0 0 -1.5362763254931409 -3.2711817788952828 0 -3.2711817788952828 -1.2150930979142345 0 0 0 0 -50.612172460430884 15.266846393613378 0 15.266846393613378 41.00930526596494 0 0 0 0 -32.563346481780172 -16.962306707951939 0 -16.962306707951939 5.5889930563280359 0 0 0 0 2.1300303312790874 -1.8582429488868399 0 -1.8582429488868399 -2.2483238912169554 0 0 0 0 0.010892210766087373 1.8775841821121162 0 1.8775841821121162 1.5206355801099107 0 0 0 0 205.64229978896037 -74.851335269580886 0 -74.851335269580886 365.18819621682633 0 0 0 0 361.73871833464364 255.77962763379037 0 255.77962763379037 0.08914215911311929 0 0 0 0 122.85171858087415 179.83072043082211 0 179.83072043082211 231.50139608449535 0 0 0 0 -2.3847201508820319 5.8230240262064967 0 5.8230240262064967 0.91439758439440766 0 0 0 0 173.7670692212414 14.26659876271151 0 14.26659876271151 -52.24011315748794 0 0 0 0 538.84582480724794 -124.42878424476112 0 -124.42878424476112 0.38219185234629549 0 0 0 0 -15.317028493097297 14.09796519945624 0 14.09796519945624 -3.9954411174999791 0 0 0 0 556.62336414182209 376.29225169928395 0 376.29225169928395 24.228990523901302 0 0 0 0 180.28917548168101 299.46033562236698 0 299.46033562236698 -118.6880890727698 0 0 0 0 359.41296919775777 90.995738134704879 0 90.995738134704879 19.64950681454502 0 0 0 0 10.660307782295462 3.0277343914266339 0 3.0277343914266339 -11.779931410149061 0 0 0 0 368.09458750358317 57.141863740398549 0 57.141863740398549 -54.111019803502131 0 0 0 0 -26.854629124994972 21.070123645782587 0 21.070123645782587 -68.95937034364033 0 0 0 0 -11.397511653834954 67.5017488514859 0 67.5017488514859 -84.556801375263603 0 0 0 0 -4.5184997548931278 13.375271911732852 0 13.375271911732852 9.6831457553780638 0 0 0 0 -16.414046201970336 23.457753810093436 0 23.457753810093436 -13.203079271050854 0 0 0 0 -13.274417260630003 17.25239241698057 0 17.25239241698057 -5.804733468229756 0 0 0 0 -17.52890970129738 12.6164023801648 0 12.6164023801648 -76.081560113074374 0 0 0 0 -48.336337601140258 13.620107082912 0 13.620107082912 -65.368144898631726 0 0 0 0 274.77761076635215 265.99009314988507 0 265.99009314988507 -124.64635185150837 0 0 0 0 321.08360780663497 182.42393958056346 0 182.42393958056346 8.0539512879040558 0 0 0 0 -21.316362343256372 34.671649683116584 0 34.671649683116584 -53.744629215629516 0 0 0 0 -50.896674024275853 99.619662832628819 0 99.619662832628819 6.4421559595502913 0 0 0 0 -64.609910152903467 59.456811262549309 0 59.456811262549309 -94.175640838046093 0 0 0 0 30.531659270374803 80.066770213350537 0 80.066770213350537 -74.556402650197015 0 0 0 0 22.334629523000331 38.627622511248774 0 38.627622511248774 16.984191149065737 0 0 0 0 123.12034155878064 176.22646174045803 0 176.22646174045803 52.135420483733469 0 0 0 0 -10.76986310006032 160.32361823091196 0 160.32361823091196 -15.375315735203912 0 0 0 0 21.664433562822524 60.749523004524235 0 60.749523004524235 -27.741063037217828 0 0 0 0 69.777580845708144 131.12284261885361 0 131.12284261885361 -122.34323078644229 0 0 0 0 66.548481385892956 111.07910129641823 0 111.07910129641823 -193.52039866810082 0 0 0 0 -43.151607164982124 82.28060644447396 0 82.28060644447396 -140.24407069262816 0 0 0 0 27.836955243095872 21.590273572684964 0 21.590273572684964 -136.71771474473644 0 0 0 0 2.911421285769876 15.685487504173437 0 15.685487504173437 6.7088268109576745 0 0 0 0 -158.68146729638102 102.26205938123167 0 102.26205938123167 151.90586370395613 0 0 0 0 -3.4345948790905823 146.66305758240924 0 146.66305758240924 -137.36080380296335 0 0 0 0 -21.071603800090088 124.67364578971319 0 124.67364578971319 -88.482866534104687 0 0 0 0 63.006066977668098 44.471725566167748 0 44.471725566167748 11.481838713736011 0 0 0 0 -69.209480747820635 149.36703187472449 0 149.36703187472449 -53.104603131607291 0 0 0 0 35.066543861424009 42.910233504954945 0 42.910233504954945 -12.840738318496676 0 0 0 0 -45.09199589578202 108.08661249333818 0 108.08661249333818 -94.318771734499023 0 0 0 0 -59.129829158908251 153.53721438263165 0 153.53721438263165 -45.617768900585361 0 0 0 0 -8.9300708876980934 90.262436049291864 0 90.262436049291864 -21.680237839871552 0 0 0 0 39.765955263253971 44.191172805811448 0 44.191172805811448 -23.246881385098959 0 0 0 0 69.16686427386594 24.757974634703714 0 24.757974634703714 -31.898845699382946 0 0 0 0 -5.9682974223396741 69.731475339038298 0 69.731475339038298 -13.875292623008136 0 0 0 0 56.047700923054038 55.79171987044289 0 55.79171987044289 -83.818797999005369 0 0 0 0 80.049752958284046 53.500223960483623 0 53.500223960483623 -96.60107356052464 0 0 0 0 43.984655161388218 57.271845117735211 0 57.271845117735211 -63.048219555988908 0 0 0 0 56.525997707853094 67.09487679641461 0 67.09487679641461 13.579427268006839 0 0 0 0 51.313642781910318 62.789284046173606 0 62.789284046173606 -33.96037036815909 0 0 0 0 25.407257335052066 24.453935151372207 0 24.453935151372207 -20.405289030294 0 0 0 0 43.336781979935303 92.312090685352842 0 92.312090685352842 17.035086569803752 0 0 0 0 80.702387579716742 189.65815366792958 0 189.65815366792958 -52.45084200729616 0 0 0 0 52.225236985952762 88.269035432919353 0 88.269035432919353 4.0047879574837566 0 0 0 0 1.7638075618306175 278.54111047112383 0 278.54111047112383 -329.75352198886685 0 0 0 0 380.86690853929031 248.79590937038301 0 248.79590937038301 -409.97387681523105 0 0 0 0 79.947798912085432 82.034740868553911 0 82.034740868553911 44.486022897579431 0 0 0 0 36.313784389727516 120.34173051781545 0 120.34173051781545 -10.089891813113354 0 0 0 0 11.001454955587207 7.8412863829595949 0 7.8412863829595949 -25.116651775684829 0 0 0 0 109.22948485624511 91.479019348334987 0 91.479019348334987 1.3063036997045856 0 0 0 0 60.593810360504392 72.966384332296414 0 72.966384332296414 46.828000589819794 0 0 0 0 7.232447720088004 43.636938893902112 0 43.636938893902112 -15.978122948745295 0 0 0 0 31.255924281867919 136.27616347518051 0 136.27616347518051 -17.033101697568782 0 0 0 0 62.773369630676825 60.693720430146641 0 60.693720430146641 -14.060563571925741 0 0 0 0 29.73010943288682 129.24444022714306 0 129.24444022714306 -2.5323262668407551 0 0 0 0 12.127220984244889 31.560476457490523 0 31.560476457490523 -26.609810048652832 0 0 0 0 245.49126095257816 118.49235484667588 0 118.49235484667588 -161.90598588669673 0 0 0 0 -0.54790344805792301 41.970216557575995 0 41.970216557575995 31.786589197168297 0 0 0 0 60.593299265688984 266.12777321011527 0 266.12777321011527 -187.01315302451258 0 0 0 0 54.461246263193743 42.015942344863376 0 42.015942344863376 10.74930239251475 0 0 0 0 -10.528094858018449 12.365370533283567 0 12.365370533283567 -35.388923623755545 0 0 0 0 131.85038815590087 90.267561108630616 0 90.267561108630616 -264.98317516830139 0 0 0 0 103.3123194808868 125.49959702799242 0 125.49959702799242 17.40133927273564 0 0 0 0 241.61394381444552 -59.355628186269314 0 -59.355628186269314 -35.703382678511844 0 0 0 0 381.91238222309039 26.757581597819808 0 26.757581597819808 -57.322500228561694 0 0 0 0 1.515976252402254 17.715013448886879 0 17.715013448886879 -6.2866495330881662 0 0 0 0 132.90114937785984 192.68485113000133 0 192.68485113000133 4.8764430766459554 0 0 0 0 -5.0241654326819116 29.431321945376112 0 29.431321945376112 14.826526205906703 0 0 0 0 600.54266628075857 -103.18588220019592 0 -103.18588220019592 15.636713928368408 0 0 0 0 -19.870575612018001 104.95075897249626 0 104.95075897249626 44.789023696124787 0 0 0 0 -75.636049002481286 60.380426357688975 0 60.380426357688975 -12.014463124491158 0 0 0 0 -46.797321190559188 72.889071533380786 0 72.889071533380786 -5.0829183719425259 0 0 0 0 -17.183867101435737 20.188274660255054 0 20.188274660255054 9.1351367865437396 0 0 0 0 -77.323895470384741 95.509435773856239 0 95.509435773856239 58.754798142967047 0 0 0 0 -137.9176793058723 26.281831333319133 0 26.281831333319133 48.323660686670337 0 0 0 0 -66.726242965640267 45.715474928423646 0 45.715474928423646 -17.937358974013478 0 0 0 0 -69.723915771464817 86.589367791180848 0 86.589367791180848 -124.75285207615525 0 0 0 0 85.855831315441947 -82.050222412222865 0 -82.050222412222865 47.036945528321667 0 0 0 0 0.23452776915879525 9.0498296084076912 0 9.0498296084076912 11.775987446088266 0 0 0 0 583.72883369450574 56.945744447177276 0 56.945744447177276 13.684663144595106 0 0 0 0 -164.70348555360397 62.29813968837334 0 62.29813968837334 19.112791243955144 0 0 0 0 581.64271151386492 75.483354718795454 0 75.483354718795454 -94.258263681564131 0 0 0 0 314.57898644864326 -31.739050201722421 0 -31.739050201722421 106.58626960217953 0 0 0 0 318.56330348992196 234.29996298476181 0 234.29996298476181 56.568173535721144 0 0 0 0 -3.8032476892420846 0.76265844275181394 0 0.76265844275181394 2.6599736247474084 0 0 0 0 92.731148698294419 153.33834956735518 0 153.33834956735518 34.790252632286865 0 0 0 0 306.93643260048702 110.88826060046267 0 110.88826060046267 -76.882177503270213 0 0 0 0 105.69964680774137 71.722905021888437 0 71.722905021888437 10.589168240694562 0 0 0 0 6.9424083917401731 214.58278837726539 0 214.58278837726539 -45.455143682833295 0 0 0 0 -82.302453639713349 116.20109279471217 0 116.20109279471217 -153.90285484715423 0 0 0 0 11.398653966287384 74.751495821328717 0 74.751495821328717 -24.066837917320299 0 0 0 0 -30.374291698739398 229.48601437949401 0 229.48601437949401 -97.314942916418659 0 0 0 0 -220.59801671553578 -41.142735460525728 0 -41.142735460525728 93.754324776462454 0 0 0 0 -102.92728070930752 184.92000235166779 0 184.92000235166779 -27.360123349644709 0 0 0 0 55.930568303973729 54.650196807340421 0 54.650196807340421 10.466619766299573 0 0 0 0 -217.38426339722355 255.51522327853309 0 255.51522327853309 -47.891926101525314 0 0 0 0 -66.425340634945314 128.90549169344013 0 128.90549169344013 -74.205414113937877 0 0 0 0 -236.68207063958107 510.63312846596091 0 510.63312846596091 8.2434346459049266 0 0 0 0 39.527596339228694 56.570968851115879 0 56.570968851115879 35.535781922634726 0 0 0 0 -60.88947068529987 41.480322562419786 0 41.480322562419786 54.577368903241961 0 0 0 0 76.727893673900837 53.473320065058033 0 53.473320065058033 0.99342448181300824 0 0 0 0 -430.32330952017219 173.40839917323319 0 173.40839917323319 535.66140248693409 0 0 0 0 134.10810302948812 6.1109751035983209 0 6.1109751035983209 -135.54089793100138 0 0 0 0 -112.04862413852243 -244.67557171062799 0 -244.67557171062799 563.56656388461124 0 0 0 0 6.7576371523193473 0.24743968861889698 0 0.24743968861889698 -1.3319114693093468 0 0 0 0 138.5319771176728 95.657378960888309 0 95.657378960888309 -177.54305348475464 0 0 0 0 31.04985275615914 50.54124864832977 0 50.54124864832977 46.461267447853288 0 0 0 0 -20.858027824724559 467.95447080461599 0 467.95447080461599 34.532436842448078 0 0 0 0 -143.97371718814247 86.328608108495246 0 86.328608108495246 -1.1638852013566066 0 0 0 0 16.509484648326179 306.1053775230539 0 306.1053775230539 -41.996873798503657 0 0 0 0 167.29536268900847 121.39444375238236 0 121.39444375238236 43.789754569821525 0 0 0 0 -12.965735876079805 13.975775885825037 0 13.975775885825037 6.8441860872960945 0 0 0 0 63.422757671331055 302.21388032425602 0 302.21388032425602 -300.69417831384635 0 0 0 0 -200.06191373251204 -17.716598205624905 0 -17.716598205624905 168.87838611871121 0 0 0 0 301.19470045452181 317.43949510007224 0 317.43949510007224 92.841788158373674 0 0 0 0 19.314885924046393 4.4626105469433242 0 4.4626105469433242 86.396072303045003 0 0 0 0 -63.937255092183477 128.95838142970388 0 128.95838142970388 -45.725812650387525 0 0 0 0 -171.34343909895688 205.98027365480448 0 205.98027365480448 -30.694406839305884 0 0 0 0 -102.50767910950526 102.02914627921928 0 102.02914627921928 4.659920502352179 0 0 0 0 236.88652376846585 52.605257033053931 0 52.605257033053931 -18.830629242234863 0 0 0 0 38.29325291805435 226.13080630436889 0 226.13080630436889 60.364544518034563 0 0 0 0 299.12630383769283 145.61156923153248 0 145.61156923153248 74.886805352565716 0 0 0 0 -125.32707215755363 119.19430407520849 0 119.19430407520849 2.8741816056863172 0 0 0 0 -126.37812607816886 127.24113154789666 0 127.24113154789666 -54.66175898250367 0 0 0 0 -116.23675504996208 79.928148814775341 0 79.928148814775341 -40.346183098037727 0 0 0 0 -98.818936779491196 40.38569373457176 0 40.38569373457176 8.207279882626608 0 0 0 0 -149.05658543102618 166.5042807931859 0 166.5042807931859 83.653766900635674 0 0 0 0 826.94918858003803 30.36458416215828 0 30.36458416215828 -59.849147439086664 0 0 0 0 1.085822322443299 3.9149595998029838 0 3.9149595998029838 3.4478075461353797 0 0 0 0 -293.24372182114166 46.366546754696174 0 46.366546754696174 26.198196506482418 0 0 0 0 243.28640277154318 -39.150647093591942 0 -39.150647093591942 -43.532742142415373 0 0 0 0 65.329790201285505 255.45158534366055 0 255.45158534366055 81.966420278921191 0 0 0 0 -9.6859690231140121 136.34885556435984 0 136.34885556435984 -15.078614222147735 0 0 0 0 268.4110844101524 180.50676632430987 0 180.50676632430987 -102.54233124005259 0 0 0 0 78.692677481099963 121.39588559512049 0 121.39588559512049 -89.444652540427342 0 0 0 0 -40.328666919507668 -146.8974356403196 0 -146.8974356403196 -138.56593256772982 0 0 0 0 -68.240433156417566 71.609823690720077 0 71.609823690720077 -67.257787114358507 0 0 0 0 -12.707717570592649 19.614776493239333 0 19.614776493239333 196.15388835391786 0 0 0 0 25.761427885234298 85.930545518986037 0 85.930545518986037 -137.5883804022742 0 0 0 0 -270.80641628925514 -44.746783752168994 0 -44.746783752168994 18.067074926391797 0 0 0 0 -24.657252363229986 46.053217144837248 0 46.053217144837248 -62.030158449574202 0 0 0 0 -28.169464428177548 47.684027799283029 0 47.684027799283029 -59.685538121013437 0 0 0 0 -123.33524628126179 185.8500700625209 0 185.8500700625209 97.769492395840643 0 0 0 0 654.2328834466316 311.75873347389643 0 311.75873347389643 49.385342751776989 0 0 0 0 -8.9621131787501156 6.6537347414411272 0 6.6537347414411272 20.869141475638827 0 0 0 0 115.42685468359559 -42.518886450365244 0 -42.518886450365244 3.8672645178630773 0 0 0 0 -61.829669490820379 316.04722580819362 0 316.04722580819362 456.21724675494625 0 0 0 0 -550.54204422175826 0.80041190415431629 0 0.80041190415431629 301.6042276661974 0 0 0 0 1.3570006265182855 -1.0971300774269537 0 -1.0971300774269537 3.7326441037226061 0 0 0 0 1238.6193684376049 618.92692614295993 0 618.92692614295993 20.046434346528258 0 0 0 0 103.10424574094941 596.60431020889519 0 596.60431020889519 367.45703645743924 0 0 0 0 -553.21608161050972 -94.989982001948192 0 -94.989982001948192 176.4300750508628 0 0 0 0 98.907800229309942 -151.89261497714324 0 -151.89261497714324 20.479310421094851 0 0 0 0 162.34134507751151 326.30994315554199 0 326.30994315554199 149.313270019632 0 0 0 0 206.22898021340916 458.30860394260799 0 458.30860394260799 337.11165466150123 0 0 0 0 -196.67129777713126 175.56065259572642 0 175.56065259572642 185.82333781897614 0 0 0 0 -48.148505740638939 33.77504717584452 0 33.77504717584452 0.57281127609894611 0 0 0 0 442.14239647354407 346.43007394191227 0 346.43007394191227 211.20340186651447 0 0 0 0 26.743252683081664 294.67444473304204 0 294.67444473304204 182.09212324274995 0 0 0 0 -9.1793218560342211 438.09748761637456 0 438.09748761637456 281.63297936099843 0 0 0 0 143.52388873530708 428.82395434057412 0 428.82395434057412 267.79592442103603 0 0 0 0 367.22507771066739 393.4763207674041 0 393.4763207674041 260.56531316425026 0 0 0 0 111.61740035799448 -123.60857266598759 0 -123.60857266598759 -191.81070865241054 0 0 0 0 -5.4752774346426065 22.444229774603798 0 22.444229774603798 -50.541540879283616 0 0 0 0 -1.2692721523718546 -0.55327753701746474 0 -0.55327753701746474 -9.3547474651815321 0 0 0 0 64.960883246400044 107.98397572623799 0 107.98397572623799 30.103311130837028 0 0 0 0 35.907586431712843 95.669801161107898 0 95.669801161107898 34.729129951869254 0 0 0 0 60.7391016415786 111.56917374646582 0 111.56917374646582 3.9877170803956687 0 0 0 0 58.252265392286063 248.01481653377414 0 248.01481653377414 228.21074865622359 0 0 0 0 43.644783744897722 305.13045543094449 0 305.13045543094449 208.98985614841513 0 0 0 0 -18.786983103218915 37.01874454242062 0 37.01874454242062 -53.580482274980199 0 0 0 0 143.77115150912141 96.817720670835115 0 96.817720670835115 -173.83586332778214 0 0 0 0 48.335767568758456 14.043831007358676 0 14.043831007358676 -144.37271536685876 0 0 0 0 66.047390899911989 133.19458615962139 0 133.19458615962139 -17.783653610458714 0 0 0 0 83.034716026108072 128.60578579984576 0 128.60578579984576 -77.495772097754525 0 0 0 0 44.326587113158894 74.305825763156463 0 74.305825763156463 -1.0075514868440223 0 0 0 0 59.440519710376975 76.276183884030615 0 76.276183884030615 -41.966746469523059 0 0 0 0 38.143082298964146 98.84772874522605 0 98.84772874522605 -18.758959541592048 0 0 0 0 25.929612723346509 107.32021177450179 0 107.32021177450179 -14.795269569513039 0 0 0 0 273.23725189056131 48.029978948696225 0 48.029978948696225 -74.344614813642693 0 0 0 0 11.589351402769058 66.939747569275625 0 66.939747569275625 -12.312971985555862 0 0 0 0 143.58924366981955 -34.606662828067783 0 -34.606662828067783 -48.539884085115773 0 0 0 0 193.55819229331973 113.60750206207967 0 113.60750206207967 -166.28322607903101 0 0 0 0 0.72006762004457414 113.68705356054124 0 113.68705356054124 21.888061438745353 0 0 0 0 11.369944771832802 65.126431494930728 0 65.126431494930728 -18.862773216681347 0 0 0 0 172.30014177277917 117.84759880686033 0 117.84759880686033 -16.200450457854458 0 0 0 0 72.862061634106794 89.419696848286549 0 89.419696848286549 -16.198766043638898 0 0 0 0 -16.679236857409705 234.69779069694414 0 234.69779069694414 2.5886499105545226 0 0 0 0 -165.93092020397307 182.93036136891897 0 182.93036136891897 -21.247396367361944 0 0 0 0 -155.70742781524314 350.20075146473027 0 350.20075146473027 -260.71667066220107 0 0 0 0 -280.83526964916382 268.5760915829087 0 268.5760915829087 -312.87980763240193 0 0 0 0 49.938896235704306 243.48699004636728 0 243.48699004636728 -26.419206872187715 0 0 0 0 0.8673155263825798 73.575525472566142 0 73.575525472566142 -22.318264495144973 0 0 0 0 18.517704877173543 16.565214631783903 0 16.565214631783903 -48.934894674055045 0 0 0 0 205.67813772363297 -133.58114589159595 0 -133.58114589159595 -67.273965735863385 0 0 0 0 612.34335854701931 519.94107926899051 0 519.94107926899051 116.8538653750511 0 0 0 0 -440.63753564906074 560.82364339657943 0 560.82364339657943 -330.86541981167284 0 0 0 0 -241.92421959075728 384.32732382154063 0 384.32732382154063 -302.23595186342118 0 0 0 0 -213.55280938140641 401.03142036548525 0 401.03142036548525 -254.50641651802289 0 0 0 0 -177.47773480176238 419.69433763992515 0 419.69433763992515 -293.35594241401122 0 0 0 0 -319.34984962941962 339.51622277787828 0 339.51622277787828 -379.62396675434138 0 0 0 0 -383.45739497267641 603.65647079730297 0 603.65647079730297 -484.96127816205262 0 0 0 0 -145.43688848732563 382.08775014714229 0 382.08775014714229 -432.40956009499496 0 0 0 0 -192.78938082509558 265.23285636888795 0 265.23285636888795 -201.0234277578129 0 0 0 0 -0.83438742635189556 197.72321641248709 0 197.72321641248709 -211.4901421113027 0 0 0 0 -84.807734542700928 168.99942366915639 0 168.99942366915639 -191.81777274947308 0 0 0 0 -22.523741072101984 189.40792609540222 0 189.40792609540222 -292.38509432337014 0 0 0 0 15.576414708513767 44.767222433860297 0 44.767222433860297 -88.215340510876558 0 0 0 0 -44.171017169166589 104.21418087228085 0 104.21418087228085 -99.989337598599377 0 0 0 0 40.611071865074337 39.250126044367789 0 39.250126044367789 -97.745365235488862 0 0 0 0 -47.792566583695589 139.32339508488076 0 139.32339508488076 -78.769086604428594 0 0 0 0 70.749864446755964 79.523690525675192 0 79.523690525675192 -45.148671726841712 0 0 0 0 -163.54006583307637 250.60945142070705 0 250.60945142070705 -273.84040331725555 0 0 0 0 -2.7277743221966375 241.25344176585622 0 241.25344176585622 -428.03526630732813 0 0 0 0 -32.261177082284121 74.586658253399946 0 74.586658253399946 -148.09560418828914 0 0 0 0 623.75698632713465 481.69289882542944 0 481.69289882542944 -571.67864934452518 0 0 0 0 171.08105715565762 12.625892007637958 0 12.625892007637958 207.21676478358859 0 0 0 0 119.16591765852354 60.570724128618167 0 60.570724128618167 1005.6768518077733 0 0 0 0 553.51063258940121 314.57840694268089 0 314.57840694268089 -23.762804730024072 0 0 0 0 337.08738749669283 209.36179267430271 0 209.36179267430271 -72.720699342360604 0 0 0 0 354.48869432681386 255.60098021313024 0 255.60098021313024 -29.010709901776863 0 0 0 0 258.21949926047819 214.02227142166521 0 214.02227142166521 -21.869799691456137 0 0 0 0 427.62578581942944 168.92795448934339 0 168.92795448934339 -87.924344087921781 0 0 0 0 268.80753142894537 103.06564710253588 0 103.06564710253588 -104.96351728892478 0 0 0 0 131.92809885856695 207.38339505722251 0 207.38339505722251 51.072186962876003 0 0 0 0 208.74192549072905 305.90216021850938 0 305.90216021850938 102.49908693406906 0 0 0 0 -2.7537692859619938 1.9065005364851686 0 1.9065005364851686 -1.955354056892844 0 0 0 0 13.772591528771954 19.351259895477597 0 19.351259895477597 14.083656036789762 0 0 0 0 13.242796245525824 4.4652017274856917 0 4.4652017274856917 -44.619585243228357 0 0 0 0 24.660820017903461 6.8207515311351017 0 6.8207515311351017 -5.0636809633870143 0 0 0 0 79.409374488459434 3.5989933991877479 0 3.5989933991877479 -21.829790030351433 0 0 0 0 82.520408836338902 38.359826070227427 0 38.359826070227427 59.672324723142083 0 0 0 0 9.0822331801027758 99.852021715742012 0 99.852021715742012 -18.097388239009888 0 0 0 0 -58.953004486174905 103.33922559919665 0 103.33922559919665 32.358030254836194 0 0 0 0 183.5818616207398 8.0732101720059291 0 8.0732101720059291 -15.770824086001085 0 0 0 0 22.081793795632649 4.7557990983095237 0 4.7557990983095237 -0.90280588001473916 0 0 0 0 56.867311667534523 31.243184007151285 0 31.243184007151285 17.09024532978583 0 0 0 0 -1.6793798672437674 9.2399328311635145 0 9.2399328311635145 -6.2157197910107982 0 0 0 0 42.131929550145287 40.666110002071946 0 40.666110002071946 11.474309657351114 0 0 0 0 -0.21823089613840096 66.882597095640762 0 66.882597095640762 -3.5709621213836726 0 0 0 0 165.73555444006342 126.02337605273351 0 126.02337605273351 34.489969529968221 0 0 0 0 85.880155927799933 69.206934618025116 0 69.206934618025116 16.627907746296842 0 0 0 0 -45.074083441187376 35.208065800797783 0 35.208065800797783 12.166029443705725 0 0 0 0 247.18931274765055 101.49418162696384 0 101.49418162696384 41.404962004191475 0 0 0 0 -40.295282101753401 69.084953235520516 0 69.084953235520516 -7.3521754035973572 0 0 0 0 -21.811045437767177 42.830385953522239 0 42.830385953522239 -2.3635572832739626 0 0 0 0 -78.277879637025762 63.249502373611904 0 63.249502373611904 10.067011851955613 0 0 0 0 -3.1740915243864265 38.879729028342837 0 38.879729028342837 -11.670242433482485 0 0 0 0 -68.315943805201783 63.514289201940045 0 63.514289201940045 -10.905953160910599 0 0 0 0 -88.528645645557845 33.951130500234285 0 33.951130500234285 -38.700487968977541 0 0 0 0 -60.544848063218524 37.709347086980415 0 37.709347086980415 -18.31738928820414 0 0 0 0 -175.22476986007678 86.992219405638025 0 86.992219405638025 5.2050956525490619 0 0 0 0 26.351618281720363 8.5293973540897241 0 8.5293973540897241 -4.594194727678115 0 0 0 0 -7.032582934368385 5.7489600930526592 0 5.7489600930526592 3.0141375366069383 0 0 0 0 -95.542792074338649 71.120759619901946 0 71.120759619901946 -9.1411118189862464 0 0 0 0 253.24947977683041 89.125800022564363 0 89.125800022564363 19.443033835894312 0 0 0 0 303.51692831431865 67.710711009938677 0 67.710711009938677 10.553313948039431 0 0 0 0 228.18920243397588 146.05051892278425 0 146.05051892278425 81.058819740486797 0 0 0 0 245.67877268747543 134.95672631484922 0 134.95672631484922 12.087198835113668 0 0 0 0 316.90231842193316 146.75210509826866 0 146.75210509826866 5.5888184112263843 0 0 0 0 249.14707976538921 147.70725690902327 0 147.70725690902327 -20.832875119202072 0 0 0 0 231.08742742859249 131.55656741268376 0 131.55656741268376 11.977071115077706 0 0 0 0 176.02300318646667 80.894430397587712 0 80.894430397587712 -37.140614111252944 0 0 0 0 194.80306990328245 134.63206365831138 0 134.63206365831138 22.113018546217063 0 0 0 0 222.71087193211133 131.35113666034886 0 131.35113666034886 -51.43265671050176 0 0 0 0 228.70262314699357 120.70211507262866 0 120.70211507262866 -33.620442939485656 0 0 0 0 313.90932675628574 170.14655813013087 0 170.14655813013087 -46.669935797544895 0 0 0 0 237.68280824052636 163.40675926135737 0 163.40675926135737 -7.0006192594198495 0 0 0 0 217.21858106096624 189.20317770676047 0 189.20317770676047 -6.9911031866795383 0 0 0 0 223.19287060927309 174.25486984728559 0 174.25486984728559 13.327748122479534 0 0 0 0 231.30735424632439 153.47618180025893 0 153.47618180025893 14.697943796229083 0 0 0 0 230.3635465942134 146.70108336296835 0 146.70108336296835 4.1792458339768928 0 0 0 0 243.69368905836018 162.33174566346133 0 162.33174566346133 -10.992795154539635 0 0 0 0 1.0942404938619603 9.4222096436996878 0 9.4222096436996878 -2.7537925894817477 0 0 0 0 -56.859961992668104 90.776038455442176 0 90.776038455442176 -0.58264451796276262 0 0 0 0 17.272964145216974 4.8715160923093208 0 4.8715160923093208 -20.339967369742226 0 0 0 0 179.40523956633115 23.541377780660696 0 23.541377780660696 -77.509725354044349 0 0 0 0 99.145618229740649 56.34239860926391 0 56.34239860926391 -12.208591883871122 0 0 0 0 203.93571067415178 105.66234688735858 0 105.66234688735858 -39.918219689265243 0 0 0 0 51.567155829121475 8.8613824428593944 0 8.8613824428593944 -31.041201258849469 0 0 0 0 103.88191628933419 89.839890542381909 0 89.839890542381909 11.659801614994649 0 0 0 0 16.77492320756005 5.4851158073212218 0 5.4851158073212218 -29.599640515502529 0 0 0 0 -3.840461971674813 27.495197878139152 0 27.495197878139152 -37.04872273861838 0 0 0 0 -5.8493156303302385 34.696718493141816 0 34.696718493141816 -40.493805179663468 0 0 0 0 -28.004130879693548 34.93290014660306 0 34.93290014660306 -32.75482738474966 0 0 0 0 4.11738300928846 37.682391737580474 0 37.682391737580474 -38.662176970392466 0 0 0 0 13.424226003116928 39.550057498781825 0 39.550057498781825 -39.961697713319154 0 0 0 0 8.7997132373275235 41.316629319124331 0 41.316629319124331 -36.469376492619631 0 0 0 0 11.695253056626825 43.329824454183836 0 43.329824454183836 -46.033149568480439 0 0 0 0 8.0953097183955833 39.600748440207099 0 39.600748440207099 -37.345149088603648 0 0 0 0 -14.02218843223261 29.549867641208948 0 29.549867641208948 -37.914420470255152 0 0 0 0 51.768209611131169 155.56493305665026 0 155.56493305665026 -1015.2603847591454 0 0 0 0 35.115906723847729 56.256518618218252 0 56.256518618218252 -69.46101950515731 0 0 0 0 -45.590972689999035 80.380350383005862 0 80.380350383005862 -76.009072649161681 0 0 0 0 28.546604558524336 9.4433225420461611 0 9.4433225420461611 -5.3206590718290698 0 0 0 0 -14.584455422018095 33.535026563816132 0 33.535026563816132 -31.859435266199966 0 0 0 0 -762.27418946025136 625.01105766400724 0 625.01105766400724 -447.48836250674503 0 0 0 0 3.4289551545034556 9.0476918292674782 0 9.0476918292674782 -0.78734806217389064 0 0 0 0 45.155821563937934 -146.44853260981472 0 -146.44853260981472 -2349.4429774239834 0 0 0 0 -51.646377640630817 571.51593309102827 0 571.51593309102827 -1117.0383539432369 0 0 0 0 -307.24951667743153 1071.2593883750887 0 1071.2593883750887 -1958.8948047578124 0 0 0 0 210.28308203759661 701.65909556816769 0 701.65909556816769 -1240.7464494761225 0 0 0 0 -122.75788339722203 649.09209904348245 0 649.09209904348245 -952.27546762919519 0 0 0 0 -72.078384598848061 448.34046945971568 0 448.34046945971568 -162.30008678171725 0 0 0 0 -54.069172423060081 -6.4970923794085138 0 -6.4970923794085138 -44.559322574787075 0 0 0 0 148.74896837235428 8.9850863055980881 0 8.9850863055980881 -69.188329343727673 0 0 0 0 163.15983535075793 35.762876442691777 0 35.762876442691777 -55.741483209276339 0 0 0 0 300.39893250972091 32.071361541246006 0 32.071361541246006 -147.49380357775954 0 0 0 0 503.07008574303472 125.29782161117146 0 125.29782161117146 -111.91091143156518 0 0 0 0 10.710290637623984 1.7474605459036923 0 1.7474605459036923 1.0616499478869628 0 0 0 0 -233.41017350147013 508.16222420609847 0 508.16222420609847 242.10239454105613 0 0 0 0 281.10551101659075 -4.9763384290854447 0 -4.9763384290854447 -130.05300620170601 0 0 0 0 176.42017742057214 808.91246625420172 0 808.91246625420172 -6.7340658468674519 0 0 0 0 -140.13777405556175 623.31365384429228 0 623.31365384429228 -308.53491740708341 0 0 0 0 -94.613260627287673 507.05767456126341 0 507.05767456126341 -294.79574386888999 0 0 0 0 -229.98585578146594 795.20814056080781 0 795.20814056080781 -328.55468520399882 0 0 0 0 -446.54887819531723 864.55498517507658 0 864.55498517507658 -257.48299975969712 0 0 0 0 -475.66608694852039 858.10461194662685 0 858.10461194662685 -235.93854815827217 0 0 0 0 -1124.5580217466631 584.04563600679467 0 584.04563600679467 -263.63040304210153 0 0 0 0 -416.02227719235452 439.74921431843131 0 439.74921431843131 -350.15519174616202 0 0 0 0 -523.74868976513972 634.26934914047888 0 634.26934914047888 -394.20027658932668 0 0 0 0 -650.56337113530026 473.00464776801891 0 473.00464776801891 -587.81297785857896 0 0 0 0 -906.92015695424925 870.32742609588604 0 870.32742609588604 -598.2717869213692 0 0 0 0 -1050.568314983946 1114.6637744892505 0 1114.6637744892505 -258.44513808668125 0 0 0 0 6.8427922111729913 12.845845225003927 0 12.845845225003927 11.20236127760873 0 0 0 0 -675.41273410023132 467.09942427609712 0 467.09942427609712 -375.89221816013014 0 0 0 0 50.199456802380155 663.96106835828323 0 663.96106835828323 278.66820920212922 0 0 0 0 -280.3936476278468 287.38236232595955 0 287.38236232595955 -140.20922737713045 0 0 0 0 18.372500453609973 1060.8375030096358 0 1060.8375030096358 -462.972407921181 0 0 0 0 75.782505228184164 1659.5872035326902 0 1659.5872035326902 -504.62056164909154 0 0 0 0 489.77600732666906 1331.5244468217788 0 1331.5244468217788 -321.7527009036603 0 0 0 0 3.7630112760874681 7.2981180682384945 0 7.2981180682384945 4.8350998666211922 0 0 0 0 -1223.6678813498384 1303.650053805055 0 1303.650053805055 -114.57629756469396 0 0 0 0 261.27477284311317 1306.133901441739 0 1306.133901441739 -507.34594899801959 0 0 0 0 -426.5772326350575 1342.8862687625785 0 1342.8862687625785 -114.78264939767541 0 0 0 0 439.39077304319653 963.95355329033191 0 963.95355329033191 -1265.4636030568654 0 0 0 0 -446.13095817582507 632.97159978014679 0 632.97159978014679 -588.3711801385507 0 0 0 0 -594.69714335448225 960.74731309677009 0 960.74731309677009 -1247.0534516642947 0 0 0 0 -276.81173331962782 1145.1468441226389 0 1145.1468441226389 -1681.3122203186686 0 0 0 0 650.387453314499 901.63661370674163 0 901.63661370674163 -1922.9733243112423 0 0 0 0 713.25458559411345 736.20046305235155 0 736.20046305235155 -1858.0177850988039 0 0 0 0 580.10380101788724 111.21341108423076 0 111.21341108423076 -752.26053067976318 0 0 0 0 -5.0014420147401211 5.878905177688722 0 5.878905177688722 -3.4839871862714062 0 0 0 0 -566.34376816212898 1672.7135736437322 0 1672.7135736437322 890.11209567713377 0 0 0 0 531.38571314426372 664.47383379682287 0 664.47383379682287 321.92782663097023 0 0 0 0 79.229579323698999 771.04382374048237 0 771.04382374048237 751.42686416696233 0 0 0 0 502.44593615315898 880.26272859843266 0 880.26272859843266 517.36885010954575 0 0 0 0 454.24134814790887 801.97646398154575 0 801.97646398154575 535.08655016642297 0 0 0 0 143.8085846703907 559.18381267871155 0 559.18381267871155 371.99128632598695 0 0 0 0 -0.4814722090086434 1797.0087013347511 0 1797.0087013347511 124.25789878466458 0 0 0 0 600.5785307441547 649.62949784507873 0 649.62949784507873 -1399.2073776944162 0 0 0 0 436.47219694749219 904.02451831899089 0 904.02451831899089 147.28299552897079 0 0 0 0 478.37717311253073 699.18558828443201 0 699.18558828443201 302.78874627053665 0 0 0 0 -9.11380004555906 11.023016309906865 0 11.023016309906865 -6.4482554505143526 0 0 0 0 0.33448063144169282 1033.0943050154274 0 1033.0943050154274 1378.2959712274824 0 0 0 0 -5.2792830885480839 4.6812584735161238 0 4.6812584735161238 -1.3050456033482192 0 0 0 0 263.60783842834644 310.61785842725294 0 310.61785842725294 448.74343272709666 0 0 0 0 391.79854285075271 1245.9336982838249 0 1245.9336982838249 501.6484523934123 0 0 0 0 678.4466523206429 1104.2966596844217 0 1104.2966596844217 -2004.5346034135728 0 0 0 0 433.36780713964254 949.06508025032235 0 949.06508025032235 -1114.2245869733779 0 0 0 0 0.25816720907459967 1193.7281735055221 0 1193.7281735055221 -578.387717541038 0 0 0 0 408.20638927187974 534.10471225203037 0 534.10471225203037 -1595.7593529792503 0 0 0 0 -1.1366382743726717 -296.54111514485703 0 -296.54111514485703 -4654.7543585204985 0 0 0 0 -364.40988542427658 1277.105589352861 0 1277.105589352861 -2445.3409117000992 0 0 0 0 -315.54604004963767 914.13274994993117 0 914.13274994993117 -1675.6412369234677 0 0 0 0 492.21549912480987 913.7989325155213 0 913.7989325155213 -2580.8492014941294 0 0 0 0 165.38921075724647 1059.0999204020918 0 1059.0999204020918 -2637.715218788624 0 0 0 0 638.48335947137093 476.37912946272991 0 476.37912946272991 -3550.1360466200276 0 0 0 0 176.21878389689664 1205.4891647255063 0 1205.4891647255063 -4005.7536013609497 0 0 0 0 -554.87028211914003 -963.73272031944362 0 -963.73272031944362 -1548.3054116334461 0 0 0 0 2.1524560062514695 8.5929624288218065 0 8.5929624288218065 -17.09141520954978 0 0 0 0 396.34579919060343 -163.563276140776 0 -163.563276140776 -4736.0003765889196 0 0 0 0 102.9922283085034 388.40517973923124 0 388.40517973923124 -2123.7300382105605 0 0 0 0 -579.05195891785843 -1145.6252969690977 0 -1145.6252969690977 -2536.4998528380529 0 0 0 0 344.91181995249644 -40.891871374715265 0 -40.891871374715265 -2813.9644511288498 0 0 0 0 391.58924306335393 312.21114736318123 0 312.21114736318123 -1822.2868517618044 0 0 0 0 477.99670584749765 -31.053098086396858 0 -31.053098086396858 -2370.3447809487698 0 0 0 0 468.67479993338929 31.09227069967892 0 31.09227069967892 -2776.3524353791145 0 0 0 0 734.17201119568199 593.52741178969154 0 593.52741178969154 -2465.1277784994745 0 0 0 0 644.68812776560662 593.02817895729095 0 593.02817895729095 -2406.8208108557837 0 0 0 0 412.03204951919179 1017.9612903148136 0 1017.9612903148136 -1949.4415842979652 0 0 0 0 740.76254943537424 655.86600678957529 0 655.86600678957529 -2000.73317870959 0 0 0 0 238.8970345192065 793.15834718809492 0 793.15834718809492 -1936.9203150339963 0 0 0 0 -869.94404846210091 534.5143502242172 0 534.5143502242172 -1285.4263503544498 0 0 0 0 -90.810188023810042 459.48951436256903 0 459.48951436256903 -2004.2331135759023 0 0 0 0 235.07195373758441 713.07980481447157 0 713.07980481447157 -2013.9488174369287 0 0 0 0 19.180767054207706 24.851288785844361 0 24.851288785844361 1.1190580912295758 0 0 0 0 206.06025669060182 728.30955670517142 0 728.30955670517142 -1876.4281753951182 0 0 0 0 401.73200491809985 194.72138643300423 0 194.72138643300423 -1395.0246153943808 0 0 0 0 13.093527901277412 42.394834000984702 0 42.394834000984702 -29.611045712983469 0 0 0 0 21.951571389836374 19.611525669718944 0 19.611525669718944 9.395208851535557 0 0 0 0 15.016660525285261 44.635751172099845 0 44.635751172099845 -32.868340416593128 0 0 0 0 12.850462732734741 37.815070700788056 0 37.815070700788056 -36.570989331667079 0 0 0 0 18.83774430192716 48.897867032290378 0 48.897867032290378 -32.896721964309108 0 0 0 0 11.781989769704523 48.945675198330719 0 48.945675198330719 -13.748912071998348 0 0 0 0 14.906718281345093 36.209122826076054 0 36.209122826076054 -8.6760718868245021 0 0 0 0 23.143283919314854 37.041741077657207 0 37.041741077657207 -13.385898145512328 0 0 0 0 27.707525379293656 42.093255057774513 0 42.093255057774513 -12.055647833956755 0 0 0 0 1.0801898975332733 33.559012482364778 0 33.559012482364778 -5.7231935095915105 0 0 0 0 -1.3071076213964261 31.877162044678698 0 31.877162044678698 -0.25373433220374864 0 0 0 0 -10.006597672615243 24.133955802144158 0 24.133955802144158 -4.6719520966624373 0 0 0 0 -0.0086911961552686989 33.856531918216206 0 33.856531918216206 -0.92941090022213757 0 0 0 0 0.13448907749261707 -62.237088852452871 0 -62.237088852452871 357.47284240965382 0 0 0 0 -0.52523132018808383 2.5431634840412443 0 2.5431634840412443 -10.151146128648122 0 0 0 0 -1.6429024972603656 32.170724450079433 0 32.170724450079433 9.4888139372924343 0 0 0 0 26.183789744583407 23.709631099332 0 23.709631099332 3.3883582902128921 0 0 0 0 -536.99522762834386 -515.95582733111951 0 -515.95582733111951 -153.7084897008026 0 0 0 0 19.454847307701129 41.092869017113117 0 41.092869017113117 -7.5312215361991548 0 0 0 0 -94.953207614697021 23.592311650486863 0 23.592311650486863 -44.490699112458969 0 0 0 0 1.4865652411003225 -0.72562253753517147 0 -0.72562253753517147 -12.553773929563576 0 0 0 0 -46.098744737741072 172.10866896561129 0 172.10866896561129 -242.8285305505924 0 0 0 0 -0.521572125289822 129.97735316234139 0 129.97735316234139 -210.36105304950615 0 0 0 0 -316.48343451719848 417.89427112453632 0 417.89427112453632 -366.20059355395824 0 0 0 0 -154.55248552851845 108.50976218818323 0 108.50976218818323 -61.005435535385914 0 0 0 0 -36.699585841895896 74.557507179812092 0 74.557507179812092 -150.08072747525512 0 0 0 0 -1.6974052210928932 9.5203887215386658 0 9.5203887215386658 -31.203698861371976 0 0 0 0 382.23125879195868 -55.286681336587208 0 -55.286681336587208 -184.60847615590365 0 0 0 0 250.60162940673763 -240.20601648389038 0 -240.20601648389038 -68.481097352989309 0 0 0 0 80.032372742731241 44.27413549945777 0 44.27413549945777 -164.50798107186711 0 0 0 0 -366.83327109852689 167.88888790485544 0 167.88888790485544 -6.9427663687674794 0 0 0 0 262.37726835161448 205.18753364011718 0 205.18753364011718 -0.41550562105840072 0 0 0 0 -59.355540978111094 -157.20041332749315 0 -157.20041332749315 -394.12570351121394 0 0 0 0 80.485370506503386 73.223951884345297 0 73.223951884345297 -1.8162471499745152 0 0 0 0 1.347692457262383 3.1085508722468873 0 3.1085508722468873 -13.976956489800884 0 0 0 0 604.06325556793308 -259.19799035735014 0 -259.19799035735014 69.378739094914636 0 0 0 0 413.46549876048812 86.744345901144698 0 86.744345901144698 -241.55150188589687 0 0 0 0 -2.9746431748687456 12.541863587210287 0 12.541863587210287 -48.835984434969888 0 0 0 0 3.0988039982039481 23.248407435363333 0 23.248407435363333 -46.747760056852712 0 0 0 0 29.711155184020754 407.15003501822866 0 407.15003501822866 -418.02451216374448 0 0 0 0 320.04645256833464 54.814520856849413 0 54.814520856849413 -92.008629055133497 0 0 0 0 90.429701092885807 326.50892259043758 0 326.50892259043758 -332.99865448905621 0 0 0 0 104.13869383709971 187.56162004408725 0 187.56162004408725 -53.292199178968076 0 0 0 0 -107.22360554258921 177.63878829118767 0 177.63878829118767 -4.5677738667618542 0 0 0 0 12.852198634677848 49.723649049810817 0 49.723649049810817 60.866941350660028 0 0 0 0 -145.28553615309647 165.92231893778808 0 165.92231893778808 -100.75486879362143 0 0 0 0 11.300492512484198 44.836264915833453 0 44.836264915833453 -22.655342465041031 0 0 0 0 3.0793353670178334 28.117244452840993 0 28.117244452840993 -57.622412123880423 0 0 0 0 3.8477980494790245 34.123253956691769 0 34.123253956691769 -35.838591198987615 0 0 0 0 -5.6653531439951621 19.654278095447808 0 19.654278095447808 -36.99625446954451 0 0 0 0 -3.3200016839509772 29.135045629348497 0 29.135045629348497 -12.661454355853493 0 0 0 0 2.5787914774651881 -3.7672694943066052 0 -3.7672694943066052 -2.7359998510735721 0 0 0 0 -0.0081727289216360077 36.388924431958003 0 36.388924431958003 -24.185718385786458 0 0 0 0 0.62974333723832387 38.79710697813789 0 38.79710697813789 -21.003366467652086 0 0 0 0 -0.23511891525413375 38.908340364849209 0 38.908340364849209 -16.058972803686629 0 0 0 0 0.01325378664478194 36.766054307219747 0 36.766054307219747 -19.802310681199742 0 0 0 0 0.20085711230785819 36.796218929530824 0 36.796218929530824 -19.843396486954589 0 0 0 0 -0.042997542725061066 36.605887930567405 0 36.605887930567405 -15.078785222320221 0 0 0 0 9.0324370983024664 6.3618170692791551 0 6.3618170692791551 9.9181778344064071 0 0 0 0 -195.57810423626506 -229.69256390680312 0 -229.69256390680312 3879.5054318260882 0 0 0 0 43.916058490834985 -10.382268869191648 0 -10.382268869191648 1244.3408336170032 0 0 0 0 240.4586154924682 1472.5922885173534 0 1472.5922885173534 782.92572045879206 0 0 0 0 1.9439178253524005 788.57055082532315 0 788.57055082532315 1665.1066187841425 0 0 0 0 2.0986717795603909 1677.2328750452434 0 1677.2328750452434 1714.8756157966345 0 0 0 0 205.55580943411042 1030.8069914142504 0 1030.8069914142504 939.54666506900685 0 0 0 0 84.740933189881616 518.30053247223623 0 518.30053247223623 598.67800058942521 0 0 0 0 -7.9546479853743222 569.38163460050419 0 569.38163460050419 598.26014969525568 0 0 0 0 12.451076811499661 37.07250684745668 0 37.07250684745668 642.41633251137864 0 0 0 0 -187.07054229642381 146.82956875758282 0 146.82956875758282 632.93374092888553 0 0 0 0 -331.45195529794 559.72649987857949 0 559.72649987857949 301.57259703121963 0 0 0 0 426.3251814377727 -99.177834755137155 0 -99.177834755137155 578.59173541903874 0 0 0 0 13.436311951823882 93.487594315181923 0 93.487594315181923 942.0723975214496 0 0 0 0 43.410093559956294 -30.914107961983973 0 -30.914107961983973 366.26104169046448 0 0 0 0 -147.0336829109292 16.822406433828291 0 16.822406433828291 882.93911501883485 0 0 0 0 54.814294316980522 131.92644190904321 0 131.92644190904321 839.48255210198113 0 0 0 0 -306.20721728968056 -797.50597933811696 0 -797.50597933811696 1613.3493756427779 0 0 0 0 151.36166520405095 -214.17059806740144 0 -214.17059806740144 553.11751585897582 0 0 0 0 20.654892241108655 26.954479248969257 0 26.954479248969257 15.913763242709962 0 0 0 0 -1105.3235018036503 1332.0841326829759 0 1332.0841326829759 -359.60275553510292 0 0 0 0 -1.1731796487291177 27.814362347451436 0 27.814362347451436 6.8390471478665518 0 0 0 0 20.844081270362949 -410.68006014426646 0 -410.68006014426646 1163.929654269592 0 0 0 0 432.4533004006953 175.79975951707456 0 175.79975951707456 -380.73077701758302 0 0 0 0 8.4807265453619038 3.8870338425264706 0 3.8870338425264706 2.5691263295477285 0 0 0 0 152.79465565542341 18.114584875118453 0 18.114584875118453 -125.94286194401502 0 0 0 0 -27.65486608503852 -118.74882213775709 0 -118.74882213775709 542.65828295126266 0 0 0 0 18.46967194165336 21.509065324804396 0 21.509065324804396 437.97885872582265 0 0 0 0 142.97515946663771 -169.98876643965741 0 -169.98876643965741 500.56083906031563 0 0 0 0 -129.03861285647145 1.4174831348500447 0 1.4174831348500447 502.8480214432202 0 0 0 0 -158.7299236516119 154.46468465169164 0 154.46468465169164 329.73498669740366 0 0 0 0 -67.275986004300648 160.79723549093615 0 160.79723549093615 237.61675731898868 0 0 0 0 -299.39331299801415 258.53078617185201 0 258.53078617185201 204.74274401750881 0 0 0 0 -223.88919760809222 34.619001271446905 0 34.619001271446905 57.358410632361483 0 0 0 0 -261.76949939905899 16.453830467449734 0 16.453830467449734 730.58373545880022 0 0 0 0 -149.34165051821037 218.39065337422653 0 218.39065337422653 245.72918611219939 0 0 0 0 4.1467422255009296 624.27485982491271 0 624.27485982491271 -816.89222160879581 0 0 0 0 -205.91015330981463 -221.73550521520883 0 -221.73550521520883 1295.9523240446342 0 0 0 0 22.172475037412369 381.56256185771963 0 381.56256185771963 299.89431741621229 0 0 0 0 -4.1167996877668998 2.3461735909659609 0 2.3461735909659609 1.8861245538375044 0 0 0 0 -38.894729283225388 536.77231716059805 0 536.77231716059805 155.85165614495054 0 0 0 0 -360.27916480225394 568.87313814380468 0 568.87313814380468 -528.80256687790097 0 0 0 0 2.3840661306543325 6.281624197893791 0 6.281624197893791 5.7222655497447477 0 0 0 0 -202.37862414437404 748.39665323820736 0 748.39665323820736 -401.69410198269179 0 0 0 0 -1510.36475677829 937.13128747295741 0 937.13128747295741 270.66681067903119 0 0 0 0 -717.12169632330188 56.501067428893293 0 56.501067428893293 -179.99978895836193 0 0 0 0 -970.64451329076837 104.25894999912634 0 104.25894999912634 849.12967482120439 0 0 0 0 -9.4872879119398021 6.786986158744142 0 6.786986158744142 4.8079162746666384 0 0 0 0 155.69750935712364 1186.2792190703622 0 1186.2792190703622 -1352.7878856904244 0 0 0 0 -236.35318741211086 506.17024231351024 0 506.17024231351024 -146.01312838678132 0 0 0 0 175.11480655764717 97.999412467851471 0 97.999412467851471 395.12420256034238 0 0 0 0 154.13183511183888 213.21474499672695 0 213.21474499672695 81.176132451553713 0 0 0 0 -56.468491862819064 366.50120680270629 0 366.50120680270629 -24.806764910827042 0 0 0 0 -65.672846939145529 144.64950628023689 0 144.64950628023689 319.04171241911536 0 0 0 0 0.58488694087344584 -0.097880617037873208 0 -0.097880617037873208 -2.1121931462694192 0 0 0 0 -512.78962119447533 -199.83676083229511 0 -199.83676083229511 -345.26696771183015 0 0 0 0 -242.24200223208754 -409.40299077494637 0 -409.40299077494637 -377.67117144644726 0 0 0 0 -400.9458895764983 161.89792084285727 0 161.89792084285727 96.943298993734061 0 0 0 0 -78.786906283052531 46.368774713284836 0 46.368774713284836 1.1539606984179329 0 0 0 0 -546.84305195091292 190.94106912926327 0 190.94106912926327 1168.6918598937627 0 0 0 0 -52.076429702108726 86.036857483173662 0 86.036857483173662 -28.641788440480013 0 0 0 0 -19.45214251302184 76.232923260665928 0 76.232923260665928 -39.187929628257962 0 0 0 0 36.462729873426724 202.5621777950073 0 202.5621777950073 -64.31330763380538 0 0 0 0 48.935907773760846 257.95132799576822 0 257.95132799576822 -301.25903083644243 0 0 0 0 -279.37748407022445 82.725079438183457 0 82.725079438183457 151.45079756237828 0 0 0 0 -83.462277438815306 50.458331509316281 0 50.458331509316281 87.637375153245614 0 0 0 0 -151.68811063264729 263.62594235629513 0 263.62594235629513 -512.49637645120674 0 0 0 0 -25.085851650952065 -11.785974404314658 0 -11.785974404314658 52.200984158684818 0 0 0 0 -35.08794299870226 54.951997451638888 0 54.951997451638888 16.113534203518739 0 0 0 0 -159.13708369391679 -73.269466330159048 0 -73.269466330159048 44.198171112206182 0 0 0 0 -152.96060784902511 -141.23173209891684 0 -141.23173209891684 347.80752870727156 0 0 0 0 -37.648740858596284 136.30922403229852 0 136.30922403229852 312.57741713095675 0 0 0 0 -2.1261358914872517 2.4138995916767954 0 2.4138995916767954 12.125830354353923 0 0 0 0 -2.684843992581591 47.719377388428256 0 47.719377388428256 388.49116195070383 0 0 0 0 12.921659670493682 -94.180854247159004 0 -94.180854247159004 538.14374947242322 0 0 0 0 -10.91849099627143 -3.5011667242633848 0 -3.5011667242633848 193.77046040006098 0 0 0 0 13.935269584275147 33.114451690573318 0 33.114451690573318 -18.375583223352123 0 0 0 0 -3.4032664982839265 18.450037261927619 0 18.450037261927619 10.85769472291517 0 0 0 0 -15.092436005594209 32.829112903680652 0 32.829112903680652 -9.5074401744932402 0 0 0 0 8.6053551956429146 79.432935746153817 0 79.432935746153817 -57.095833104584017 0 0 0 0 -26.738708030431894 60.789068908062632 0 60.789068908062632 45.593982619564088 0 0 0 0 3.9783188053654612 47.22282689725651 0 47.22282689725651 52.406800101681952 0 0 0 0 -35.603765035746619 120.47300535524118 0 120.47300535524118 -91.788869574342243 0 0 0 0 -70.872048450328293 65.706038026277383 0 65.706038026277383 -100.93165800330462 0 0 0 0 65.153312577400357 -105.04480888525723 0 -105.04480888525723 542.36058107978897 0 0 0 0 -56.808315265341662 81.803790699224919 0 81.803790699224919 -87.21754213568056 0 0 0 0 18.689210807510676 17.758082830300175 0 17.758082830300175 8.513582818871356 0 0 0 0 7.3043038556995725 4.1752326122039989 0 4.1752326122039989 -10.670713982045925 0 0 0 0 -24.085981941898353 109.38091048123897 0 109.38091048123897 -84.415507685487682 0 0 0 0 -52.228651359328069 83.200333708125982 0 83.200333708125982 -108.36802486507077 0 0 0 0 -57.471269516616303 101.29102238522046 0 101.29102238522046 45.443218722892198 0 0 0 0 22.396272260171827 107.04174746784702 0 107.04174746784702 -466.60864607240001 0 0 0 0 -382.72022933057451 145.09948116286341 0 145.09948116286341 47.919352318036545 0 0 0 0 -2.3196544964718555 8.1461757619390482 0 8.1461757619390482 13.856603891988556 0 0 0 0 15.538766509524521 38.692035578721075 0 38.692035578721075 -2.8356701063685108 0 0 0 0 -51.330062379012816 84.739153643706231 0 84.739153643706231 -33.872998795144667 0 0 0 0 -4.9231918315861094 42.543960654060527 0 42.543960654060527 2.2833485224361567 0 0 0 0 -42.146444979152875 92.096847303087998 0 92.096847303087998 -29.252259584602143 0 0 0 0 -48.641057497356087 69.613766240800032 0 69.613766240800032 -41.071095855091698 0 0 0 0 -31.551050982236688 70.0115619051914 0 70.0115619051914 -0.96645786493407115 0 0 0 0 -39.18664597166935 119.34273547801422 0 119.34273547801422 -30.424597573051869 0 0 0 0 -46.54886868322501 241.89154037618209 0 241.89154037618209 -188.69190449175949 0 0 0 0 -2.3244593919444014 93.990123998703893 0 93.990123998703893 -169.70488024626684 0 0 0 0 -82.116096022014972 246.89581890014961 0 246.89581890014961 -163.42606379348581 0 0 0 0 -93.160031370498473 340.67558621773424 0 340.67558621773424 -338.81357103433947 0 0 0 0 32.797379320909386 121.26056785035507 0 121.26056785035507 -251.28551305119981 0 0 0 0 226.0447051899755 431.37419191958224 0 431.37419191958224 -187.90571808226014 0 0 0 0 -29.746380297574603 48.767111186935892 0 48.767111186935892 -70.17854388850003 0 0 0 0 -27.543646251687818 48.875988275630647 0 48.875988275630647 -75.553547192459888 0 0 0 0 88.585822621389525 258.64757562781961 0 258.64757562781961 -191.36230281300868 0 0 0 0 -234.80602162393188 -2.8706411231692073 0 -2.8706411231692073 -328.11649578851211 0 0 0 0 45.257552480266895 428.54702983023526 0 428.54702983023526 -185.66873571077303 0 0 0 0 -41.153697998088319 373.3478905049742 0 373.3478905049742 -129.79023493278146 0 0 0 0 180.32264680598746 300.18046872810464 0 300.18046872810464 -296.50917338726867 0 0 0 0 -2.5096825238433667 357.78472188927481 0 357.78472188927481 -230.11951913330995 0 0 0 0 -60.421372309734579 374.99934799507173 0 374.99934799507173 -208.81345964574575 0 0 0 0 14.945694916357752 349.11942405993614 0 349.11942405993614 -241.38564897164906 0 0 0 0 -41.413731591077521 195.32348277992423 0 195.32348277992423 -284.23870116859325 0 0 0 0 -137.99161295377417 358.33511450736842 0 358.33511450736842 -220.09058578725046 0 0 0 0 -56.137695158962742 379.71765131446227 0 379.71765131446227 -239.18122691278404 0 0 0 0 -157.13940425086184 360.61372911111539 0 360.61372911111539 -183.63495267360486 0 0 0 0 -41.58313570410246 368.27216934127136 0 368.27216934127136 -183.91601524837461 0 0 0 0 -156.5944509615465 375.51109845823601 0 375.51109845823601 -229.13077459059423 0 0 0 0 -84.146329918818083 412.3292192828485 0 412.3292192828485 -168.01444013637229 0 0 0 0 -384.18589019155479 334.83359259066856 0 334.83359259066856 -152.46234290385655 0 0 0 0 -371.06189468433149 359.78667639957166 0 359.78667639957166 -106.47296856745379 0 0 0 0 -14.70101458352292 66.448254340826679 0 66.448254340826679 101.82593977953366 0 0 0 0 -407.35597815935034 469.64657527661984 0 469.64657527661984 -216.54216831156373 0 0 0 0 -27.043861012355364 64.179022838766429 0 64.179022838766429 117.97433887888153 0 0 0 0 -61.327393130282871 169.25113631044951 0 169.25113631044951 63.707189507063958 0 0 0 0 -54.784049530207994 132.8533105757615 0 132.8533105757615 -26.248339898098493 0 0 0 0 -54.678556422994006 132.91432767768856 0 132.91432767768856 50.534447814716259 0 0 0 0 -37.207572558167158 153.37794684641813 0 153.37794684641813 -36.706107137360959 0 0 0 0 -320.87643868121086 301.66666733143938 0 301.66666733143938 -223.40907303425774 0 0 0 0 -27.290177386107871 62.25468026520717 0 62.25468026520717 126.5317054174801 0 0 0 0 -463.61435210006312 445.69245354715531 0 445.69245354715531 -209.8338360804737 0 0 0 0 -62.533415527723264 104.49158538604388 0 104.49158538604388 -23.928827838521102 0 0 0 0 -124.56283294738387 196.8892447210419 0 196.8892447210419 -78.408748559384549 0 0 0 0 -84.205454922499484 220.88947846398696 0 220.88947846398696 -124.29349576924142 0 0 0 0 -8.8421410022274358 60.113840851356933 0 60.113840851356933 57.29452243362271 0 0 0 0 -72.335644255334046 145.36930241841765 0 145.36930241841765 -31.186982176972379 0 0 0 0 -210.01781561714597 120.21603947957556 0 120.21603947957556 55.293572432070505 0 0 0 0 -37.592045978599344 185.75119144683958 0 185.75119144683958 -131.63586394491722 0 0 0 0 -63.08082704024855 194.55559248927602 0 194.55559248927602 -77.170369851639407 0 0 0 0 -136.38636125350604 182.32276129201637 0 182.32276129201637 -90.250642329425318 0 0 0 0 -51.475684502336662 70.329222308726457 0 70.329222308726457 -30.703463899219059 0 0 0 0 0.96268412846760043 40.86514318111081 0 40.86514318111081 29.304459637251171 0 0 0 0 -407.33467671624385 332.17682024156238 0 332.17682024156238 76.770113783044508 0 0 0 0 -113.17884215497179 69.078221664312878 0 69.078221664312878 16.517481044953456 0 0 0 0 -198.39934719546 115.34608787626348 0 115.34608787626348 46.798432794541441 0 0 0 0 -250.63900187751278 43.376635946930037 0 43.376635946930037 147.59072982343787 0 0 0 0 -45.187480463995598 108.88927408595919 0 108.88927408595919 39.821251361692703 0 0 0 0 334.15778986527584 113.38772656352376 0 113.38772656352376 37.057991465379018 0 0 0 0 -425.41810401751354 122.60766687731166 0 122.60766687731166 281.80338641005801 0 0 0 0 4.8134988598656037 2.7691135557525115 0 2.7691135557525115 1.5073684522115514 0 0 0 0 89.340233503142372 -108.6329127463614 0 -108.6329127463614 -233.8000340739527 0 0 0 0 93.225880104408134 -33.155852590905852 0 -33.155852590905852 173.26753183192341 0 0 0 0 -7.6492567925015464 -46.88672855758341 0 -46.88672855758341 162.77881372006959 0 0 0 0 95.009681381634437 -103.90821820685233 0 -103.90821820685233 -28.753432320616412 0 0 0 0 -29.584824817022309 52.273825160656997 0 52.273825160656997 3.0420898273441708 0 0 0 0 -7.8643780834786412 53.478944847990704 0 53.478944847990704 -14.637187980393676 0 0 0 0 -29.790716324874666 51.750004624991561 0 51.750004624991561 3.972330623131711 0 0 0 0 -2.5125499272814693 59.705678321946351 0 59.705678321946351 -20.669128023206454 0 0 0 0 -47.586706142322669 86.305360126447056 0 86.305360126447056 -52.841379950534488 0 0 0 0 -29.087355847819708 50.18071824702929 0 50.18071824702929 4.8202920990079292 0 0 0 0 -29.081756786094047 50.871066271189193 0 50.871066271189193 3.164961425572983 0 0 0 0 -10.061960285948317 67.148125797435199 0 67.148125797435199 41.601102925204387 0 0 0 0 -12.055928487359779 73.177762674577025 0 73.177762674577025 -28.862167043000227 0 0 0 0 -33.351353646843705 79.859908373965595 0 79.859908373965595 -54.367611925998148 0 0 0 0 -185.23606500917231 274.49988984382435 0 274.49988984382435 -264.51981710542168 0 0 0 0 -7.1349626356786757 65.420461232898916 0 65.420461232898916 -58.792470697783529 0 0 0 0 -161.70971467456548 172.88550135156402 0 172.88550135156402 -287.43844967851328 0 0 0 0 -26.70548849921704 45.886277023855641 0 45.886277023855641 65.883124886058084 0 0 0 0 -120.00085399940144 364.44203508163992 0 364.44203508163992 -236.82802624755641 0 0 0 0 -303.00083251371689 586.93242378382274 0 586.93242378382274 -501.64649867732078 0 0 0 0 83.256269463745411 500.26522715888495 0 500.26522715888495 -515.27681289159864 0 0 0 0 -49.064208097785013 145.87434372897451 0 145.87434372897451 -99.929867505401489 0 0 0 0 -66.456688519392628 144.64607706572133 0 144.64607706572133 19.069751158633153 0 0 0 0 -86.590064899239223 105.32229474316409 0 105.32229474316409 43.589930166892373 0 0 0 0 -97.169027933137841 129.81097961705927 0 129.81097961705927 13.546164883482561 0 0 0 0 -81.681927277237264 166.33563920875895 0 166.33563920875895 -34.588566500144225 0 0 0 0 9.6499765262694837 55.639208442491153 0 55.639208442491153 67.521140944854395 0 0 0 0 -36.136926612176467 110.76287874472109 0 110.76287874472109 -28.323732688441623 0 0 0 0 -95.918708578275982 468.82442593666201 0 468.82442593666201 -663.54613313680056 0 0 0 0 8.0831024578073993 326.78302664501098 0 326.78302664501098 -691.17964563912756 0 0 0 0 11.985247072832522 63.577746929532061 0 63.577746929532061 59.338907047341948 0 0 0 0 -96.359759952465538 337.81554714580125 0 337.81554714580125 -464.29192992266326 0 0 0 0 -150.79542552001658 335.67502419494849 0 335.67502419494849 -553.87293165182928 0 0 0 0 -163.56241272884654 280.62572733366687 0 280.62572733366687 -541.096173137493 0 0 0 0 -173.83913003193447 363.61779617874708 0 363.61779617874708 -582.44130695007334 0 0 0 0 -220.65435026181513 384.55598976385954 0 384.55598976385954 -539.67470116159529 0 0 0 0 -62.898873301513959 312.53135416763689 0 312.53135416763689 -569.23565071292978 0 0 0 0 -155.05447831307538 316.87464346378692 0 316.87464346378692 -441.66331146434823 0 0 0 0 -149.05945755389621 312.44359776846613 0 312.44359776846613 -542.01002217062342 0 0 0 0 -48.155519659485435 222.31466486689169 0 222.31466486689169 -377.83161950806971 0 0 0 0 -154.2990656751499 275.89872296935209 0 275.89872296935209 -247.72163815984095 0 0 0 0 -100.2383389610186 183.18743306524993 0 183.18743306524993 -225.34049209117074 0 0 0 0 -17.366407613713818 351.32344245190961 0 351.32344245190961 -463.79582204975304 0 0 0 0 109.21237393656338 161.23371398060408 0 161.23371398060408 298.72206957046728 0 0 0 0 -56.844609485880937 360.15748954121227 0 360.15748954121227 -26.030347491097928 0 0 0 0 183.21846505820577 263.68274840014055 0 263.68274840014055 -4.4331256182049401 0 0 0 0 -184.74884931423003 242.33179687269148 0 242.33179687269148 97.523275281891983 0 0 0 0 -9.4240766360308044 123.38775511587301 0 123.38775511587301 -141.34710046403052 0 0 0 0 18.126936448185006 408.16594393239211 0 408.16594393239211 333.25174223833892 0 0 0 0 52.500334415206453 145.48512722213491 0 145.48512722213491 137.01691116853908 0 0 0 0 423.24260335301369 283.85034456408175 0 283.85034456408175 318.14900609993492 0 0 0 0 -167.71633375555393 264.34733650831186 0 264.34733650831186 402.36658164537221 0 0 0 0 104.87126164892106 663.45333342579397 0 663.45333342579397 918.97597357287668 0 0 0 0 -22.610566222749185 184.15950356664325 0 184.15950356664325 626.25804066420824 0 0 0 0 -1702.3098695199151 1420.7256512678541 0 1420.7256512678541 1724.123415957245 0 0 0 0 83.918013383865855 638.04796001589079 0 638.04796001589079 355.2006018103275 0 0 0 0 -70.361449257868912 47.882780363729864 0 47.882780363729864 -29.269050706484322 0 0 0 0 -215.38632856021286 179.43017545617477 0 179.43017545617477 17.746339019413426 0 0 0 0 -252.42483148389147 621.06489221913216 0 621.06489221913216 -141.73856672181137 0 0 0 0 -514.53189836523234 -615.38325478393017 0 -615.38325478393017 -479.51575448529911 0 0 0 0 -764.57831564775552 -532.55809698257508 0 -532.55809698257508 870.91015112979221 0 0 0 0 -941.93151127331657 744.61673444094049 0 744.61673444094049 -1829.0331299780009 0 0 0 0 1043.6936670755094 704.79616074923615 0 704.79616074923615 -1228.6313628390999 0 0 0 0 1131.4176017888531 94.947654466344829 0 94.947654466344829 -972.42948621715186 0 0 0 0 -2025.9440238599491 -419.81674171736086 0 -419.81674171736086 24.26406462502564 0 0 0 0 -3446.2604469776852 -216.27906062835973 0 -216.27906062835973 66.65808751322038 0 0 0 0 -8.9521075841839775 12.550021542359445 0 12.550021542359445 -20.41225646717831 0 0 0 0 -552.20750456058886 1582.8400770609151 0 1582.8400770609151 -1465.3070973751092 0 0 0 0 -5.4648561069546417 4.7050635657195485 0 4.7050635657195485 2.2372918618418396 0 0 0 0 -1574.4562271750183 385.41605894707027 0 385.41605894707027 1463.4576727355161 0 0 0 0 -2252.0163233075873 1295.794610970006 0 1295.794610970006 -209.87409142905381 0 0 0 0 -2837.2030989688064 1484.5745095168531 0 1484.5745095168531 613.26515638030833 0 0 0 0 -1206.8382479298889 546.73276251060452 0 546.73276251060452 310.35610021538741 0 0 0 0 -484.50517466443125 1129.0948720212691 0 1129.0948720212691 322.10345412081892 0 0 0 0 -647.424431802865 156.62791288636072 0 156.62791288636072 -63.243842914824199 0 0 0 0 -651.56462206300057 124.99003827947217 0 124.99003827947217 -293.98446339067596 0 0 0 0 -599.03395775723038 383.23807078458412 0 383.23807078458412 -255.30197886031237 0 0 0 0 -792.08146874535305 281.33690978407685 0 281.33690978407685 -170.06448175403057 0 0 0 0 -892.46182035529273 681.56228888427086 0 681.56228888427086 -101.96731892034586 0 0 0 0 -367.89338853806839 674.24401754086284 0 674.24401754086284 -176.62194397395069 0 0 0 0 -971.16442618232395 1101.4166155924104 0 1101.4166155924104 363.24828572593833 0 0 0 0 -4.0538156171714377 24.544342833392136 0 24.544342833392136 5.1189302974767088 0 0 0 0 742.54497215445735 406.46408744971995 0 406.46408744971995 152.22027604000505 0 0 0 0 1548.3437906019353 583.23920422007586 0 583.23920422007586 -25.146680399731849 0 0 0 0 -19.446850492760547 56.495908299268251 0 56.495908299268251 -60.587844373129656 0 0 0 0 -250.91726634159568 262.51434732683265 0 262.51434732683265 -311.7091953254494 0 0 0 0 -283.88634098539478 218.20895519253827 0 218.20895519253827 -270.35865046079562 0 0 0 0 772.96013861715619 1523.3787740164589 0 1523.3787740164589 -241.57272050382744 0 0 0 0 -29.604532371880339 37.091540473042585 0 37.091540473042585 -45.289232258512953 0 0 0 0 -46.201065825967817 -346.80444061560411 0 -346.80444061560411 -523.14323854216127 0 0 0 0 1805.6806125204166 104.44340170281794 0 104.44340170281794 76.010432278257213 0 0 0 0 683.77716163505102 807.5401485755865 0 807.5401485755865 310.87169213609559 0 0 0 0 0.81581382740675679 -0.15898241235541377 0 -0.15898241235541377 3.823893788262211 0 0 0 0 3580.332391563943 336.91411282875379 0 336.91411282875379 -1390.7775075758836 0 0 0 0 -2945.3233356915734 899.10734603985793 0 899.10734603985793 567.02428240214067 0 0 0 0 -221.81695341010345 1267.9411923109365 0 1267.9411923109365 -832.59083782854577 0 0 0 0 344.42138466725009 105.61009423164796 0 105.61009423164796 244.14358406426982 0 0 0 0 -46.844938557332682 37.401562300485011 0 37.401562300485011 -22.617582440367755 0 0 0 0 837.47770842282989 957.28973632123234 0 957.28973632123234 -284.46087105360493 0 0 0 0 703.02182769909268 646.89122694030812 0 646.89122694030812 -507.91646228628451 0 0 0 0 -13.8944272190991 14.322226434342014 0 14.322226434342014 -11.248837110823473 0 0 0 0 -737.07068015853292 429.12070367658453 0 429.12070367658453 934.15461435842371 0 0 0 0 -92.153378029906889 -87.660528020693164 0 -87.660528020693164 689.21133691840805 0 0 0 0 200.56735137110263 -700.04259485043167 0 -700.04259485043167 -1941.3372946670788 0 0 0 0 -466.28428083477047 631.89105018041482 0 631.89105018041482 -1499.4600841538049 0 0 0 0 -1087.7251428607124 953.36108311900898 0 953.36108311900898 225.68048094677442 0 0 0 0 -1669.3038586949624 266.45853660571993 0 266.45853660571993 139.15078917962092 0 0 0 0 -823.4709639461289 -407.43967147403237 0 -407.43967147403237 -682.5357306018559 0 0 0 0 1790.3949053987453 1454.4892582561224 0 1454.4892582561224 -1679.9895152473082 0 0 0 0 -316.79274688797886 1567.9924891021074 0 1567.9924891021074 -530.35733401195466 0 0 0 0 329.87771872003214 392.11363371492916 0 392.11363371492916 204.2587395303417 0 0 0 0 -791.03928160722717 145.37464371503302 0 145.37464371503302 289.25924605556793 0 0 0 0 -103.05762355189654 699.23634157484776 0 699.23634157484776 225.42372602016076 0 0 0 0 -113.26322601674474 410.45819439664774 0 410.45819439664774 322.69984783250402 0 0 0 0 52.084624793293187 346.07983854701524 0 346.07983854701524 226.32598414353561 0 0 0 0 388.04148185817758 691.43748163255805 0 691.43748163255805 246.86378031800268 0 0 0 0 -364.65625823162554 -149.17846649804051 0 -149.17846649804051 8.509512647484371 0 0 0 0 -18.301418735647772 46.190892020610022 0 46.190892020610022 60.012639212661639 0 0 0 0 146.54478411799573 89.030859544807754 0 89.030859544807754 43.861699109285837 0 0 0 0 -387.16756330779754 -146.92661896812933 0 -146.92661896812933 20.482780705870482 0 0 0 0 -417.91349659077241 150.02491804095189 0 150.02491804095189 230.82856468855061 0 0 0 0 -240.95203170675086 14.32157366303727 0 14.32157366303727 75.074226902943337 0 0 0 0 -441.27016509613895 -117.19356940331818 0 -117.19356940331818 -67.809457560812007 0 0 0 0 -493.45689171503182 -40.109716728977219 0 -40.109716728977219 85.00668040405435 0 0 0 0 -639.45695921371225 17.439564867483568 0 17.439564867483568 -119.71973289792368 0 0 0 0 -551.57283393613761 -137.94892742764205 0 -137.94892742764205 143.22108472857144 0 0 0 0 -13.712920856160963 12.306160687153827 0 12.306160687153827 19.711273134736302 0 0 0 0 -453.16002993468101 -268.59115502107488 0 -268.59115502107488 -146.47984367002209 0 0 0 0 99.501858738585724 12.916756773785892 0 12.916756773785892 -241.82834670183365 0 0 0 0 -407.14291880646488 302.11410096041072 0 302.11410096041072 -462.26725177966 0 0 0 0 13.69006631927148 8.2443430349081552 0 8.2443430349081552 1.1370463566211697 0 0 0 0 -465.76130177090818 356.94312727484794 0 356.94312727484794 -328.80927126071401 0 0 0 0 -447.69926968004438 346.35889208303161 0 346.35889208303161 -322.78981890108844 0 0 0 0 85.658094930768129 267.37571514613956 0 267.37571514613956 -439.58144668046589 0 0 0 0 -442.29158740470666 276.24174133602173 0 276.24174133602173 -57.617556913231965 0 0 0 0 -474.67792463281876 405.81122234032409 0 405.81122234032409 -118.52735136083356 0 0 0 0 -67.505338253075024 52.65758767000807 0 52.65758767000807 19.101919934731086 0 0 0 0 -571.21842915641173 281.31407418418985 0 281.31407418418985 121.51886800824286 0 0 0 0 -714.88341667919303 259.25079785699927 0 259.25079785699927 118.81514594067085 0 0 0 0 -812.97574090590933 489.45156301759562 0 489.45156301759562 -57.617250863426307 0 0 0 0 -608.44803001146647 247.84145406768948 0 247.84145406768948 270.14032817128464 0 0 0 0 -802.11741697449179 294.38949158932519 0 294.38949158932519 331.06551375576237 0 0 0 0 -610.22376562820864 259.68496705085272 0 259.68496705085272 516.6276771324774 0 0 0 0 -129.95041260412836 53.825151842072046 0 53.825151842072046 273.06108134592068 0 0 0 0 -472.89246846080641 197.71313119566184 0 197.71313119566184 227.452065833495 0 0 0 0 -150.72422449295846 124.89071300066553 0 124.89071300066553 -17.272954789033975 0 0 0 0 -610.47861992695834 205.62909116771334 0 205.62909116771334 99.146100191901496 0 0 0 0 -469.30797493371392 179.57011514977421 0 179.57011514977421 100.07927448808914 0 0 0 0 -645.88056436050101 294.12693819172273 0 294.12693819172273 -116.88550075338571 0 0 0 0 -755.19397959722846 223.50959174085801 0 223.50959174085801 -113.75674402872392 0 0 0 0 -316.68727081891848 220.32445652659953 0 220.32445652659953 -234.71627936696984 0 0 0 0 -311.9928754245484 307.17838890540588 0 307.17838890540588 -336.62687443674076 0 0 0 0 -135.25559166473977 186.79676495104195 0 186.79676495104195 -261.27127292196383 0 0 0 0 -326.64683083174168 202.61000201935531 0 202.61000201935531 -50.964011471580307 0 0 0 0 -359.83871462162642 282.45341215573353 0 282.45341215573353 -235.66963604453485 0 0 0 0 -547.95970017727086 462.33977206329291 0 462.33977206329291 -472.23437319421646 0 0 0 0 1.6191721428768915 96.395671030342001 0 96.395671030342001 -109.00669553686201 0 0 0 0 -3201.003998048458 1328.8928314213661 0 1328.8928314213661 1097.3944863875972 0 0 0 0 -12.036482801835064 30.842810067936171 0 30.842810067936171 17.799887391937538 0 0 0 0 -636.42935409434722 127.4928431048902 0 127.4928431048902 -410.09214673905808 0 0 0 0 333.15027117931459 86.906220541315491 0 86.906220541315491 -602.58759825674611 0 0 0 0 98.165106528706019 1135.5869912184696 0 1135.5869912184696 -858.15517267018629 0 0 0 0 -617.79663425078797 295.56560327086117 0 295.56560327086117 53.346379867150972 0 0 0 0 -24.894350303894583 60.15905833450347 0 60.15905833450347 -46.5248691246005 0 0 0 0 -589.55468643946369 368.99205051816716 0 368.99205051816716 -186.29369296079676 0 0 0 0 -960.86049307985741 42.154272381154101 0 42.154272381154101 22.676065957422907 0 0 0 0 -9.9028515914206423 3.5230374334706909 0 3.5230374334706909 -3.8621860934453576 0 0 0 0 -1414.022693175677 831.52701343537001 0 831.52701343537001 -449.50608567507584 0 0 0 0 -412.32117217862105 842.9095008932909 0 842.9095008932909 -658.13091107180571 0 0 0 0 -752.30392209877027 1282.5838003818158 0 1282.5838003818158 -1215.8902671923688 0 0 0 0 -517.97126864246093 580.31915182267028 0 580.31915182267028 -1251.6315811182974 0 0 0 0 -324.32161110201559 830.53346352370545 0 830.53346352370545 -938.09567070692469 0 0 0 0 -732.76486672979081 287.04104942709182 0 287.04104942709182 -781.45702559067763 0 0 0 0 -1880.9679731332581 1507.848801829181 0 1507.848801829181 -829.65873218409331 0 0 0 0 -3282.6375924550084 418.79015095504269 0 418.79015095504269 -560.43142088808918 0 0 0 0 293.45304058966576 -871.61800484566959 0 -871.61800484566959 -1383.3500447349734 0 0 0 0 1127.9107915343047 447.79272543647835 0 447.79272543647835 -1316.6626280786181 0 0 0 0 -38.701166126294993 -259.76750277812425 0 -259.76750277812425 -905.3798170925229 0 0 0 0 -249.70900052097568 268.64764747160007 0 268.64764747160007 -614.1249462754331 0 0 0 0 4.7550977576591436 104.44578313455105 0 104.44578313455105 -89.563694577411695 0 0 0 0 448.98079537798185 895.62132419632292 0 895.62132419632292 -91.189161416663865 0 0 0 0 -268.44386332032445 270.34444546620216 0 270.34444546620216 -461.89911078117439 0 0 0 0 -10.605670787314011 249.00942027198937 0 249.00942027198937 -154.53765138390827 0 0 0 0 -28.613372498216677 20.276278042193006 0 20.276278042193006 19.102131970038069 0 0 0 0 -5.8327604779042304 -117.036637647107 0 -117.036637647107 6.153239506978025 0 0 0 0 -0.64317121713497727 10.264816573352078 0 10.264816573352078 -35.028147340512909 0 0 0 0 8.8586780514160637 106.50339114892859 0 106.50339114892859 -66.049641135008187 0 0 0 0 -160.22490212065168 58.381735913158991 0 58.381735913158991 -707.21570229588133 0 0 0 0 50.619361907418352 -223.24853192779756 0 -223.24853192779756 -528.42828005868387 0 0 0 0 498.17653418844566 87.942103873745054 0 87.942103873745054 -698.60222052954941 0 0 0 0 -63.353664905695041 61.644396443368692 0 61.644396443368692 60.793816989182233 0 0 0 0 -130.25141700956738 109.59805783126012 0 109.59805783126012 112.0804710562802 0 0 0 0 -82.874766313019791 4.6455194227569336 0 4.6455194227569336 154.16452525669047 0 0 0 0 -12.42340200500135 25.746839694080705 0 25.746839694080705 26.86797267046116 0 0 0 0 -32.77138126589125 31.004677890181256 0 31.004677890181256 20.397731013476005 0 0 0 0 -49.445916634523826 21.544285694280319 0 21.544285694280319 26.041839749157514 0 0 0 0 -19.900467556977674 97.537103218472112 0 97.537103218472112 -43.107974343532987 0 0 0 0 -27.341675505886087 55.532779616655716 0 55.532779616655716 12.83901622879057 0 0 0 0 12.151396072700294 40.542953746005225 0 40.542953746005225 63.291152270398157 0 0 0 0 -35.084358409629203 56.007432051519572 0 56.007432051519572 56.064260272571119 0 0 0 0 -124.11271500137809 98.116336923348626 0 98.116336923348626 81.321366040961038 0 0 0 0 -114.61230466695997 87.915862133405653 0 87.915862133405653 84.042811837375666 0 0 0 0 -146.68220736330841 86.306409021004129 0 86.306409021004129 161.78920410515639 0 0 0 0 -123.16501824501029 88.205763825626491 0 88.205763825626491 4.5875576196467591 0 0 0 0 -147.14313749043504 139.14241866900011 0 139.14241866900011 11.434870185361433 0 0 0 0 -155.88631882736809 95.123889646224143 0 95.123889646224143 91.28833393658897 0 0 0 0 -106.84313795444905 108.08807161858749 0 108.08807161858749 -69.472126039261639 0 0 0 0 -143.14009434233594 89.829707311176662 0 89.829707311176662 181.15075594345171 0 0 0 0 -150.0860101783046 92.918558784033962 0 92.918558784033962 107.73268501023267 0 0 0 0 -121.84298880310962 75.636447313426288 0 75.636447313426288 93.14147891937364 0 0 0 0 -57.173771655363566 -2.5856994002122775 0 -2.5856994002122775 3.9382737768585461 0 0 0 0 -626.23009842942702 -234.85568721581558 0 -234.85568721581558 99.701967756345539 0 0 0 0 -149.55376049596089 4.4424636606267995 0 4.4424636606267995 261.1405189312095 0 0 0 0 -155.94830273125262 274.01913428628131 0 274.01913428628131 -246.5562981147757 0 0 0 0 -539.76845256763045 883.67957467784686 0 883.67957467784686 -629.66514910934347 0 0 0 0 -37.778699632168696 -2.3902609466652791 0 -2.3902609466652791 3.1358311971195745 0 0 0 0 -539.14695011135336 896.03010568124364 0 896.03010568124364 -644.06402795170015 0 0 0 0 -65.039007699138892 -124.94844995834086 0 -124.94844995834086 394.36930150824583 0 0 0 0 -100.48849580858951 119.81738098862138 0 119.81738098862138 237.00708405589194 0 0 0 0 -205.12780785013456 9.4842000151788852 0 9.4842000151788852 137.35801925233136 0 0 0 0 -300.06446141400374 185.02807607073919 0 185.02807607073919 143.54280726813286 0 0 0 0 -178.04594453872414 190.93110263604194 0 190.93110263604194 69.355006970545901 0 0 0 0 -98.537988446332747 185.15817955222155 0 185.15817955222155 -2.2107882541140498 0 0 0 0 -163.91666142347094 143.48630070371337 0 143.48630070371337 -201.31087090818073 0 0 0 0 -282.76501477464626 149.76233288304775 0 149.76233288304775 -7.1704974041931564 0 0 0 0 -27.861207152447605 104.26728996225825 0 104.26728996225825 613.12652112692558 0 0 0 0 -22.045894103153842 87.671733956027765 0 87.671733956027765 399.70707366849729 0 0 0 0 254.9168660400901 -176.66390383431826 0 -176.66390383431826 -196.56093735488503 0 0 0 0 -294.24629064252804 321.12158535555477 0 321.12158535555477 -51.274139133084191 0 0 0 0 -229.22709684248548 382.95608444178242 0 382.95608444178242 -238.51842251079574 0 0 0 0 15.84995184318052 22.344706618201059 0 22.344706618201059 26.600644224730374 0 0 0 0 -59.664427745126886 -66.376684425266774 0 -66.376684425266774 478.62869227481946 0 0 0 0 -223.26386039025965 121.15763724414057 0 121.15763724414057 453.28574796441677 0 0 0 0 -31.096499116130872 33.290393488647624 0 33.290393488647624 488.16258403145821 0 0 0 0 -156.33109447336756 -36.158052512948871 0 -36.158052512948871 818.42991855547393 0 0 0 0 -16.28581509229025 -351.41512870843002 0 -351.41512870843002 1935.960471590887 0 0 0 0 -502.96179668389959 286.90933403880354 0 286.90933403880354 521.31012200368605 0 0 0 0 -521.82421163051549 325.50397935428009 0 325.50397935428009 531.20595201031392 0 0 0 0 -429.36582345458737 202.22841714921788 0 202.22841714921788 605.81351044547387 0 0 0 0 -453.70254059709259 300.76295643971707 0 300.76295643971707 489.24621307608845 0 0 0 0 -207.22793691862171 154.4130039744033 0 154.4130039744033 497.67895993856382 0 0 0 0 -365.63516817879599 242.66912569237374 0 242.66912569237374 466.98769339850151 0 0 0 0 -365.79283837295952 228.30139075967554 0 228.30139075967554 476.25572115034902 0 0 0 0 -104.87937304027582 226.12394399461891 0 226.12394399461891 399.35211988737137 0 0 0 0 -314.05119973694673 231.36929849461649 0 231.36929849461649 377.99566900750642 0 0 0 0 -421.15150879172143 300.36948880712862 0 300.36948880712862 410.15037016575207 0 0 0 0 -419.20514276492941 331.56468881211561 0 331.56468881211561 401.2088939190271 0 0 0 0 -527.31625815870939 362.94111706840431 0 362.94111706840431 503.47474740925645 0 0 0 0 -378.67653680717922 368.98963009146701 0 368.98963009146701 375.26735497385653 0 0 0 0 -343.55383040868037 305.25534936675467 0 305.25534936675467 194.42250671561305 0 0 0 0 -236.40402197180083 298.32409954113973 0 298.32409954113973 192.92107455020687 0 0 0 0 -219.10296023954288 203.20938895487507 0 203.20938895487507 -22.290801203653245 0 0 0 0 -263.5647004685743 380.22335438583377 0 380.22335438583377 -35.705224734625517 0 0 0 0 -145.85629897471517 324.12755698518504 0 324.12755698518504 -31.8754776609494 0 0 0 0 -248.69184155957191 80.877011482489252 0 80.877011482489252 316.77474611804064 0 0 0 0 -312.84615381108597 222.11993707568126 0 222.11993707568126 456.56585126909431 0 0 0 0 -283.74952226997993 204.71756138305955 0 204.71756138305955 219.75161665617634 0 0 0 0 -219.92206819699641 60.533734515382548 0 60.533734515382548 -96.094508436210162 0 0 0 0 -216.16916988851153 165.83741806763828 0 165.83741806763828 213.01113937479636 0 0 0 0 -3.1130282444435409 -1.8371923284169895 0 -1.8371923284169895 5.3185198690229321 0 0 0 0 -172.24135957352701 254.08132839430186 0 254.08132839430186 -55.8006007015656 0 0 0 0 48.553550923606963 132.38860859709166 0 132.38860859709166 -47.890135449912577 0 0 0 0 21.754133391617188 30.359999660333116 0 30.359999660333116 39.802740035689368 0 0 0 0 9.2514978377492127 5.2736039187263941 0 5.2736039187263941 0.12912635135737816 0 0 0 0 -148.57965895245434 214.85847968213238 0 214.85847968213238 -62.375315812083954 0 0 0 0 -193.41231185814831 197.05877562820569 0 197.05877562820569 -56.658334334308165 0 0 0 0 -129.95914493947203 175.83711339509409 0 175.83711339509409 -92.783511510642711 0 0 0 0 -168.71679641903029 112.47011179339461 0 112.47011179339461 -67.411157989721687 0 0 0 0 -94.094349057006184 174.24372258548101 0 174.24372258548101 -97.931207060886663 0 0 0 0 -21.547285115579143 122.01673142180516 0 122.01673142180516 -88.574450455838814 0 0 0 0 -16.769033996488076 0.95313501362103636 0 0.95313501362103636 18.249872445058763 0 0 0 0 -101.50039777555503 197.08759806443186 0 197.08759806443186 -107.28425665398845 0 0 0 0 -65.159620122904016 299.23405255463058 0 299.23405255463058 -287.12929532052658 0 0 0 0 -47.275625636946643 244.3268837573778 0 244.3268837573778 -118.71735410477959 0 0 0 0 -144.44837655569427 283.46961803885642 0 283.46961803885642 -131.46981055617653 0 0 0 0 -93.061639258899959 213.65499974298473 0 213.65499974298473 -125.33502226337441 0 0 0 0 -100.41099988794303 207.90851739890422 0 207.90851739890422 -94.325935557841149 0 0 0 0 -121.92951950550196 234.53409478191861 0 234.53409478191861 -62.956472082832988 0 0 0 0 -58.032460059752339 152.22118001798481 0 152.22118001798481 -137.92216195501169 0 0 0 0 -88.650879062712193 152.1333564388915 0 152.1333564388915 -40.866457597272529 0 0 0 0 -76.38856618112186 200.01054783418294 0 200.01054783418294 9.9676974914319771 0 0 0 0 -69.260400102823041 125.49608587663351 0 125.49608587663351 -10.326452150027762 0 0 0 0 -37.45743800541095 127.18525283089184 0 127.18525283089184 -225.29790252518069 0 0 0 0 114.44923045170435 76.226690567005789 0 76.226690567005789 -1003.302083446883 0 0 0 0 -134.955758853117 370.00260633724065 0 370.00260633724065 -153.46946905150799 0 0 0 0 -90.210791086748941 474.03909965754588 0 474.03909965754588 -165.51727504610062 0 0 0 0 -838.35214308690774 1013.2984791947669 0 1013.2984791947669 -92.214427893826723 0 0 0 0 -274.10330337769119 888.664495872511 0 888.664495872511 -795.9855567893535 0 0 0 0 -503.9196464077686 594.39831845490426 0 594.39831845490426 194.37017340347529 0 0 0 0 -503.89115549859343 467.88437825607616 0 467.88437825607616 617.00822667759348 0 0 0 0 -565.46465236145013 733.66236728329704 0 733.66236728329704 537.03865707662408 0 0 0 0 -346.90730496839387 642.39098044824732 0 642.39098044824732 -144.22656823215891 0 0 0 0 -539.75982268703228 685.97282261315559 0 685.97282261315559 313.73014454193799 0 0 0 0 -263.34948507703666 469.10443652844879 0 469.10443652844879 214.88404164104941 0 0 0 0 -521.22089812849299 490.20560690845332 0 490.20560690845332 462.47192637663829 0 0 0 0 -421.34491636759776 451.95996403131039 0 451.95996403131039 226.89826349807663 0 0 0 0 -540.16642362336279 388.89667880030129 0 388.89667880030129 541.5534810222548 0 0 0 0 -523.1890076182317 497.65306342339682 0 497.65306342339682 435.51572641031271 0 0 0 0 -521.91320307800197 415.89656155501962 0 415.89656155501962 734.71873314092682 0 0 0 0 -441.89730750823219 494.77974010018806 0 494.77974010018806 810.70343754462283 0 0 0 0 -589.80231547854783 532.06222096660576 0 532.06222096660576 621.48768053494132 0 0 0 0 -495.01209008118894 352.96286573754242 0 352.96286573754242 664.70044540252547 0 0 0 0 -556.85300068525248 328.09411736912807 0 328.09411736912807 734.90060756395656 0 0 0 0 -383.02194499135658 173.06361756142041 0 173.06361756142041 949.9107350105478 0 0 0 0 -422.64845089431037 158.23256287307947 0 158.23256287307947 721.36982108160419 0 0 0 0 -563.6733021629334 286.03154315252993 0 286.03154315252993 497.66842137426215 0 0 0 0 -491.58627520593291 297.39036309476108 0 297.39036309476108 455.91043832566095 0 0 0 0 -581.31668863582308 286.6467941105243 0 286.6467941105243 634.36174996445743 0 0 0 0 -576.77103564000572 384.36075710644923 0 384.36075710644923 576.89912023214401 0 0 0 0 637.92143035391928 643.57259069779593 0 643.57259069779593 1064.7466642765744 0 0 0 0 1062.8319314614637 746.3369633833172 0 746.3369633833172 920.30257389499002 0 0 0 0 1067.5198097880057 1347.8216872458815 0 1347.8216872458815 1496.2484354135495 0 0 0 0 389.73291193897603 1563.1265439127937 0 1563.1265439127937 2086.7581236077203 0 0 0 0 425.61492931390967 1184.7104896102546 0 1184.7104896102546 1816.6073746442926 0 0 0 0 545.13750526914373 788.55866260851053 0 788.55866260851053 1170.0634550226023 0 0 0 0 450.66620315087494 814.84700053468623 0 814.84700053468623 1181.7765715491932 0 0 0 0 376.08391873058281 535.10034574510496 0 535.10034574510496 587.36571877001597 0 0 0 0 237.29112452827394 417.19877144357542 0 417.19877144357542 787.17385400003877 0 0 0 0 147.09344780326501 741.37067321266068 0 741.37067321266068 1234.9603896876215 0 0 0 0 434.67216911797004 231.21516555656922 0 231.21516555656922 347.45652831822645 0 0 0 0 257.2794259035436 364.1383037253845 0 364.1383037253845 752.83925621823812 0 0 0 0 580.14151210999626 408.07546475434361 0 408.07546475434361 716.25872193220494 0 0 0 0 80.135936338920146 264.07549517342943 0 264.07549517342943 425.40469282715185 0 0 0 0 161.51445377554046 100.66941921100261 0 100.66941921100261 720.24151066771356 0 0 0 0 -116.94974663239555 64.209317679106789 0 64.209317679106789 727.20287030904967 0 0 0 0 0.1637287964404095 -5.6250030996425266 0 -5.6250030996425266 1103.2310322660251 0 0 0 0 -173.49204260006081 258.43482681092519 0 258.43482681092519 718.64816522561591 0 0 0 0 311.49443920172052 278.32069054273961 0 278.32069054273961 733.24636071366592 0 0 0 0 606.63474797389063 32.576917705412683 0 32.576917705412683 906.66745922193149 0 0 0 0 1314.5762285445235 88.973450491450421 0 88.973450491450421 909.50498735615918 0 0 0 0 181.89486034012225 -69.952309777699156 0 -69.952309777699156 1691.5768373693918 0 0 0 0 -282.51594286311592 252.774015686251 0 252.774015686251 1108.4806181317472 0 0 0 0 -24.25488835136639 384.36470598231608 0 384.36470598231608 1006.3683849805325 0 0 0 0 -248.25329010502901 706.73113091554842 0 706.73113091554842 840.13512666709903 0 0 0 0 258.65678011107957 803.84427775890072 0 803.84427775890072 1376.1351967590558 0 0 0 0 80.026575558556942 413.70899140113306 0 413.70899140113306 531.84665173100802 0 0 0 0 6.5493127328113587 7.1787060546946293 0 7.1787060546946293 10.59261743636452 0 0 0 0 -94.078963235733681 423.91394986654632 0 423.91394986654632 895.43574151981556 0 0 0 0 799.30526224846108 504.79119732339745 0 504.79119732339745 312.21313772430221 0 0 0 0 1377.3897755994494 731.13011901521793 0 731.13011901521793 670.38998853040903 0 0 0 0 -4.6196687500960252 -53.299890281545231 0 -53.299890281545231 66.320139079563887 0 0 0 0 595.55324178219962 -213.34717086288072 0 -213.34717086288072 69.113536587561612 0 0 0 0 -216.17091687230277 604.74683885051491 0 604.74683885051491 148.85304423299567 0 0 0 0 -277.44471490863361 553.7927017457414 0 553.7927017457414 517.75886431898527 0 0 0 0 246.31388945343497 13.153300150935138 0 13.153300150935138 -118.54834101608321 0 0 0 0 -114.64103896267625 -0.92678315156854296 0 -0.92678315156854296 -870.03075670490762 0 0 0 0 -1027.8444428058028 357.3626893251278 0 357.3626893251278 89.646225008011243 0 0 0 0 119.4502356753801 363.59924028182286 0 363.59924028182286 -377.49658638852225 0 0 0 0 -358.43196643747069 933.98018317587844 0 933.98018317587844 -721.88519418884425 0 0 0 0 118.78820676356554 676.993991788725 0 676.993991788725 -1136.6460835356875 0 0 0 0 -1039.8522566515421 -9.741015891751772 0 -9.741015891751772 479.40981653190283 0 0 0 0 154.54902536017471 -30.372485511622472 0 -30.372485511622472 27.364340725326656 0 0 0 0 -259.21376500812767 870.37579791536882 0 870.37579791536882 -724.23685380912923 0 0 0 0 -613.25844178983971 681.65871454343414 0 681.65871454343414 -583.96965328041915 0 0 0 0 -7.2199240252147661 6.3495888381749523 0 6.3495888381749523 -8.4012676471988676 0 0 0 0 -491.56401030320558 -55.877837806389834 0 -55.877837806389834 81.305582986304216 0 0 0 0 -45.30549173939653 88.403763297465048 0 88.403763297465048 -50.889774332641537 0 0 0 0 -43.956693604501197 132.88163382603852 0 132.88163382603852 -16.910503400187736 0 0 0 0 -0.42602285998873413 30.159236757540384 0 30.159236757540384 10.458336007843172 0 0 0 0 -16.839175386577324 26.384070726085561 0 26.384070726085561 -3.8278570819510449 0 0 0 0 -41.777046439950936 65.871698669081525 0 65.871698669081525 47.099625257853404 0 0 0 0 -157.84291027591098 -3.4068771594593272 0 -3.4068771594593272 24.782398179939264 0 0 0 0 -41.78426834687491 65.016331677968566 0 65.016331677968566 -53.574467686266871 0 0 0 0 -184.51838060341106 20.219475449292531 0 20.219475449292531 89.024569149827585 0 0 0 0 -200.77337978981086 10.788883699209691 0 10.788883699209691 85.144856347531459 0 0 0 0 -8.5982607645421467 0.16324615870458103 0 0.16324615870458103 32.610493690358595 0 0 0 0 -43.832728247045452 18.405173691807931 0 18.405173691807931 63.484395185099856 0 0 0 0 -29.924194289051229 73.647429416276282 0 73.647429416276282 58.16798215664312 0 0 0 0 -18.845327974539089 55.849465401764547 0 55.849465401764547 9.3569133523543755 0 0 0 0 -7.6625592638156377 36.095045397310059 0 36.095045397310059 -2.4475886099517083 0 0 0 0 -6.4761737543313984 30.933391784631027 0 30.933391784631027 -29.659442238727646 0 0 0 0 -6.4508971211680546 27.080863395191635 0 27.080863395191635 8.4862549270290462 0 0 0 0 17.955545225278911 26.23947968659462 0 26.23947968659462 -77.799033632489227 0 0 0 0 12.491848107310375 69.233769957080341 0 69.233769957080341 10.361775030253085 0 0 0 0 21.710005710227932 48.774189913992842 0 48.774189913992842 -46.369497146496116 0 0 0 0 3.8223409681522753 55.168930972184171 0 55.168930972184171 -63.834957611310529 0 0 0 0 -1.1328007053054421 51.400294661784528 0 51.400294661784528 -6.2333674223269355 0 0 0 0 15.694911385304295 94.309349842325901 0 94.309349842325901 -52.978739946898713 0 0 0 0 -36.29771571746096 78.243670462805312 0 78.243670462805312 -57.469751066717436 0 0 0 0 -27.686292715196032 118.2238870312558 0 118.2238870312558 -36.397304952704872 0 0 0 0 -213.26685498622828 355.03415911261982 0 355.03415911261982 -498.14362301229266 0 0 0 0 -101.79568761900009 323.47554956384556 0 323.47554956384556 -511.0917790584208 0 0 0 0 12.267317936172105 14.996541059859211 0 14.996541059859211 -18.222659851831253 0 0 0 0 -240.32661401716177 329.45779849553946 0 329.45779849553946 -339.64035740408872 0 0 0 0 -26.364716026891074 67.096441483784602 0 67.096441483784602 42.132204039898298 0 0 0 0 -34.254426125989994 113.68672480950772 0 113.68672480950772 -36.506706009196932 0 0 0 0 -33.712199485205929 115.95026272106952 0 115.95026272106952 -40.344533932413469 0 0 0 0 -11.308791464951355 215.35573271306203 0 215.35573271306203 63.927276886343861 0 0 0 0 -230.02883806778118 478.23426998138893 0 478.23426998138893 -608.44675252470188 0 0 0 0 -35.776180950050502 116.91222465729723 0 116.91222465729723 -35.91493592493498 0 0 0 0 -34.878320298499602 112.3699109637073 0 112.3699109637073 -39.271390487556346 0 0 0 0 -20.578539815673139 108.55461140811713 0 108.55461140811713 -101.99362431688132 0 0 0 0 -31.255328525482128 58.446870539554858 0 58.446870539554858 65.568262736165693 0 0 0 0 7.6354586006225134 25.568963728766221 0 25.568963728766221 -2.1879012087680181 0 0 0 0 -336.80702012641711 -330.28498086693861 0 -330.28498086693861 310.81597061601133 0 0 0 0 0.29950228692280234 4.0687818940641876 0 4.0687818940641876 8.8047538678442834 0 0 0 0 -1183.3238408422694 615.01546753885668 0 615.01546753885668 193.52477475591877 0 0 0 0 -333.16022743444 288.38286736624798 0 288.38286736624798 26.262751200581988 0 0 0 0 18.179999242049234 249.158467824328 0 249.158467824328 85.934899185900576 0 0 0 0 -120.89883110574738 173.96468778292183 0 173.96468778292183 429.65612275508101 0 0 0 0 79.04304906737525 10.465674077935546 0 10.465674077935546 -77.413791713870751 0 0 0 0 -71.974507017555879 318.97313994639626 0 318.97313994639626 4.0250213687795622 0 0 0 0 -193.86532902915496 493.77638303723143 0 493.77638303723143 -113.12871959795848 0 0 0 0 211.02435933670495 532.39726473169594 0 532.39726473169594 -34.826646634201097 0 0 0 0 78.342140009219293 272.62548893511484 0 272.62548893511484 25.367384464540692 0 0 0 0 -223.79564431609469 349.99912510830109 0 349.99912510830109 -83.54245197692012 0 0 0 0 -257.79828575529973 432.30661601326756 0 432.30661601326756 28.140821217657503 0 0 0 0 -470.91786627233887 449.13551885955007 0 449.13551885955007 47.551650275203428 0 0 0 0 -494.68028165432042 350.28236340585499 0 350.28236340585499 67.884796636932151 0 0 0 0 -419.23014136936399 287.63552017985057 0 287.63552017985057 -19.651618621122907 0 0 0 0 -430.25802944399766 355.06483276821018 0 355.06483276821018 68.193553949966372 0 0 0 0 -227.26034828874981 374.10291642814627 0 374.10291642814627 -139.34366948136449 0 0 0 0 -431.95204536883102 343.4485749611049 0 343.4485749611049 -8.5898712834095932 0 0 0 0 -202.87572786392411 336.87172392200046 0 336.87172392200046 -53.261879525874974 0 0 0 0 -214.16524793388089 413.3423796381403 0 413.3423796381403 -30.142072998824005 0 0 0 0 128.22679867756233 305.12516644996322 0 305.12516644996322 -42.024299264718138 0 0 0 0 -50.375195196451386 472.89520540645935 0 472.89520540645935 -19.461231669034532 0 0 0 0 88.767220930538315 438.07254954237669 0 438.07254954237669 -127.24579750150588 0 0 0 0 101.27438142894607 376.12584876334336 0 376.12584876334336 31.820093998423545 0 0 0 0 107.16657916811528 271.43253605442442 0 271.43253605442442 69.292600672000844 0 0 0 0 -294.56900999226036 100.19262338554812 0 100.19262338554812 -54.602286362292034 0 0 0 0 -45.790822736177404 50.202297223389934 0 50.202297223389934 -53.511476254058081 0 0 0 0 -295.37518665238167 78.480449532069542 0 78.480449532069542 -262.84861391936329 0 0 0 0 -349.5319321717725 23.32450018247664 0 23.32450018247664 4.6966846514160352 0 0 0 0 -350.80904785150778 11.010845126051208 0 11.010845126051208 -91.498838707663708 0 0 0 0 -11.100270366185669 30.009216465951283 0 30.009216465951283 -69.018156045838083 0 0 0 0 772.66446017242561 623.18311146657379 0 623.18311146657379 -23.891391770563132 0 0 0 0 540.70000111171976 223.97991837910467 0 223.97991837910467 -112.12799230668679 0 0 0 0 375.7727678836236 357.36844918462657 0 357.36844918462657 -245.0350446694647 0 0 0 0 679.86067002799246 177.77305802738238 0 177.77305802738238 -418.231009485291 0 0 0 0 1043.9634471179888 -105.83656690569524 0 -105.83656690569524 -227.36214458396671 0 0 0 0 405.25959756867815 216.51768912733746 0 216.51768912733746 408.19554233036979 0 0 0 0 106.13882803512388 94.661957459307814 0 94.661957459307814 -22.730427010808853 0 0 0 0 -316.05840494185395 -78.435171346259267 0 -78.435171346259267 -71.633476400517793 0 0 0 0 1030.9419808285497 709.44723299348118 0 709.44723299348118 -540.42221550614886 0 0 0 0 -573.40815356540406 -115.90532233063277 0 -115.90532233063277 46.357349122834421 0 0 0 0 -7.6442528560992855 20.113873060326341 0 20.113873060326341 -46.518118304071933 0 0 0 0 503.12151086139784 205.92360030801319 0 205.92360030801319 674.97160412618814 0 0 0 0 705.62052025913727 -118.88035077424411 0 -118.88035077424411 284.60263699434154 0 0 0 0 518.16031125074369 210.02181218762175 0 210.02181218762175 366.99637609559318 0 0 0 0 -6.059264321746582 1.0932213514394959 0 1.0932213514394959 -2.0677823878630575 0 0 0 0 -10.677645525458502 242.51773971467816 0 242.51773971467816 -424.12997017023861 0 0 0 0 454.95706620143028 45.239340122469628 0 45.239340122469628 27.734858251517608 0 0 0 0 -10.955361932580104 25.145435486184255 0 25.145435486184255 -15.705758848238169 0 0 0 0 58.506578014770639 -107.03621113463745 0 -107.03621113463745 -373.62575801962822 0 0 0 0 57.437651938098497 41.261629855131247 0 41.261629855131247 -286.54609688009168 0 0 0 0 -63.990295161405811 -74.514026485007435 0 -74.514026485007435 -333.35161977462076 0 0 0 0 120.03760692555807 1.6291932591720979 0 1.6291932591720979 -562.67623256633124 0 0 0 0 -44.768245972314617 481.64265896404277 0 481.64265896404277 -328.79148943322616 0 0 0 0 -452.22569390723947 822.97368524993453 0 822.97368524993453 -1017.5879732058729 0 0 0 0 -94.843053995035007 -252.76832314679723 0 -252.76832314679723 -1317.4216622540796 0 0 0 0 -5.1452178319808013 6.6545137138476633 0 6.6545137138476633 -9.4946132248433521 0 0 0 0 -572.48234425596274 337.40003212753402 0 337.40003212753402 157.91421709708084 0 0 0 0 147.48357885226142 129.40660010990359 0 129.40660010990359 -255.32850563046031 0 0 0 0 126.15481782989809 -43.130019922748943 0 -43.130019922748943 -193.26536133584818 0 0 0 0 146.32361891793335 145.05962066913764 0 145.05962066913764 -2.8664574640515639 0 0 0 0 22.492817925964573 27.450110237383939 0 27.450110237383939 14.330274454946906 0 0 0 0 6.0805261719069676 89.533792706958138 0 89.533792706958138 -35.276378910286439 0 0 0 0 124.42070279568725 -36.064213495987133 0 -36.064213495987133 -13.257523116152015 0 0 0 0 1.4423310386963522 31.458089150424144 0 31.458089150424144 -20.257067744456712 0 0 0 0 -6.4652357894810848 73.049600756152358 0 73.049600756152358 -2.6831982047733618 0 0 0 0 13.598735355160898 61.960129962645169 0 61.960129962645169 -56.031873333387921 0 0 0 0 23.483460642572027 79.884673296403889 0 79.884673296403889 -26.885100380477525 0 0 0 0 38.856940544355894 62.984324099763398 0 62.984324099763398 -22.602103159944818 0 0 0 0 38.722660827159416 76.155977485199401 0 76.155977485199401 -28.282557022794208 0 0 0 0 -6.2369239898980595 48.072526499344349 0 48.072526499344349 -46.628274869519373 0 0 0 0 23.603432220174 48.896868387073482 0 48.896868387073482 -40.008772971934377 0 0 0 0 41.186164987331722 66.126620433572498 0 66.126620433572498 -44.886197100073332 0 0 0 0 4.9533105532173067 -20.365947275867256 0 -20.365947275867256 -210.06106755989032 0 0 0 0 -8.7059535597800277 63.281644693003727 0 63.281644693003727 -176.0267959153316 0 0 0 0 -1.8120343434857205 26.710019643205669 0 26.710019643205669 -206.6503847155218 0 0 0 0 7.2683323493411081 8.7020076566646551 0 8.7020076566646551 -3.5403203523587514 0 0 0 0 -21.640059419267345 -31.567449414801558 0 -31.567449414801558 -119.57083859994918 0 0 0 0 10.288999483338557 -4.7380795477729407 0 -4.7380795477729407 -134.89795424981821 0 0 0 0 -8.3972501251528229 74.406668705817339 0 74.406668705817339 -116.33896939406077 0 0 0 0 -10.8432226832374 12.185140705046251 0 12.185140705046251 -107.12566194447936 0 0 0 0 5.4517700495780446 65.430502181873635 0 65.430502181873635 -54.697715392423561 0 0 0 0 32.367235515208449 47.072581963715493 0 47.072581963715493 -89.063412634875931 0 0 0 0 32.02781412776676 36.277863032022651 0 36.277863032022651 -43.598935696452827 0 0 0 0 15.391379740962293 8.3167821941678994 0 8.3167821941678994 -78.436019641165331 0 0 0 0 40.512709282367723 21.033316382471639 0 21.033316382471639 -78.904803994175381 0 0 0 0 -9.9432936797384173 -8.2937136492919308 0 -8.2937136492919308 -92.022909206978966 0 0 0 0 16.651911081542494 16.974645455402424 0 16.974645455402424 -107.40742693191351 0 0 0 0 25.919228487546206 -13.769333766588488 0 -13.769333766588488 -106.07325713834371 0 0 0 0 17.607315541886635 11.858227656579658 0 11.858227656579658 -6.6932455071124579 0 0 0 0 897.63764194054238 544.46258481534915 0 544.46258481534915 1587.8187475784052 0 0 0 0 1542.4030362449703 1466.5895821865201 0 1466.5895821865201 1385.3239774884819 0 0 0 0 -958.46305651054718 390.52566916424621 0 390.52566916424621 1624.317924729763 0 0 0 0 -460.86136136972345 1216.4916583923568 0 1216.4916583923568 2706.202543356756 0 0 0 0 -1081.5536313483317 1322.6749114306967 0 1322.6749114306967 1527.1183243749801 0 0 0 0 -485.04914927465143 390.68039145417288 0 390.68039145417288 779.9414081904979 0 0 0 0 -84.998529168748064 380.09029240666678 0 380.09029240666678 721.32906706504309 0 0 0 0 -404.27238024945837 647.73995707828681 0 647.73995707828681 1506.5436868540046 0 0 0 0 -393.7016624204698 632.52253263127932 0 632.52253263127932 1509.9593004300036 0 0 0 0 -186.31105617125286 1119.5444203750067 0 1119.5444203750067 2208.0614292172286 0 0 0 0 -305.68943063399638 867.18768514446583 0 867.18768514446583 2094.338805920539 0 0 0 0 68.043922919314355 716.38815118860111 0 716.38815118860111 1256.542403093712 0 0 0 0 -556.53474799147807 380.092180650503 0 380.092180650503 2632.855528385403 0 0 0 0 587.1335490726633 890.10642354676656 0 890.10642354676656 1521.3112772478817 0 0 0 0 -653.50505353242625 845.06006034365237 0 845.06006034365237 2063.7953590003453 0 0 0 0 77.829517923324602 33.944403589784642 0 33.944403589784642 -55.045244224115095 0 0 0 0 26.834041476767936 16.15924027099787 0 16.15924027099787 -11.60965664978746 0 0 0 0 93.511747105105314 94.993783113084646 0 94.993783113084646 -10.494198857299125 0 0 0 0 93.511747104697861 94.99378311309556 0 94.99378311309556 -10.494198857282754 0 0 0 0 93.511747104872484 94.993783113127392 0 94.993783113127392 -10.494198857275478 0 0 0 0 -28.21677031285995 42.271614330880766 0 42.271614330880766 -11.206867251400613 0 0 0 0 198.01734596653841 150.08680169880282 0 150.08680169880282 -83.100663238672908 0 0 0 0 69.523101352067897 10.914413268133302 0 10.914413268133302 -11.548139219134022 0 0 0 0 22.767393572808942 -28.277046271104155 0 -28.277046271104155 -82.959370354461498 0 0 0 0 -3.5915423238911899 1.3345771920653533 0 1.3345771920653533 -35.219664706746698 0 0 0 0 19.75420071114786 52.565902721182283 0 52.565902721182283 -17.912511215652557 0 0 0 0 88.871826114191208 49.524845020822795 0 49.524845020822795 -50.318852458669426 0 0 0 0 69.845390124995902 54.020332982178161 0 54.020332982178161 -38.659954161794303 0 0 0 0 77.21397083014017 25.334049399538344 0 25.334049399538344 -54.922972529804611 0 0 0 0 40.761353413923644 5.4106309137941935 0 5.4106309137941935 -36.041011940702447 0 0 0 0 60.033563989854883 58.416102956269242 0 58.416102956269242 -40.818231518263929 0 0 0 0 45.339530493249185 55.031045720446855 0 55.031045720446855 -23.203643593897141 0 0 0 0 64.221041509517818 38.880041945984431 0 38.880041945984431 46.961398266492324 0 0 0 0 150.81542672478827 38.1927544345981 0 38.1927544345981 -49.722732535836258 0 0 0 0 44.629750648804475 25.4351534454144 0 25.4351534454144 -29.606110934542016 0 0 0 0 26.363721315068005 16.617793801625577 0 16.617793801625577 -20.195556187822433 0 0 0 0 11.230506483252441 8.6629227996669442 0 8.6629227996669442 -32.736556626430513 0 0 0 0 25.816723135793154 21.26623465269833 0 21.26623465269833 -33.297528422286646 0 0 0 0 25.220505051867804 36.209375706799392 0 36.209375706799392 -4.1673652458903234 0 0 0 0 49.776442369187862 41.066034816898537 0 41.066034816898537 -21.24735783739834 0 0 0 0 137.52890877716709 89.212887427722308 0 89.212887427722308 -49.291391015191039 0 0 0 0 47.624275339228916 30.962074407911086 0 30.962074407911086 -29.597319658810989 0 0 0 0 -400.9739200003969 1105.7439601268561 0 1105.7439601268561 472.81097182085341 0 0 0 0 25.96328108927537 30.70496143601148 0 30.70496143601148 -3.1169033056921762 0 0 0 0 895.71434463420883 177.73970759984968 0 177.73970759984968 -553.80794607521602 0 0 0 0 276.9027733290568 42.8753752314351 0 42.8753752314351 1011.4188199422088 0 0 0 0 -728.76080354623264 1374.9711461287052 0 1374.9711461287052 -741.96080595635794 0 0 0 0 26.718207218378609 10.666596602162656 0 10.666596602162656 -45.712598977801861 0 0 0 0 76.367832787218504 43.998123049651895 0 43.998123049651895 -21.419529379803862 0 0 0 0 3.5222851955863632 14.753522212589218 0 14.753522212589218 -29.849157489134974 0 0 0 0 90.981983286241302 95.994936391105512 0 95.994936391105512 -21.151635058893589 0 0 0 0 744.23521840944886 236.8940059359411 0 236.8940059359411 -103.81301615871416 0 0 0 0 47.164936882967595 51.510068061214042 0 51.510068061214042 -9.4402440611083875 0 0 0 0 90.581111005332787 62.814427956784129 0 62.814427956784129 -39.384357131159049 0 0 0 0 57.258820951508824 90.927818542968453 0 90.927818542968453 -17.63494776430889 0 0 0 0 6.1406536988070002 42.77047165928343 0 42.77047165928343 -3.8421395696204854 0 0 0 0 21.284716611270483 20.207438098214197 0 20.207438098214197 -33.864889019979252 0 0 0 0 57.900321403911221 36.128081924317485 0 36.128081924317485 -17.42641088867822 0 0 0 0 -55.303350955247879 49.528836549469816 0 49.528836549469816 -4.3948818559319989 0 0 0 0 346.3520214924356 96.608066176960165 0 96.608066176960165 -20.460440483858292 0 0 0 0 653.73263405826583 52.505591277329131 0 52.505591277329131 -170.83440841325682 0 0 0 0 513.69077535488759 -80.009548945040933 0 -80.009548945040933 -117.30797961872486 0 0 0 0 -403.56169882381801 -161.11272189472606 0 -161.11272189472606 109.71407656082511 0 0 0 0 25.870529924286529 20.977056149837153 0 20.977056149837153 -7.4354326307475276 0 0 0 0 65.54409637444769 -171.12225649918764 0 -171.12225649918764 -7.3698467924839406 0 0 0 0 20.393227899902826 14.537383504807451 0 14.537383504807451 -26.624274111595803 0 0 0 0 -1.0811874350609401 4.1358190850123435 0 4.1358190850123435 -18.698990088958233 0 0 0 0 753.44734772382799 -100.69317720375898 0 -100.69317720375898 -173.15729432887383 0 0 0 0 779.26554125655093 -7.6285386782865316 0 -7.6285386782865316 -408.01071500257603 0 0 0 0 791.04916552721988 -51.056449813243944 0 -51.056449813243944 -256.42070570215901 0 0 0 0 716.57979208644247 -90.295500257511776 0 -90.295500257511776 -97.478864698985035 0 0 0 0 691.67633179828408 -52.969378107026159 0 -52.969378107026159 -135.36497946333293 0 0 0 0 -1166.8666351434367 204.45436489901385 0 204.45436489901385 -37.090379954389846 0 0 0 0 -1290.1093812936451 -162.46746658998472 0 -162.46746658998472 27.352989839366273 0 0 0 0 -91.533876598725328 408.461976822824 0 408.461976822824 -991.59510663691253 0 0 0 0 316.41492245116387 -0.68442704300923651 0 -0.68442704300923651 -246.49964188199988 0 0 0 0 -184.60605123935966 121.09726235121161 0 121.09726235121161 226.4903902973947 0 0 0 0 -291.47271865270159 559.4627027433994 0 559.4627027433994 -286.90934141059734 0 0 0 0 -431.72967230528593 435.26624526869728 0 435.26624526869728 -239.39658659874294 0 0 0 0 252.48317722545471 -742.56514671119658 0 -742.56514671119658 -13.181332293665946 0 0 0 0 41.288954878830396 24.099003038599278 0 24.099003038599278 4.0877368371975003 0 0 0 0 -77.388691737258341 -682.81645456708065 0 -682.81645456708065 -568.02427903714488 0 0 0 0 523.23550192770199 -175.4599174517225 0 -175.4599174517225 -139.7054081551687 0 0 0 0 366.12147373904008 608.34584373351754 0 608.34584373351754 349.73250531564122 0 0 0 0 -1675.2565647860902 344.78689645230043 0 344.78689645230043 354.79098817118938 0 0 0 0 543.4095718904282 353.58466407216474 0 353.58466407216474 642.16971212017961 0 0 0 0 -11.997222872247221 -57.273012868850856 0 -57.273012868850856 -113.5822710755283 0 0 0 0 47.154879874967094 22.209745779772732 0 22.209745779772732 -12.500495207481309 0 0 0 0 -310.44101109766848 380.04051849718729 0 380.04051849718729 -226.62598544242974 0 0 0 0 -308.81023627679679 216.5384571021068 0 216.5384571021068 187.29181617219729 0 0 0 0 94.549456279564765 161.43814477251635 0 161.43814477251635 865.20968106597138 0 0 0 0 882.5308892239118 -476.21926995422291 0 -476.21926995422291 1379.6704792874225 0 0 0 0 46.941093089332071 42.877342358551601 0 42.877342358551601 -4.7675430339609903 0 0 0 0 -489.54332513353438 942.09335399078191 0 942.09335399078191 -21.483157827967261 0 0 0 0 -730.79914320918033 692.34732603398288 0 692.34732603398288 -279.80483004365539 0 0 0 0 -646.40729616582394 366.19706275975022 0 366.19706275975022 63.455751534773299 0 0 0 0 -904.98809135673218 1068.3873548242193 0 1068.3873548242193 87.980877311235361 0 0 0 0 -1391.3920647266787 322.64873793184529 0 322.64873793184529 243.7501060995703 0 0 0 0 -1134.3282744331227 937.30276416376341 0 937.30276416376341 14.547526706674489 0 0 0 0 -992.50757063261699 329.84963696958675 0 329.84963696958675 65.229505228856851 0 0 0 0 -189.06447952298913 20.75068008192693 0 20.75068008192693 -48.521882976325287 0 0 0 0 -319.72426021270803 -79.00242802592112 0 -79.00242802592112 -10.566933962000999 0 0 0 0 -194.08051473204978 15.15023939993489 0 15.15023939993489 -49.105676561209748 0 0 0 0 -1004.5628094586136 -17.33478038143835 0 -17.33478038143835 40.469931500397252 0 0 0 0 132.97402245763806 882.08011593684466 0 882.08011593684466 -292.77548589575571 0 0 0 0 -525.01363120875612 1565.0713882180135 0 1565.0713882180135 -198.53432523505489 0 0 0 0 -382.67686964051245 906.43103588177337 0 906.43103588177337 -447.79616115118733 0 0 0 0 -0.78280319150081035 1086.9310776112557 0 1086.9310776112557 -696.78309401763909 0 0 0 0 -289.33009542606305 1039.6594257551369 0 1039.6594257551369 -278.90852933559711 0 0 0 0 19.024150810844731 378.24702710521433 0 378.24702710521433 -1668.8892470178898 0 0 0 0 -293.68670562239822 589.80119593579684 0 589.80119593579684 -697.29276908369866 0 0 0 0 15.05799178685993 379.54418709936544 0 379.54418709936544 -554.10660044138695 0 0 0 0 27.7281501264074 12.10500026019281 0 12.10500026019281 -11.45290978291176 0 0 0 0 304.00102494210114 -60.890613566195725 0 -60.890613566195725 -16.466272772771845 0 0 0 0 87.071567481616512 41.799306965704091 0 41.799306965704091 -8.8923263101642078 0 0 0 0 -3.2592845715148542 3.2742976096838845 0 3.2742976096838845 -2.0846030609041719 0 0 0 0 0.2858213414583588 148.43798293495274 0 148.43798293495274 545.30694319301256 0 0 0 0 8.0989289209828712 190.18689544933477 0 190.18689544933477 821.02753331392523 0 0 0 0 -0.18176254173073403 5.1547489689959036 0 5.1547489689959036 -8.5712603755034849 0 0 0 0 150.43490376858972 164.98185182553425 0 164.98185182553425 446.05779067174808 0 0 0 0 -0.25944204514962621 266.68677874284185 0 266.68677874284185 377.44203268560341 0 0 0 0 -315.44572603881534 6.2299788624168286 0 6.2299788624168286 508.50744979028809 0 0 0 0 231.73143125789647 172.52183552183169 0 172.52183552183169 -36.720758669023724 0 0 0 0 -31.091159888452523 34.712960643832588 0 34.712960643832588 -32.486760517988394 0 0 0 0 32.169540170043547 523.94795843654197 0 523.94795843654197 612.26299229814322 0 0 0 0 -95.903180552239064 18.18066235313745 0 18.18066235313745 -49.567424531930556 0 0 0 0 215.05047672950604 249.4894610363508 0 249.4894610363508 -215.09918023060794 0 0 0 0 -365.1999120489636 82.597374208266956 0 82.597374208266956 -78.126875201566236 0 0 0 0 -450.04777103904053 120.16932393653747 0 120.16932393653747 122.94751539059416 0 0 0 0 -785.80507702927571 -198.05648287534405 0 -198.05648287534405 -172.30048754488507 0 0 0 0 -496.16371729562525 326.21636905975447 0 326.21636905975447 -74.79226343043274 0 0 0 0 -29.347542046802118 296.8872572026844 0 296.8872572026844 53.612041240707867 0 0 0 0 -42.395907837781522 46.441143374439633 0 46.441143374439633 -48.017501524028894 0 0 0 0 47.391146256733919 1224.6811425451579 0 1224.6811425451579 295.37444555074399 0 0 0 0 670.34345515165478 425.5700962547362 0 425.5700962547362 -128.93317108876636 0 0 0 0 -1.600650207281646 4.3637845139235765 0 4.3637845139235765 -10.659910405727217 0 0 0 0 577.70490232723569 -99.36335000557915 0 -99.36335000557915 -960.80772864679238 0 0 0 0 -133.44770254130708 -288.20039504539272 0 -288.20039504539272 -237.56496026072409 0 0 0 0 -711.37012455670992 520.96525582490813 0 520.96525582490813 -307.0509325667299 0 0 0 0 0.44922307875822298 283.52443472383857 0 283.52443472383857 -594.9725417828322 0 0 0 0 -76.687389569895458 457.05095490184522 0 457.05095490184522 -916.43541945739889 0 0 0 0 63.269004956760909 -42.380353619228117 0 -42.380353619228117 -628.26391679442531 0 0 0 0 400.30665511367033 -113.27794981353009 0 -113.27794981353009 354.95410543377511 0 0 0 0 23.651470352931327 19.564508222485657 0 19.564508222485657 9.129558209851524 0 0 0 0 352.01811704412103 439.91868973779128 0 439.91868973779128 -208.27770896290622 0 0 0 0 -399.12832666272152 348.40817072932259 0 348.40817072932259 -395.03778888725446 0 0 0 0 -376.11249340683753 425.41931585758539 0 425.41931585758539 -415.04112035889921 0 0 0 0 766.24710680892895 -108.14729729560349 0 -108.14729729560349 -156.04959779152614 0 0 0 0 12.459444538139707 79.058608856073363 0 79.058608856073363 111.43783607404686 0 0 0 0 99.848405030010326 379.77893612315142 0 379.77893612315142 49.317945123821929 0 0 0 0 473.06581029378867 303.76258138287631 0 303.76258138287631 49.833347219101569 0 0 0 0 -7.5796046401163437 12.289646949263457 0 12.289646949263457 1.4232315456109035 0 0 0 0 1017.4029078909662 1642.5252204638273 0 1642.5252204638273 133.12290602656321 0 0 0 0 513.28167260295959 795.16686765307486 0 795.16686765307486 -824.80801122794946 0 0 0 0 50.87486881723089 370.90759345994911 0 370.90759345994911 -111.86118023819472 0 0 0 0 5.3011179436165055 168.82777271899718 0 168.82777271899718 -7.6179283495206924 0 0 0 0 -224.6132068421939 33.821764488977351 0 33.821764488977351 218.38741316332107 0 0 0 0 -403.53614375248981 452.0321078077327 0 452.0321078077327 -16.77402686338246 0 0 0 0 381.09084353892104 256.55170965118214 0 256.55170965118214 -155.07828938733655 0 0 0 0 -24.565239421870501 2185.3061837092437 0 2185.3061837092437 3729.7314463803618 0 0 0 0 -57.684428579395828 129.84677456083745 0 129.84677456083745 48.534538331416137 0 0 0 0 -1580.1697612925855 -341.34183483363802 0 -341.34183483363802 850.50412735626821 0 0 0 0 1295.5360064928827 -1049.8375490515316 0 -1049.8375490515316 -1773.1326153115272 0 0 0 0 -76.716649883182981 289.99201972376977 0 289.99201972376977 167.29909936494732 0 0 0 0 -224.30777488450622 53.222579002037946 0 53.222579002037946 -98.906147109810263 0 0 0 0 2432.7344923424753 -880.93624640938833 0 -880.93624640938833 -270.11351232561083 0 0 0 0 -515.15745731852803 189.35779446633296 0 189.35779446633296 484.61112227950434 0 0 0 0 8.7860497051077004 12.822820032800479 0 12.822820032800479 21.987744190236228 0 0 0 0 1198.0185161574191 -553.96412151950244 0 -553.96412151950244 -173.96151158499379 0 0 0 0 29.398120373929153 41.571107518544132 0 41.571107518544132 64.727482967006623 0 0 0 0 778.3504245908407 183.26191518481755 0 183.26191518481755 550.1370502971622 0 0 0 0 293.26176078781646 -422.40419577050488 0 -422.40419577050488 -10.03698446379758 0 0 0 0 -197.03523223229331 569.02367818689936 0 569.02367818689936 203.56721273238145 0 0 0 0 1422.4132442465852 1483.9283720042349 0 1483.9283720042349 -786.82008160921396 0 0 0 0 -693.97447167550126 -300.32063456976903 0 -300.32063456976903 108.26187957784441 0 0 0 0 -38.270226321089368 45.384067595628458 0 45.384067595628458 -5.1994380752607157 0 0 0 0 11.528896575750679 48.953748065634215 0 48.953748065634215 25.282567995559461 0 0 0 0 -270.4508313923543 258.46845651890362 0 258.46845651890362 -302.25718859062545 0 0 0 0 -39.716425468759553 59.898474408437323 0 59.898474408437323 64.72843411876238 0 0 0 0 2.1727945698949043 256.93404459991507 0 256.93404459991507 -123.0996324933476 0 0 0 0 205.37219676691166 368.02012815331182 0 368.02012815331182 -127.3689666531609 0 0 0 0 -94.654533972242234 64.364856521919506 0 64.364856521919506 8.7889693751935027 0 0 0 0 -31.039222417530254 318.56713512015085 0 318.56713512015085 -92.096034352159222 0 0 0 0 -78.255640391929774 458.71762357824082 0 458.71762357824082 -233.91560116934852 0 0 0 0 -0.073763497446151405 32.032500193347907 0 32.032500193347907 15.827174717239728 0 0 0 0 -363.54390591401148 628.64656264639223 0 628.64656264639223 -214.43021789779596 0 0 0 0 59.066649271611823 600.49466818128712 0 600.49466818128712 -370.95331455869746 0 0 0 0 96.761206043636776 548.87371903844905 0 548.87371903844905 -288.41376966270036 0 0 0 0 88.584319639950991 351.49712401599754 0 351.49712401599754 -78.9190471636648 0 0 0 0 94.090494294650853 326.51772272656308 0 326.51772272656308 -140.60083369921631 0 0 0 0 -87.512592656377819 525.08881007754826 0 525.08881007754826 -249.40026442719682 0 0 0 0 -5.3019936408891226 510.65238300382589 0 510.65238300382589 -320.2540028718322 0 0 0 0 -74.971435754479899 589.22073031657419 0 589.22073031657419 -334.26054233347168 0 0 0 0 -225.9254464609885 568.84849499175129 0 568.84849499175129 -278.80130277075659 0 0 0 0 -114.65312340408855 717.20866134344215 0 717.20866134344215 -513.69847191895678 0 0 0 0 -116.46873817114306 683.93522137355717 0 683.93522137355717 -215.48814211905847 0 0 0 0 -106.45124973707854 57.125379616392578 0 57.125379616392578 5.1642675626503518 0 0 0 0 -360.09401543045533 476.44288318146573 0 476.44288318146573 -621.25269031569587 0 0 0 0 -349.58489112652023 324.63479927168009 0 324.63479927168009 -584.13369094014342 0 0 0 0 -452.40483190297346 682.1575805156881 0 682.1575805156881 -211.85569602463511 0 0 0 0 -352.56117428278958 374.98511252452226 0 374.98511252452226 -311.49832466276598 0 0 0 0 -349.23004507440749 314.33145916102615 0 314.33145916102615 -467.16761259682971 0 0 0 0 -361.54268939629037 472.52089762436663 0 472.52089762436663 -412.96181625794634 0 0 0 0 -336.27374919515319 482.39566065827529 0 482.39566065827529 -246.81010137282283 0 0 0 0 -338.04051077762415 430.30134578097932 0 430.30134578097932 -357.87758125687833 0 0 0 0 -435.70059516638139 520.10564887649525 0 520.10564887649525 -191.17447035540681 0 0 0 0 -613.03713599278126 350.87424227711017 0 350.87424227711017 -324.56036194797343 0 0 0 0 -109.07271064333412 57.204648277514551 0 57.204648277514551 7.3196896992483858 0 0 0 0 -505.9254571273259 1079.3801969613455 0 1079.3801969613455 -437.73612875081017 0 0 0 0 -580.16473800259337 554.78198916904512 0 554.78198916904512 -358.84300613979576 0 0 0 0 -402.34387361923837 467.34104073323488 0 467.34104073323488 -317.53727752146369 0 0 0 0 -506.22514695668724 501.52536799313384 0 501.52536799313384 -180.13284921327431 0 0 0 0 -398.46519951405571 413.43326228970909 0 413.43326228970909 -318.33743208314399 0 0 0 0 -394.33673334621926 495.37891495027725 0 495.37891495027725 -189.56022648692306 0 0 0 0 -345.52938229398569 601.8079980371258 0 601.8079980371258 -154.36896611093835 0 0 0 0 -351.68465953119085 561.11450340201554 0 561.11450340201554 -121.44644185174548 0 0 0 0 -349.03465378206238 453.41075545923377 0 453.41075545923377 -279.90236591608118 0 0 0 0 -382.90233563202128 516.63848350575608 0 516.63848350575608 -70.279542981166742 0 0 0 0 -350.71577985388285 523.52275918814848 0 523.52275918814848 -200.74773418469704 0 0 0 0 -421.9114284557545 582.95865706371842 0 582.95865706371842 -82.787127492076252 0 0 0 0 -381.30382641894539 551.85352697401686 0 551.85352697401686 -59.338332692474069 0 0 0 0 -385.80979323200881 628.01760346559786 0 628.01760346559786 -20.165674696661881 0 0 0 0 -464.66466891502205 649.78883750179557 0 649.78883750179557 29.718732405279297 0 0 0 0 -359.52300086191826 625.87018259099568 0 625.87018259099568 -15.570047239427367 0 0 0 0 -578.90945645975444 518.77950714847975 0 518.77950714847975 76.054574695896008 0 0 0 0 238.00755663894233 262.45527523200872 0 262.45527523200872 -77.954976194778283 0 0 0 0 -266.35613289078174 233.78215391837512 0 233.78215391837512 82.790351811810979 0 0 0 0 -151.25886480642657 385.92067818978467 0 385.92067818978467 -74.065184541286726 0 0 0 0 209.93879002898029 536.64497287514678 0 536.64497287514678 -232.97524886516476 0 0 0 0 276.1888862481137 424.37678314384539 0 424.37678314384539 -222.98427413638274 0 0 0 0 -159.70826926235168 444.78702282765516 0 444.78702282765516 -4.4214214680268924 0 0 0 0 -348.51206631338391 568.81855752912179 0 568.81855752912179 -78.69016678276239 0 0 0 0 -306.01600485342351 403.38005600461838 0 403.38005600461838 -164.26504763377488 0 0 0 0 -243.48852739058202 743.53132934432142 0 743.53132934432142 -36.945294878394634 0 0 0 0 162.81324892130942 570.07750944712461 0 570.07750944712461 -248.96893362583069 0 0 0 0 938.8725357568328 704.89666897019924 0 704.89666897019924 -351.73748794480343 0 0 0 0 211.35154071297438 863.96582163796847 0 863.96582163796847 -224.16509044795384 0 0 0 0 -691.03955622265858 821.77646614363221 0 821.77646614363221 -217.74830175257375 0 0 0 0 11.299110215089328 9.5575468391022298 0 9.5575468391022298 -0.028750227118933935 0 0 0 0 89.292594550228387 236.23384510766482 0 236.23384510766482 89.086030393562396 0 0 0 0 92.880473263762667 62.537184382303195 0 62.537184382303195 3.872047951828776 0 0 0 0 126.60121700681307 239.70290406349699 0 239.70290406349699 86.858760137172425 0 0 0 0 1266.8853914789506 12.391856114001712 0 12.391856114001712 -133.38198973921044 0 0 0 0 61.192582552438509 37.126807790035983 0 37.126807790035983 4.2739439878839676 0 0 0 0 575.02271646444206 334.59578771231099 0 334.59578771231099 -153.62448040637537 0 0 0 0 -167.39892585780035 1071.8192894919848 0 1071.8192894919848 306.737368826085 0 0 0 0 192.98768241811922 497.5931405537267 0 497.5931405537267 -221.30188272670057 0 0 0 0 232.3965018293602 185.34683697823857 0 185.34683697823857 -264.01578233861073 0 0 0 0 7.8275291190686858 699.89674377046026 0 699.89674377046026 294.25008804597019 0 0 0 0 29.231863817859761 85.197698417913244 0 85.197698417913244 -47.704925665290546 0 0 0 0 1093.7860321427288 -318.40271196363028 0 -318.40271196363028 -294.29930133512244 0 0 0 0 12.941233282048415 882.03063811880713 0 882.03063811880713 106.69032052071998 0 0 0 0 230.86006487147824 230.48761813274905 0 230.48761813274905 88.032362800768169 0 0 0 0 141.76137286877736 193.23738220032885 0 193.23738220032885 109.21804876515463 0 0 0 0 -181.2656296343448 -199.33723430284954 0 -199.33723430284954 362.50325140391942 0 0 0 0 305.79107949820536 554.39154829183008 0 554.39154829183008 -268.07719703340263 0 0 0 0 1127.731360588994 1964.4533857977076 0 1964.4533857977076 -753.73637179285288 0 0 0 0 355.25167796247479 318.58454047340274 0 318.58454047340274 -122.35281781422964 0 0 0 0 1091.6293197566192 291.41326718494383 0 291.41326718494383 274.94715752518096 0 0 0 0 -43.941858791849384 51.510443451207614 0 51.510443451207614 -63.165003459193315 0 0 0 0 337.46470974467275 233.14933609393393 0 233.14933609393393 535.63167627177609 0 0 0 0 -471.3633639761174 934.0383273694024 0 934.0383273694024 1343.8434903109446 0 0 0 0 -222.29394833588776 1243.442174823811 0 1243.442174823811 -1216.9471836168377 0 0 0 0 70.552460662354861 206.2577997528133 0 206.2577997528133 984.73669152490766 0 0 0 0 -3.7362681620245581 -6.6155992761171944 0 -6.6155992761171944 -5.0207798637156884 0 0 0 0 408.60041837280369 111.61292648115705 0 111.61292648115705 -19.143443446839228 0 0 0 0 -37.706372473784512 15.935113124257697 0 15.935113124257697 17.89247635872033 0 0 0 0 -440.9389704668647 266.83880135851359 0 266.83880135851359 267.79174545146452 0 0 0 0 163.11897186861245 161.82108454561342 0 161.82108454561342 78.988552543938397 0 0 0 0 257.98436724369822 192.14650882148999 0 192.14650882148999 71.400671862618765 0 0 0 0 313.31890954324626 112.50026744683419 0 112.50026744683419 44.675989097888305 0 0 0 0 256.07554284669459 178.02811582649701 0 178.02811582649701 -10.996100195188774 0 0 0 0 283.70828575119049 241.5241880110334 0 241.5241880110334 -72.646250533798593 0 0 0 0 324.79729264260095 -14.285625449723739 0 -14.285625449723739 -76.048822892014869 0 0 0 0 248.06186401048035 46.140649950815714 0 46.140649950815714 259.03384376510803 0 0 0 0 164.94212999854062 -4.2962799257220468 0 -4.2962799257220468 -17.74078169814311 0 0 0 0 69.152779325173469 223.33958650566638 0 223.33958650566638 -45.679327060388459 0 0 0 0 122.39319511424037 201.04424822246438 0 201.04424822246438 -207.52501820783073 0 0 0 0 101.50674341443664 91.133376738522202 0 91.133376738522202 -181.2087741254727 0 0 0 0 2.1483747746821535 7.4504186062096522 0 7.4504186062096522 9.7259250163275794 0 0 0 0 107.26904846634352 204.54842677104898 0 204.54842677104898 -141.31769629212795 0 0 0 0 12.895972710031231 9.8791232437821037 0 9.8791232437821037 3.5089348553786124 0 0 0 0 155.78687220927532 -62.765099602787814 0 -62.765099602787814 -71.99786625496381 0 0 0 0 53.063882711023325 130.84226010935527 0 130.84226010935527 -37.319734410702949 0 0 0 0 -11.351543792810844 122.88483687074768 0 122.88483687074768 -3.1237782865646295 0 0 0 0 -25.328057287935287 77.882193881695869 0 77.882193881695869 -27.439819491914562 0 0 0 0 -6.0096351643333037 53.97742896971522 0 53.97742896971522 24.357145882197074 0 0 0 0 -2.4826647222984271 74.967842267844929 0 74.967842267844929 5.1200275130296404 0 0 0 0 63.922292292292695 115.6780473357212 0 115.6780473357212 69.381471989217971 0 0 0 0 29.8935156598709 111.7282194360796 0 111.7282194360796 34.823799407226034 0 0 0 0 5.7337827125447802 -61.215830547938822 0 -61.215830547938822 188.89004972742987 0 0 0 0 107.50130171775891 106.59854365783031 0 106.59854365783031 21.435078557871748 0 0 0 0 104.34811175901294 62.109615826144662 0 62.109615826144662 -63.454028551265253 0 0 0 0 21.602379922870881 72.379963669033756 0 72.379963669033756 -41.479407229107835 0 0 0 0 -21.058048532160186 71.223006876470947 0 71.223006876470947 12.021960013426792 0 0 0 0 119.5069696884093 169.70473548159498 0 169.70473548159498 91.310552886046935 0 0 0 0 115.54458862190222 185.25992010292612 0 185.25992010292612 30.385998125158949 0 0 0 0 167.16094526579764 134.74090348537902 0 134.74090348537902 -0.69656402101099957 0 0 0 0 228.00923459582555 188.09847145016101 0 188.09847145016101 27.125290189655061 0 0 0 0 162.70764032357692 146.28049228884811 0 146.28049228884811 3.7697874733712524 0 0 0 0 254.41892125382583 162.39447367272078 0 162.39447367272078 -18.948947465636593 0 0 0 0 113.02595260906674 114.5894640805127 0 114.5894640805127 -6.9471508677161182 0 0 0 0 165.14461291338375 151.71158042107709 0 151.71158042107709 -30.333940968615934 0 0 0 0 174.8360681431659 137.29536283208654 0 137.29536283208654 -14.937621530494653 0 0 0 0 252.29714139021235 145.68983597989427 0 145.68983597989427 -30.129890758344118 0 0 0 0 247.75287197746002 154.74695674316172 0 154.74695674316172 -40.555603256594623 0 0 0 0 39.234516318997308 36.985849576237371 0 36.985849576237371 -45.685119205618236 0 0 0 0 111.02757469749486 80.108938913836027 0 80.108938913836027 -59.839563746441854 0 0 0 0 137.13190634288185 114.7855166909867 0 114.7855166909867 -66.197796019783709 0 0 0 0 71.220065061825963 50.445580842635231 0 50.445580842635231 -20.647441666181749 0 0 0 0 25.077959404871734 36.375582517972241 0 36.375582517972241 -12.352702461272813 0 0 0 0 23.559220656308753 64.889746082773854 0 64.889746082773854 -59.863508844689932 0 0 0 0 128.9216925517685 152.53427732161435 0 152.53427732161435 -32.811696509681497 0 0 0 0 115.81768821900914 121.71549093469184 0 121.71549093469184 -14.813823477979895 0 0 0 0 42.596696405642433 220.40770608537423 0 220.40770608537423 222.83620459144004 0 0 0 0 25.811031215476788 25.415916487347758 0 25.415916487347758 0.69954792764457352 0 0 0 0 291.82689489664222 143.62207348191612 0 143.62207348191612 -40.991076029917167 0 0 0 0 299.72541048725543 -24.772283790582151 0 -24.772283790582151 -181.54928928532172 0 0 0 0 270.53456106528756 351.42226156497964 0 351.42226156497964 -31.521145898641407 0 0 0 0 624.41797380727076 71.536848664603895 0 71.536848664603895 -30.82530496084064 0 0 0 0 399.53510279918555 167.73723647018778 0 167.73723647018778 -63.01247635683103 0 0 0 0 408.47031498091064 286.92283985105269 0 286.92283985105269 -18.462131830885482 0 0 0 0 170.4977958345662 333.85252965666314 0 333.85252965666314 120.82716024409092 0 0 0 0 245.72202430879406 297.81411605524954 0 297.81411605524954 59.915859644388547 0 0 0 0 229.39927965674406 259.08871616429565 0 259.08871616429565 39.437636718677823 0 0 0 0 260.70644783867101 235.08274168859498 0 235.08274168859498 28.986577739276981 0 0 0 0 242.85723939015588 179.89721166239906 0 179.89721166239906 -6.5155307809181977 0 0 0 0 336.27226538864488 194.46118733026015 0 194.46118733026015 -32.784256448008819 0 0 0 0 293.07672924803046 245.40898326410388 0 245.40898326410388 -27.942419007040371 0 0 0 0 108.06842358066933 55.390678546435083 0 55.390678546435083 36.624970887554809 0 0 0 0 89.489099702067676 59.900165379742752 0 59.900165379742752 31.441266864452444 0 0 0 0 113.78877271369856 82.641422248576418 0 82.641422248576418 76.774639163813845 0 0 0 0 132.94727723642427 71.534940391624332 0 71.534940391624332 44.675430379516911 0 0 0 0 79.672667435603216 77.178774408930622 0 77.178774408930622 73.736980869347462 0 0 0 0 80.906164977955086 93.428518338246931 0 93.428518338246931 32.3807247178338 0 0 0 0 95.650862948372378 56.05113966002682 0 56.05113966002682 46.484088703600719 0 0 0 0 79.428325146573115 82.099118574093154 0 82.099118574093154 31.080271433442249 0 0 0 0 59.201954182841291 66.295696468085225 0 66.295696468085225 19.051323606647202 0 0 0 0 44.900244782897062 106.66211633098283 0 106.66211633098283 33.618472349699005 0 0 0 0 13.916242120161769 125.04500893746081 0 125.04500893746081 39.786077295502764 0 0 0 0 35.251695030994597 100.10535349679412 0 100.10535349679412 33.359038650572984 0 0 0 0 32.209100862019113 117.01002970436821 0 117.01002970436821 -19.86156130162999 0 0 0 0 -3.5486564785023802 145.30458954219648 0 145.30458954219648 24.90142052398005 0 0 0 0 9.5468775033950806 123.14625190001971 0 123.14625190001971 20.038477697526105 0 0 0 0 13.084700737468665 128.97984094385902 0 128.97984094385902 -37.331429994548671 0 0 0 0 18.461177366489153 39.708967425142617 0 39.708967425142617 -41.49402028442961 0 0 0 0 44.426362853901082 179.80103813383539 0 179.80103813383539 98.550895092950668 0 0 0 0 66.444933335820679 99.192709509603446 0 99.192709509603446 47.736427960604487 0 0 0 0 -15.593825529649621 69.073670378522365 0 69.073670378522365 -68.559584927796095 0 0 0 0 12.775634450641519 111.1383191214627 0 111.1383191214627 -9.4302561812510248 0 0 0 0 46.43033669963188 90.919079883438826 0 90.919079883438826 -24.163655741649563 0 0 0 0 130.18488258095749 55.439302283968573 0 55.439302283968573 106.86768480544561 0 0 0 0 1.6479288668309806 27.937333470800979 0 27.937333470800979 -9.4945858203841453 0 0 0 0 75.0070816752268 73.99377854627528 0 73.99377854627528 -45.270180485546007 0 0 0 0 176.91928966075648 200.11991107198264 0 200.11991107198264 -1.7559595002458082 0 0 0 0 283.75906870102335 38.373995321184339 0 38.373995321184339 -43.446170391747728 0 0 0 0 -29.949583220333963 8.9060436283153699 0 8.9060436283153699 5.8040869292787249 0 0 0 0 9.5510679112616117 40.717137904722222 0 40.717137904722222 -34.495015538698482 0 0 0 0 79.555321748863207 99.130753717259722 0 99.130753717259722 -36.224256598943612 0 0 0 0 69.06536911798753 61.573111953690358 0 61.573111953690358 -3.5017661349947176 0 0 0 0 109.95658223255668 110.76224905608979 0 110.76224905608979 -49.965718937637575 0 0 0 0 41.073620783456136 109.08659068610359 0 109.08659068610359 -72.736962710845546 0 0 0 0 -13.709675457197903 55.128844635592429 0 55.128844635592429 -67.602800433495162 0 0 0 0 42.456143518909812 116.58862870924713 0 116.58862870924713 -83.392709751853545 0 0 0 0 49.770797053730348 65.542312662837503 0 65.542312662837503 23.322193561554741 0 0 0 0 64.10434770414048 30.737009578858974 0 30.737009578858974 -12.932957057795605 0 0 0 0 45.361694702991542 35.781656358823682 0 35.781656358823682 -19.540568697098394 0 0 0 0 50.880280920204314 59.707920845122771 0 59.707920845122771 -9.0526931627828162 0 0 0 0 93.832513751884107 120.22002255407278 0 120.22002255407278 -86.656923693764838 0 0 0 0 166.41048683505505 130.06141457435297 0 130.06141457435297 -5.7856038597165025 0 0 0 0 101.31370459471702 51.681649205939607 0 51.681649205939607 16.086032606225743 0 0 0 0 96.771125208098965 55.435757600913348 0 55.435757600913348 39.775593073325581 0 0 0 0 108.36381198592426 70.963648196528084 0 70.963648196528084 26.158728631988197 0 0 0 0 18.194454898796835 20.361601313415719 0 20.361601313415719 3.3279503035175821 0 0 0 0 129.90534599584134 28.601923366366464 0 28.601923366366464 -310.99237390269991 0 0 0 0 196.48643456061836 197.6396016860308 0 197.6396016860308 -142.9738978660389 0 0 0 0 157.75503402983304 86.5678925520333 0 86.5678925520333 -155.88363921304699 0 0 0 0 118.49735487707949 107.05174125337362 0 107.05174125337362 -166.56306138476793 0 0 0 0 45.68944943700626 178.7261594360898 0 178.7261594360898 -185.14648642960765 0 0 0 0 134.37062331859488 48.964941974561953 0 48.964941974561953 -210.57586742137028 0 0 0 0 51.279454811519827 13.74320041979081 0 13.74320041979081 0.44780206584255211 0 0 0 0 45.649339856257939 371.706308760311 0 371.706308760311 -25.971439782915695 0 0 0 0 -26.984028926509922 43.430170820489849 0 43.430170820489849 -77.862558213509345 0 0 0 0 6.1119044034567196 114.66838926815399 0 114.66838926815399 -21.373866532474494 0 0 0 0 -6.9315806998061475 72.805710555731252 0 72.805710555731252 -70.613760049407205 0 0 0 0 77.383519423572579 170.16824005452509 0 170.16824005452509 -32.392750556061401 0 0 0 0 40.141173359505046 117.60451924563131 0 117.60451924563131 -81.396229048354144 0 0 0 0 38.595929799412261 120.31020012754016 0 120.31020012754016 -84.250590929015743 0 0 0 0 15.031761268320214 59.777927479791416 0 59.777927479791416 -42.704526267662359 0 0 0 0 30.052749360038433 117.3302384459239 0 117.3302384459239 -78.592410523044236 0 0 0 0 -0.13468732784457416 16.169728082964525 0 16.169728082964525 6.1147729071888328 0 0 0 0 -9.3218831561794104 77.45842185636306 0 77.45842185636306 -81.292173984660366 0 0 0 0 -94.330477605239139 132.72388991827484 0 132.72388991827484 153.8105676124901 0 0 0 0 49.943085824252194 16.280989433368063 0 16.280989433368063 113.10307796162124 0 0 0 0 1.0919745038614934 -5.9346470595814935 0 -5.9346470595814935 1.5951824429790022 0 0 0 0 -228.52913475961941 -22.440592769181308 0 -22.440592769181308 92.588830204671467 0 0 0 0 -42.452857153344667 27.454597415963235 0 27.454597415963235 13.931218872066438 0 0 0 0 -218.74368317499466 -45.958984899431471 0 -45.958984899431471 2.272005623457801 0 0 0 0 -19.608799823850859 29.92930487007834 0 29.92930487007834 29.278060615596587 0 0 0 0 -141.80506828254875 27.977238901107285 0 27.977238901107285 222.95996667114832 0 0 0 0 13.782069700189822 256.85228905566669 0 256.85228905566669 312.03123600591789 0 0 0 0 89.938543934593326 85.05809521228457 0 85.05809521228457 24.536346910335325 0 0 0 0 -147.13102567289025 59.337225454732035 0 59.337225454732035 24.04060287835507 0 0 0 0 -65.801317767727596 -47.486223331438623 0 -47.486223331438623 243.85030098426068 0 0 0 0 -3.8888183741364628 156.54634220600201 0 156.54634220600201 126.4746859478837 0 0 0 0 2.9080253688589437 424.47988455568793 0 424.47988455568793 523.07384780050734 0 0 0 0 10.379306636292199 71.109149125101993 0 71.109149125101993 -86.109526384364031 0 0 0 0 209.84657734080974 -815.28441074201692 0 -815.28441074201692 269.82347804963501 0 0 0 0 730.89763990363281 699.90683821216408 0 699.90683821216408 -460.06576280233639 0 0 0 0 -560.47770662477706 308.82742955606591 0 308.82742955606591 124.07230581227122 0 0 0 0 117.0827074496774 845.05831082941222 0 845.05831082941222 -195.5769426080933 0 0 0 0 408.5543949672392 383.82395400366022 0 383.82395400366022 -67.318708022015926 0 0 0 0 1189.2982693496087 416.1363831563358 0 416.1363831563358 -465.76616246939739 0 0 0 0 622.39579285088985 371.77947872086952 0 371.77947872086952 -100.19523908531846 0 0 0 0 1236.4629917478151 23.178230876089401 0 23.178230876089401 -252.63831835773453 0 0 0 0 976.63004562029892 -273.51569645593008 0 -273.51569645593008 46.148543546281871 0 0 0 0 507.04978546209531 207.44866001195624 0 207.44866001195624 -14.874419298124849 0 0 0 0 289.33284524871124 32.832312189799268 0 32.832312189799268 350.99233548509073 0 0 0 0 -12.333929096814245 273.14378126264728 0 273.14378126264728 -180.77306238731944 0 0 0 0 67.655830933049117 74.707455612964452 0 74.707455612964452 64.004625296908586 0 0 0 0 125.26978689774114 92.191098919933211 0 92.191098919933211 11.638084443589833 0 0 0 0 116.37656947341006 130.8694709927764 0 130.8694709927764 27.462348559696849 0 0 0 0 42.474202978206449 81.298576598323052 0 81.298576598323052 -3.6115769939024176 0 0 0 0 49.019291415216088 60.544586918773511 0 60.544586918773511 -39.361809244725862 0 0 0 0 99.078641408894327 146.64250441627519 0 146.64250441627519 -90.072592141905261 0 0 0 0 92.674685276477248 32.034747025195372 0 32.034747025195372 -53.520325790525021 0 0 0 0 177.09291279538593 50.6831937965826 0 50.6831937965826 -92.207881510868262 0 0 0 0 143.74794188281521 197.37314447066683 0 197.37314447066683 -299.60282149049635 0 0 0 0 242.30296615112456 -40.509980266314415 0 -40.509980266314415 -243.13080128476986 0 0 0 0 252.95980496336415 100.93753269697345 0 100.93753269697345 104.62471655065292 0 0 0 0 162.12160244892584 117.63430174719565 0 117.63430174719565 109.20724540612309 0 0 0 0 342.63772049121508 496.98859951230816 0 496.98859951230816 549.83512233964666 0 0 0 0 212.26488170151424 -20.32814496641322 0 -20.32814496641322 -32.328014924079298 0 0 0 0 368.74593457819719 33.159487899105429 0 33.159487899105429 19.491283742939203 0 0 0 0 441.08015076455195 351.39021546668232 0 351.39021546668232 269.02026548235472 0 0 0 0 574.60956191297373 327.09198237154396 0 327.09198237154396 154.04230141726953 0 0 0 0 370.94809812498352 1292.3804930359106 0 1292.3804930359106 1305.193475973676 0 0 0 0 1130.2604955178394 986.54769139632663 0 986.54769139632663 468.64086778353203 0 0 0 0 153.40188067391864 674.20804963308319 0 674.20804963308319 384.63964777626597 0 0 0 0 -176.12116712507122 -44.716471550766983 0 -44.716471550766983 242.15308952575197 0 0 0 0 -226.42288003584827 566.93129510711071 0 566.93129510711071 1015.0154952696478 0 0 0 0 25.054991679894755 21.758490548227101 0 21.758490548227101 22.86822003259638 0 0 0 0 2672.9262314503721 -1253.01819453139 0 -1253.01819453139 -503.27053978592426 0 0 0 0 935.97430353985692 1754.0925287109017 0 1754.0925287109017 722.50018476393507 0 0 0 0 1841.1849218777115 1026.6795075256589 0 1026.6795075256589 -444.23072547561139 0 0 0 0 -866.24816517799627 -177.47388138055544 0 -177.47388138055544 -101.41087934208252 0 0 0 0 -698.2660595593261 -332.77751292360938 0 -332.77751292360938 -622.38783053011412 0 0 0 0 -983.20537509776477 -421.4796037494657 0 -421.4796037494657 -445.25763402521761 0 0 0 0 -727.12732075084932 -495.09301550659745 0 -495.09301550659745 -857.93288811402726 0 0 0 0 -926.04593587898853 671.438895542522 0 671.438895542522 -341.34632255625866 0 0 0 0 -0.47728748733405268 39.01535593236639 0 39.01535593236639 12.505456853271854 0 0 0 0 -529.24664922007833 1637.6037581235 0 1637.6037581235 908.09488299982741 0 0 0 0 164.4695829455377 -847.64119625577678 0 -847.64119625577678 -1015.3276328532702 0 0 0 0 1733.3848260299274 1123.4464419660776 0 1123.4464419660776 -285.90590506479202 0 0 0 0 835.19193945421284 1417.8363584289445 0 1417.8363584289445 -158.74708229267276 0 0 0 0 1557.717546161075 198.44664424612523 0 198.44664424612523 169.33847433343198 0 0 0 0 534.39023173356054 296.54383161707824 0 296.54383161707824 127.00860696176903 0 0 0 0 1363.3337776236294 648.11286072714802 0 648.11286072714802 179.56800407722676 0 0 0 0 537.78742953692563 257.99940788036247 0 257.99940788036247 537.2800636568287 0 0 0 0 1014.4757157293207 576.48078773056523 0 576.48078773056523 -176.50479797571006 0 0 0 0 586.92644099582685 364.05293593941951 0 364.05293593941951 125.45320500552361 0 0 0 0 594.21914282005696 481.50062795665758 0 481.50062795665758 -263.50996728171049 0 0 0 0 583.89180921635125 556.49438368452547 0 556.49438368452547 -393.58635545679908 0 0 0 0 579.09724248750717 511.37923957492285 0 511.37923957492285 -140.14688784489886 0 0 0 0 745.58846690510291 495.23423605099941 0 495.23423605099941 -195.39046052852063 0 0 0 0 700.21609230803733 227.74658835573837 0 227.74658835573837 -60.679743575218708 0 0 0 0 469.7338226603315 159.52301569112774 0 159.52301569112774 -47.55483789086702 0 0 0 0 2.6445288722555773 38.803608480695559 0 38.803608480695559 68.600463719820254 0 0 0 0 450.01941808378251 184.7393858544873 0 184.7393858544873 -14.170043880494632 0 0 0 0 -261.03603546734666 -485.0070585461981 0 -485.0070585461981 193.0748464892913 0 0 0 0 -543.88650204885016 1093.3229140446506 0 1093.3229140446506 13.963700970994978 0 0 0 0 1933.2650267148529 -64.779904061870866 0 -64.779904061870866 -151.82364671342066 0 0 0 0 4.0905548403369778 4.2201025837209869 0 4.2201025837209869 25.081957313574964 0 0 0 0 1038.2079110358845 -53.651560441214784 0 -53.651560441214784 31.610455613211798 0 0 0 0 -223.42858330778108 568.74342663203322 0 568.74342663203322 -583.69772681479435 0 0 0 0 -424.03173676146253 800.59409474547715 0 800.59409474547715 -785.29076873942313 0 0 0 0 -49.439395597688417 309.65029923837142 0 309.65029923837142 -547.87968013214527 0 0 0 0 -39.58418472725316 368.72409563817291 0 368.72409563817291 -482.83231458582691 0 0 0 0 -526.49659595692356 440.90816804948622 0 440.90816804948622 -254.33185141948616 0 0 0 0 -88.116444059422065 101.81214567885684 0 101.81214567885684 -180.50556424455294 0 0 0 0 30.247455422504572 384.54416281709268 0 384.54416281709268 -398.57068793729695 0 0 0 0 -368.04870372899313 122.99579631440561 0 122.99579631440561 99.854651825636097 0 0 0 0 -185.25758580106776 -4.1969779187581651 0 -4.1969779187581651 -75.632212030576568 0 0 0 0 0.39068537107792167 -1.4898166019847281 0 -1.4898166019847281 1.1908379834654848 0 0 0 0 176.18033525133069 169.39915194862115 0 169.39915194862115 254.91410970810387 0 0 0 0 20.433529360874672 186.96004029328151 0 186.96004029328151 151.61697093316093 0 0 0 0 91.771989559121721 570.8498915213338 0 570.8498915213338 -132.12852843305313 0 0 0 0 15.659255491525983 251.68200781413663 0 251.68200781413663 -716.5906843085022 0 0 0 0 -908.71522008378088 586.04115409477208 0 586.04115409477208 -168.88058679268647 0 0 0 0 -653.53548880626295 1262.3312386625066 0 1262.3312386625066 -1636.3839835961608 0 0 0 0 -14.069471721170487 0.90475427998230629 0 0.90475427998230629 1.3854154008355772 0 0 0 0 -181.20865743653849 -233.9735913391637 0 -233.9735913391637 794.58325380812607 0 0 0 0 -617.4528296712524 729.96083636695812 0 729.96083636695812 -577.6282539887377 0 0 0 0 -175.41188499802411 -14.044461109558711 0 -14.044461109558711 -202.09711070723051 0 0 0 0 10.432878822146449 272.60401719549009 0 272.60401719549009 187.49827951836892 0 0 0 0 -73.611242314262199 149.85385823817001 0 149.85385823817001 78.412634748287019 0 0 0 0 88.889506603780319 -100.03479960922766 0 -100.03479960922766 175.53548969922849 0 0 0 0 -894.84641708937124 266.81326617963123 0 266.81326617963123 456.57147270746145 0 0 0 0 -10.814649958760128 279.8060259680384 0 279.8060259680384 309.45355714475227 0 0 0 0 49.921943401772296 857.96994616192956 0 857.96994616192956 42.3802358449434 0 0 0 0 -415.04969787452865 362.68708950008067 0 362.68708950008067 361.88582523275613 0 0 0 0 -431.44551345671061 1252.0432958114134 0 1252.0432958114134 -677.39430216041274 0 0 0 0 61.48058747608593 654.79714190083337 0 654.79714190083337 8.202744257719587 0 0 0 0 196.03609952919214 547.43567006667945 0 547.43567006667945 500.51563170206737 0 0 0 0 -35.383911786871977 787.03161944909243 0 787.03161944909243 869.24618330577641 0 0 0 0 33.887759151388309 367.76236145163057 0 367.76236145163057 465.49944725881869 0 0 0 0 29.035294775128904 120.36443367678976 0 120.36443367678976 -127.16134668736423 0 0 0 0 24.692892573386416 515.64591195067624 0 515.64591195067624 728.17997509561837 0 0 0 0 125.97508888138691 645.44004805465534 0 645.44004805465534 501.98115045588224 0 0 0 0 271.13752915192163 1020.3763401727865 0 1020.3763401727865 625.66510343074401 0 0 0 0 -51.026190257354756 318.89703594323851 0 318.89703594323851 156.48757234191589 0 0 0 0 -152.33424788622506 641.7095821081524 0 641.7095821081524 1298.8985534257451 0 0 0 0 110.87438252828724 -224.47438374218723 0 -224.47438374218723 1025.0491861612593 0 0 0 0 760.98713984162896 1019.8318054374978 0 1019.8318054374978 432.36395942157799 0 0 0 0 163.94039942129166 1032.2118742049324 0 1032.2118742049324 1394.9516960226697 0 0 0 0 4.7829908121195785 8.1823947627591167 0 8.1823947627591167 11.728585001339091 0 0 0 0 202.6228430380288 686.29873473281395 0 686.29873473281395 -210.81686524895167 0 0 0 0 89.020990114164306 390.40349781786063 0 390.40349781786063 144.73684121388942 0 0 0 0 34.215786499538865 121.5263178671165 0 121.5263178671165 -135.15507531669138 0 0 0 0 276.13252411079884 418.35630282455531 0 418.35630282455531 8.7034438701666659 0 0 0 0 374.93147888887324 323.93427803728127 0 323.93427803728127 50.124848476175657 0 0 0 0 -3.9025794705951853 37.723923381719416 0 37.723923381719416 68.15844525920744 0 0 0 0 269.92412337680435 419.70182221633149 0 419.70182221633149 188.07976079900982 0 0 0 0 -122.70565113898232 80.505545738328294 0 80.505545738328294 51.074084141809038 0 0 0 0 88.909497074870671 102.61539460933599 0 102.61539460933599 -56.633766029279585 0 0 0 0 179.74539572413778 281.11749000640702 0 281.11749000640702 173.78633806921425 0 0 0 0 -26.38716203394079 202.40512520009688 0 202.40512520009688 69.873392326910533 0 0 0 0 14.017450551678081 110.20652730528401 0 110.20652730528401 5.6088529594923813 0 0 0 0 12.065036802305258 193.65128770036404 0 193.65128770036404 8.9986497978088664 0 0 0 0 98.443693086563144 184.84599071496632 0 184.84599071496632 97.188640602944361 0 0 0 0 8.5046441383078815 203.00526311535504 0 203.00526311535504 26.851122499584264 0 0 0 0 416.88610609436 186.2470185278089 0 186.2470185278089 -0.013461710310821218 0 0 0 0 342.47662525890337 314.22048882088279 0 314.22048882088279 -79.229134748903562 0 0 0 0 541.33071455155732 471.86550587542069 0 471.86550587542069 -0.72061876657335233 0 0 0 0 419.4052978905529 609.75065255014397 0 609.75065255014397 -156.20774651824456 0 0 0 0 204.94251951075057 915.77797643259532 0 915.77797643259532 -249.75429110813957 0 0 0 0 416.33680226866272 640.44156549614968 0 640.44156549614968 84.132209503463855 0 0 0 0 298.28846175056242 767.06344741072007 0 767.06344741072007 87.422473710078506 0 0 0 0 269.28333068013308 685.29153211599214 0 685.29153211599214 485.40720975758904 0 0 0 0 198.99338823529251 484.11977166161751 0 484.11977166161751 3.4467604623622492 0 0 0 0 71.64413752235123 283.49636225638824 0 283.49636225638824 293.85411285580631 0 0 0 0 51.337851471163958 403.49000437724226 0 403.49000437724226 295.4095205363119 0 0 0 0 29.937089185872509 121.04726711244091 0 121.04726711244091 -128.05833085748733 0 0 0 0 31.020908763151965 337.29104135196394 0 337.29104135196394 306.507460449262 0 0 0 0 93.31402885308853 297.91461694553345 0 297.91461694553345 328.97357445587113 0 0 0 0 -138.75058368522798 59.514518645426392 0 59.514518645426392 50.197721095622938 0 0 0 0 178.98350536525686 427.69070822178583 0 427.69070822178583 330.54846179230663 0 0 0 0 6.0208738372130028 273.14227140754156 0 273.14227140754156 177.73585550056305 0 0 0 0 53.164468094269978 359.233386670443 0 359.233386670443 379.30895533110015 0 0 0 0 139.27637096404214 318.13004640533472 0 318.13004640533472 174.84624574396003 0 0 0 0 154.28220939476887 254.3333044932624 0 254.3333044932624 299.26963019280811 0 0 0 0 -166.19389805299943 143.81317363299604 0 143.81317363299604 282.31206355669929 0 0 0 0 108.62682636973477 341.91426167979444 0 341.91426167979444 195.01032894659147 0 0 0 0 248.10809408380373 234.69618350738892 0 234.69618350738892 86.568040502515942 0 0 0 0 128.50376226092885 143.41392936330521 0 143.41392936330521 29.188073102095586 0 0 0 0 70.127880868889406 230.67965833877679 0 230.67965833877679 113.73350042198035 0 0 0 0 59.053943316968798 226.94093380664708 0 226.94093380664708 112.916959335711 0 0 0 0 69.760446570713611 325.13598124682176 0 325.13598124682176 322.06512704171109 0 0 0 0 167.26424131638123 130.88517577810489 0 130.88517577810489 195.99205535019428 0 0 0 0 1155.9047914285329 187.01023196331516 0 187.01023196331516 -1622.2842889735548 0 0 0 0 46.971990878723943 143.8362523116682 0 143.8362523116682 19.488627421269314 0 0 0 0 -1117.9498571786899 52.574990313848502 0 52.574990313848502 1017.7114691484749 0 0 0 0 -167.25894486144443 198.28851141884297 0 198.28851141884297 54.758869504563336 0 0 0 0 74.133561209258914 272.03350015559772 0 272.03350015559772 49.097074602766043 0 0 0 0 -3.7040718797193222 111.24118848373837 0 111.24118848373837 74.551364262151765 0 0 0 0 -1253.3787027272774 147.79137001183699 0 147.79137001183699 673.60839471233339 0 0 0 0 136.65018653723382 636.22539397343826 0 636.22539397343826 51.195043003455794 0 0 0 0 -1327.5290276662417 -159.16555170526408 0 -159.16555170526408 519.52814297459554 0 0 0 0 -442.99375068591326 509.6358462537537 0 509.6358462537537 210.85992557492864 0 0 0 0 438.23332888032746 348.20981108222986 0 348.20981108222986 -93.841188522470475 0 0 0 0 48.196017867435252 150.71538328115398 0 150.71538328115398 62.888646612630254 0 0 0 0 -4.370043575312593 229.20007112386156 0 229.20007112386156 110.78407649246947 0 0 0 0 -83.797222781399796 258.21853307360789 0 258.21853307360789 101.56720504187979 0 0 0 0 143.28815362892965 304.97564698353744 0 304.97564698353744 151.02154130255076 0 0 0 0 172.84051885147892 264.31281921346454 0 264.31281921346454 62.433142199075519 0 0 0 0 52.575574299632073 184.05730827531366 0 184.05730827531366 105.91067099167552 0 0 0 0 -145.64256132677656 313.75764860345407 0 313.75764860345407 87.356419103467488 0 0 0 0 -128.3530025491782 294.21690611286976 0 294.21690611286976 108.29538546846743 0 0 0 0 350.52929324365368 403.81233659890859 0 403.81233659890859 70.228553506851313 0 0 0 0 159.30077463537236 116.51560914750007 0 116.51560914750007 -46.12138073488677 0 0 0 0 464.10136601898012 210.66936957838152 0 210.66936957838152 -26.623415942915017 0 0 0 0 -34.581317744171457 6.9370146053846469 0 6.9370146053846469 3.6460043770571247 0 0 0 0 151.85341217349196 332.31160568813357 0 332.31160568813357 58.032992410798215 0 0 0 0 166.85652302754875 323.0516001768749 0 323.0516001768749 18.443544655761798 0 0 0 0 186.38820248421598 288.37421502953657 0 288.37421502953657 142.6380716229487 0 0 0 0 54.38140896879176 82.156656529793921 0 82.156656529793921 -110.66348753483544 0 0 0 0 51.745476567419246 178.32025925437847 0 178.32025925437847 60.930840241046099 0 0 0 0 35.235622900097837 124.46706598895858 0 124.46706598895858 -69.34169441590862 0 0 0 0 122.3268148785337 269.58520784434313 0 269.58520784434313 50.778163317098006 0 0 0 0 -6.6754597164472784 88.094452664720322 0 88.094452664720322 -17.870348467810658 0 0 0 0 154.01197876008519 319.3409181015918 0 319.3409181015918 35.502045012134431 0 0 0 0 -19.606069819856714 67.609608004601427 0 67.609608004601427 -43.246288062919724 0 0 0 0 856.385785401475 1243.176424782831 0 1243.176424782831 -363.24124825644685 0 0 0 0 -647.52852187406825 590.25303413100937 0 590.25303413100937 920.19194921969574 0 0 0 0 135.84712639392501 251.23943959673488 0 251.23943959673488 102.87025016223743 0 0 0 0 33.032044674038822 7.7955793013502017 0 7.7955793013502017 -15.002364653239841 0 0 0 0 327.86796666243754 -93.151204994802924 0 -93.151204994802924 -31.135453530829025 0 0 0 0 -14.972945629457172 40.948126701024918 0 40.948126701024918 15.253252096661299 0 0 0 0 165.43124987399074 179.84319152134594 0 179.84319152134594 122.99694710126914 0 0 0 0 830.40151547246933 524.40735983853085 0 524.40735983853085 81.771547061481101 0 0 0 0 16.885943089465577 46.10371189279563 0 46.10371189279563 -35.967669456008551 0 0 0 0 135.2061313786246 124.12447697123366 0 124.12447697123366 49.849539657698188 0 0 0 0 -44.881720961890458 68.741899088356462 0 68.741899088356462 -23.44940421126222 0 0 0 0 196.60526490120901 284.82273817276382 0 284.82273817276382 86.893807162186022 0 0 0 0 -26.4449288762262 39.232130740250994 0 39.232130740250994 -60.076233888074562 0 0 0 0 108.85257413734325 239.98650425981032 0 239.98650425981032 64.01266032479657 0 0 0 0 91.754238697553006 116.91462523429911 0 116.91462523429911 -60.964302772235577 0 0 0 0 -90.556237628436065 262.48004298192245 0 262.48004298192245 40.314624797590113 0 0 0 0 0.57818135595914555 114.0656035940473 0 114.0656035940473 -41.358650192510929 0 0 0 0 -80.970986533924588 337.71512881689523 0 337.71512881689523 324.44288815237815 0 0 0 0 56.7995589284983 255.58335446014462 0 255.58335446014462 200.62358146480801 0 0 0 0 -43.879459065487026 325.37480657658489 0 325.37480657658489 191.07967587747407 0 0 0 0 -0.51893656663582277 67.878384939503519 0 67.878384939503519 -27.885340173523499 0 0 0 0 9.9784293029420397 139.1615641167665 0 139.1615641167665 124.77819248551896 0 0 0 0 -373.67727060639299 266.14252408106404 0 266.14252408106404 193.15762109713251 0 0 0 0 -51.34192102040106 199.93238096982896 0 199.93238096982896 133.01139584728298 0 0 0 0 48.79141626919008 17.501189987535795 0 17.501189987535795 -5.281381041288931 0 0 0 0 -18.482448744930409 137.97835833896585 0 137.97835833896585 112.21900547532289 0 0 0 0 153.46915345921116 197.98869691018081 0 197.98869691018081 114.52427557077408 0 0 0 0 -65.716564496498904 307.10230109540498 0 307.10230109540498 73.833965279452968 0 0 0 0 487.69945364322484 266.29023830343249 0 266.29023830343249 -21.633740459592445 0 0 0 0 -150.79821115926461 232.57300449064496 0 232.57300449064496 172.41162511967923 0 0 0 0 -103.45243207135354 162.1165882761361 0 162.1165882761361 171.59850026225877 0 0 0 0 -138.71346340096022 94.198562831350984 0 94.198562831350984 93.285331266765724 0 0 0 0 -87.972280739108101 210.27811779983313 0 210.27811779983313 268.5958628093249 0 0 0 0 -52.584086439498719 275.19682571004699 0 275.19682571004699 241.13366385351401 0 0 0 0 -99.225920219704676 188.74448921222006 0 188.74448921222006 238.72147383748597 0 0 0 0 -56.026278160764775 49.09185262427701 0 49.09185262427701 19.548635699021517 0 0 0 0 11.633088933936961 118.79784698753247 0 118.79784698753247 123.8255800648185 0 0 0 0 418.1168374417889 -2809.8359236428969 0 -2809.8359236428969 960.52005205500609 0 0 0 0 -26.43816769180691 33.536225542735281 0 33.536225542735281 21.29246795892486 0 0 0 0 -341.79002152177418 607.05289646880919 0 607.05289646880919 718.07918016381336 0 0 0 0 -104.08617012486684 412.55148120824015 0 412.55148120824015 -304.2650732270813 0 0 0 0 316.91721533841337 727.01678282877401 0 727.01678282877401 -1106.0771972404 0 0 0 0 164.46976284813229 85.334335870406363 0 85.334335870406363 -18.532910838194596 0 0 0 0 33.889872831498906 1452.4311520934407 0 1452.4311520934407 -159.21737219829811 0 0 0 0 27.401230441024381 76.673941095648843 0 76.673941095648843 110.27897233216709 0 0 0 0 292.6131787637346 212.78299262771543 0 212.78299262771543 5.3752586257505754 0 0 0 0 -1364.4813273648542 -1078.2325987326349 0 -1078.2325987326349 -57.476779418490196 0 0 0 0 -30.303833287877179 123.34992810315427 0 123.34992810315427 87.084248310401449 0 0 0 0 205.89037184057429 71.606474191610047 0 71.606474191610047 -27.517457937439744 0 0 0 0 485.86979945964413 -11.017645544310653 0 -11.017645544310653 -247.75029546957285 0 0 0 0 -15.034092292939022 155.49298304503827 0 155.49298304503827 192.27351422429138 0 0 0 0 50.354635160850819 48.99907216850778 0 48.99907216850778 -48.366084329424936 0 0 0 0 101.14166553968971 1503.077944678922 0 1503.077944678922 593.29501631629682 0 0 0 0 111.00584547591279 134.97106088120518 0 134.97106088120518 323.07154059778895 0 0 0 0 -126.2560671561223 330.49964261693458 0 330.49964261693458 472.36367194671675 0 0 0 0 -43.760518852150824 32.297930517809633 0 32.297930517809633 6.4744178097876528 0 0 0 0 -545.36067514348542 99.720727225026394 0 99.720727225026394 391.73423555903901 0 0 0 0 34.75691279147577 153.19659171465719 0 153.19659171465719 312.69537388726349 0 0 0 0 -113.10301000338222 114.721838078156 0 114.721838078156 97.510779638498207 0 0 0 0 23.903059407861292 183.31356920179906 0 183.31356920179906 125.13542017532018 0 0 0 0 -733.28495292906882 458.39776179477121 0 458.39776179477121 448.9706006294291 0 0 0 0 187.08614958489488 598.68998889583236 0 598.68998889583236 197.40272355367779 0 0 0 0 -3.4347079406315117 16.795117725842488 0 16.795117725842488 17.962042715430357 0 0 0 0 202.83889164576522 377.58256584814126 0 377.58256584814126 -139.55385958691477 0 0 0 0 71.51988957413414 25.473707073935657 0 25.473707073935657 -165.03732309125189 0 0 0 0 2.7682364098256471 8.5348876295493206 0 8.5348876295493206 0.16241809577760336 0 0 0 0 1057.2562011829432 -242.78193119115713 0 -242.78193119115713 70.137445943005332 0 0 0 0 1.6939199354840184 10.738709593680028 0 10.738709593680028 6.2655953603307637 0 0 0 0 1532.2525805068144 644.70674920010424 0 644.70674920010424 -183.30573317087692 0 0 0 0 -45.656198643064471 21.076090139158971 0 21.076090139158971 2.7956039665878674 0 0 0 0 -44.583596854248754 73.206746480938818 0 73.206746480938818 44.303536913270364 0 0 0 0 -125.10212194467022 49.826484903209348 0 49.826484903209348 387.08459945646155 0 0 0 0 -86.564519380612182 179.55125067936888 0 179.55125067936888 570.40261063406069 0 0 0 0 -229.35103179482394 556.61413842681213 0 556.61413842681213 279.39598677572212 0 0 0 0 1864.0877260872221 -721.07097954070741 0 -721.07097954070741 -105.86074158415158 0 0 0 0 94.013705552635656 -354.99030955461967 0 -354.99030955461967 1027.256071822685 0 0 0 0 -495.93108747476072 371.96229879212115 0 371.96229879212115 1175.9867874694237 0 0 0 0 92.702831300692196 132.40624001374817 0 132.40624001374817 98.589112060697516 0 0 0 0 100.72645593561174 156.71948713640086 0 156.71948713640086 155.68271776834445 0 0 0 0 51.308757234165569 381.82150996234463 0 381.82150996234463 118.85997546943327 0 0 0 0 26.834630204553832 205.864792929553 0 205.864792929553 121.63394484154924 0 0 0 0 4.8535592033268813 53.698080816570425 0 53.698080816570425 -62.720878142957375 0 0 0 0 -45.283269800354901 171.15755536664392 0 171.15755536664392 106.27857407780539 0 0 0 0 -22.317109959723894 152.80074686296575 0 152.80074686296575 95.163943562625718 0 0 0 0 683.12104882767017 305.17587546694676 0 305.17587546694676 -147.88225324123778 0 0 0 0 -64.305037913895703 56.898545381704338 0 56.898545381704338 56.245174065839876 0 0 0 0 -68.714284579938976 219.46614495955509 0 219.46614495955509 116.57781586155215 0 0 0 0 329.82132284639374 69.088165978208053 0 69.088165978208053 118.25269094366013 0 0 0 0 -57.032682379940525 471.10794745190833 0 471.10794745190833 313.00937258456815 0 0 0 0 -64.055554161576126 59.98188585971657 0 59.98188585971657 76.398125001575281 0 0 0 0 388.41543142411683 479.40727135578163 0 479.40727135578163 113.18415959473441 0 0 0 0 -184.28657679892785 393.834708543337 0 393.834708543337 150.64606535926123 0 0 0 0 -99.544487747683888 133.20990573666313 0 133.20990573666313 108.70323742077449 0 0 0 0 -596.822360165992 348.2277612350681 0 348.2277612350681 223.08826495280482 0 0 0 0 -865.19408716091857 868.40344250971248 0 868.40344250971248 -502.74026354503803 0 0 0 0 -402.94512114369718 -0.076165253802173538 0 -0.076165253802173538 -141.31673410783696 0 0 0 0 -69.411165794503177 247.47624770356106 0 247.47624770356106 -485.33384052438123 0 0 0 0 415.33890478696412 375.28725768887125 0 375.28725768887125 -107.45575986299082 0 0 0 0 197.23091290207594 -34.595053856252889 0 -34.595053856252889 -9.2762236220423802 0 0 0 0 202.26103234346374 312.82284971001354 0 312.82284971001354 -695.34210760986207 0 0 0 0 94.552405369140615 187.74945618154652 0 187.74945618154652 -469.62910584294877 0 0 0 0 288.2313230104628 -328.91326015623417 0 -328.91326015623417 -83.620239873516766 0 0 0 0 -200.45060991671926 173.21913640220009 0 173.21913640220009 131.06824571450488 0 0 0 0 -4.8561324738984695 184.71721084635828 0 184.71721084635828 83.025888844691508 0 0 0 0 235.60801505103882 -47.126937132845342 0 -47.126937132845342 -38.953639276340255 0 0 0 0 335.46839257727697 97.23306749744097 0 97.23306749744097 25.995969489726122 0 0 0 0 -189.88241408408794 -44.191218685693457 0 -44.191218685693457 -7.388786615760182 0 0 0 0 -527.40016721744905 104.09349459137593 0 104.09349459137593 175.08627987939326 0 0 0 0 -54.478917789172314 63.391479040649443 0 63.391479040649443 50.331696671607943 0 0 0 0 -1348.3996300223953 -262.40989469443775 0 -262.40989469443775 336.15988954612112 0 0 0 0 10.401163705770898 18.538474387000264 0 18.538474387000264 -2.0677920189202439 0 0 0 0 -1121.6264392996236 154.48629290295867 0 154.48629290295867 -259.88628526905086 0 0 0 0 -24.839559559242815 7.9885360259840112 0 7.9885360259840112 15.948849230380745 0 0 0 0 96.770536318494123 64.268083696028043 0 64.268083696028043 50.072472194536203 0 0 0 0 73.084793374341785 56.813856365183867 0 56.813856365183867 24.831201691423573 0 0 0 0 100.47523018619768 -31.069349874314526 0 -31.069349874314526 118.04738775417354 0 0 0 0 -145.6426165868761 452.26455369569885 0 452.26455369569885 -223.60887397618001 0 0 0 0 140.49322171521635 130.3908711261829 0 130.3908711261829 -670.60116627585376 0 0 0 0 10.790361837134697 -16.492338772040966 0 -16.492338772040966 -233.08217097393936 0 0 0 0 -84.219697504522628 640.35948905998521 0 640.35948905998521 -769.5335858850367 0 0 0 0 -2.2698480789057953 4.903748289859891 0 4.903748289859891 8.0041375290531391 0 0 0 0 816.85813754121773 -30.674457822202385 0 -30.674457822202385 -23.090079709818383 0 0 0 0 13.429604856559308 50.778316980457021 0 50.778316980457021 208.11089166727106 0 0 0 0 68.790176482158131 -146.35212350577422 0 -146.35212350577422 320.61590684816838 0 0 0 0 62.258420110592851 -86.112751245549589 0 -86.112751245549589 72.628436816896283 0 0 0 0 55.2503865424369 2.7574610740884964 0 2.7574610740884964 14.989309673374009 0 0 0 0 103.39123379727243 19.494528007784538 0 19.494528007784538 13.40124303556513 0 0 0 0 54.514909365470544 24.236025538372161 0 24.236025538372161 10.133970442522383 0 0 0 0 573.97241595552623 135.94584704387307 0 135.94584704387307 -94.163942843049881 0 0 0 0 7.935020923515026 5.3108444026021857 0 5.3108444026021857 18.906961061275581 0 0 0 0 134.66962723188954 82.878981412532085 0 82.878981412532085 143.95583839269239 0 0 0 0 361.05842306392151 27.863265077765391 0 27.863265077765391 105.57047469802637 0 0 0 0 12.207601734011945 4.4526484225665719 0 4.4526484225665719 5.3043023590102933 0 0 0 0 484.88941068561689 -503.72002171678832 0 -503.72002171678832 229.80341301329827 0 0 0 0 -349.00338815825307 128.62843875803355 0 128.62843875803355 -5.2888477064916515 0 0 0 0 -128.14124365530733 174.64436501470482 0 174.64436501470482 -41.261396682006307 0 0 0 0 4.800073952153511 5.8586624734309964 0 5.8586624734309964 9.5566981267577376 0 0 0 0 85.972090585008118 201.56362785893634 0 201.56362785893634 613.46450814580749 0 0 0 0 178.6265948359287 628.70884776526509 0 628.70884776526509 322.33592528859299 0 0 0 0 -303.96831564121385 293.18354001750777 0 293.18354001750777 249.21918596200703 0 0 0 0 -121.85681355907582 250.03316252982768 0 250.03316252982768 187.37791967589874 0 0 0 0 -821.12239785580823 799.27851221125911 0 799.27851221125911 128.75344820886676 0 0 0 0 -246.8393796174787 228.44452172308229 0 228.44452172308229 295.74519390432761 0 0 0 0 -79.740621361830563 326.62597379083309 0 326.62597379083309 -30.822265370457899 0 0 0 0 -293.7583686717262 301.0649207817296 0 301.0649207817296 -22.169400834980479 0 0 0 0 -265.30783926534787 226.34807633365199 0 226.34807633365199 75.306416942788928 0 0 0 0 -326.16526311294729 116.58994252165212 0 116.58994252165212 2.2798354307706177 0 0 0 0 -296.9108441146891 237.45762040979389 0 237.45762040979389 104.70416772336466 0 0 0 0 -200.80267089691188 293.68802324951685 0 293.68802324951685 165.60492014542979 0 0 0 0 -110.76396949643095 182.58017350162845 0 182.58017350162845 72.757430748068145 0 0 0 0 -154.58883078910003 144.18788013082303 0 144.18788013082303 144.16338628902304 0 0 0 0 -71.693131808293401 239.18770578715703 0 239.18770578715703 -23.66650487339939 0 0 0 0 -979.30245552667475 166.97600596397388 0 166.97600596397388 160.26383257748239 0 0 0 0 -130.01282511846512 412.37018337736299 0 412.37018337736299 87.944412468397786 0 0 0 0 248.35604583224085 352.45182494366691 0 352.45182494366691 -74.446770219430618 0 0 0 0 -157.85784702665296 147.08153394036322 0 147.08153394036322 78.08928277745872 0 0 0 0 37.204974569535047 108.02382468879478 0 108.02382468879478 53.663677078698726 0 0 0 0 927.21712609433598 661.68203081862521 0 661.68203081862521 19.861704089755222 0 0 0 0 -1.692133448655099 1.7679971315813816 0 1.7679971315813816 3.5446561753092851 0 0 0 0 181.13635527624865 144.64876238029683 0 144.64876238029683 -368.32785449557559 0 0 0 0 -50.96632858052908 627.09245112737699 0 627.09245112737699 186.4454260147977 0 0 0 0 71.519873174416716 746.81056858841839 0 746.81056858841839 -791.31254936588812 0 0 0 0 103.61785142865665 -162.29715624658002 0 -162.29715624658002 -981.20651564501895 0 0 0 0 -9.1500798713792619 6.5885031624825672 0 6.5885031624825672 -4.983403692547995 0 0 0 0 -471.47372881535557 92.487115082152741 0 92.487115082152741 126.6926776302862 0 0 0 0 107.64398537443049 171.50902663801389 0 171.50902663801389 97.35211817266827 0 0 0 0 30.000234950421145 96.169815612811362 0 96.169815612811362 110.60099551393068 0 0 0 0 -25.885354712241764 18.295292191178106 0 18.295292191178106 -15.881042521969249 0 0 0 0 -8.7423607303935569 198.06743937819556 0 198.06743937819556 -123.67589484266 0 0 0 0 155.14808800625906 102.43333654511662 0 102.43333654511662 2.0004956311022397 0 0 0 0 66.337272467731964 60.830452156587853 0 60.830452156587853 -108.99789897078517 0 0 0 0 60.447386374207781 7.9527921292160499 0 7.9527921292160499 -209.32153301908693 0 0 0 0 -40.054457907710457 186.88811572226405 0 186.88811572226405 -124.46946314339584 0 0 0 0 28.689629684085958 232.73987985679196 0 232.73987985679196 -127.66175573310466 0 0 0 0 38.573376390952035 179.03573929879394 0 179.03573929879394 24.156519211443083 0 0 0 0 72.326602053239185 170.78570703045625 0 170.78570703045625 18.941045368577761 0 0 0 0 157.32006806419668 73.726664638543298 0 73.726664638543298 19.84928225902695 0 0 0 0 20.880316088614819 108.12902311314568 0 108.12902311314568 39.042820800246943 0 0 0 0 96.159477282737498 34.338801624224288 0 34.338801624224288 -2.0966536883506706 0 0 0 0 -3.0262168248465855 0.67258903003690307 0 0.67258903003690307 2.4615883155937013 0 0 0 0 101.00663696057745 78.522363833275449 0 78.522363833275449 -177.96374885426667 0 0 0 0 48.894709814660018 29.399914645960962 0 29.399914645960962 62.64000834946637 0 0 0 0 -27.65759330556196 41.204615720139685 0 41.204615720139685 -18.10932235618688 0 0 0 0 25.320704274417949 80.037109159002284 0 80.037109159002284 114.56573285899867 0 0 0 0 9.6856752534586121 -40.139058602831938 0 -40.139058602831938 -4.3709466364671243 0 0 0 0 181.0092447399802 123.16948019589108 0 123.16948019589108 77.072407486557495 0 0 0 0 -72.004566242234432 70.331414829161076 0 70.331414829161076 108.87622969209042 0 0 0 0 41.697856276281527 122.75990534182347 0 122.75990534182347 86.450602607721521 0 0 0 0 32.035942903367356 22.659362374436768 0 22.659362374436768 2.4988160419129883 0 0 0 0 -51.345854237340973 148.22235928567534 0 148.22235928567534 68.32978779678524 0 0 0 0 -50.112611551552547 79.568969617548902 0 79.568969617548902 47.684420220710024 0 0 0 0 -35.78773600580535 96.919871913032949 0 96.919871913032949 36.159023817145552 0 0 0 0 -92.776344267331297 108.08973294493626 0 108.08973294493626 71.52658155982499 0 0 0 0 -421.70988408391713 269.00468052628275 0 269.00468052628275 -138.92199568350043 0 0 0 0 -65.218769507308025 -8.2682278651045635 0 -8.2682278651045635 -460.79004084999906 0 0 0 0 -13.515119346177073 -0.51036224034206157 0 -0.51036224034206157 18.027347810280872 0 0 0 0 -42.271177904091132 69.055769385747439 0 69.055769385747439 24.319005857859565 0 0 0 0 48.30784813122591 262.34666264482075 0 262.34666264482075 -74.831839546328411 0 0 0 0 -24.068084295862832 53.722069644335591 0 53.722069644335591 20.493386399667614 0 0 0 0 -12.483333117910661 47.808484573892201 0 47.808484573892201 15.877311846386874 0 0 0 0 -251.1304080759619 38.864430482348325 0 38.864430482348325 -38.2718065042136 0 0 0 0 -11.849049245052022 56.026280398166591 0 56.026280398166591 7.2528780322570583 0 0 0 0 3038.8062452419836 424.06970295523388 0 424.06970295523388 1333.6914802076062 0 0 0 0 1386.6639668224961 -447.69213880598545 0 -447.69213880598545 874.40871535844053 0 0 0 0 2452.9722028776887 850.94522149884142 0 850.94522149884142 449.08570904564112 0 0 0 0 -368.56657099323638 -123.72573532600654 0 -123.72573532600654 1208.6779801151133 0 0 0 0 6.9752382306588387 16.218177312368553 0 16.218177312368553 -2.9227020439368516 0 0 0 0 172.12728732026881 232.61439470318146 0 232.61439470318146 -67.831275115604512 0 0 0 0 -351.43737008745666 186.94305427349173 0 186.94305427349173 1016.2228020234616 0 0 0 0 200.15141697251238 674.69444589837804 0 674.69444589837804 682.99681366357254 0 0 0 0 462.11628611836932 1613.1015768182697 0 1613.1015768182697 1909.5058092357067 0 0 0 0 -289.3422881749284 529.99844963716168 0 529.99844963716168 757.80548438246478 0 0 0 0 -469.84483385889325 542.53587669858825 0 542.53587669858825 264.05392908185604 0 0 0 0 186.3271075002267 167.42823177212995 0 167.42823177212995 -147.15612440874611 0 0 0 0 -1648.5372500866652 -856.44589452049695 0 -856.44589452049695 3004.1583270663104 0 0 0 0 7.0370380004169419 51.922142047507805 0 51.922142047507805 -46.347408469708171 0 0 0 0 306.06281399067666 270.75477771585429 0 270.75477771585429 -58.087429887818871 0 0 0 0 24.435133713286092 22.334778524910959 0 22.334778524910959 7.4888980232656763 0 0 0 0 15.889716015342856 10.32706064984086 0 10.32706064984086 69.696070755831897 0 0 0 0 458.91198452831304 492.19622574775713 0 492.19622574775713 233.40547910257737 0 0 0 0 232.627455830283 102.54871126069338 0 102.54871126069338 74.188979912676587 0 0 0 0 225.99705845006974 296.32456256668229 0 296.32456256668229 406.23184535129258 0 0 0 0 310.5445085093379 718.8919767544503 0 718.8919767544503 935.77937891579495 0 0 0 0 -15.341006165341241 290.63923871258885 0 290.63923871258885 789.44056168041425 0 0 0 0 265.85382966885481 480.47049637034252 0 480.47049637034252 416.28156704698631 0 0 0 0 21.668783040513517 314.74334136614198 0 314.74334136614198 333.13823165569192 0 0 0 0 234.39503509679344 229.29045233430588 0 229.29045233430588 77.452777015350875 0 0 0 0 191.31462185957935 197.60893593516812 0 197.60893593516812 19.29123482113755 0 0 0 0 180.77142056744924 170.45250350608694 0 170.45250350608694 106.82050394878024 0 0 0 0 378.00571059294452 356.06464049729402 0 356.06464049729402 174.389119091662 0 0 0 0 80.484051723336449 111.38942941260521 0 111.38942941260521 79.570936056127337 0 0 0 0 -3.2581505868329259 159.02157738131791 0 159.02157738131791 -165.89282635757399 0 0 0 0 133.38052402749599 -3.6201082985207904 0 -3.6201082985207904 -737.18679102323949 0 0 0 0 33.996207464291729 87.392416325452359 0 87.392416325452359 -130.45570454266272 0 0 0 0 25.941661008433584 16.863463005000085 0 16.863463005000085 1.4145630826096749 0 0 0 0 75.796141417355102 63.757622453449585 0 63.757622453449585 -171.38431431973822 0 0 0 0 -2.0243407376468241 0.90167647671418649 0 0.90167647671418649 -1.9239019810917739 0 0 0 0 212.84609519130765 50.822340341053405 0 50.822340341053405 267.21761377085932 0 0 0 0 238.73384932238139 875.48589968864076 0 875.48589968864076 826.60899501832318 0 0 0 0 1351.0393834378483 484.53016590460174 0 484.53016590460174 245.14042544338736 0 0 0 0 -452.41502132753158 152.44115703059651 0 152.44115703059651 67.437071402073343 0 0 0 0 -62.700712022727146 -19.371279108493823 0 -19.371279108493823 28.353426050196163 0 0 0 0 -321.07707986255627 193.77181507800924 0 193.77181507800924 137.34940412065771 0 0 0 0 -172.7991276936263 51.698605749000791 0 51.698605749000791 105.05402360129875 0 0 0 0 -524.34317189678404 128.70555180575684 0 128.70555180575684 457.59306113270577 0 0 0 0 -228.74780370903318 521.95853058011562 0 521.95853058011562 382.17052508256165 0 0 0 0 -128.32207427905914 76.557171909983182 0 76.557171909983182 80.918621411889575 0 0 0 0 -368.0958364483522 370.23151279214653 0 370.23151279214653 -8.933395780812134 0 0 0 0 -53.00954330321656 207.88517390744528 0 207.88517390744528 -38.107503613213339 0 0 0 0 -92.277759993734435 164.06602755777567 0 164.06602755777567 -1.6469219868085929 0 0 0 0 414.49635840077826 1067.962352759394 0 1067.962352759394 -205.50315580867391 0 0 0 0 65.525604578526625 139.83937496504456 0 139.83937496504456 86.5637771850337 0 0 0 0 -54.653716304484988 -251.17587567439477 0 -251.17587567439477 49.922176918713376 0 0 0 0 33.740139717350758 184.97829285198168 0 184.97829285198168 -11.540098008728819 0 0 0 0 47.589480218855897 164.96366003422008 0 164.96366003422008 -23.359223054096219 0 0 0 0 -48.454830335501356 130.75097540758907 0 130.75097540758907 39.942877529552788 0 0 0 0 -123.32715280347998 182.28086943807102 0 182.28086943807102 22.409483442505007 0 0 0 0 -34.211279046196978 174.20800903593772 0 174.20800903593772 54.327693451628875 0 0 0 0 105.3625608592522 168.41940666700248 0 168.41940666700248 48.799840169856907 0 0 0 0 25.817330810418355 172.40716930269627 0 172.40716930269627 51.385225428370177 0 0 0 0 55.065461928252574 170.40839450173553 0 170.40839450173553 -39.876918206900882 0 0 0 0 46.307035065059381 128.68729899983737 0 128.68729899983737 -6.2824997754323704 0 0 0 0 166.63932913468307 185.48826584700146 0 185.48826584700146 94.307193907021428 0 0 0 0 45.318764176504388 203.76343921913485 0 203.76343921913485 99.343441738266847 0 0 0 0 59.183558851362001 118.78482494599331 0 118.78482494599331 65.721297403019904 0 0 0 0 137.74825397464701 186.2565192860784 0 186.2565192860784 32.908681161541608 0 0 0 0 -29.441899383905671 60.237346747208484 0 60.237346747208484 -53.031488320440587 0 0 0 0 85.27869831704362 238.92072457461472 0 238.92072457461472 79.638499920562026 0 0 0 0 8.0433655599281337 107.52998930428112 0 107.52998930428112 -22.32780916257434 0 0 0 0 19.424934428061079 119.05530362014861 0 119.05530362014861 -19.056115872648661 0 0 0 0 61.288234137217387 234.06113324128819 0 234.06113324128819 109.18381327047973 0 0 0 0 -42.164734044035129 48.658110692043351 0 48.658110692043351 -64.120553891426596 0 0 0 0 7.0615117055235714 87.806532974051606 0 87.806532974051606 -17.872985558744404 0 0 0 0 -2.2107094916373171 127.5552309808154 0 127.5552309808154 -5.5635558743606452 0 0 0 0 45.352848431830353 138.68066092940717 0 138.68066092940717 52.472811525731231 0 0 0 0 -8.4749379554665225 71.232073972044546 0 71.232073972044546 -56.341910800096386 0 0 0 0 79.58153060141467 199.4346273153933 0 199.4346273153933 83.743120055945838 0 0 0 0 20.569492235128759 119.9908166399256 0 119.9908166399256 66.148423644793269 0 0 0 0 -12.032278503596899 153.29125125239807 0 153.29125125239807 9.5406333605496911 0 0 0 0 84.075806232266316 36.68731209659606 0 36.68731209659606 -25.366990351233511 0 0 0 0 -14.174421926038121 98.585554360535752 0 98.585554360535752 -18.709839721934259 0 0 0 0 5.1159225965539008 98.619869650501641 0 98.619869650501641 6.6076338407956428 0 0 0 0 22.59546923958078 -376.28934906213453 0 -376.28934906213453 453.83491754172428 0 0 0 0 555.47005799791077 -25.944749641581438 0 -25.944749641581438 68.129745260554046 0 0 0 0 -118.75349253907689 150.6606578834444 0 150.6606578834444 5.0312549787704484 0 0 0 0 47.648546177599918 138.89859933543494 0 138.89859933543494 -5.7588716125109443 0 0 0 0 32.028582757424374 103.9546716547884 0 103.9546716547884 8.1023090989801858 0 0 0 0 13.160012506548242 169.22498679124988 0 169.22498679124988 46.26494874610944 0 0 0 0 78.292835316762648 231.13516634044299 0 231.13516634044299 78.240463172005548 0 0 0 0 52.803530731437604 159.85598786018591 0 159.85598786018591 22.257231545703689 0 0 0 0 25.683904263874865 142.03179332358559 0 142.03179332358559 102.11600182004713 0 0 0 0 40.141890811453777 195.08528681269127 0 195.08528681269127 79.683797412657441 0 0 0 0 26.302046658529434 211.764092756639 0 211.764092756639 195.55049122287346 0 0 0 0 -131.34321463978782 52.744164297095608 0 52.744164297095608 60.045198593428722 0 0 0 0 81.551959844378871 239.7814515368209 0 239.7814515368209 161.98492428940517 0 0 0 0 49.07706903750659 251.48394504802127 0 251.48394504802127 207.81982597937167 0 0 0 0 31.462864959117724 273.78159098551987 0 273.78159098551987 337.50257684540702 0 0 0 0 -116.41270712723644 51.314375639051853 0 51.314375639051853 74.744277126350511 0 0 0 0 90.079101323281066 199.06241793873778 0 199.06241793873778 104.4779405757763 0 0 0 0 -74.577416623826139 85.412211282084172 0 85.412211282084172 274.23876895049398 0 0 0 0 7.5467411148092651 161.67220756788811 0 161.67220756788811 180.48033823946298 0 0 0 0 46.89132977184272 108.3483811456199 0 108.3483811456199 35.312985604854475 0 0 0 0 53.513256302807235 95.540584986140658 0 95.540584986140658 79.915699630137084 0 0 0 0 -18.728373666337575 181.13949567065356 0 181.13949567065356 113.96475622617436 0 0 0 0 9.0334797084215097 128.28399587654712 0 128.28399587654712 -17.740103478060973 0 0 0 0 35.512313128565438 113.03296168231464 0 113.03296168231464 -16.811312286469729 0 0 0 0 57.290329783397269 67.704667886216527 0 67.704667886216527 70.314991661205539 0 0 0 0 60.188914316313458 158.16617501950532 0 158.16617501950532 -184.44775767538522 0 0 0 0 -2.8549812298806501 158.01995272866043 0 158.01995272866043 -56.977004192624008 0 0 0 0 36.34583127505357 110.85294601588066 0 110.85294601588066 -30.319392375135067 0 0 0 0 -1.4797921031458827 167.46820908363406 0 167.46820908363406 -8.3374088564887643 0 0 0 0 8.3332622995076235 106.78291217544574 0 106.78291217544574 24.722681558709155 0 0 0 0 117.64668629399966 279.3335575080564 0 279.3335575080564 483.04667580970272 0 0 0 0 107.90911503074312 591.25996281906009 0 591.25996281906009 797.50538710618275 0 0 0 0 34.226964999677932 120.1192589738488 0 120.1192589738488 -128.89710828383835 0 0 0 0 546.09294375637546 281.4686063990398 0 281.4686063990398 -196.28816064835678 0 0 0 0 31.865250410083576 118.11304131224261 0 118.11304131224261 -125.94828891133562 0 0 0 0 120.91309393804841 282.47649447396179 0 282.47649447396179 484.13312995787419 0 0 0 0 236.20722612489044 410.8512048365119 0 410.8512048365119 444.20234735155827 0 0 0 0 39.865292537171626 379.38301658512501 0 379.38301658512501 471.48236583593825 0 0 0 0 76.609788970992668 273.89465741098684 0 273.89465741098684 370.82633281039307 0 0 0 0 19.822502752474975 317.78349100986088 0 317.78349100986088 473.99010765446292 0 0 0 0 84.14941574306431 272.45692238689298 0 272.45692238689298 326.40664283437945 0 0 0 0 107.14498923547217 459.71290537933237 0 459.71290537933237 633.93869348224325 0 0 0 0 111.68595587005257 276.54243555159337 0 276.54243555159337 396.38495407369192 0 0 0 0 -13.856171354054823 287.93550465490989 0 287.93550465490989 420.61094426945783 0 0 0 0 2.5281444934516912 176.95837702955032 0 176.95837702955032 346.81803312237025 0 0 0 0 -71.665017460167292 183.95819905159442 0 183.95819905159442 377.9495793197857 0 0 0 0 -32.150484185316145 55.900792430775361 0 55.900792430775361 2.894016787395401 0 0 0 0 -6.6446536380681209 202.90245720156963 0 202.90245720156963 -24.167240570779541 0 0 0 0 -35.446343756080523 17.170347895440841 0 17.170347895440841 26.755803319405032 0 0 0 0 -74.134039200638654 26.393587244383525 0 26.393587244383525 75.715907709760359 0 0 0 0 9.1627655406628037 98.795196963605122 0 98.795196963605122 8.1052468673951807 0 0 0 0 28.329583174643119 64.872452318650687 0 64.872452318650687 37.15673181482444 0 0 0 0 -5.4429214189804043 110.81842513790798 0 110.81842513790798 5.780140527698677 0 0 0 0 -117.69335475686239 2.3543430538993562 0 2.3543430538993562 139.79155779874418 0 0 0 0 -81.579055517395318 257.06803295729333 0 257.06803295729333 -265.79839350684779 0 0 0 0 -41.41375994806782 43.31194714141597 0 43.31194714141597 40.942088627006868 0 0 0 0 -25.220092708710581 128.181323034456 0 128.181323034456 268.30909233976854 0 0 0 0 -112.3050478855148 36.96253821105347 0 36.96253821105347 199.89481994857488 0 0 0 0 -200.88348481123103 320.94580931629753 0 320.94580931629753 -525.51161419640266 0 0 0 0 -135.49520053691231 38.716924577136524 0 38.716924577136524 216.40965503628831 0 0 0 0 -36.702975735068321 104.42687412296073 0 104.42687412296073 216.13457876526081 0 0 0 0 -79.769113124842988 72.016279822666547 0 72.016279822666547 223.75498598348349 0 0 0 0 -79.769113127142191 72.016279822681099 0 72.016279822681099 223.75498598383274 0 0 0 0 -66.729682816891 75.416504394146614 0 75.416504394146614 211.49109810887603 0 0 0 0 -79.769113124639262 72.016279822506476 0 72.016279822506476 223.75498598394915 0 0 0 0 -126.9412992867874 47.510740380268544 0 47.510740380268544 215.40870682883542 0 0 0 0 -106.58643036824651 51.445262429537252 0 51.445262429537252 214.4438569569611 0 0 0 0 -132.98727406229591 35.635191749373917 0 35.635191749373917 216.13428705534898 0 0 0 0 -116.8723712330393 327.13745479617501 0 327.13745479617501 -525.93867763626622 0 0 0 0 -48.714857374900021 243.08279456476157 0 243.08279456476157 -410.64474564450211 0 0 0 0 -73.556662746355869 297.45779781439342 0 297.45779781439342 -507.24112498268369 0 0 0 0 -148.19313460573903 302.76344073502696 0 302.76344073502696 -402.94952931854641 0 0 0 0 -225.04937236593105 372.68214340620034 0 372.68214340620034 -492.88885717261564 0 0 0 0 -155.58418125618482 328.7224151484188 0 328.7224151484188 -494.0614512549364 0 0 0 0 -215.52324204397155 344.88741665254929 0 344.88741665254929 -414.03051130735548 0 0 0 0 -173.02801214595092 306.08362144188141 0 306.08362144188141 -483.81914608656371 0 0 0 0 -176.20363960016402 316.188858299196 0 316.188858299196 -515.93225284060463 0 0 0 0 -209.4484661234892 307.50288983416976 0 307.50288983416976 -496.59267865662696 0 0 0 0 -68.299522369459737 84.362449022213696 0 84.362449022213696 236.17594188707881 0 0 0 0 -30.943295236793347 116.93884178902954 0 116.93884178902954 250.07566981215496 0 0 0 0 -203.22875567717711 322.88878980558366 0 322.88878980558366 -514.35169354724349 0 0 0 0 -48.672281986800954 102.60740187001647 0 102.60740187001647 240.41099275863962 0 0 0 0 -30.189002326806076 124.13348548478098 0 124.13348548478098 232.92362889301148 0 0 0 0 -4.7981551714474335 146.29994770089979 0 146.29994770089979 257.13040695728705 0 0 0 0 -1.7274616420618258 153.19991717161611 0 153.19991717161611 240.07917339354753 0 0 0 0 8.1805191389903484 171.92610786454497 0 171.92610786454497 261.20437496481463 0 0 0 0 -9.3745801790500991 174.27050028432859 0 174.27050028432859 279.58855805784697 0 0 0 0 6.7164979539811611 157.14793227309201 0 157.14793227309201 227.61317901575239 0 0 0 0 -25.169801253709011 120.88394122454338 0 120.88394122454338 225.42859855585266 0 0 0 0 -67.108249619224807 90.787494036267162 0 90.787494036267162 218.03995103994384 0 0 0 0 -53.185372803272912 84.893025891346042 0 84.893025891346042 185.88810316863601 0 0 0 0 2.4079892761365045 146.37816050394031 0 146.37816050394031 138.20312958638533 0 0 0 0 -18.584321134563652 224.44593894950776 0 224.44593894950776 269.35682694878778 0 0 0 0 -27.691512178644189 197.83456918824959 0 197.83456918824959 339.82606357346231 0 0 0 0 25.707256230787607 193.68869383684068 0 193.68869383684068 250.28450886062637 0 0 0 0 24.402463144228022 236.28669499824196 0 236.28669499824196 338.51715004522703 0 0 0 0 -19.697750943189021 244.34180204010772 0 244.34180204010772 385.49104976214585 0 0 0 0 33.222353836667025 283.68865813719458 0 283.68865813719458 412.85240619233809 0 0 0 0 -27.444781339116162 325.09196554750088 0 325.09196554750088 432.75248409407504 0 0 0 0 18.492850698792608 334.53450422877359 0 334.53450422877359 413.06112022793968 0 0 0 0 -318.41947661200538 -480.38385765420389 0 -480.38385765420389 838.722051443081 0 0 0 0 -106.19500313239405 299.45296829001745 0 299.45296829001745 709.50723393581575 0 0 0 0 -164.06883101517451 442.35902746368083 0 442.35902746368083 503.48208491949481 0 0 0 0 -4.1718482669548962 8.5612822290413533 0 8.5612822290413533 -11.95482380191973 0 0 0 0 9.7127338196733035 186.65113827536697 0 186.65113827536697 301.03140557510778 0 0 0 0 -85.208176500920672 173.91579001711216 0 173.91579001711216 436.61156729190407 0 0 0 0 -9.2605052388098557 156.09369618071651 0 156.09369618071651 262.5778720442031 0 0 0 0 -6.5638413623673841 163.61594806058565 0 163.61594806058565 280.91466298594605 0 0 0 0 0.10182096238713712 161.40350827309885 0 161.40350827309885 263.1856813809718 0 0 0 0 -268.52376934344647 313.61846449083532 0 313.61846449083532 -514.8061173564638 0 0 0 0 -319.22648632054916 293.71158887456113 0 293.71158887456113 -504.25972303887829 0 0 0 0 -301.22222240238625 276.89459185572923 0 276.89459185572923 -513.16554105877003 0 0 0 0 -247.11668722459581 301.73411029097042 0 301.73411029097042 -508.33042635343736 0 0 0 0 -239.00169754622038 321.9051640687976 0 321.9051640687976 -498.48026775970357 0 0 0 0 -329.78881185994396 283.40251822831488 0 283.40251822831488 -495.21218313174904 0 0 0 0 -14.64076725076302 703.13603207832057 0 703.13603207832057 -245.83111607109277 0 0 0 0 -325.29109352057458 279.36061982249703 0 279.36061982249703 -610.69638735149056 0 0 0 0 56.741195873859397 545.1757213453966 0 545.1757213453966 49.542905818807412 0 0 0 0 -26.051558501300121 51.076693250263432 0 51.076693250263432 -70.38729210372847 0 0 0 0 -52.180884531146148 657.86027117945196 0 657.86027117945196 88.640826381793886 0 0 0 0 137.53751586406725 455.61570320666578 0 455.61570320666578 228.72831558136386 0 0 0 0 94.857997599312512 470.26198579674747 0 470.26198579674747 399.77102468282101 0 0 0 0 -578.98707956766884 555.11795930443623 0 555.11795930443623 -55.691800336513552 0 0 0 0 -537.88882209336589 540.1236653848573 0 540.1236653848573 -236.95108792887186 0 0 0 0 -400.23678026149719 595.56792102740292 0 595.56792102740292 -793.69715271424502 0 0 0 0 -718.36798923226161 646.64266815123847 0 646.64266815123847 -297.59013615509321 0 0 0 0 -347.76771319300315 438.63366484887956 0 438.63366484887956 -336.10989749897271 0 0 0 0 -276.58772279927507 409.66206194441475 0 409.66206194441475 -565.11098996724468 0 0 0 0 -263.07116557793051 352.44160980198649 0 352.44160980198649 -374.09119794756407 0 0 0 0 -228.78462192996813 397.13489955628756 0 397.13489955628756 -434.12469376518857 0 0 0 0 -399.25197648476751 527.90936284223426 0 527.90936284223426 -419.81787571351015 0 0 0 0 -382.66418524326036 446.68127879585882 0 446.68127879585882 -177.45931739587104 0 0 0 0 -225.54013098614814 436.7159512852013 0 436.7159512852013 -154.65499657164764 0 0 0 0 -277.39233708417305 350.30809977146419 0 350.30809977146419 -89.329738161424757 0 0 0 0 -226.83544812674518 412.26627474766428 0 412.26627474766428 -317.17453364896937 0 0 0 0 -192.11837933969946 354.90059676162491 0 354.90059676162491 -222.7848565546301 0 0 0 0 -167.47263500481495 325.77330640597211 0 325.77330640597211 -410.57905438618036 0 0 0 0 -139.08957315627049 324.56732606903824 0 324.56732606903824 -316.35095704754349 0 0 0 0 -148.36474787743646 355.59454311559966 0 355.59454311559966 -416.8356612315838 0 0 0 0 -161.59225916389551 383.15148302195303 0 383.15148302195303 -252.34648107158137 0 0 0 0 -83.545040753175272 302.47326059357874 0 302.47326059357874 -247.66090804951091 0 0 0 0 -89.314666898120777 316.70874249363442 0 316.70874249363442 -258.67646641409374 0 0 0 0 -91.892460765928263 304.4405286264082 0 304.4405286264082 -307.90119336088537 0 0 0 0 -189.96034581339336 360.2703583984694 0 360.2703583984694 -121.68490623052639 0 0 0 0 -143.34101276987349 331.06183745228918 0 331.06183745228918 -113.13601141555409 0 0 0 0 -159.44557402918872 260.3680116818723 0 260.3680116818723 -6.5616903203626862 0 0 0 0 -226.66998724116274 389.29955399608298 0 389.29955399608298 22.313348130861414 0 0 0 0 -13.65556089999248 15.012790071652176 0 15.012790071652176 -13.383064501070379 0 0 0 0 -222.44019215433218 336.10635642045963 0 336.10635642045963 -96.463308075421082 0 0 0 0 -664.16050188013469 828.01239849015838 0 828.01239849015838 -789.84857924651442 0 0 0 0 -2.5327120827763565 1.0142890699616487 0 1.0142890699616487 2.8129402726771673 0 0 0 0 -303.57417009075289 89.168270676957036 0 89.168270676957036 585.61726149595052 0 0 0 0 -579.44650767810526 532.3926135178117 0 532.3926135178117 145.57870009126054 0 0 0 0 -554.77576702044098 577.14742432900493 0 577.14742432900493 -49.937151973892469 0 0 0 0 -563.18361151152931 503.1721124555479 0 503.1721124555479 -96.531577819318045 0 0 0 0 -726.4092643976328 568.75581640106975 0 568.75581640106975 -97.921240752271842 0 0 0 0 -562.66093127021304 491.07730585644822 0 491.07730585644822 41.845057413738687 0 0 0 0 -482.57789492924348 515.40019103178201 0 515.40019103178201 -23.813821942103459 0 0 0 0 -559.08497687159979 585.13003541750368 0 585.13003541750368 -63.613513805303228 0 0 0 0 -566.50000143352372 597.12571943956573 0 597.12571943956573 -11.615306512409006 0 0 0 0 -14.008329448141012 113.39396424447477 0 113.39396424447477 11.97107908113685 0 0 0 0 -14.307406564096638 75.405584210852794 0 75.405584210852794 44.032815799163018 0 0 0 0 29.912578830292098 79.994558478522961 0 79.994558478522961 8.7167584925248889 0 0 0 0 94.805710913722578 104.26531202806291 0 104.26531202806291 -38.820700296200812 0 0 0 0 3.0317304165626169 97.504578151940933 0 97.504578151940933 -11.472865001443779 0 0 0 0 -50.196726701418811 111.11927281021053 0 111.11927281021053 -44.975464490940794 0 0 0 0 1.1040728781990765 141.40682765576639 0 141.40682765576639 -49.006600584107218 0 0 0 0 28.821270642521995 155.70802635686414 0 155.70802635686414 -196.75083542621724 0 0 0 0 -106.48710274678342 -3.1817522175260819 0 -3.1817522175260819 61.459918455715524 0 0 0 0 -24.289852797954399 14.939491771597616 0 14.939491771597616 9.0806292187561155 0 0 0 0 -48.486117044765713 88.624229379777418 0 88.624229379777418 106.40489614633486 0 0 0 0 7.3817531424283516 142.52481841869215 0 142.52481841869215 -50.866446246371197 0 0 0 0 27.058797346255247 66.212441400061422 0 66.212441400061422 48.88909166854431 0 0 0 0 -75.121551549033029 210.12138982925535 0 210.12138982925535 -13.607466849673074 0 0 0 0 -66.201401503771194 136.68952681312658 0 136.68952681312658 247.56995802849997 0 0 0 0 79.542310548160458 176.87330306394142 0 176.87330306394142 44.133252971572801 0 0 0 0 29.795577773953099 30.190148491093467 0 30.190148491093467 -27.710867510234294 0 0 0 0 138.08354084275925 33.293417275170214 0 33.293417275170214 -175.92710181370785 0 0 0 0 36.345115335883747 103.96116365144553 0 103.96116365144553 -62.003413851300138 0 0 0 0 65.765067958939568 77.750782347471585 0 77.750782347471585 48.542847163303279 0 0 0 0 -52.066106339247199 188.08838183217449 0 188.08838183217449 -39.561102959880373 0 0 0 0 -64.67888987956394 182.2854946449188 0 182.2854946449188 -36.927387712930795 0 0 0 0 -36.903336429364572 230.79929688940319 0 230.79929688940319 -146.17798150876479 0 0 0 0 -180.63767235043269 313.25587292150249 0 313.25587292150249 -64.255518567428226 0 0 0 0 -27.660777236218564 194.99486954227905 0 194.99486954227905 -43.714525274051994 0 0 0 0 -46.116574693762232 178.7608264552473 0 178.7608264552473 -50.153285440275795 0 0 0 0 -114.95980643748044 169.39375118364114 0 169.39375118364114 9.7540851407611626 0 0 0 0 -160.9891949465673 272.60091563389869 0 272.60091563389869 -34.906526564866908 0 0 0 0 -138.15542066228227 295.79313253787041 0 295.79313253787041 -66.814418422734889 0 0 0 0 -287.30370308712736 474.45094983646595 0 474.45094983646595 -364.2501355985878 0 0 0 0 -52.051748658010098 50.110402407539638 0 50.110402407539638 -48.035343048987471 0 0 0 0 -257.37636187913449 241.00214755163324 0 241.00214755163324 -90.244315340652975 0 0 0 0 -179.23963580537747 201.51733357661578 0 201.51733357661578 -249.2091044371482 0 0 0 0 -164.2167332072604 46.908230968092539 0 46.908230968092539 16.321886723599164 0 0 0 0 -252.15307414517883 256.203781151562 0 256.203781151562 -27.102092932385858 0 0 0 0 -24.840162547538057 193.73286161369469 0 193.73286161369469 -40.430791043123463 0 0 0 0 23.793391504079679 52.776496963701078 0 52.776496963701078 -1.4388261010445831 0 0 0 0 47.544844874209957 31.785363734075872 0 31.785363734075872 -49.714689478743821 0 0 0 0 -32.892852912244052 56.326131498264502 0 56.326131498264502 -48.051580394569697 0 0 0 0 36.51585132166656 93.090459287566773 0 93.090459287566773 -105.92033685797651 0 0 0 0 18.257526526256697 112.75762009553 0 112.75762009553 -83.54259920748882 0 0 0 0 -22.904292046649061 85.60343653464588 0 85.60343653464588 -33.167102612438612 0 0 0 0 28.551537239006116 48.864521245787159 0 48.864521245787159 5.5017310690218437 0 0 0 0 -225.16460738380556 70.574813630970311 0 70.574813630970311 3.3043115775872138 0 0 0 0 -17.654583781411006 44.514972978843389 0 44.514972978843389 -37.726181271766791 0 0 0 0 -198.90811375434714 73.093582004425116 0 73.093582004425116 0.78224809309540433 0 0 0 0 -495.98738898820739 -1.6207637926563621 0 -1.6207637926563621 82.440706008099369 0 0 0 0 -254.39174113284389 138.42086241750803 0 138.42086241750803 161.45857223279017 0 0 0 0 -288.08354397318544 236.25792200452997 0 236.25792200452997 82.869070924207335 0 0 0 0 -125.43210230711702 229.99167938897153 0 229.99167938897153 -122.06106292179902 0 0 0 0 -439.88406550600666 725.15649725612093 0 725.15649725612093 -743.37445807791664 0 0 0 0 -0.30322555777661364 1.8735309667555953 0 1.8735309667555953 0.73865454688797172 0 0 0 0 -256.34254362430511 262.9308119445559 0 262.9308119445559 332.8540384260923 0 0 0 0 -10.122794527921144 19.991385112858808 0 19.991385112858808 -16.264861899157523 0 0 0 0 -666.53120591601328 588.58885566836398 0 588.58885566836398 245.50659407555941 0 0 0 0 -195.95670348657586 318.5528202195128 0 318.5528202195128 177.8822722331679 0 0 0 0 -626.26314996778819 454.21786258487555 0 454.21786258487555 485.11965668198536 0 0 0 0 -334.32483302157925 -203.58781191073649 0 -203.58781191073649 1168.3916778352432 0 0 0 0 -1560.5610422981154 886.53112901174609 0 886.53112901174609 -287.45575330158317 0 0 0 0 -375.53172154022468 268.70238790504663 0 268.70238790504663 18.637700651743216 0 0 0 0 -281.58394659433543 726.50970368439812 0 726.50970368439812 -532.90806741915003 0 0 0 0 -325.55432576007843 667.19819599134826 0 667.19819599134826 -497.11664824292529 0 0 0 0 -449.20666385424192 1062.6995608354446 0 1062.6995608354446 -1705.4580318345688 0 0 0 0 -10.629439969216733 10.80525287504733 0 10.80525287504733 -19.005208729653532 0 0 0 0 204.1150313414837 37.778992153376748 0 37.778992153376748 -1697.7470748308842 0 0 0 0 182.58749952978178 276.01007255469449 0 276.01007255469449 -152.35527030573576 0 0 0 0 -6.7634790634729143 468.5443597487174 0 468.5443597487174 -296.4196689852688 0 0 0 0 -4.2754150535038207 145.68153682402044 0 145.68153682402044 -225.45447852106008 0 0 0 0 -5.8464597318561573 156.39982678417437 0 156.39982678417437 -226.07918978497037 0 0 0 0 -1400.7321686588716 -289.72549113481273 0 -289.72549113481273 -42.674484072747873 0 0 0 0 -225.08006215045316 -20.069885129865725 0 -20.069885129865725 -24.5772320071992 0 0 0 0 -498.12424182418181 275.47356407469488 0 275.47356407469488 -222.13022763696063 0 0 0 0 -394.03654859113158 219.4856369297122 0 219.4856369297122 -200.97551475089858 0 0 0 0 -505.63702524572727 359.14445312497446 0 359.14445312497446 -37.330417606717674 0 0 0 0 -437.4590414018603 296.56227612700604 0 296.56227612700604 5.3715809995192103 0 0 0 0 -502.63041687896111 344.83394475871864 0 344.83394475871864 -273.37930632394273 0 0 0 0 -615.42137417937192 374.59391791189773 0 374.59391791189773 -218.2053769410486 0 0 0 0 -494.43171031260135 273.57674155385757 0 273.57674155385757 -256.3159752346055 0 0 0 0 -43.313563905376327 51.319554084238007 0 51.319554084238007 -56.582959554039917 0 0 0 0 -386.00158674950944 409.19284998808507 0 409.19284998808507 -443.73321639821006 0 0 0 0 -236.37936475654897 523.9772778675715 0 523.9772778675715 -106.4233205003693 0 0 0 0 -383.95941300741833 385.06091425704653 0 385.06091425704653 -345.23807662455511 0 0 0 0 -44.926938437963599 51.677795730893607 0 51.677795730893607 -53.682541434112466 0 0 0 0 -248.12298568089318 568.00970204597252 0 568.00970204597252 -101.18131805744906 0 0 0 0 -212.39059455307142 292.7517842269117 0 292.7517842269117 -351.94790264752373 0 0 0 0 22.721278192533646 337.37591612120741 0 337.37591612120741 -1074.3117227335752 0 0 0 0 -231.34264990603515 579.49737923637804 0 579.49737923637804 -218.20546366578492 0 0 0 0 -220.51656299848401 280.43717498498154 0 280.43717498498154 -0.47444989596260712 0 0 0 0 -42.212536138569675 51.433394866530051 0 51.433394866530051 -57.747607203133327 0 0 0 0 -291.41351950835087 112.55953743747523 0 112.55953743747523 -379.410144987487 0 0 0 0 -356.63865740281472 162.35125602806511 0 162.35125602806511 -389.18209357515298 0 0 0 0 -259.11143541967613 217.1602955360795 0 217.1602955360795 61.718317720995401 0 0 0 0 -455.33032889535389 50.224971673094842 0 50.224971673094842 75.472195555135841 0 0 0 0 -174.19606855041093 270.96328449834755 0 270.96328449834755 -29.23769381652528 0 0 0 0 -383.3947366309676 -1.9350458003877975 0 -1.9350458003877975 86.971760689848452 0 0 0 0 -387.47952416527551 -106.39336973156605 0 -106.39336973156605 -39.168799026869237 0 0 0 0 -301.048934822109 -139.1457040433088 0 -139.1457040433088 -249.30305179733386 0 0 0 0 -34.548335854975448 172.40626573753252 0 172.40626573753252 -305.75297155589215 0 0 0 0 1.7889204234488219 -3.1446151604895505 0 -3.1446151604895505 0.035752568994951162 0 0 0 0 11.366533907283156 -105.40286310170268 0 -105.40286310170268 -132.55048688335228 0 0 0 0 395.5810921712291 173.26835597076933 0 173.26835597076933 -61.913168278028024 0 0 0 0 -143.42936420645856 -448.15151341354795 0 -448.15151341354795 -79.101756457468582 0 0 0 0 -311.34947268542965 -108.04583589045433 0 -108.04583589045433 -47.679182657928322 0 0 0 0 1.8450869202285389 -4.3999732995415357 0 -4.3999732995415357 2.9717231253861769 0 0 0 0 -738.9814335523406 -135.74649218860577 0 -135.74649218860577 37.699794925763854 0 0 0 0 -843.52287413609156 -118.12618651254161 0 -118.12618651254161 41.350124302094628 0 0 0 0 -406.00759440679758 -210.67820910396404 0 -210.67820910396404 -66.966961737067322 0 0 0 0 -694.90379656032019 138.98453195345792 0 138.98453195345792 -562.40401264799584 0 0 0 0 -982.32058618400333 38.867468447620922 0 38.867468447620922 3.0592640009999741 0 0 0 0 -607.52219520747713 230.82652229632004 0 230.82652229632004 100.57427804851613 0 0 0 0 75.204035622562515 483.21940032103885 0 483.21940032103885 136.94193479239766 0 0 0 0 412.45718239132111 1311.5101386453389 0 1311.5101386453389 -239.77084061767528 0 0 0 0 518.93135445035841 1171.1014613875195 0 1171.1014613875195 -669.35796415046207 0 0 0 0 368.15922721130119 956.80974504679762 0 956.80974504679762 -508.32940289977705 0 0 0 0 -21.681022791239229 1417.9701276439155 0 1417.9701276439155 -1030.3049040659098 0 0 0 0 -381.98137176880846 -340.05183807635331 0 -340.05183807635331 -1790.655093506065 0 0 0 0 -1766.1505969407372 447.86317547563885 0 447.86317547563885 -265.08804068015888 0 0 0 0 -356.49486426513977 62.665123273392965 0 62.665123273392965 -398.58223164241645 0 0 0 0 -10.475422241433989 -243.97320285602473 0 -243.97320285602473 -553.00550706815193 0 0 0 0 -638.85741537108697 365.58418630247616 0 365.58418630247616 295.6832615765743 0 0 0 0 -12.429848138017405 730.05103721683554 0 730.05103721683554 -219.68272305273422 0 0 0 0 69.364231048093643 240.71603183120169 0 240.71603183120169 303.72706142383322 0 0 0 0 85.410926080039644 316.36748040926614 0 316.36748040926614 390.8739369243558 0 0 0 0 302.45245608828554 790.39300970402837 0 790.39300970402837 843.59979410503729 0 0 0 0 34.957659309446171 782.97545042817183 0 782.97545042817183 1093.4567965253518 0 0 0 0 71.76930873758829 925.1791668066362 0 925.1791668066362 1547.9297235970953 0 0 0 0 748.70680087220535 307.49624837533338 0 307.49624837533338 932.80814251025731 0 0 0 0 246.74679997443127 867.63311060424348 0 867.63311060424348 367.57432082269224 0 0 0 0 315.32732849471722 957.75697218481946 0 957.75697218481946 421.93307185218146 0 0 0 0 906.4135996116363 1444.9372675254413 0 1444.9372675254413 634.01815513891052 0 0 0 0 -8.2947891522344435 536.52559345860936 0 536.52559345860936 2243.6994916276271 0 0 0 0 8.9751339073115446 10.177323929548891 0 10.177323929548891 5.3783108225334928 0 0 0 0 -6.2706195126702369 459.26857984135131 0 459.26857984135131 225.37177752882417 0 0 0 0 46.510232676600936 318.86098687324557 0 318.86098687324557 405.27761189779994 0 0 0 0 121.40398943002401 850.00670311458089 0 850.00670311458089 -16.42551325650129 0 0 0 0 117.9134034229719 974.82534152620065 0 974.82534152620065 400.48964411246197 0 0 0 0 482.00125164633391 1006.5975080331118 0 1006.5975080331118 -189.327782733395 0 0 0 0 520.4158115395403 977.5103967286268 0 977.5103967286268 -201.29456936825591 0 0 0 0 346.19267692267749 783.71211171568575 0 783.71211171568575 -291.85402879785397 0 0 0 0 -269.68777310738369 1079.1821147279916 0 1079.1821147279916 -36.135297613043804 0 0 0 0 1968.0730897175199 428.11261476096115 0 428.11261476096115 -1350.3555492898886 0 0 0 0 -728.19305700281984 286.26017110597786 0 286.26017110597786 -492.74877930359798 0 0 0 0 -372.9265005012021 1329.9193364347539 0 1329.9193364347539 121.7764076605672 0 0 0 0 841.83650480035431 1223.0781984200294 0 1223.0781984200294 -698.11373700443073 0 0 0 0 1145.5880736537019 1674.8459835875619 0 1674.8459835875619 -136.48965537000913 0 0 0 0 839.38607848331048 812.87844124925323 0 812.87844124925323 -204.25787852969961 0 0 0 0 943.63813465796375 2267.2718751163484 0 2267.2718751163484 967.77455987565918 0 0 0 0 14.325485985646083 1222.7778633662238 0 1222.7778633662238 -67.503392958431505 0 0 0 0 22.263333621445781 1324.4416427564574 0 1324.4416427564574 85.390762389390147 0 0 0 0 136.7781948331849 1258.5767249480559 0 1258.5767249480559 -286.23169520596275 0 0 0 0 38.579325692779094 1299.7679338457092 0 1299.7679338457092 -75.892950468189156 0 0 0 0 274.30405810332377 1129.6540498912364 0 1129.6540498912364 -230.94325153217505 0 0 0 0 398.04053857359577 1061.715693255217 0 1061.715693255217 -716.70093312693643 0 0 0 0 853.25382170490275 1097.7427194618285 0 1097.7427194618285 -544.61277224947116 0 0 0 0 408.16830751446832 1521.7375813591934 0 1521.7375813591934 -34.666647621699667 0 0 0 0 120.85132060526666 1039.1326787837752 0 1039.1326787837752 -495.56722365421592 0 0 0 0 241.83678381186701 892.8210865171568 0 892.8210865171568 -675.60377549842815 0 0 0 0 269.53389887520348 928.15727154041815 0 928.15727154041815 -1322.7561963953194 0 0 0 0 256.57948357232817 867.02208284757216 0 867.02208284757216 -648.90077389599173 0 0 0 0 225.88626636680419 766.07283988517884 0 766.07283988517884 -810.23806073828018 0 0 0 0 261.8282009664058 412.72814568817557 0 412.72814568817557 -1111.2282263460802 0 0 0 0 85.512660205351494 963.57210887411202 0 963.57210887411202 -371.88058135134634 0 0 0 0 219.09439990700412 786.06077611690853 0 786.06077611690853 -176.19230834941845 0 0 0 0 46.19510644312868 294.60152411042509 0 294.60152411042509 -251.42974021719419 0 0 0 0 138.66451018973385 360.68941044800158 0 360.68941044800158 -209.98199302651301 0 0 0 0 189.64291104715994 372.21474958168983 0 372.21474958168983 -534.19040870873141 0 0 0 0 135.00480422945111 124.72945063000952 0 124.72945063000952 -431.46484829293331 0 0 0 0 91.310503842247272 233.59196177398553 0 233.59196177398553 -168.92666215964709 0 0 0 0 239.39063925099981 438.88038819381472 0 438.88038819381472 -1018.6649491573917 0 0 0 0 221.24757817391583 376.81484114879277 0 376.81484114879277 -560.23381514727953 0 0 0 0 109.83436808564693 129.96074149259221 0 129.96074149259221 -346.79791369161103 0 0 0 0 74.163575652575673 -76.954226409827243 0 -76.954226409827243 -804.99132162864407 0 0 0 0 -97.636229869806243 -70.706557021745539 0 -70.706557021745539 -258.85241078672698 0 0 0 0 -72.446845944997747 -518.86501661509828 0 -518.86501661509828 -1358.9900113117474 0 0 0 0 153.10977619067671 752.3891924477648 0 752.3891924477648 -2141.4895903855358 0 0 0 0 -18.061388912121433 14.515914543784959 0 14.515914543784959 -15.499443430497621 0 0 0 0 -87.354136863657004 -284.60610292956153 0 -284.60610292956153 -3256.3664689649013 0 0 0 0 -1945.953085599147 891.16335563451867 0 891.16335563451867 -460.79030665158643 0 0 0 0 -908.37916852819217 881.30267620347149 0 881.30267620347149 -588.5078146267042 0 0 0 0 -1315.673576676616 828.45842588465894 0 828.45842588465894 -376.2352130211948 0 0 0 0 -1540.9653701770799 1678.1316404354257 0 1678.1316404354257 -952.73700267326785 0 0 0 0 -848.76159467982507 1233.0058850646601 0 1233.0058850646601 -695.82094781337946 0 0 0 0 -316.58607021087118 1168.3846353821136 0 1168.3846353821136 -3477.6480352356448 0 0 0 0 -1452.5927648337674 2431.208928707114 0 2431.208928707114 -2503.8170221862383 0 0 0 0 -771.23473329166882 1361.5325213669857 0 1361.5325213669857 -1390.0583738450659 0 0 0 0 -2770.0049560057632 1917.665948935406 0 1917.665948935406 -763.82954229319876 0 0 0 0 -3265.498352987599 1255.4302457905214 0 1255.4302457905214 -936.90652751695598 0 0 0 0 -1576.7581251424299 -813.83933219979372 0 -813.83933219979372 -2077.4191348492168 0 0 0 0 -772.34904519054908 564.08824084240769 0 564.08824084240769 -778.62666995537438 0 0 0 0 -1370.6507431190021 976.0512789723216 0 976.0512789723216 -206.39841299934778 0 0 0 0 -198.04081845354835 979.64279906715819 0 979.64279906715819 -692.06535865463957 0 0 0 0 -273.63940310857947 1244.2388442968222 0 1244.2388442968222 -1548.2490198432788 0 0 0 0 -339.30364622236038 781.39067121555854 0 781.39067121555854 -1402.0730320845614 0 0 0 0 -774.83890768643414 1730.3553145010374 0 1730.3553145010374 -3361.576802761304 0 0 0 0 680.10959594604628 88.137858959853475 0 88.137858959853475 -402.12283536337782 0 0 0 0 492.03225849922092 388.97677663924696 0 388.97677663924696 -244.48865278146695 0 0 0 0 410.76618526796483 273.33676426984312 0 273.33676426984312 -406.41479620622704 0 0 0 0 -129.01442053544815 625.11448619471048 0 625.11448619471048 -369.55768125663599 0 0 0 0 456.62390372861773 289.51529783460137 0 289.51529783460137 -463.75845272321021 0 0 0 0 87.47558308661246 668.12062016779964 0 668.12062016779964 -610.91876656209934 0 0 0 0 25.604618482190745 624.18126600974938 0 624.18126600974938 -635.07741063664434 0 0 0 0 -213.70855674408449 984.23058833420509 0 984.23058833420509 -839.89573092421051 0 0 0 0 479.3208893734045 274.27684030937962 0 274.27684030937962 -561.01117014312331 0 0 0 0 53.559209056058535 642.56445886041911 0 642.56445886041911 -627.0296420417726 0 0 0 0 158.85676023233009 356.90814449938625 0 356.90814449938625 -332.63456260086969 0 0 0 0 -258.59816121461699 1049.0118179355777 0 1049.0118179355777 -920.93847151580849 0 0 0 0 380.39610639545936 499.35562406323152 0 499.35562406323152 -1105.7256892655714 0 0 0 0 -94.330070069067006 1052.8682531750674 0 1052.8682531750674 -994.7331083358149 0 0 0 0 -385.73385402211716 1146.3926305003697 0 1146.3926305003697 -797.89119849292911 0 0 0 0 -209.82674208385652 1111.357576774084 0 1111.357576774084 -1157.2283833549573 0 0 0 0 -523.17158860623749 1420.7335677927185 0 1420.7335677927185 -1133.9962212795544 0 0 0 0 -603.1787387676286 1550.697237158216 0 1550.697237158216 -1647.9234707214637 0 0 0 0 -144.87032789508157 551.74143374399864 0 551.74143374399864 -1652.806443652536 0 0 0 0 200.37685411661823 634.82105165735265 0 634.82105165735265 -900.26841331132164 0 0 0 0 412.61193950149118 -808.94957107715891 0 -808.94957107715891 236.55550597390538 0 0 0 0 771.79719287870739 -507.89858292301506 0 -507.89858292301506 -941.70372632584531 0 0 0 0 -111.48595654646397 777.33954431422899 0 777.33954431422899 -1085.451803537173 0 0 0 0 148.25773362702685 100.88088173251772 0 100.88088173251772 38.461171352578106 0 0 0 0 150.60516505824489 -675.48632600987912 0 -675.48632600987912 787.29284952700255 0 0 0 0 416.09739977517893 0.87672152294544503 0 0.87672152294544503 -590.6790915827587 0 0 0 0 379.07429032014534 -31.304485373417265 0 -31.304485373417265 310.59873177495319 0 0 0 0 349.72218790239276 214.35270295420196 0 214.35270295420196 740.2823125855648 0 0 0 0 534.84239551184032 350.64778092312827 0 350.64778092312827 603.87128930661129 0 0 0 0 842.4850927587986 328.77665561961476 0 328.77665561961476 -48.131579463311937 0 0 0 0 317.42695846612332 135.89258641708875 0 135.89258641708875 708.24609027357656 0 0 0 0 616.28972303843329 80.474284036288736 0 80.474284036288736 -140.38868022256065 0 0 0 0 529.86128573329916 259.40806078127935 0 259.40806078127935 171.74967767531052 0 0 0 0 1049.8071284296966 -1295.8355853617031 0 -1295.8355853617031 -19.552497148370094 0 0 0 0 -2287.3262231637927 1313.3864771135559 0 1313.3864771135559 2392.0430452508008 0 0 0 0 -30.714393261994701 2961.4057491974454 0 2961.4057491974454 -1261.202112449706 0 0 0 0 -520.13624206869645 -2123.0714900529856 0 -2123.0714900529856 5015.8031627968012 0 0 0 0 -882.73021652040916 522.02658143761437 0 522.02658143761437 1738.1136816353246 0 0 0 0 29.392455122116388 32.151665479691971 0 32.151665479691971 33.307696173166818 0 0 0 0 22.553166811935625 722.47112784821365 0 722.47112784821365 -200.87434518804366 0 0 0 0 -434.92286059579453 886.69530800668872 0 886.69530800668872 -238.21401662631251 0 0 0 0 -138.86791007346551 522.61649856170698 0 522.61649856170698 -179.11410171725129 0 0 0 0 -1490.3840225692848 582.93759921651508 0 582.93759921651508 726.04760748965782 0 0 0 0 83.518864703467045 62.018447277836728 0 62.018447277836728 46.467588941432837 0 0 0 0 -879.26096306683621 -382.75686778855015 0 -382.75686778855015 1080.1403343613019 0 0 0 0 -255.66213039551985 766.37880183028028 0 766.37880183028028 318.73431929922663 0 0 0 0 30.029993079380802 -350.84705530109932 0 -350.84705530109932 1047.1877397732242 0 0 0 0 36.051954336362542 -560.72888516150124 0 -560.72888516150124 2125.7570310283627 0 0 0 0 -589.31267953752831 -350.07415084153763 0 -350.07415084153763 3111.4855665954528 0 0 0 0 18.883596163917311 26.499981342885974 0 26.499981342885974 24.287433371035036 0 0 0 0 820.83353106372942 846.6949809175494 0 846.6949809175494 592.07084522541845 0 0 0 0 409.19676227146192 209.33581708413112 0 209.33581708413112 108.9199412445596 0 0 0 0 607.0837865644844 969.98300208687579 0 969.98300208687579 1913.6791463124682 0 0 0 0 -114.92091131490452 -30.272762582855648 0 -30.272762582855648 1491.041692863233 0 0 0 0 -202.00519988719316 422.73477881944564 0 422.73477881944564 -52.347201024284004 0 0 0 0 -617.02328742323152 548.36704412131803 0 548.36704412131803 97.631235961547645 0 0 0 0 -209.68883629029733 415.25462632255039 0 415.25462632255039 17.894150895976054 0 0 0 0 186.72368914252664 172.99766687579023 0 172.99766687579023 113.43260906118655 0 0 0 0 555.83270951653049 755.01728710559837 0 755.01728710559837 291.21935475082864 0 0 0 0 -54.578138933786249 61.32846086382051 0 61.32846086382051 -112.37507327267667 0 0 0 0 -298.21797017012432 192.55968351251067 0 192.55968351251067 -218.95494573065662 0 0 0 0 -258.33407058918965 751.87654334374383 0 751.87654334374383 -554.65358045833273 0 0 0 0 -466.75338874880981 -490.62043779882515 0 -490.62043779882515 2049.7689988925922 0 0 0 0 -478.79930213369153 617.12163234041782 0 617.12163234041782 -153.70734421860834 0 0 0 0 101.88113334310805 98.81801302172741 0 98.81801302172741 92.597072567278531 0 0 0 0 -331.74122952518519 790.55457260568073 0 790.55457260568073 -74.612384848907823 0 0 0 0 124.68350701199961 571.18262320924259 0 571.18262320924259 -281.07186074910351 0 0 0 0 163.08639989248695 191.31761674840345 0 191.31761674840345 -260.90530205912364 0 0 0 0 -40.434225358811091 408.75024559916346 0 408.75024559916346 -10.312557659097365 0 0 0 0 193.41495997020684 319.65859242742044 0 319.65859242742044 -76.446646844735369 0 0 0 0 571.31721927541366 -26.488897584022197 0 -26.488897584022197 193.39629471423541 0 0 0 0 324.01453784066689 529.14026976687092 0 529.14026976687092 -378.04400301471469 0 0 0 0 515.16861282985337 771.77334752000388 0 771.77334752000388 -88.983812083053635 0 0 0 0 1939.8936515015407 1663.4203346822612 0 1663.4203346822612 -1197.3687462371163 0 0 0 0 224.28221212822245 -158.68376950734819 0 -158.68376950734819 1845.6434350037889 0 0 0 0 2029.3383832088211 -662.94703786710056 0 -662.94703786710056 280.7709728704358 0 0 0 0 182.36511419723502 178.56172629805724 0 178.56172629805724 558.22034395599621 0 0 0 0 77.349120756116463 158.829239673345 0 158.829239673345 601.1699596181279 0 0 0 0 -12.983214361956925 398.41786509164012 0 398.41786509164012 16.536224282404874 0 0 0 0 293.3173927932221 290.36705191119108 0 290.36705191119108 -103.35607487803281 0 0 0 0 5.1477288556950498 88.34408908462737 0 88.34408908462737 2.155595338052251 0 0 0 0 145.6042025671195 308.86802528030239 0 308.86802528030239 -96.403030544577632 0 0 0 0 -281.45496970988461 267.55971463003152 0 267.55971463003152 328.07225878095778 0 0 0 0 -1258.2138623681094 1920.6201273514998 0 1920.6201273514998 -246.27954180890811 0 0 0 0 -1918.0421995843353 190.00548327473371 0 190.00548327473371 399.28048015933746 0 0 0 0 -14.657747560274686 14.018448617884957 0 14.018448617884957 -15.986399377492774 0 0 0 0 283.65631395293167 -172.7010754675066 0 -172.7010754675066 -1235.5287554361421 0 0 0 0 -3884.6709292271698 -19.946272064829827 0 -19.946272064829827 3193.2635270294268 0 0 0 0 -918.7137028800862 1433.9168499544503 0 1433.9168499544503 -848.91389826394152 0 0 0 0 637.80009261509986 -189.05360839929199 0 -189.05360839929199 822.61896456894465 0 0 0 0 271.9721337633091 817.73276098615315 0 817.73276098615315 646.09717647020443 0 0 0 0 189.66052839790063 391.04784265889612 0 391.04784265889612 -193.98020507434558 0 0 0 0 709.86501941252936 1143.7698621509699 0 1143.7698621509699 177.35806739178952 0 0 0 0 217.20941824802139 566.12565503569931 0 566.12565503569931 -278.85112747300445 0 0 0 0 -278.28572896134574 495.34751662423514 0 495.34751662423514 381.74590507187531 0 0 0 0 -77.997184130173991 414.12161738731174 0 414.12161738731174 106.16627067985246 0 0 0 0 178.25524429115467 605.22915635135723 0 605.22915635135723 164.26688456319971 0 0 0 0 -76.859211699767911 414.05514580019735 0 414.05514580019735 21.771840351189894 0 0 0 0 -137.0340179263585 340.56592475845537 0 340.56592475845537 45.207346502022119 0 0 0 0 77.192085803810187 292.69276775087928 0 292.69276775087928 -14.120563594813575 0 0 0 0 89.007476312541186 139.18494518558637 0 139.18494518558637 68.287926872449361 0 0 0 0 191.96774161429494 197.55537766246562 0 197.55537766246562 54.023709997221886 0 0 0 0 37.982634822227787 72.579294619912559 0 72.579294619912559 77.813965386256029 0 0 0 0 264.35063748890389 302.34332187648397 0 302.34332187648397 -0.23004106056032469 0 0 0 0 411.45897141828027 392.98566399129049 0 392.98566399129049 21.75394285969378 0 0 0 0 -17.293478503802362 59.237934947817848 0 59.237934947817848 53.971941397641785 0 0 0 0 42.471269182333593 93.423348186442382 0 93.423348186442382 115.9946779633662 0 0 0 0 -8.013046558694839 33.777842842583226 0 33.777842842583226 52.790011787665549 0 0 0 0 904.46815608076577 686.15135337793618 0 686.15135337793618 273.85040501255753 0 0 0 0 855.80484074564811 240.25675232548383 0 240.25675232548383 101.34262637095526 0 0 0 0 556.64419803627607 483.70927004670375 0 483.70927004670375 135.63085973882698 0 0 0 0 458.24129660322069 359.02588716040191 0 359.02588716040191 176.39740327439358 0 0 0 0 236.3333283184329 83.805094190596719 0 83.805094190596719 42.902318878943333 0 0 0 0 173.93854968783126 320.50031236298673 0 320.50031236298673 239.98961534998671 0 0 0 0 9.2516027170388568 13.001306701016063 0 13.001306701016063 -1.8273129339344223 0 0 0 0 51.439681806125918 52.100865744287148 0 52.100865744287148 23.835134611741523 0 0 0 0 2.4127173977497165 30.324770306063698 0 30.324770306063698 44.338402090547618 0 0 0 0 485.97045674750734 259.16192331827187 0 259.16192331827187 4.0520768814603798 0 0 0 0 532.51337821939524 158.97713070169993 0 158.97713070169993 38.710023547983383 0 0 0 0 413.32973600936748 431.98970195408037 0 431.98970195408037 81.443845145928208 0 0 0 0 413.32973600938567 431.98970195412403 0 431.98970195412403 81.44384514594276 0 0 0 0 413.32973600934201 431.98970195410948 0 431.98970195410948 81.443845145928208 0 0 0 0 459.11918253337353 342.74954720758251 0 342.74954720758251 48.557684963947395 0 0 0 0 569.35086006482743 329.94744734143023 0 329.94744734143023 46.086404421366751 0 0 0 0 517.77479396286071 408.7364869799203 0 408.7364869799203 -0.81805572565644979 0 0 0 0 608.5117072811845 439.33698717119114 0 439.33698717119114 -25.04613592964597 0 0 0 0 411.46743380841144 555.89339325008041 0 555.89339325008041 124.86967325294972 0 0 0 0 596.91970925097121 614.80673602866591 0 614.80673602866591 136.77484452046338 0 0 0 0 809.94717635962297 506.70868030845304 0 506.70868030845304 -9.0977726482669823 0 0 0 0 279.45687633875423 438.08239689452603 0 438.08239689452603 238.97573685177485 0 0 0 0 2249.4978800164608 -27.076963185390923 0 -27.076963185390923 -99.070772818520709 0 0 0 0 682.41724870529742 239.33078070619013 0 239.33078070619013 -121.49119227202027 0 0 0 0 -482.74622505796469 498.56370315161985 0 498.56370315161985 295.25029477367934 0 0 0 0 3.2382988466470408 5.6061581390290911 0 5.6061581390290911 18.747528646060744 0 0 0 0 304.41035263849335 1045.3018226026616 0 1045.3018226026616 595.26963384143892 0 0 0 0 -601.5745646273399 -519.89571520735444 0 -519.89571520735444 -120.86881755964714 0 0 0 0 1366.3514496705793 1265.7362491784515 0 1265.7362491784515 168.93648006336298 0 0 0 0 -1170.1119671644265 939.70126084257208 0 939.70126084257208 1619.458688554223 0 0 0 0 -882.21505326783154 -179.35988695359265 0 -179.35988695359265 102.35792921563643 0 0 0 0 -9.0172608846321367 7.6069469847325024 0 7.6069469847325024 -10.977282303829725 0 0 0 0 -117.05296100840496 379.93751125459676 0 379.93751125459676 422.75298436568119 0 0 0 0 -879.4383261704578 351.67923574710164 0 351.67923574710164 2389.3455011427868 0 0 0 0 2.8758239682306197 3.1080988601054997 0 3.1080988601054997 -6.2701141206276816 0 0 0 0 1771.9878545482698 -537.70237064757384 0 -537.70237064757384 -542.0848148491059 0 0 0 0 -845.5034925733753 923.91020275796473 0 923.91020275796473 1188.2084793980175 0 0 0 0 764.51154858565678 170.18122883008164 0 170.18122883008164 53.880606982216705 0 0 0 0 1859.7698928229238 3139.0000954547577 0 3139.0000954547577 3000.0751058587698 0 0 0 0 157.64728310783994 -1435.6052417430328 0 -1435.6052417430328 -592.33800153773154 0 0 0 0 -8.1645985339005875 47.52144520252557 0 47.52144520252557 -28.708946593222322 0 0 0 0 34.511954217830862 135.47713703083718 0 135.47713703083718 1.047015748306876 0 0 0 0 -245.25465381134109 -495.52874983343645 0 -495.52874983343645 -362.01336593457381 0 0 0 0 151.45316896236966 151.92893938046669 0 151.92893938046669 4.3910829052644544 0 0 0 0 86.270746980888134 124.64916903536258 0 124.64916903536258 36.181027480033265 0 0 0 0 -90.113509903871091 222.15524540742626 0 222.15524540742626 58.475708931684494 0 0 0 0 -97.950723696711066 204.67443945079867 0 204.67443945079867 124.21558230699156 0 0 0 0 111.46701784176912 225.69673969286669 0 225.69673969286669 100.74997469352093 0 0 0 0 274.6092108407538 453.96073543262901 0 453.96073543262901 186.97107958217384 0 0 0 0 -311.58847645548667 160.44559054457932 0 160.44559054457932 343.30732596226153 0 0 0 0 -233.83952281033999 8.3046461235062452 0 8.3046461235062452 72.457844332937384 0 0 0 0 0.0054699174943380058 71.208810392168743 0 71.208810392168743 63.104522755847938 0 0 0 0 18.712935527742957 50.228864996144694 0 50.228864996144694 80.637104924469895 0 0 0 0 0.025513013155546105 10.601583549764818 0 10.601583549764818 1.5623845968162229 0 0 0 0 242.23598351469263 -67.436315834245761 0 -67.436315834245761 -242.77204599080142 0 0 0 0 17.965638118577772 68.665929605211204 0 68.665929605211204 53.550119845749578 0 0 0 0 -118.85072713141562 -20.134533710137475 0 -20.134533710137475 -158.83341475764382 0 0 0 0 2.5899222806532407 19.313296219680822 0 19.313296219680822 -25.917498882631186 0 0 0 0 -13.13709860508618 76.285249210817881 0 76.285249210817881 -29.893297389753471 0 0 0 0 -10.637960445987858 59.052594387678809 0 59.052594387678809 -42.120366952528876 0 0 0 0 -22.343849913175291 96.457707888958339 0 96.457707888958339 -14.413819109890028 0 0 0 0 1.6442551612075391 52.79301613878971 0 52.79301613878971 56.836785435275679 0 0 0 0 -21.725061011762591 103.71445713759294 0 103.71445713759294 61.83410831297806 0 0 0 0 -16.381881672607051 116.12465706907477 0 116.12465706907477 77.811252212237378 0 0 0 0 -9.4312610125343781 65.248535310733132 0 65.248535310733132 59.105978876326844 0 0 0 0 18.494396807276644 65.833835755278415 0 65.833835755278415 57.722488606519619 0 0 0 0 21.605989745992702 66.674770530804381 0 66.674770530804381 56.864150561637871 0 0 0 0 -119.43189794142381 134.74817578768398 0 134.74817578768398 147.20716046326424 0 0 0 0 4.2454643217131256 43.164041949493281 0 43.164041949493281 64.534236604201141 0 0 0 0 -133.633974996701 88.915190807438904 0 88.915190807438904 79.294980555167967 0 0 0 0 9.0335626045260256 48.63380303716508 0 48.63380303716508 69.798028048590453 0 0 0 0 -115.65377250919119 1432.1059686451545 0 1432.1059686451545 -818.41989123302824 0 0 0 0 -96.100720348811592 -76.468099131178761 0 -76.468099131178761 183.29888546396808 0 0 0 0 -9.5491867559827597 -3.2340638382300142 0 -3.2340638382300142 3.6578038420795274 0 0 0 0 51.815803092031274 54.969466896187441 0 54.969466896187441 61.294220700088772 0 0 0 0 27.587562643893762 52.997460866395159 0 52.997460866395159 70.417233620832121 0 0 0 0 24.24814222563873 52.437886782033274 0 52.437886782033274 66.53972045239243 0 0 0 0 30.178075705694937 64.093988192194047 0 64.093988192194047 46.822713865585683 0 0 0 0 15.938582621558453 71.751702771946839 0 71.751702771946839 56.385851014005311 0 0 0 0 14.126633001364098 68.898974946338058 0 68.898974946338058 58.214920161099144 0 0 0 0 24.947566391987493 55.47046467176915 0 55.47046467176915 6.6918005273510062 0 0 0 0 0.025057840932277031 79.267502954627162 0 79.267502954627162 50.600623049858768 0 0 0 0 -4.4472721044599552 -2.6403126866051565 0 -2.6403126866051565 3.7019081864517318 0 0 0 0 0.0036713655281346291 29.592465777595407 0 29.592465777595407 63.295121903832296 0 0 0 0 -1.2498741823369528 4.0966338431193492 0 4.0966338431193492 15.951226676550789 0 0 0 0 29.278433400468202 48.741673572087166 0 48.741673572087166 59.159758253001201 0 0 0 0 3.2622098369009742 35.258264326202102 0 35.258264326202102 48.957454374327426 0 0 0 0 -155.14751695134328 -979.7975727941689 0 -979.7975727941689 1924.6104176750987 0 0 0 0 14.448964238832616 18.812254369265219 0 18.812254369265219 24.311849891748398 0 0 0 0 3.2622098368883599 10.288366713948108 0 10.288366713948108 28.174912492928343 0 0 0 0 366.13089722309178 -1219.4585206620329 0 -1219.4585206620329 2992.3479152263317 0 0 0 0 -0.0063381797517649829 31.867516186875264 0 31.867516186875264 5.1606087605423454 0 0 0 0 6.0376990924909251 3.6615931265516508 0 3.6615931265516508 7.0138068256479142 0 0 0 0 -963.6395009009284 -141.3490905633555 0 -141.3490905633555 1755.7169209666401 0 0 0 0 279.35360125645821 14.426702983734287 0 14.426702983734287 -72.759392449857728 0 0 0 0 -478.4678846716979 158.00195703643666 0 158.00195703643666 677.97806884750707 0 0 0 0 2.7498798996093683 1177.6766267891744 0 1177.6766267891744 458.3912067103206 0 0 0 0 -22.427470538210741 14.526782669510112 0 14.526782669510112 -2.4800966877370691 0 0 0 0 -100.05145459089545 359.52027606069078 0 359.52027606069078 -1488.8095212178671 0 0 0 0 -1627.3718347197646 -202.95604776997905 0 -202.95604776997905 10.123079425429118 0 0 0 0 -1334.2343531273946 1596.730704134965 0 1596.730704134965 -891.56560928071201 0 0 0 0 -2.6467449975787645 2.5201571794423785 0 2.5201571794423785 2.2726370359796597 0 0 0 0 -517.31914058320035 648.86583649603324 0 648.86583649603324 -2203.3017640207081 0 0 0 0 -2296.9787942775583 1488.02454597421 0 1488.02454597421 -9.4388361746932787 0 0 0 0 -2821.9556616775808 -343.55532127538481 0 -343.55532127538481 321.5764040749512 0 0 0 0 -1456.1725250350137 -121.64876895697739 0 -121.64876895697739 1524.8821530638095 0 0 0 0 -517.72753414927865 342.82673390656356 0 342.82673390656356 507.76987840779657 0 0 0 0 -1042.8583093127818 761.94028363027519 0 761.94028363027519 485.88954365855329 0 0 0 0 -418.01097991107963 460.24660905554833 0 460.24660905554833 173.12838275853096 0 0 0 0 -417.95910582011464 850.02407844100696 0 850.02407844100696 233.24923371216335 0 0 0 0 -261.1782463119016 233.76257630613418 0 233.76257630613418 778.84664266699292 0 0 0 0 -1523.3697560291039 -541.30386858567681 0 -541.30386858567681 1624.2162615436482 0 0 0 0 1456.5458672184614 -527.51338544286955 0 -527.51338544286955 822.48568884287215 0 0 0 0 -362.83400058213738 170.01590175370347 0 170.01590175370347 770.2398698916827 0 0 0 0 -173.71370386058697 462.25705072462438 0 462.25705072462438 1752.1441675335634 0 0 0 0 -1574.3886125395366 -88.254939700194882 0 -88.254939700194882 108.17968875816814 0 0 0 0 4.4423229922656446 8.9688321548016887 0 8.9688321548016887 15.57817470811443 0 0 0 0 29.262396355242345 48.885701066107202 0 48.885701066107202 81.541483886485366 0 0 0 0 23.76558800301558 41.446393036554696 0 41.446393036554696 48.87011651259337 0 0 0 0 -39.293465294758789 134.41968428009204 0 134.41968428009204 -90.797546039828376 0 0 0 0 739.20075786820962 940.52269099983596 0 940.52269099983596 -1244.251502918094 0 0 0 0 1896.9003733231511 1600.7281405172719 0 1600.7281405172719 -975.50816228031772 0 0 0 0 -873.79504949180409 76.212328598415297 0 76.212328598415297 2710.8887350590703 0 0 0 0 -840.12379347562091 -38.293550774674259 0 -38.293550774674259 -283.32013249651391 0 0 0 0 -4838.2201098063961 843.20885592724153 0 843.20885592724153 88.05759091869777 0 0 0 0 3.759754668721687 15.273628077052194 0 15.273628077052194 -3.4150528866263841 0 0 0 0 257.93850607436616 -68.005145921716803 0 -68.005145921716803 62.945799319863909 0 0 0 0 17.706452099555918 3.2148443442710146 0 3.2148443442710146 0.90843728255025269 0 0 0 0 51.438477911666268 185.5939310420016 0 185.5939310420016 -202.00177103638794 0 0 0 0 40.693668946389778 32.669026076718147 0 32.669026076718147 -7.2391086160773934 0 0 0 0 -90.185761766973883 -67.569581848800681 0 -67.569581848800681 109.9335695233525 0 0 0 0 224.91474472582922 303.51089525702355 0 303.51089525702355 280.6575712910626 0 0 0 0 218.11226073805301 304.69933657064371 0 304.69933657064371 304.95356800169475 0 0 0 0 587.91818420281197 437.77109917827784 0 437.77109917827784 227.40427922465369 0 0 0 0 145.95380475977436 787.3310755104701 0 787.3310755104701 755.01217346597196 0 0 0 0 307.75598863972118 932.78657894045136 0 932.78657894045136 1717.9736691546805 0 0 0 0 91.241539697082771 390.25490976658875 0 390.25490976658875 686.36328569803209 0 0 0 0 -47.919594028586289 657.06982663928807 0 657.06982663928807 300.43186082834973 0 0 0 0 274.42553903289081 912.9500026747678 0 912.9500026747678 365.40532104481963 0 0 0 0 370.8555406066298 802.88052844411402 0 802.88052844411402 -26.625369039378256 0 0 0 0 388.45911158496165 716.81971070806162 0 716.81971070806162 386.91705952757604 0 0 0 0 356.69543632974091 776.22731048853302 0 776.22731048853302 348.22607944912693 0 0 0 0 690.1911554946555 657.61369326751412 0 657.61369326751412 83.858737154610935 0 0 0 0 688.38950802167301 632.2818196699485 0 632.2818196699485 471.92528227775847 0 0 0 0 106.41237197848204 86.642769522086923 0 86.642769522086923 206.72428905761899 0 0 0 0 -20.138205523351644 700.43640215597952 0 700.43640215597952 1133.5901568831559 0 0 0 0 237.79741361175547 500.27688855180941 0 500.27688855180941 451.27016761816981 0 0 0 0 87.709322828799486 106.29475996676462 0 106.29475996676462 -284.58737453182084 0 0 0 0 23.15857077864348 952.19939781008145 0 952.19939781008145 -66.767507731847218 0 0 0 0 -386.72300450997136 143.84703862963602 0 143.84703862963602 -289.35248249548772 0 0 0 0 -60.312321241144673 526.02539766333666 0 526.02539766333666 58.14272148761188 0 0 0 0 51.060467768082162 564.32709368100268 0 564.32709368100268 626.19153819636745 0 0 0 0 -227.69735553341161 174.37206461759308 0 174.37206461759308 85.567019149766793 0 0 0 0 -1258.2324614803292 -241.42810845795549 0 -241.42810845795549 152.01861147320506 0 0 0 0 -678.9310060069547 538.07696686002191 0 538.07696686002191 798.93748162424527 0 0 0 0 0.4700080978857244 0.63156107771999359 0 0.63156107771999359 1.970070118789387 0 0 0 0 -2362.3036746793805 125.58141689782946 0 125.58141689782946 1250.9348414634476 0 0 0 0 1996.493432590476 794.12322786860557 0 794.12322786860557 406.34575795901719 0 0 0 0 2633.2105897806177 1504.4283877344353 0 1504.4283877344353 495.87652379366295 0 0 0 0 -570.42857442583772 157.15814735050367 0 157.15814735050367 20.561083852322554 0 0 0 0 1132.3434934035467 740.77135151056359 0 740.77135151056359 195.63549106751952 0 0 0 0 -2.4571398448409667 5.5013368328839078 0 5.5013368328839078 5.9867941903534163 0 0 0 0 -81.231798412867647 271.35999186657773 0 271.35999186657773 -133.85306092041264 0 0 0 0 -251.83691011414339 403.02346529228043 0 403.02346529228043 -133.37734340656425 0 0 0 0 -47.768090148121701 239.54355143724297 0 239.54355143724297 -147.62341862019275 0 0 0 0 -152.63460558751831 181.17068374730479 0 181.17068374730479 -18.876169403112726 0 0 0 0 -4.979035797524773 20.050118213400907 0 20.050118213400907 13.211068464105232 0 0 0 0 -70.7100812802164 105.66004408164986 0 105.66004408164986 16.094539335046647 0 0 0 0 -92.549696114001563 97.006564181302565 0 97.006564181302565 24.707869974006826 0 0 0 0 -16.612967191014832 66.627641574690003 0 66.627641574690003 30.279120583744163 0 0 0 0 -69.406674052006565 67.308414945861841 0 67.308414945861841 55.636071510992224 0 0 0 0 -31.539378661116643 162.71749755257952 0 162.71749755257952 -75.212985126127023 0 0 0 0 -1.1629210974497255 113.00353513380469 0 113.00353513380469 -24.2598844012266 0 0 0 0 -106.73422004254098 114.47696834609542 0 114.47696834609542 6.8860874326564954 0 0 0 0 -37.730716013325321 72.461151636332943 0 72.461151636332943 -56.428742707876225 0 0 0 0 175.77434454637114 206.24247923292569 0 206.24247923292569 -198.57366189095774 0 0 0 0 -39.941546246205689 84.525929290521162 0 84.525929290521162 -118.47247536795476 0 0 0 0 11.549779750376274 47.494911019013017 0 47.494911019013017 -36.331720038191918 0 0 0 0 78.240442245034501 78.830757449395605 0 78.830757449395605 -76.457420402821299 0 0 0 0 -7.4037620558133881 61.593695863905324 0 61.593695863905324 -55.683485285658463 0 0 0 0 -1.6545480697823223 101.7016674628394 0 101.7016674628394 -38.690978888640529 0 0 0 0 161.22480466498291 74.334879639174176 0 74.334879639174176 -196.68320112163929 0 0 0 0 157.61576868791599 12.057250628609836 0 12.057250628609836 -127.47818242116409 0 0 0 0 -80.270182939137158 75.729762384399692 0 75.729762384399692 -108.59613921803248 0 0 0 0 -1.4349758480634023 17.338883358247841 0 17.338883358247841 -20.730489920673271 0 0 0 0 128.81326892258949 341.03922125865574 0 341.03922125865574 -221.63738387291414 0 0 0 0 -18.497667470451887 76.863679876946208 0 76.863679876946208 -67.42736744837373 0 0 0 0 405.07128452218603 144.20655371781731 0 144.20655371781731 -316.54868337728999 0 0 0 0 -250.4556960169939 104.36734466139842 0 104.36734466139842 194.549052815295 0 0 0 0 72.615129740079283 -163.3304644489574 0 -163.3304644489574 -382.81443543797877 0 0 0 0 -1096.283514609444 236.70479889605849 0 236.70479889605849 -75.766845105830384 0 0 0 0 -184.30031434823468 361.12864021966777 0 361.12864021966777 -45.797446240611407 0 0 0 0 106.5075470621814 237.17285484745753 0 237.17285484745753 -2.937565744305175 0 0 0 0 -16.534665462051635 148.66435317110427 0 148.66435317110427 0.31769214767336962 0 0 0 0 -38.332460531862722 77.767983684601376 0 77.767983684601376 -39.368451604138002 0 0 0 0 60.169466919403931 150.18342298559901 0 150.18342298559901 -160.91577474177757 0 0 0 0 4.3643379873676622 70.013513542570195 0 70.013513542570195 -76.241508772773741 0 0 0 0 6.0719397295324598 109.41105293935834 0 109.41105293935834 -100.91395515926706 0 0 0 0 -30.088240871380549 203.6411782017849 0 203.6411782017849 13.42640572500386 0 0 0 0 -30.156868395335266 72.528584618392273 0 72.528584618392273 -57.112742341565735 0 0 0 0 -20.304358403075867 66.337422885077785 0 66.337422885077785 -35.479872244067792 0 0 0 0 -39.358626478802762 105.80221621284727 0 105.80221621284727 25.503677817363496 0 0 0 0 13.075883507772232 108.35309907307237 0 108.35309907307237 -78.297536207675876 0 0 0 0 -27.90481723592012 67.135537855024666 0 67.135537855024666 -34.607580661605084 0 0 0 0 -3.9986837844224965 74.01011596995356 0 74.01011596995356 -23.914327669559015 0 0 0 0 -16.562225644651335 91.184677342069335 0 91.184677342069335 -7.2647158097970532 0 0 0 0 -18.05255754756945 108.58029006278593 0 108.58029006278593 -41.192841191092157 0 0 0 0 -1.8044500897813123 98.257127064363885 0 98.257127064363885 -69.002958390308777 0 0 0 0 -9.6115568102619022 66.974414225145466 0 66.974414225145466 -19.511105836619141 0 0 0 0 1.6156489212589804 99.009611317524104 0 99.009611317524104 -83.9606548890456 0 0 0 0 -191.28134436561959 144.72448512884148 0 144.72448512884148 95.125081135694927 0 0 0 0 2.470662523073031 53.151118802646607 0 53.151118802646607 -9.745007476672761 0 0 0 0 4.7493239869363606 60.341433729052369 0 60.341433729052369 -15.748930732232111 0 0 0 0 -15.411926299994036 52.896574577860434 0 52.896574577860434 -49.57652488824948 0 0 0 0 -6.9686826148972614 84.578108549092576 0 84.578108549092576 -64.774373743319302 0 0 0 0 1.3825853492307942 97.309736507082562 0 97.309736507082562 -62.366720618811087 0 0 0 0 -7.3142674766872915 98.438894702906964 0 98.438894702906964 -67.27676055811753 0 0 0 0 8.1404898561013397 99.750055502419855 0 99.750055502419855 -70.003700034503709 0 0 0 0 3.1165699547273107 87.26474091916316 0 87.26474091916316 -55.363751512748422 0 0 0 0 -234.40817368491844 111.15027584826021 0 111.15027584826021 -27.507328144740313 0 0 0 0 -227.1692363373877 51.368221794460624 0 51.368221794460624 77.574949041678337 0 0 0 0 -131.12093629784067 77.462595619188505 0 77.462595619188505 7.5199082101535168 0 0 0 0 -135.13764094235376 64.313444943720242 0 64.313444943720242 20.321681756700855 0 0 0 0 -208.60497897208552 88.44072020965541 0 88.44072020965541 -7.9512847031874117 0 0 0 0 -173.50961520933197 178.7225030975751 0 178.7225030975751 -105.21028441133967 0 0 0 0 -202.86248611280462 148.23191317761666 0 148.23191317761666 -121.69515358897479 0 0 0 0 -268.2982387854936 376.62467686615128 0 376.62467686615128 -258.24073001043871 0 0 0 0 28.257927648655794 39.346367813471034 0 39.346367813471034 -19.927145212306044 0 0 0 0 0.79821997528500788 16.810956972497209 0 16.810956972497209 8.6054528539167805 0 0 0 0 -279.10872200876474 85.254210035796859 0 85.254210035796859 -147.4159468514772 0 0 0 0 -410.69215611524123 151.40029728408626 0 151.40029728408626 24.767122135759564 0 0 0 0 -256.2872089668017 156.53337395214476 0 156.53337395214476 70.277023356116842 0 0 0 0 -151.27703132336319 234.9085096866911 0 234.9085096866911 -136.73406226930092 0 0 0 0 -163.1595012160833 203.07408361096168 0 203.07408361096168 -215.52375146109262 0 0 0 0 200.96386446613178 163.25886650494795 0 163.25886650494795 -47.836937666565063 0 0 0 0 -135.35601327902987 165.61568465736491 0 165.61568465736491 106.9204554521566 0 0 0 0 265.93876531187561 408.77951649621536 0 408.77951649621536 144.86633427839843 0 0 0 0 104.6050922970353 262.85656785400897 0 262.85656785400897 131.01808779573184 0 0 0 0 193.12070675173891 222.38735993328737 0 222.38735993328737 97.748487547487457 0 0 0 0 73.874772249644593 156.2221371607684 0 156.2221371607684 1.0255173032637686 0 0 0 0 516.65549245540751 598.16819259090698 0 598.16819259090698 245.47099990653078 0 0 0 0 299.33316859589831 390.08138037200479 0 390.08138037200479 207.4629513261898 0 0 0 0 359.56777293575578 332.65357664568 0 332.65357664568 250.36263256977668 0 0 0 0 328.81231146017672 358.49236568608103 0 358.49236568608103 243.79284872475546 0 0 0 0 144.17793782646186 186.25512069666001 0 186.25512069666001 235.06513731465202 0 0 0 0 139.69179744461144 214.70626427036041 0 214.70626427036041 134.96475869725691 0 0 0 0 -128.81401513633318 61.613964996286086 0 61.613964996286086 79.665966982080135 0 0 0 0 3.8076646813424304 117.68613752812962 0 117.68613752812962 70.226522314580507 0 0 0 0 1.2301447952631861 112.82285717547347 0 112.82285717547347 137.38215419568405 0 0 0 0 -32.718017281178618 38.604684289952274 0 38.604684289952274 45.745941724060685 0 0 0 0 -59.644275564642157 95.311298079832341 0 95.311298079832341 204.42867890329217 0 0 0 0 -131.1608946819033 42.094840396937798 0 42.094840396937798 121.33819151622447 0 0 0 0 -116.47523693442054 -86.908929609227926 0 -86.908929609227926 -111.72284263075562 0 0 0 0 -126.98532709403662 49.753819572015345 0 49.753819572015345 67.327161130000604 0 0 0 0 -153.6120559895644 -18.792789017199539 0 -18.792789017199539 22.006968937560714 0 0 0 0 -168.95878409186844 -80.268146978742152 0 -80.268146978742152 -7.5647203738626558 0 0 0 0 -128.36229706436279 123.12816039699101 0 123.12816039699101 43.557791294995695 0 0 0 0 86.337669354914397 99.414499914186308 0 99.414499914186308 314.38791632272478 0 0 0 0 134.59431349842635 83.114201723336009 0 83.114201723336009 21.233294897327141 0 0 0 0 -218.62989331106292 199.34604056532135 0 199.34604056532135 -508.85018308604776 0 0 0 0 183.42850500324857 -51.556363283678365 0 -51.556363283678365 -283.90060015644849 0 0 0 0 -46.132982850126325 13.384364590452222 0 13.384364590452222 -2.4720032751556147 0 0 0 0 -86.584756476033363 -157.67414280437151 0 -157.67414280437151 -287.74251817607728 0 0 0 0 -139.48658278225776 -57.087723071323126 0 -57.087723071323126 -430.14150895625062 0 0 0 0 -187.17286036576843 65.878590184569475 0 65.878590184569475 -212.08147014167116 0 0 0 0 -83.698997884082019 17.268817104071843 0 17.268817104071843 -11.205225772529481 0 0 0 0 -6.5800087919778889 147.05877549195429 0 147.05877549195429 -13.844042627245472 0 0 0 0 2.3325425461225677 68.830874443752691 0 68.830874443752691 -346.7094484748377 0 0 0 0 29.481175983507796 101.38378954874109 0 101.38378954874109 -20.909893977153558 0 0 0 0 -6.9395123925060034 61.192434351396514 0 61.192434351396514 19.321933548577363 0 0 0 0 -6.4553901678104353 80.699600734637912 0 80.699600734637912 -41.37625104614051 0 0 0 0 -15.241456980011606 27.626112152404062 0 27.626112152404062 4.3186628877628266 0 0 0 0 -2.4028892024944071 -2.0823099630360957 0 -2.0823099630360957 -188.84444596195681 0 0 0 0 13.681096600863384 53.490568426532263 0 53.490568426532263 66.851669116316771 0 0 0 0 10.026002408648651 65.048263506702256 0 65.048263506702256 -150.0981294763119 0 0 0 0 6.422851618477921 -5.5430088994339428 0 -5.5430088994339428 -53.571695278963574 0 0 0 0 -102.84277753721108 -23.250005700945621 0 -23.250005700945621 -192.60223240534833 0 0 0 0 -155.50141991098644 48.111265052000817 0 48.111265052000817 -98.888662940000359 0 0 0 0 -173.50220356701993 22.30462796553752 0 22.30462796553752 -50.854036462202203 0 0 0 0 -173.34122070489684 26.301226821618911 0 26.301226821618911 -44.741698223064304 0 0 0 0 -64.207574812404346 132.3764489735986 0 132.3764489735986 -163.33891640329966 0 0 0 0 -143.66128767585906 99.814047807805764 0 99.814047807805764 -91.315236856040428 0 0 0 0 -42.471199702941362 52.893584965254661 0 52.893584965254661 -53.316481519608629 0 0 0 0 2.4139801876683578 10.612433696074945 0 10.612433696074945 -23.861206031376462 0 0 0 0 -354.03417548874859 23.788271106895991 0 23.788271106895991 149.32788158047333 0 0 0 0 6.5095839804920388 71.295067615544966 0 71.295067615544966 -1.8878365823448942 0 0 0 0 -24.421799516072497 132.27327282402985 0 132.27327282402985 -118.6149016598647 0 0 0 0 -15.589143537043128 126.31328075108377 0 126.31328075108377 -47.719215159079795 0 0 0 0 -51.683274177143176 143.14687176125699 0 143.14687176125699 176.2778136608249 0 0 0 0 -27.41505975738869 64.882436317566544 0 64.882436317566544 -31.676525184392702 0 0 0 0 19.798636281542713 170.07734422445355 0 170.07734422445355 -78.139916947771326 0 0 0 0 58.735710092423801 181.28903992771799 0 181.28903992771799 -23.908341143804137 0 0 0 0 -2.2820658429435525 40.209474602097174 0 40.209474602097174 28.431379636667589 0 0 0 0 58.429427671799203 151.42720311079756 0 151.42720311079756 -84.831511380649317 0 0 0 0 18.83693467482226 76.670723129534963 0 76.670723129534963 -76.280513698988102 0 0 0 0 15.977762209096909 105.81105400705707 0 105.81105400705707 -8.4479791160265449 0 0 0 0 90.526032037756522 252.25570519870485 0 252.25570519870485 -268.55817104596372 0 0 0 0 108.66350593195239 277.8790868550941 0 277.8790868550941 -237.14515110540901 0 0 0 0 38.378856476061628 162.12570180410739 0 162.12570180410739 -295.68402247772065 0 0 0 0 -5.2975023298349697 344.70244166446128 0 344.70244166446128 -185.45747455912169 0 0 0 0 172.50093717098935 395.42983286887272 0 395.42983286887272 -171.71259740337302 0 0 0 0 74.713364522205666 337.63713015912202 0 337.63713015912202 6.132377515444432 0 0 0 0 101.90419858988025 363.06652290957214 0 363.06652290957214 -260.58314229597488 0 0 0 0 -202.6732085403346 312.73373607289955 0 312.73373607289955 124.00628551692444 0 0 0 0 -10.769485831129714 276.93629127520006 0 276.93629127520006 126.36520370747144 0 0 0 0 127.42460223880698 342.99481077886793 0 342.99481077886793 309.43433383894899 0 0 0 0 78.134520069375867 122.87315534394475 0 122.87315534394475 376.08071976756537 0 0 0 0 147.42572990834014 258.63167205417483 0 258.63167205417483 321.20609838803023 0 0 0 0 195.1237061440479 464.17662722221371 0 464.17662722221371 142.44293165054182 0 0 0 0 18.988081271192641 302.71914714650632 0 302.71914714650632 -3.1352704383057244 0 0 0 0 253.00630698192981 244.28560209230307 0 244.28560209230307 24.24857909757111 0 0 0 0 -519.49091695998504 318.60277806075646 0 318.60277806075646 217.92836860036959 0 0 0 0 -528.14154941828292 198.8523792504993 0 198.8523792504993 344.28667979467298 0 0 0 0 -466.80812443356263 173.77960306135014 0 173.77960306135014 462.99921498784329 0 0 0 0 -202.14036617084639 133.05309042182887 0 133.05309042182887 455.38036094533447 0 0 0 0 -265.82199230704282 259.21530371817278 0 259.21530371817278 471.80873714802169 0 0 0 0 -357.48774419758411 333.92012284631312 0 333.92012284631312 201.11450251898214 0 0 0 0 -435.56206373191645 134.71088859321975 0 134.71088859321975 181.62093122362876 0 0 0 0 -437.68933218097663 435.34391400337836 0 435.34391400337836 -95.366742169209829 0 0 0 0 -180.83206548851376 205.06543026062923 0 205.06543026062923 110.55297197348773 0 0 0 0 -459.17652970126073 327.86559998173334 0 327.86559998173334 -124.90238820802097 0 0 0 0 -501.26880853582043 183.25518750535718 0 183.25518750535718 26.754431136872427 0 0 0 0 -351.98907170419989 303.76633390731013 0 303.76633390731013 -572.75172162891613 0 0 0 0 -178.48669802926452 845.1416361421326 0 845.1416361421326 -481.69969664424298 0 0 0 0 -603.77183077789959 130.98653790181288 0 130.98653790181288 -167.1456092750891 0 0 0 0 -43.632934697612654 501.91944494404652 0 501.91944494404652 -720.49350987162961 0 0 0 0 157.59238154170453 -55.754833638637137 0 -55.754833638637137 -585.98940224311946 0 0 0 0 -642.48469842949999 420.17828584956897 0 420.17828584956897 -96.478424363659656 0 0 0 0 6.0945332814994799 1.1113312400731559 0 1.1113312400731559 -12.829321548051368 0 0 0 0 -33.628936579116271 367.47972362370274 0 367.47972362370274 394.23537692580794 0 0 0 0 35.275146908891315 117.93615077044483 0 117.93615077044483 -145.62877970228487 0 0 0 0 -797.73421489112661 -78.113428290878346 0 -78.113428290878346 323.80880409274505 0 0 0 0 34.355287428708607 124.24125705491366 0 124.24125705491366 -132.64964133842111 0 0 0 0 -263.88564430057886 185.10980689238568 0 185.10980689238568 -507.47953761733879 0 0 0 0 -248.00422377241193 406.7309918270148 0 406.7309918270148 -742.34793102138065 0 0 0 0 34.978618615876883 124.36587322003241 0 124.36587322003241 -134.5831590346092 0 0 0 0 -442.86242972527361 283.88864957525038 0 283.88864957525038 -94.816258581141483 0 0 0 0 -300.30344470580167 937.3169326382158 0 937.3169326382158 -207.99532053317671 0 0 0 0 -464.9908086820069 447.12094058397429 0 447.12094058397429 -160.63301316941306 0 0 0 0 -479.17841636188678 343.48343207422562 0 343.48343207422562 158.22672144134998 0 0 0 0 -511.15469186608971 255.79119801519789 0 255.79119801519789 249.51448309441048 0 0 0 0 -388.15958510091878 469.47794106622769 0 469.47794106622769 277.3276639413649 0 0 0 0 -339.70444556185976 395.10444217639611 0 395.10444217639611 -38.571285772592091 0 0 0 0 -421.92722719481026 360.86170664055089 0 360.86170664055089 323.49520972195751 0 0 0 0 -429.68681618048367 249.73616807940468 0 249.73616807940468 361.73081866201346 0 0 0 0 -531.88676283456152 275.62749369826707 0 275.62749369826707 481.54940322619672 0 0 0 0 -545.94854587799637 328.99262102510147 0 328.99262102510147 448.60893711898444 0 0 0 0 31.920916290720925 384.62214368947775 0 384.62214368947775 713.78285080633168 0 0 0 0 32.793306227948051 394.06821839541067 0 394.06821839541067 329.77331090838334 0 0 0 0 -292.52188520798518 360.00034574577944 0 360.00034574577944 781.12236252568152 0 0 0 0 -288.54826512567524 381.45265343529309 0 381.45265343529309 477.37531436825611 0 0 0 0 161.75607728617615 782.87569722008266 0 782.87569722008266 364.12142600393418 0 0 0 0 -250.51159485951575 266.57016359541205 0 266.57016359541205 274.82609610262625 0 0 0 0 33.251300105381119 123.32718709184152 0 123.32718709184152 -131.95979163631804 0 0 0 0 238.10336878782255 341.95120317942201 0 341.95120317942201 292.52229342164355 0 0 0 0 215.53033035027329 489.64666874891554 0 489.64666874891554 -34.159972595065483 0 0 0 0 -77.875386200714274 540.65634881819278 0 540.65634881819278 -481.27886871658848 0 0 0 0 -226.51974676206009 576.88866080385196 0 576.88866080385196 259.53221765641138 0 0 0 0 -367.4187630135857 1023.2597805694095 0 1023.2597805694095 -439.5801415584001 0 0 0 0 -100.1476519805874 617.9106940104466 0 617.9106940104466 -549.11602559047606 0 0 0 0 17.913697100884747 658.01889925389514 0 658.01889925389514 20.813611163262976 0 0 0 0 135.60061914954713 715.94652206681894 0 715.94652206681894 -519.81129185322789 0 0 0 0 -6.4132675321161514 1774.2989698116289 0 1774.2989698116289 -737.63531697131111 0 0 0 0 -31.253892357937247 50.234207733598375 0 50.234207733598375 -68.07299482869854 0 0 0 0 135.86518635851098 1493.6998463854979 0 1493.6998463854979 -450.99341678238125 0 0 0 0 -633.14023447369254 394.24236720980116 0 394.24236720980116 -300.31959612890205 0 0 0 0 -333.63633984452463 491.58720203643315 0 491.58720203643315 -319.31695833274171 0 0 0 0 -581.26417741198384 595.43877773851273 0 595.43877773851273 -31.187705132499104 0 0 0 0 361.03884207917145 1464.0314136052039 0 1464.0314136052039 981.74259621948295 0 0 0 0 1313.5811485471204 1581.9857959082437 0 1581.9857959082437 694.79363333209767 0 0 0 0 -1209.3548743666033 -44.096833845644142 0 -44.096833845644142 749.38079079656745 0 0 0 0 -1.3062592953166074 1.9269234847088228 0 1.9269234847088228 1.472227787225421 0 0 0 0 -511.54318571172189 1201.7218332085249 0 1201.7218332085249 902.89441787143005 0 0 0 0 81.673302498078556 550.80940564650518 0 550.80940564650518 499.24305390112568 0 0 0 0 -13.475563525559608 6.2660939836785587 0 6.2660939836785587 -2.5685689452057829 0 0 0 0 44.676124729041476 764.75126711833218 0 764.75126711833218 -1937.1156920038484 0 0 0 0 497.20534157613292 455.45248207997793 0 455.45248207997793 389.604493064282 0 0 0 0 -88.47059685291606 482.01584182160877 0 482.01584182160877 492.40535210596863 0 0 0 0 97.752705528735532 427.1007469893666 0 427.1007469893666 541.92914798496349 0 0 0 0 -34.43644342495827 -172.62940927705495 0 -172.62940927705495 143.86264621600276 0 0 0 0 328.82588004734134 267.96075771647884 0 267.96075771647884 194.48562720339032 0 0 0 0 798.51869366891333 452.82015217787557 0 452.82015217787557 331.82642787048098 0 0 0 0 913.38221027450345 636.50549046711239 0 636.50549046711239 473.08463871051208 0 0 0 0 554.82199985266197 680.86765827493218 0 680.86765827493218 725.27497631859296 0 0 0 0 1221.75989009967 515.99659815486393 0 515.99659815486393 620.0504155823437 0 0 0 0 -15.178066286174726 10.309092504059841 0 10.309092504059841 17.762362607568463 0 0 0 0 1015.9109913483699 932.72348478434287 0 932.72348478434287 618.73511316261022 0 0 0 0 771.91644346139219 573.41876442068678 0 573.41876442068678 538.93480585768702 0 0 0 0 1087.7920959361363 953.26228291487496 0 953.26228291487496 661.89385548887367 0 0 0 0 822.86526741000125 579.81291462481022 0 579.81291462481022 371.94015139190742 0 0 0 0 378.37709076965984 304.96593547020166 0 304.96593547020166 288.14208121325646 0 0 0 0 527.32401000818936 638.41437001902523 0 638.41437001902523 529.58938695133838 0 0 0 0 538.7264718451479 525.32717175118887 0 525.32717175118887 429.24856342303974 0 0 0 0 518.56559064345493 555.11916252952869 0 555.11916252952869 393.1098660978314 0 0 0 0 945.94320452793909 514.45881731452391 0 514.45881731452391 235.66564782705973 0 0 0 0 897.70121795017621 647.00077830912778 0 647.00077830912778 332.55853287217178 0 0 0 0 774.91511750762584 460.58321121310291 0 460.58321121310291 278.45364981178136 0 0 0 0 640.72689805754635 442.91141868669365 0 442.91141868669365 93.541427037562244 0 0 0 0 592.6120459004851 624.27483729502637 0 624.27483729502637 244.0606272398727 0 0 0 0 -27.495760337017117 42.438196548895711 0 42.438196548895711 -50.195394378898811 0 0 0 0 1029.3793391291692 519.15627022981062 0 519.15627022981062 60.736497400008375 0 0 0 0 511.03776606068277 260.09577737835207 0 260.09577737835207 156.50757586510736 0 0 0 0 12.809369993924435 0.033538492529146424 0 0.033538492529146424 -11.384687044471804 0 0 0 0 338.14589387454907 513.12822732362838 0 513.12822732362838 245.39068038330879 0 0 0 0 141.23349188012799 254.93731378146913 0 254.93731378146913 238.31621956120944 0 0 0 0 26.156027300319693 406.88575953965483 0 406.88575953965483 141.92654401159962 0 0 0 0 -219.08041038093506 311.26318369002547 0 311.26318369002547 277.01552866616112 0 0 0 0 -302.66822975834657 461.73706496976956 0 461.73706496976956 105.83070355206291 0 0 0 0 -402.3536559603599 389.68698935762222 0 389.68698935762222 126.34478821246012 0 0 0 0 -431.8713846114988 584.58032784650277 0 584.58032784650277 69.412294110414223 0 0 0 0 -502.85425011379266 514.38900493683468 0 514.38900493683468 0.80499845775193535 0 0 0 0 10.280431071354542 251.18467096905806 0 251.18467096905806 354.92791732624755 0 0 0 0 -193.99724486771447 542.73337232129415 0 542.73337232129415 243.77483601751737 0 0 0 0 -27.218779976039343 47.61125041976188 0 47.61125041976188 -66.541631011863899 0 0 0 0 35.75129199505318 212.18457915814361 0 212.18457915814361 -12.287262037527398 0 0 0 0 -229.57228230891633 663.82126052353851 0 663.82126052353851 -45.803342455910752 0 0 0 0 -188.57427921961062 515.38995218937634 0 515.38995218937634 169.07491060690518 0 0 0 0 -348.44510848616483 436.94285863404002 0 436.94285863404002 176.50554347565048 0 0 0 0 -2.0886649289241177 386.56827474822421 0 386.56827474822421 -80.659059203884681 0 0 0 0 -241.78210001576736 196.21861282598366 0 196.21861282598366 97.479549354757182 0 0 0 0 -242.33062244510802 223.97539319213683 0 223.97539319213683 -151.62210750868508 0 0 0 0 -394.01649563469141 217.40531302785723 0 217.40531302785723 11.554297546841553 0 0 0 0 -352.92286289136246 364.3273706377804 0 364.3273706377804 -9.4735640106373467 0 0 0 0 -241.09340395007166 232.00758532602049 0 232.00758532602049 131.16765265823869 0 0 0 0 -141.75057117775577 382.86257992793981 0 382.86257992793981 49.715439294624957 0 0 0 0 30.250437671202235 204.99926583698834 0 204.99926583698834 190.40303655850221 0 0 0 0 386.34675611701095 313.83136039521924 0 313.83136039521924 155.45729418828341 0 0 0 0 173.80947987149193 440.12326406259672 0 440.12326406259672 126.84320034562552 0 0 0 0 354.53351228804604 357.54520248441622 0 357.54520248441622 422.69546110017109 0 0 0 0 766.54879835392785 548.45529424858978 0 548.45529424858978 117.1187578838726 0 0 0 0 713.50013316485274 812.82791850445938 0 812.82791850445938 257.67333011815208 0 0 0 0 -16.320406360809301 26.266280101649627 0 26.266280101649627 -35.447834603301771 0 0 0 0 349.01907542980916 379.44960132961205 0 379.44960132961205 329.03966615755053 0 0 0 0 656.58730412070872 175.82033380246867 0 175.82033380246867 -42.157637538730341 0 0 0 0 447.61464278372296 343.43448760694446 0 343.43448760694446 -90.404785873295623 0 0 0 0 141.23159748857142 198.23227504236274 0 198.23227504236274 132.48598538631313 0 0 0 0 130.37705394785735 252.8994352364025 0 252.8994352364025 -2.2889709739101818 0 0 0 0 449.15736061858479 251.31325501891115 0 251.31325501891115 -322.65776772104437 0 0 0 0 340.82856676043593 92.057424016093137 0 92.057424016093137 -301.2653241216467 0 0 0 0 456.49122179066762 229.90483992286318 0 229.90483992286318 -226.12526414523018 0 0 0 0 407.76155271505559 308.37694273614397 0 308.37694273614397 -111.439516614686 0 0 0 0 369.43903315415264 225.68264106692186 0 225.68264106692186 -173.76620639918838 0 0 0 0 121.37299590762996 114.51397808714682 0 114.51397808714682 -132.57939390960382 0 0 0 0 139.94536804546078 -93.989372590833227 0 -93.989372590833227 -677.54113884816252 0 0 0 0 0.466422399409538 3.5575038304942836 0 3.5575038304942836 -4.7148664658043629 0 0 0 0 -365.1412137230509 277.22248080738518 0 277.22248080738518 387.43446601608593 0 0 0 0 -201.36296387384209 406.65306762723048 0 406.65306762723048 -399.82420398929389 0 0 0 0 173.04881934527657 158.11315466531232 0 158.11315466531232 -234.85130637399197 0 0 0 0 -358.01243439335667 155.64735856397601 0 155.64735856397601 -131.46879827834528 0 0 0 0 -389.03484688016761 33.141138813669386 0 33.141138813669386 -286.90077167574782 0 0 0 0 -300.09621469657941 92.677870240317134 0 92.677870240317134 -362.39382959456998 0 0 0 0 -304.97210899189668 142.65106985432067 0 142.65106985432067 -302.32142137808842 0 0 0 0 -40.379717056148564 51.802966270478613 0 51.802966270478613 -59.276884008618083 0 0 0 0 -190.67978385039669 477.83548282270249 0 477.83548282270249 294.53303204239637 0 0 0 0 -36.726227644337598 52.15229328652724 0 52.15229328652724 -62.649011410981416 0 0 0 0 50.333453223283868 622.68828205103455 0 622.68828205103455 174.24802670946519 0 0 0 0 -266.85703886016563 187.65042372415337 0 187.65042372415337 231.10135341870773 0 0 0 0 77.682730005602934 263.05092353436339 0 263.05092353436339 -13.081613544563879 0 0 0 0 -408.39088080408328 699.08546883010422 0 699.08546883010422 -391.22364049042517 0 0 0 0 258.25904189439098 367.47647919486553 0 367.47647919486553 -337.82720852855709 0 0 0 0 223.18813767730899 394.27580131083232 0 394.27580131083232 -14.814628097083187 0 0 0 0 135.64680895621132 67.080778960196767 0 67.080778960196767 -320.31374642783339 0 0 0 0 -33.782900065443357 52.679023476721866 0 52.679023476721866 -65.813330553333941 0 0 0 0 10.814182052952219 300.24188428705497 0 300.24188428705497 34.449855607730569 0 0 0 0 37.846951584615454 -191.94361735297571 0 -191.94361735297571 -352.22434078388324 0 0 0 0 -0.16143349858907641 6.6856856683930914 0 6.6856856683930914 -7.6511536523705956 0 0 0 0 289.99718490850501 263.37564379906689 0 263.37564379906689 -155.44485424464801 0 0 0 0 262.52733964998333 258.41002191617008 0 258.41002191617008 -17.007169400876592 0 0 0 0 273.6259419117996 223.79446305047895 0 223.79446305047895 -19.341425985854585 0 0 0 0 288.43474053070531 319.90298979366344 0 319.90298979366344 8.8859943639836274 0 0 0 0 152.22767727736573 481.50948630851781 0 481.50948630851781 -104.64860973283066 0 0 0 0 1.4140882102494743 4.0597596375468186 0 4.0597596375468186 -5.0883131432150321 0 0 0 0 143.14679998590145 428.16728717686055 0 428.16728717686055 428.53656916168984 0 0 0 0 -30.16469824280648 501.23408420080159 0 501.23408420080159 -83.418987051394652 0 0 0 0 155.85972366606075 178.74463691661367 0 178.74463691661367 -596.85627707260574 0 0 0 0 10.850309365596331 230.69278010427661 0 230.69278010427661 -106.93162825450418 0 0 0 0 119.06259555112047 330.47138630358677 0 330.47138630358677 -72.193902085636637 0 0 0 0 -33.119694060887412 52.884657083945747 0 52.884657083945747 -66.203133726369146 0 0 0 0 652.88986361214484 667.45298462673964 0 667.45298462673964 379.21442987484625 0 0 0 0 249.47983323114022 511.60680787663296 0 511.60680787663296 462.1974997799407 0 0 0 0 443.63617019943194 385.2071170307936 0 385.2071170307936 4.0198156120604835 0 0 0 0 -4.6939081456148415 329.64094159397064 0 329.64094159397064 210.6310081548072 0 0 0 0 170.76796406343055 321.06400413948722 0 321.06400413948722 1.8989429888388258 0 0 0 0 220.7543486180366 459.39521270586556 0 459.39521270586556 32.824927448598828 0 0 0 0 111.09679922561554 259.5779497127005 0 259.5779497127005 -313.65352831430209 0 0 0 0 319.88092008526291 344.47454628206833 0 344.47454628206833 -208.34142872910888 0 0 0 0 371.36951401545957 454.18324444072641 0 454.18324444072641 -17.121613207928021 0 0 0 0 212.42658467452566 441.38219606938947 0 441.38219606938947 -273.46138980467731 0 0 0 0 274.6918264402193 468.49236871335961 0 468.49236871335961 -270.46881374207442 0 0 0 0 259.48541752864548 501.12729297445912 0 501.12729297445912 -304.92185703112114 0 0 0 0 126.84453435569594 335.84629789167957 0 335.84629789167957 -182.87522035833172 0 0 0 0 62.202265768679354 397.56427968005119 0 397.56427968005119 122.0342408525903 0 0 0 0 79.658639999106526 419.20160743450651 0 419.20160743450651 55.815276573615847 0 0 0 0 -143.18226620355199 594.22504770719661 0 594.22504770719661 316.21431620600924 0 0 0 0 137.87828087869275 563.98335228851647 0 563.98335228851647 252.22056959759357 0 0 0 0 207.30061576356093 752.65612708228582 0 752.65612708228582 209.17472309924779 0 0 0 0 216.06350371039298 474.28216721069475 0 474.28216721069475 13.308082197007025 0 0 0 0 229.36993646500923 150.54313033254584 0 150.54313033254584 -221.06642352465133 0 0 0 0 975.9031751366565 507.23445582520799 0 507.23445582520799 -282.85797875406752 0 0 0 0 259.06555061891231 288.30687912931171 0 288.30687912931171 -127.77614576584892 0 0 0 0 -249.04168734155246 139.91788452687615 0 139.91788452687615 -161.31868546238547 0 0 0 0 703.56397322859266 487.24611477423605 0 487.24611477423605 -145.19457784384576 0 0 0 0 -968.21842864622886 190.20871103928584 0 190.20871103928584 2045.5877117996206 0 0 0 0 303.57494900140591 491.25961751202703 0 491.25961751202703 -121.26375661016209 0 0 0 0 675.18019295064732 1605.7733279988497 0 1605.7733279988497 1335.8787356622779 0 0 0 0 271.0496274538018 -318.9254985485677 0 -318.9254985485677 -1167.7642522160313 0 0 0 0 2098.0714425105834 1101.5553759163449 0 1101.5553759163449 -1474.2118030781057 0 0 0 0 865.53738359633644 507.26827043002959 0 507.26827043002959 -154.03630212094868 0 0 0 0 9.3698302233779316 11.530234230038616 0 11.530234230038616 16.403447745890958 0 0 0 0 -6.3391550806376245 9.6361399915823966 0 9.6361399915823966 -11.400896064810809 0 0 0 0 779.82920924638347 911.6464570241169 0 911.6464570241169 221.95899253035896 0 0 0 0 605.77443701001175 622.57148347049224 0 622.57148347049224 101.32658905438439 0 0 0 0 386.12133402963082 386.57711024604214 0 386.57711024604214 32.142898903184687 0 0 0 0 453.98998082835169 169.05436304881459 0 169.05436304881459 -261.1979689146392 0 0 0 0 -277.11256935066194 190.91664025442151 0 190.91664025442151 20.268773055067868 0 0 0 0 511.59517792244151 665.57001834025141 0 665.57001834025141 105.46729970505112 0 0 0 0 -457.0726694453042 254.44840208710229 0 254.44840208710229 -47.993349493725418 0 0 0 0 22.302100837638108 37.653459752876188 0 37.653459752876188 39.132172987240466 0 0 0 0 -372.11511736082321 372.3148885096889 0 372.3148885096889 3.6946111090583145 0 0 0 0 96.292197501243209 -10.024992735285196 0 -10.024992735285196 -159.93142327971873 0 0 0 0 103.94212779862846 113.37047823613329 0 113.37047823613329 -168.52617531165015 0 0 0 0 -253.02124822634505 208.6531228790991 0 208.6531228790991 -141.79801178869093 0 0 0 0 -25.194417627601069 35.536382415190019 0 35.536382415190019 -88.504191494306724 0 0 0 0 16.863484347268241 69.663538155014976 0 69.663538155014976 -102.33760644161521 0 0 0 0 -39.045400638773572 200.40593635807454 0 200.40593635807454 965.08259049239859 0 0 0 0 288.38565366385592 -8.0961210975474387 0 -8.0961210975474387 -1012.8045616314193 0 0 0 0 303.87666205273126 16.462004055676516 0 16.462004055676516 -1240.3575984566342 0 0 0 0 -0.07502394217942765 6.7951226281205948 0 6.7951226281205948 -4.9295356501350938 0 0 0 0 -132.66621290725016 464.53883007892 0 464.53883007892 -768.501245436506 0 0 0 0 31.380301470231643 12.900503439563181 0 12.900503439563181 -219.45816084738181 0 0 0 0 -12.52186702494825 25.087088179632268 0 25.087088179632268 4.562552238858018 0 0 0 0 112.69601197741576 -329.06388237210922 0 -329.06388237210922 -873.13415775478643 0 0 0 0 -45.682869975746144 35.074086052321945 0 35.074086052321945 115.86595249757283 0 0 0 0 102.57535588090832 198.57709586913552 0 198.57709586913552 -231.20540117876953 0 0 0 0 -6.1834824653196847 41.573300249438034 0 41.573300249438034 8.0631895798433106 0 0 0 0 -216.47231092356378 215.93920476970379 0 215.93920476970379 80.272020312047061 0 0 0 0 -639.08333814225625 141.06484756026475 0 141.06484756026475 0.34938565981974534 0 0 0 0 2.5972629358118411 2.6822375559791283 0 2.6822375559791283 -11.521542241920656 0 0 0 0 42.43359250415233 78.789639973998419 0 78.789639973998419 -337.86891890917786 0 0 0 0 -11.294590838591077 44.71122761373843 0 44.71122761373843 -83.496367326018515 0 0 0 0 375.70345665796049 399.09922589704001 0 399.09922589704001 -442.0166799051658 0 0 0 0 218.43957138084807 -388.12389751640876 0 -388.12389751640876 -658.94862034224207 0 0 0 0 -617.26065450931492 515.16174634621711 0 515.16174634621711 -106.26277034861414 0 0 0 0 -124.27340124851617 793.53300618534558 0 793.53300618534558 -751.19114326879208 0 0 0 0 -165.10472922114423 -451.15082386502763 0 -451.15082386502763 -255.31106255021587 0 0 0 0 497.34021678956924 781.23634088130348 0 781.23634088130348 258.99216032805271 0 0 0 0 396.2245765673506 -109.88484752246586 0 -109.88484752246586 -252.28064696425281 0 0 0 0 405.50225012988085 16.209667522722157 0 16.209667522722157 -236.89860175250942 0 0 0 0 3.4552822547616415 12.00143477416627 0 12.00143477416627 -25.99217389601381 0 0 0 0 63.387610499456059 -120.27000685511302 0 -120.27000685511302 191.95675516831398 0 0 0 0 -9.8162359014470297 32.611382429218168 0 32.611382429218168 -89.470559138991916 0 0 0 0 -320.1119230397162 97.302696485967317 0 97.302696485967317 292.99805853551516 0 0 0 0 864.00943668262335 796.73562937707175 0 796.73562937707175 72.843890018462844 0 0 0 0 216.66934246654273 -224.51099792232708 0 -224.51099792232708 910.85004418852623 0 0 0 0 -801.50092235991906 851.73702583636623 0 851.73702583636623 264.86487685880275 0 0 0 0 -257.42859198303449 394.63286905721179 0 394.63286905721179 243.3198408952012 0 0 0 0 -191.83272014028626 984.33045473656966 0 984.33045473656966 224.60998357152857 0 0 0 0 -2.9629342967054981 9.3457655772267003 0 9.3457655772267003 -4.4449904886229206 0 0 0 0 178.92346548101341 578.29198750628348 0 578.29198750628348 260.67217397487548 0 0 0 0 9.5378106744319666 710.90640437195543 0 710.90640437195543 292.0596996244858 0 0 0 0 -165.6048979402949 582.81041994751195 0 582.81041994751195 866.84442317040521 0 0 0 0 -28.27386198680324 175.51863162486552 0 175.51863162486552 465.95191119259835 0 0 0 0 -156.49330259954877 140.08194050276506 0 140.08194050276506 -284.2355365644471 0 0 0 0 11.579930528263503 385.85401261107472 0 385.85401261107472 45.214097661657433 0 0 0 0 -781.04224726321991 454.36947506874276 0 454.36947506874276 236.80754792976313 0 0 0 0 5.8643090307064085 12.77717256431481 0 12.77717256431481 18.593640046715223 0 0 0 0 -421.54872131743468 882.04049817853956 0 882.04049817853956 -138.55389400820422 0 0 0 0 -250.29832960780186 437.90183819705999 0 437.90183819705999 -209.80464069049413 0 0 0 0 530.98986322566634 131.68643348124897 0 131.68643348124897 -217.19111698246343 0 0 0 0 134.70457752168659 141.49056697579817 0 141.49056697579817 -208.82099871286482 0 0 0 0 1738.5842955149419 1348.0984367251222 0 1348.0984367251222 -209.83790972445058 0 0 0 0 -443.62534046551445 -817.97534056644508 0 -817.97534056644508 865.0002649595408 0 0 0 0 6.7181632904103026 -276.08988047830644 0 -276.08988047830644 245.37897054057976 0 0 0 0 -1642.8787363730517 314.27316265063018 0 314.27316265063018 965.04475576276309 0 0 0 0 0.62660824561939421 4.8408636091861013 0 4.8408636091861013 13.240916939450926 0 0 0 0 813.24218955618562 310.860948578229 0 310.860948578229 -103.63238744295086 0 0 0 0 3.8073887669888791 654.35516399522021 0 654.35516399522021 1576.5221115407694 0 0 0 0 1069.3958620902558 1332.303279451975 0 1332.303279451975 788.62651639945398 0 0 0 0 300.2444770865186 116.13813050006866 0 116.13813050006866 -3.4745753571332898 0 0 0 0 138.2491843313037 68.157820855500177 0 68.157820855500177 153.99734124779934 0 0 0 0 2035.1275459897442 790.4637299599608 0 790.4637299599608 -13.698235212825239 0 0 0 0 1707.0395333954948 -420.27521149396489 0 -420.27521149396489 201.33261045051768 0 0 0 0 1279.0857884042052 -689.63571781256906 0 -689.63571781256906 -11.496267602578882 0 0 0 0 15.342401430450025 7.3040114668985154 0 7.3040114668985154 3.0618190290662284 0 0 0 0 358.14133047064024 -63.328963861868033 0 -63.328963861868033 -406.63299293509044 0 0 0 0 178.18639898271067 194.63477303179388 0 194.63477303179388 -53.937913279121858 0 0 0 0 394.88900937238577 33.183154967624432 0 33.183154967624432 -378.79240802764252 0 0 0 0 32.747699739672498 38.987244864994807 0 38.987244864994807 -16.119157517547734 0 0 0 0 833.3878809978487 -84.974187167150376 0 -84.974187167150376 -431.91010282739262 0 0 0 0 512.61630659324874 221.0319045415381 0 221.0319045415381 -294.28106888540788 0 0 0 0 972.86876100265363 122.6191322796185 0 122.6191322796185 -403.55768366040138 0 0 0 0 1506.3823271939254 120.49225563755681 0 120.49225563755681 -471.50380307644082 0 0 0 0 2.6189556043057678 5.1773141641218956 0 5.1773141641218956 8.2172535637192254 0 0 0 0 584.14011481620764 198.29687470429417 0 198.29687470429417 -163.13716150331311 0 0 0 0 110.0684592830512 141.91498752965708 0 141.91498752965708 -141.96175473322728 0 0 0 0 53.433071975014172 77.540761705991827 0 77.540761705991827 -241.75008286740194 0 0 0 0 -2.0111833694048826 47.061139196442468 0 47.061139196442468 -65.538898388978254 0 0 0 0 18.434146259030683 35.211911448239761 0 35.211911448239761 -81.756037423118869 0 0 0 0 -44.735091410017048 87.039684270002908 0 87.039684270002908 -60.316146818338893 0 0 0 0 98.049049391658627 60.859534582890774 0 60.859534582890774 -60.569940205081366 0 0 0 0 -74.383103299398499 168.56220221775584 0 168.56220221775584 -218.96746024405729 0 0 0 0 -28.992577893965063 180.50406951835248 0 180.50406951835248 -338.25093759601441 0 0 0 0 -22.350031992784352 141.21877184294863 0 141.21877184294863 -307.86155767093442 0 0 0 0 -2.5419574001241472 6.2261439518112809 0 6.2261439518112809 -16.643753897888217 0 0 0 0 -1.9696211838256659 87.233881010484453 0 87.233881010484453 -109.47287299632657 0 0 0 0 112.0761239881831 292.31537918745744 0 292.31537918745744 -1087.7086758265505 0 0 0 0 45.190461767168017 96.312943784476374 0 96.312943784476374 -259.63180929696682 0 0 0 0 -348.11963259693584 391.38203891630837 0 391.38203891630837 -180.42983845074195 0 0 0 0 -25.92366125175559 19.089378018923441 0 19.089378018923441 13.111299422032346 0 0 0 0 37.14306944572607 -11.034556236449788 0 -11.034556236449788 -11.890826068323832 0 0 0 0 337.4112849222729 572.45886524245725 0 572.45886524245725 -2635.7402459840523 0 0 0 0 109.98144499224145 300.01062294523581 0 300.01062294523581 -642.55678423633799 0 0 0 0 344.04830585198943 -217.85199569375254 0 -217.85199569375254 -1679.8761088667961 0 0 0 0 9.6162845622457098 -42.446610452352616 0 -42.446610452352616 87.262646347400732 0 0 0 0 -7.9920331619382878 12.381820870388907 0 12.381820870388907 -13.3152973899534 0 0 0 0 51.845866825344274 151.31979967505322 0 151.31979967505322 82.421607742086053 0 0 0 0 -23.819771821458687 50.271847244122768 0 50.271847244122768 -77.303281292628299 0 0 0 0 -302.45767252752557 75.334169200119504 0 75.334169200119504 34.119778970620246 0 0 0 0 -109.59402556674252 94.44308181635148 0 94.44308181635148 -37.866240363980651 0 0 0 0 -44.995452372299042 119.15099472290967 0 119.15099472290967 -290.55680966941145 0 0 0 0 -85.977911191628664 174.46020029668944 0 174.46020029668944 -332.29959653688275 0 0 0 0 -131.16275541918003 103.1367264227556 0 103.1367264227556 -140.40373036856181 0 0 0 0 -363.26054851443041 133.99536934824573 0 133.99536934824573 -118.35851569603619 0 0 0 0 -1354.7149080666568 31.254309578558605 0 31.254309578558605 452.24058280519603 0 0 0 0 1241.4979642838589 570.21799192937033 0 570.21799192937033 125.7181875311494 0 0 0 0 34.819043011193571 692.08513490632686 0 692.08513490632686 -85.986009694548557 0 0 0 0 -161.13824949088121 269.21151378403601 0 269.21151378403601 -347.87337204128562 0 0 0 0 -0.046661686516017653 393.97535280661759 0 393.97535280661759 -251.47614458361204 0 0 0 0 -198.39343890874443 212.94032532862002 0 212.94032532862002 -280.3753278204822 0 0 0 0 -160.46899623592617 280.05798573878928 0 280.05798573878928 -188.23140165251243 0 0 0 0 -293.88875814664061 294.14325440993707 0 294.14325440993707 -153.06180914112338 0 0 0 0 -83.40528613011702 192.44437409552484 0 192.44437409552484 -278.22094886158447 0 0 0 0 -0.2634836840297794 320.63566945798812 0 320.63566945798812 -358.92465348528231 0 0 0 0 3.0550968529020111 -4.2242408225451697 0 -4.2242408225451697 -1.6720599610450932 0 0 0 0 -32.737571283127181 230.86745924627758 0 230.86745924627758 -90.842090620761155 0 0 0 0 -56.532481296482729 220.92363772131284 0 220.92363772131284 -527.42123344965512 0 0 0 0 -35.064865102351177 220.90032087067812 0 220.90032087067812 -116.20065898509347 0 0 0 0 -0.14679066796088591 241.66186374615427 0 241.66186374615427 -126.87082550874766 0 0 0 0 -17.832912178882225 206.25236692401404 0 206.25236692401404 -170.96525742288213 0 0 0 0 -0.036534337486955337 229.24333775872583 0 229.24333775872583 -211.91824050901414 0 0 0 0 35.68923641157744 182.98048239835407 0 182.98048239835407 -312.39353367104559 0 0 0 0 13.316357759817038 160.62747879397284 0 160.62747879397284 -219.37536017005914 0 0 0 0 -18.0113395128717 217.35897608907294 0 217.35897608907294 -120.21398784020857 0 0 0 0 29.001040993753122 109.78233564776019 0 109.78233564776019 -280.65452684412958 0 0 0 0 5.0396290412609233 4.0374126802431469 0 4.0374126802431469 -11.496229866349189 0 0 0 0 17.603359357486625 233.07136189818141 0 233.07136189818141 39.967656886357872 0 0 0 0 111.91075325176644 70.581397504403867 0 70.581397504403867 -90.370545398560353 0 0 0 0 -12.173808736393184 49.938957299150587 0 49.938957299150587 -70.749124680598641 0 0 0 0 53.694334101339848 37.166951200995349 0 37.166951200995349 -84.431112113694155 0 0 0 0 11.644982066857338 50.545921113281906 0 50.545921113281906 -74.898638234951534 0 0 0 0 66.217799120917334 77.922552151634591 0 77.922552151634591 -91.633453829832433 0 0 0 0 189.47324221285817 84.729783726004825 0 84.729783726004825 -222.97984470822848 0 0 0 0 85.554996902967105 43.462152837077156 0 43.462152837077156 -183.50967794528697 0 0 0 0 87.738508014022955 69.0855914890235 0 69.0855914890235 -212.88920381030766 0 0 0 0 5.6178394450796034 52.978904887078954 0 52.978904887078954 -105.88124946670405 0 0 0 0 -20.683270289373468 86.838370298937662 0 86.838370298937662 -215.73338997157407 0 0 0 0 239.25894220494774 -37.523398233675607 0 -37.523398233675607 -359.04436444241583 0 0 0 0 223.42452920615324 -93.780533043525793 0 -93.780533043525793 -248.35133584111554 0 0 0 0 165.24984711733123 74.652271587572613 0 74.652271587572613 -337.60126174464676 0 0 0 0 -209.49611959130561 -98.715424574136705 0 -98.715424574136705 -334.77052169856688 0 0 0 0 -5.6901787009811073 -2.4133595775241545 0 -2.4133595775241545 1.6355164529909558 0 0 0 0 0.053062354621943086 61.138941274388344 0 61.138941274388344 96.945993440005623 0 0 0 0 25.902511259599123 -211.11180254060673 0 -211.11180254060673 -808.62459746942841 0 0 0 0 -0.2561494321412206 206.82367309271868 0 206.82367309271868 -648.70836726552079 0 0 0 0 -91.051057235337794 73.370852292890049 0 73.370852292890049 -266.65391532984177 0 0 0 0 100.0247403736721 94.33661181766729 0 94.33661181766729 -539.11361114197643 0 0 0 0 25.087710485226125 89.794261289280257 0 89.794261289280257 -11.807891585835023 0 0 0 0 41.558285443170462 123.91443460914161 0 123.91443460914161 48.68781243554804 0 0 0 0 -0.02475643195793964 101.50300460757353 0 101.50300460757353 74.414590754211531 0 0 0 0 46.635453507704369 116.81891765448745 0 116.81891765448745 54.94001272667083 0 0 0 0 69.272497754485812 77.096242780004104 0 77.096242780004104 60.386888556691702 0 0 0 0 123.91176707256818 138.48382176720042 0 138.48382176720042 49.601095574987994 0 0 0 0 -2.5999613613475958 2.8205272722444477 0 2.8205272722444477 2.6672900164251701 0 0 0 0 -99.447643578518182 3.8952674984029727 0 3.8952674984029727 28.163992649468128 0 0 0 0 17.67026014032308 123.13313285412733 0 123.13313285412733 132.52264793001814 0 0 0 0 -13.134944597171852 76.322195220112917 0 76.322195220112917 -20.070192484854488 0 0 0 0 -21.344390313959821 31.375100151532202 0 31.375100151532202 -21.430804326290058 0 0 0 0 -23.972295931987333 31.172113128836379 0 31.172113128836379 -26.829809015360524 0 0 0 0 -11.38532360753743 68.87827340309741 0 68.87827340309741 11.495578511327039 0 0 0 0 -23.676083775690131 79.641917827270845 0 79.641917827270845 88.825259613295202 0 0 0 0 -23.869314470226527 83.090049440541407 0 83.090049440541407 86.887366857394227 0 0 0 0 -38.15940090836375 103.5464174006047 0 103.5464174006047 165.05673006220604 0 0 0 0 -22.286442234937567 81.306940933645819 0 81.306940933645819 -11.825198760721833 0 0 0 0 -51.054535683331778 85.337657831587421 0 85.337657831587421 96.012788149004336 0 0 0 0 -4.6512768948159646 96.373631483707868 0 96.373631483707868 -40.602020799989987 0 0 0 0 25.456462986232367 54.454500678634645 0 54.454500678634645 -32.538983204004978 0 0 0 0 -16.817568687460152 -28.778222644134075 0 -28.778222644134075 -112.93192945036571 0 0 0 0 2.5035074990300927 53.214617866571643 0 53.214617866571643 -82.151162300899159 0 0 0 0 25.895913546904922 32.017374929783514 0 32.017374929783514 -70.951651645022196 0 0 0 0 -50.473167629912496 0.58871210605138913 0 0.58871210605138913 -122.75746886467095 0 0 0 0 58.063175368940449 36.598089312689723 0 36.598089312689723 -98.879242112193083 0 0 0 0 35.784597647958435 62.253061679075472 0 62.253061679075472 10.263940769335022 0 0 0 0 50.029748682311038 38.633855414562277 0 38.633855414562277 -9.3433703259797767 0 0 0 0 -16.234485364315333 105.45604863177869 0 105.45604863177869 -22.889546300897564 0 0 0 0 -16.783800759032601 103.18575916629925 0 103.18575916629925 11.850861230214718 0 0 0 0 -5.2115152273065632 16.40202963078039 0 16.40202963078039 3.1632549036273616 0 0 0 0 18.543718347602407 143.8629461620294 0 143.8629461620294 -146.64441214085673 0 0 0 0 24.73132605740102 80.335159408165055 0 80.335159408165055 -41.538660476129735 0 0 0 0 53.187997235293039 -113.46593711109773 0 -113.46593711109773 -203.86257469190605 0 0 0 0 52.458596192425091 61.537408600528863 0 61.537408600528863 4.1620373201894125 0 0 0 0 54.264805911050644 75.672041517231264 0 75.672041517231264 -72.913411783869378 0 0 0 0 146.10705608739227 297.3042029717617 0 297.3042029717617 70.567419953639728 0 0 0 0 11.151458857034072 9.0918850004249805 0 9.0918850004249805 -20.489557774183538 0 0 0 0 60.944804871693805 872.25998518316396 0 872.25998518316396 849.76442681945628 0 0 0 0 41.12318416190864 88.431943404598258 0 88.431943404598258 35.115059718912505 0 0 0 0 626.13879065816582 677.64342356599082 0 677.64342356599082 -880.85554500718717 0 0 0 0 382.74182691753958 505.44540054145909 0 505.44540054145909 -277.88122768720496 0 0 0 0 311.7766170752293 602.29504658738733 0 602.29504658738733 95.045213463017717 0 0 0 0 -26.436344988440396 135.72595858191198 0 135.72595858191198 143.10267769059283 0 0 0 0 -97.021224172407528 87.559743664480266 0 87.559743664480266 113.78216393738694 0 0 0 0 72.638037813041592 252.6811053443671 0 252.6811053443671 155.07299872408294 0 0 0 0 -32.883998070697999 133.02260649482196 0 133.02260649482196 185.20704556419514 0 0 0 0 -11.274672325904248 171.20916033018148 0 171.20916033018148 14.782798462241772 0 0 0 0 103.73119630283327 94.719636744841409 0 94.719636744841409 -26.405793341313256 0 0 0 0 128.40467366024313 208.50971421225495 0 208.50971421225495 50.652800753668998 0 0 0 0 0.46156294827233069 204.40424985966092 0 204.40424985966092 255.13454374686989 0 0 0 0 -0.2913334659388056 378.21629752221634 0 378.21629752221634 1165.2272895718488 0 0 0 0 338.66252491527121 694.54160075716936 0 694.54160075716936 503.54844376529945 0 0 0 0 374.61559463850153 254.32853317813442 0 254.32853317813442 -116.99839352013078 0 0 0 0 142.8059176733077 69.112460115895374 0 69.112460115895374 -237.13212905059481 0 0 0 0 -264.35201785899699 2120.5514558671566 0 2120.5514558671566 1605.8269526788499 0 0 0 0 17.55612265471126 10.328648754477385 0 10.328648754477385 3.6997064983719952 0 0 0 0 363.66722989155915 1803.5522301161559 0 1803.5522301161559 1755.7362799577677 0 0 0 0 -1394.7173901520728 886.78647707132768 0 886.78647707132768 1321.9886547635833 0 0 0 0 -150.90686998647288 184.45547604275635 0 184.45547604275635 720.08315724411159 0 0 0 0 479.2870843325054 230.83933193976804 0 230.83933193976804 719.00132716441294 0 0 0 0 0.14931220813014079 493.7633627382238 0 493.7633627382238 176.8761047748485 0 0 0 0 -12.729152819214505 321.01704100363349 0 321.01704100363349 -167.76846692457912 0 0 0 0 72.761925647471799 394.53284473274471 0 394.53284473274471 123.47098216926679 0 0 0 0 -656.10136682448911 62.012567708748236 0 62.012567708748236 -290.44980669446522 0 0 0 0 -650.33011838211678 479.41466089549067 0 479.41466089549067 166.40457673102173 0 0 0 0 -345.76889988154289 261.1847228931947 0 261.1847228931947 -170.87984173173027 0 0 0 0 -261.13555957131757 368.86404881779163 0 368.86404881779163 -143.6513343470433 0 0 0 0 925.23619197073276 920.63586170719645 0 920.63586170719645 -441.85458406218095 0 0 0 0 -0.71082066159085144 -6.8348573481117683 0 -6.8348573481117683 -1.5318599937174326 0 0 0 0 -560.58043159398949 178.61406005828758 0 178.61406005828758 -90.35750933457166 0 0 0 0 -12.998618886947355 29.50357303855543 0 29.50357303855543 -34.056007259846922 0 0 0 0 742.68881681760104 451.96565933454985 0 451.96565933454985 -959.53033717436483 0 0 0 0 -428.75376566042542 321.40213819494238 0 321.40213819494238 -148.58599643329217 0 0 0 0 2080.0877215556102 1749.182636078709 0 1749.182636078709 -1728.3559681709739 0 0 0 0 4348.0753977023705 5015.625242656648 0 5015.625242656648 1902.4885063601832 0 0 0 0 -2143.5515096765303 -133.51451374607132 0 -133.51451374607132 733.57472761756799 0 0 0 0 -4.216438941674852 12.946466165153765 0 12.946466165153765 -2.013215047747849 0 0 0 0 5261.5853910645528 2012.6821629509141 0 2012.6821629509141 5748.8969043693505 0 0 0 0 190.70485742465826 2105.2479877007718 0 2105.2479877007718 5225.200915739988 0 0 0 0 -155.33700705616502 942.85343968954112 0 942.85343968954112 1320.665147070722 0 0 0 0 16.503027370185009 934.14219190970471 0 934.14219190970471 1187.6242447980985 0 0 0 0 688.58173537964467 2057.2525007520017 0 2057.2525007520017 1781.8925151793301 0 0 0 0 393.38984717481071 1424.5406362607246 0 1424.5406362607246 459.00808535967371 0 0 0 0 157.18821556275361 865.19772363739321 0 865.19772363739321 -2.3554966709925793 0 0 0 0 -183.3718441502424 818.43697717561736 0 818.43697717561736 1120.797966753089 0 0 0 0 324.81354211113648 -354.72183173994927 0 -354.72183173994927 931.66757711178798 0 0 0 0 125.41468297404936 -16.412934880219836 0 -16.412934880219836 -347.2410433822879 0 0 0 0 569.88086837193987 -674.64136706323188 0 -674.64136706323188 568.81885777093703 0 0 0 0 -59.607904450546528 41.100446395264321 0 41.100446395264321 -4.5003553051360399 0 0 0 0 6604.2386499321292 937.40902445633037 0 937.40902445633037 1375.2858512403036 0 0 0 0 -6.6888283264415378 12.683117891440247 0 12.683117891440247 19.72226151699175 0 0 0 0 -379.58324779343093 -574.60862508287391 0 -574.60862508287391 3260.911445425023 0 0 0 0 -896.08006760153512 167.84548930445453 0 167.84548930445453 550.48077637708047 0 0 0 0 23.479016311409708 79.334924088116708 0 79.334924088116708 23.36748278951859 0 0 0 0 -6.7926382783334702 118.02171666994036 0 118.02171666994036 -34.284064905004925 0 0 0 0 54.72936863018549 176.4194025328834 0 176.4194025328834 5.8161251662386348 0 0 0 0 244.25985766263329 708.79421079863823 0 708.79421079863823 198.69196356773318 0 0 0 0 -341.67897048097802 -135.79707441246865 0 -135.79707441246865 -420.99777982369415 0 0 0 0 931.38559524528682 385.96783968350792 0 385.96783968350792 -332.60348116460955 0 0 0 0 3.3406705431408454 5.2247911104711591 0 5.2247911104711591 7.9270887813697186 0 0 0 0 -132.480071210186 97.954534072352544 0 97.954534072352544 727.35862090013688 0 0 0 0 727.10390022708452 -100.67029952132725 0 -100.67029952132725 -74.752937882145488 0 0 0 0 -99.751692996185739 154.30556076509674 0 154.30556076509674 82.823996066457767 0 0 0 0 -25.733039273982286 261.04665763403318 0 261.04665763403318 236.60534889536211 0 0 0 0 73.298738751378551 234.18671468877073 0 234.18671468877073 239.00390560252708 0 0 0 0 43.784993114546523 315.82582258865295 0 315.82582258865295 24.932223657149734 0 0 0 0 -96.053789241035702 627.98341607353359 0 627.98341607353359 391.96217140802037 0 0 0 0 -208.76219138066517 694.18362889750279 0 694.18362889750279 577.10009610303678 0 0 0 0 216.29737252590712 390.22314423099306 0 390.22314423099306 74.277642444540106 0 0 0 0 208.19052210563677 989.90791277935205 0 989.90791277935205 302.13116732733033 0 0 0 0 -31.99228346648664 18.379879945356258 0 18.379879945356258 -10.689369377911106 0 0 0 0 407.74783890668186 524.1471931306296 0 524.1471931306296 145.75310196654027 0 0 0 0 695.93731687444961 523.63608520610433 0 523.63608520610433 -20.960036249714904 0 0 0 0 8.685717074535205 48.28027772869973 0 48.28027772869973 68.197218550383695 0 0 0 0 1167.4499863200617 116.33104242759146 0 116.33104242759146 -136.66889471022296 0 0 0 0 773.4428681440113 661.8960665694176 0 661.8960665694176 161.12200875455164 0 0 0 0 764.30691719747847 932.2657311760704 0 932.2657311760704 264.78049531836587 0 0 0 0 536.71851304969459 1007.0954392033746 0 1007.0954392033746 245.56874936644454 0 0 0 0 -514.35264286521124 259.83928816182015 0 259.83928816182015 523.30455627010087 0 0 0 0 -375.51316346749081 959.23204237171376 0 959.23204237171376 347.67716977810778 0 0 0 0 642.28848663251847 -448.14695760727409 0 -448.14695760727409 -235.81375616305741 0 0 0 0 107.82150127852219 -149.05333665543731 0 -149.05333665543731 -114.10443404436228 0 0 0 0 107.30265165682067 181.46868596988497 0 181.46868596988497 -856.12940454808268 0 0 0 0 -453.37241452732997 251.64029503239726 0 251.64029503239726 135.89974114412325 0 0 0 0 -7.0933800075640079 9.6726416908221822 0 9.6726416908221822 -5.7063143408337851 0 0 0 0 114.91665646748152 197.64131756091956 0 197.64131756091956 474.4909504021125 0 0 0 0 118.89890934801701 731.62136215467365 0 731.62136215467365 -426.37787780654617 0 0 0 0 386.05172473525454 342.17496275429585 0 342.17496275429585 80.38706353319867 0 0 0 0 2.6141625036622713 17.153352875210004 0 17.153352875210004 -14.20583792557747 0 0 0 0 -1.3370675764017506 260.74380115362146 0 260.74380115362146 501.96810014559742 0 0 0 0 1.0979742911877111 125.29042564731208 0 125.29042564731208 -17.495483768108897 0 0 0 0 144.78969515304198 225.30829103930591 0 225.30829103930591 4.8897387165925466 0 0 0 0 57.036238365519239 109.57268621251205 0 109.57268621251205 40.419651905627688 0 0 0 0 33.914290016924497 149.066322017723 0 149.066322017723 -38.101499173986667 0 0 0 0 17.851316530164695 40.134110252465909 0 40.134110252465909 -74.494911082612276 0 0 0 0 44.781996453559259 104.33432622121472 0 104.33432622121472 -85.610947127846885 0 0 0 0 54.969318017654587 149.8235613857978 0 149.8235613857978 -189.478738661026 0 0 0 0 4.3277380240615457 64.823037385431235 0 64.823037385431235 -103.25051897762751 0 0 0 0 458.22294416039949 84.962893826654181 0 84.962893826654181 -719.71538950092508 0 0 0 0 159.20298394525889 137.75500640287646 0 137.75500640287646 -122.11944771092385 0 0 0 0 55.063501986576739 103.52822057080994 0 103.52822057080994 -225.48440494475653 0 0 0 0 49.888246539092108 -7.9227554302737531 0 -7.9227554302737531 -31.798150861113413 0 0 0 0 31.432625680099591 47.231196178050595 0 47.231196178050595 -102.68954003888143 0 0 0 0 48.581152388683734 13.361407524846641 0 13.361407524846641 -42.249782639792983 0 0 0 0 16.321375987491251 41.808746724645573 0 41.808746724645573 8.3084162140601308 0 0 0 0 -0.30793767612072998 61.320218397286986 0 61.320218397286986 -89.441277965212578 0 0 0 0 50.149715429372009 102.74601768679167 0 102.74601768679167 -188.94203800788091 0 0 0 0 60.849608829144927 123.13976024399199 0 123.13976024399199 -188.20460812159581 0 0 0 0 -27.420668374397792 57.674345793697285 0 57.674345793697285 -129.79840378513472 0 0 0 0 -6.7948607157741208 0.44299655856593745 0 0.44299655856593745 -110.63877418267657 0 0 0 0 0.37637114447716158 185.54979007606744 0 185.54979007606744 53.923193636313954 0 0 0 0 18.873346564939709 24.370640467951148 0 24.370640467951148 -21.420845967225489 0 0 0 0 3.5427722822641954 141.41082202132384 0 141.41082202132384 -56.077992592554438 0 0 0 0 495.56708560416882 315.19352467943827 0 315.19352467943827 -21.720457285555312 0 0 0 0 173.1096489779884 -4.2294618916203035 0 -4.2294618916203035 -88.41755118508263 0 0 0 0 -32.007582135731354 63.955648902643588 0 63.955648902643588 24.470795195695246 0 0 0 0 -45.613941081363009 -21.604391292494256 0 -21.604391292494256 -95.707458202014095 0 0 0 0 -12.647067921614507 -35.652599179717072 0 -35.652599179717072 -245.68702937534545 0 0 0 0 45.056152283088295 24.293219073476308 0 24.293219073476308 -62.778990881881761 0 0 0 0 41.11448286077939 4.2162405785056762 0 4.2162405785056762 -106.81573275568371 0 0 0 0 52.920936211747801 81.412597470720257 0 81.412597470720257 -4.4147001956224017 0 0 0 0 72.245844862631202 19.577605379638044 0 19.577605379638044 -116.13848950151481 0 0 0 0 50.396087637884193 78.860500119973949 0 78.860500119973949 -58.670108705700841 0 0 0 0 31.731160622672178 53.907598277117359 0 53.907598277117359 -46.08859975883388 0 0 0 0 15.573228643778236 36.824777735542014 0 36.824777735542014 -55.125851942435474 0 0 0 0 38.987703921462469 41.190841843630267 0 41.190841843630267 -16.635439304496401 0 0 0 0 42.40984681916234 71.269103472903225 0 71.269103472903225 -71.008379283186514 0 0 0 0 25.381296794084619 52.571786308306592 0 52.571786308306592 -60.225869672530081 0 0 0 0 -13.397487748225103 -14.713467986315663 0 -14.713467986315663 -98.767395092669176 0 0 0 0 70.623311224393547 -90.679793978386442 0 -90.679793978386442 -318.55222335437429 0 0 0 0 8.0369688441792277 8.3932365403554172 0 8.3932365403554172 -24.61349638808349 0 0 0 0 44.041535750206094 -346.23718501457188 0 -346.23718501457188 -388.47747348231496 0 0 0 0 35.06185492844088 124.87504877231549 0 124.87504877231549 -430.42700619474635 0 0 0 0 0.52790457071387209 -16.354765687938198 0 -16.354765687938198 10.010884059302043 0 0 0 0 -643.2728048475692 -418.94927719362022 0 -418.94927719362022 390.8837511362799 0 0 0 0 24.549456399108749 17.742358491377672 0 17.742358491377672 -114.91249101239373 0 0 0 0 18.24569938168861 30.213597237612703 0 30.213597237612703 -137.79211414273595 0 0 0 0 -17.351481418678304 -79.72853950499848 0 -79.72853950499848 9.8843898532213643 0 0 0 0 31.064920532575343 -35.685886417399161 0 -35.685886417399161 -163.41513637901517 0 0 0 0 -7.9569769174559042 19.963117860112106 0 19.963117860112106 -18.718487586971605 0 0 0 0 15.373572955373675 7.3459325371659361 0 7.3459325371659361 -117.69991283692798 0 0 0 0 24.104288772723521 -34.976667861177702 0 -34.976667861177702 -36.275618543790188 0 0 0 0 -22.178905245731585 6.8545069392275764 0 6.8545069392275764 7.7260309637058526 0 0 0 0 -45.154182197729824 11.039254156479728 0 11.039254156479728 153.80317932978505 0 0 0 0 -34.989436451462097 40.49418047790823 0 40.49418047790823 136.11695277769468 0 0 0 0 -63.574898966500768 93.637001851326204 0 93.637001851326204 255.08500024749083 0 0 0 0 -29.821221418475034 67.358550786433625 0 67.358550786433625 106.09810438929708 0 0 0 0 -4.1904755468276562 173.05018994236161 0 173.05018994236161 595.43354230740806 0 0 0 0 -241.54600255377591 -231.76133103400934 0 -231.76133103400934 266.0268637627596 0 0 0 0 -41.379976006513061 194.11592613933817 0 194.11592613933817 468.98507489115582 0 0 0 0 118.39716924635286 229.9036558529624 0 229.9036558529624 319.38742818651372 0 0 0 0 0.15355138134898993 -0.87259025839495052 0 -0.87259025839495052 11.696461663981324 0 0 0 0 -285.02911509972182 45.34886140236631 0 45.34886140236631 426.27091393666342 0 0 0 0 382.48473123810254 945.97307320196705 0 945.97307320196705 985.83348274554305 0 0 0 0 -764.09947883267887 154.37567399951513 0 154.37567399951513 972.64319997355824 0 0 0 0 -143.73605212732218 115.69936146045802 0 115.69936146045802 454.78564146856661 0 0 0 0 2586.3229259818909 1129.7961336529697 0 1129.7961336529697 430.10282560998075 0 0 0 0 89.675511270819698 156.24118072146666 0 156.24118072146666 196.3766202298284 0 0 0 0 116.13196117986809 304.20171008956095 0 304.20171008956095 480.62448987175594 0 0 0 0 51.613473666831851 667.77960151668231 0 667.77960151668231 699.41152209043503 0 0 0 0 99.973317443742417 757.7707661948516 0 757.7707661948516 274.13226518413285 0 0 0 0 -162.2641404895985 182.20896678746794 0 182.20896678746794 954.47289147431729 0 0 0 0 199.11749846767634 919.03423794358969 0 919.03423794358969 1029.6186360931497 0 0 0 0 402.1854377357231 444.65670021820551 0 444.65670021820551 176.88567752586096 0 0 0 0 850.66927247430431 764.68025366062648 0 764.68025366062648 381.48110035274294 0 0 0 0 -88.841368199558929 746.68545968113176 0 746.68545968113176 926.64684382127598 0 0 0 0 8.0898033402045257 916.8693431308493 0 916.8693431308493 701.93066799195367 0 0 0 0 -28.428543096408248 745.97278266813373 0 745.97278266813373 711.89755886559578 0 0 0 0 -172.24140428798273 316.1699624152352 0 316.1699624152352 565.04790253785904 0 0 0 0 -59.038819671193778 -157.85252168618899 0 -157.85252168618899 -273.14439663017401 0 0 0 0 268.87108467399958 232.67640812840546 0 232.67640812840546 177.30419571141829 0 0 0 0 658.87874100214685 -120.37764146769769 0 -120.37764146769769 126.20328160564532 0 0 0 0 -3.4987147315075049 2.646345827096809 0 2.646345827096809 8.3591447756282378 0 0 0 0 561.72605743090389 -60.772817286575446 0 -60.772817286575446 -402.13706501375418 0 0 0 0 -22.454136043204926 -71.175760280137183 0 -71.175760280137183 137.82237741300196 0 0 0 0 172.68979358026991 267.24786866139038 0 267.24786866139038 -462.68948770151474 0 0 0 0 186.07788117876044 844.85226005749428 0 844.85226005749428 502.24017237400403 0 0 0 0 -196.57974456326338 151.53457320480084 0 151.53457320480084 -20.064290345355403 0 0 0 0 58.733845695001264 88.354655898368236 0 88.354655898368236 94.30747897834442 0 0 0 0 -763.2965697904001 1557.7800810362096 0 1557.7800810362096 402.77581760910107 0 0 0 0 -418.88080418525396 700.9541565269119 0 700.9541565269119 2090.4149531842559 0 0 0 0 666.53238813957432 -1404.2098968108185 0 -1404.2098968108185 1521.6517025634239 0 0 0 0 -924.27742294431664 -585.13770892523462 0 -585.13770892523462 33.464211508005974 0 0 0 0 -415.55326166708255 799.17456225934438 0 799.17456225934438 -480.30313605075935 0 0 0 0 1266.4605274499772 1077.2072729809297 0 1077.2072729809297 260.09768934610474 0 0 0 0 476.22685378792812 -265.52802323758078 0 -265.52802323758078 -48.443095102498773 0 0 0 0 16.077165043500486 18.34213166061727 0 18.34213166061727 3.7929513865403237 0 0 0 0 -303.23319941581576 345.74002571955498 0 345.74002571955498 1264.599949893367 0 0 0 0 -276.1129984279396 1524.6432724979823 0 1524.6432724979823 1181.7885945850721 0 0 0 0 -2.2958370990967865 5.1178909925851883 0 5.1178909925851883 -13.285791303325595 0 0 0 0 1849.4456603956933 -1065.7939216717205 0 -1065.7939216717205 -310.9067990022013 0 0 0 0 -370.49731348149362 91.019829561548249 0 91.019829561548249 -137.2056693189661 0 0 0 0 99.687708160461625 93.569762939747307 0 93.569762939747307 15.140631693124305 0 0 0 0 139.70729508076329 426.69202438293723 0 426.69202438293723 -298.95190173923038 0 0 0 0 6.958449198922608 964.26567439202336 0 964.26567439202336 -135.28017103404272 0 0 0 0 -74.454461308618193 199.36926335243334 0 199.36926335243334 -848.23241891013458 0 0 0 0 108.07582112465752 -140.20958297704055 0 -140.20958297704055 -236.62053438261501 0 0 0 0 1412.8703283592477 -514.05456173117273 0 -514.05456173117273 -851.80459483129766 0 0 0 0 -207.36903647377039 -534.13715871851309 0 -534.13715871851309 -104.7000717195624 0 0 0 0 -202.47898749637352 -444.59079565995853 0 -444.59079565995853 532.49665875080973 0 0 0 0 -1199.9232238969125 -536.85304058092879 0 -536.85304058092879 199.82432084277389 0 0 0 0 -897.76014605225646 -204.95603955493425 0 -204.95603955493425 -89.176381360826781 0 0 0 0 -318.38241168280365 -381.08928166498663 0 -381.08928166498663 -149.63498568987416 0 0 0 0 -442.0581463311355 196.5693218331453 0 196.5693218331453 -55.923215304093901 0 0 0 0 -154.1662657399429 64.304116871193401 0 64.304116871193401 -32.915729132218985 0 0 0 0 18.833683457400184 248.32303094978852 0 248.32303094978852 -74.047810925570957 0 0 0 0 168.63545549660921 91.513851381183486 0 91.513851381183486 -11.230691911347094 0 0 0 0 44.243455802473136 12.200457378594763 0 12.200457378594763 -23.185153645378307 0 0 0 0 -1634.3326674753625 467.67609690237077 0 467.67609690237077 -23.958092001499608 0 0 0 0 296.25212947609543 167.1460058692428 0 167.1460058692428 -38.072747832222376 0 0 0 0 102.28129479690688 177.02439510579279 0 177.02439510579279 -143.53987214667723 0 0 0 0 34.705287743774534 181.17805539394612 0 181.17805539394612 18.952523174200905 0 0 0 0 -31.287112846911228 80.049087066572781 0 80.049087066572781 -3.4908822471306848 0 0 0 0 146.0196180017665 85.397693256629282 0 85.397693256629282 89.274576974625234 0 0 0 0 180.4222767278261 165.02787181669555 0 165.02787181669555 59.160579644580139 0 0 0 0 145.11398403434976 67.601567273322246 0 67.601567273322246 -27.759680235495615 0 0 0 0 133.99946117632498 123.76125721338758 0 123.76125721338758 26.656131763877056 0 0 0 0 133.22274640350145 57.617671816305091 0 57.617671816305091 -6.9180778327507966 0 0 0 0 282.79215055897657 44.643194749849499 0 44.643194749849499 -95.271865221846383 0 0 0 0 147.58147586439009 105.34033690734213 0 105.34033690734213 39.184141917721718 0 0 0 0 100.7204914772592 104.68753368556645 0 104.68753368556645 106.89869640652978 0 0 0 0 111.2162612307402 109.10703399707563 0 109.10703399707563 47.849154265262769 0 0 0 0 88.289270793859032 142.37004777431139 0 142.37004777431139 30.447208686622616 0 0 0 0 181.11053050389455 129.95717326379236 0 129.95717326379236 -24.48787631491723 0 0 0 0 138.98027373015793 165.59151170385303 0 165.59151170385303 18.706281065940857 0 0 0 0 129.76157485924705 191.76434162284568 0 191.76434162284568 -49.362162028221064 0 0 0 0 78.395574450558343 173.21659071404429 0 173.21659071404429 17.959453091680189 0 0 0 0 89.829468111383903 200.88589440220676 0 200.88589440220676 83.747276300098747 0 0 0 0 80.465435959529714 165.18436904708142 0 165.18436904708142 36.73387779587938 0 0 0 0 29.281252418819349 121.6485607248469 0 121.6485607248469 47.736873411668057 0 0 0 0 23.931200567156338 134.38757507421542 0 134.38757507421542 18.561880365232355 0 0 0 0 51.923647050785291 68.074317546351665 0 68.074317546351665 68.08043467888433 0 0 0 0 100.53860465240723 116.22732195589924 0 116.22732195589924 55.828735537550529 0 0 0 0 -742.18799427933891 51.496151181773826 0 51.496151181773826 -129.90590049550519 0 0 0 0 56.68910118698841 56.90349933730613 0 56.90349933730613 -132.89427770050497 0 0 0 0 348.73289271937392 207.89606136575458 0 207.89606136575458 -512.0670752509468 0 0 0 0 -201.0967415667692 408.40753061301803 0 408.40753061301803 -308.96482959466084 0 0 0 0 38.434606397328025 149.99768698532716 0 149.99768698532716 -80.262868222780526 0 0 0 0 -34.795690608829318 128.60389358205066 0 128.60389358205066 -26.239045967900893 0 0 0 0 43.784868510105298 129.90564349365741 0 129.90564349365741 -80.803895856947065 0 0 0 0 42.00299392601579 63.837732410455487 0 63.837732410455487 19.738192258262586 0 0 0 0 -18.784770869817294 99.115169024644274 0 99.115169024644274 28.058762257089256 0 0 0 0 30.54750115529896 106.16441181716073 0 106.16441181716073 -23.15710032498464 0 0 0 0 -21.885621049406836 101.20761866021803 0 101.20761866021803 3.0730378237785771 0 0 0 0 -8.9009176520630717 157.46935875992131 0 157.46935875992131 248.53290821516566 0 0 0 0 -27.394820812861042 58.060731428675361 0 58.060731428675361 -61.833867878617838 0 0 0 0 -18.750858350133058 72.919541814473632 0 72.919541814473632 -42.286355116426421 0 0 0 0 290.6407706955506 368.97912365716184 0 368.97912365716184 183.932395855707 0 0 0 0 70.077759986585079 225.08552671542566 0 225.08552671542566 186.16835404151789 0 0 0 0 90.131925531310117 288.60702292590395 0 288.60702292590395 173.87163768841128 0 0 0 0 253.36815191207279 196.85019998133066 0 196.85019998133066 213.05536179027695 0 0 0 0 253.01257829095994 263.72385566360026 0 263.72385566360026 1112.7423925554904 0 0 0 0 75.587709066789103 172.39886458391447 0 172.39886458391447 -94.407903443912801 0 0 0 0 -35.265693151131188 51.633419218542883 0 51.633419218542883 -65.259796288878505 0 0 0 0 -14.476727081826539 109.83027657919956 0 109.83027657919956 0.44506485323654488 0 0 0 0 1.0919805285520852 72.770350948914711 0 72.770350948914711 -48.77004563518858 0 0 0 0 65.88157910193695 109.61003032552981 0 109.61003032552981 -26.452751871715009 0 0 0 0 63.444189378469218 131.32384585817681 0 131.32384585817681 47.908662737783743 0 0 0 0 23.455601356426996 123.03400699207668 0 123.03400699207668 40.130168846313609 0 0 0 0 70.849189086875413 129.63986754122743 0 129.63986754122743 17.259253904270736 0 0 0 0 68.229132101186224 141.62871104689475 0 141.62871104689475 84.677341888891533 0 0 0 0 203.41723937790448 97.737262316932174 0 97.737262316932174 34.220765866797592 0 0 0 0 135.90888712939341 127.41663271051584 0 127.41663271051584 103.63141633357736 0 0 0 0 127.92064745269454 151.72439629679138 0 151.72439629679138 31.194308032117988 0 0 0 0 309.13009928990505 243.51533846868551 0 243.51533846868551 73.004048504888488 0 0 0 0 201.82008507672435 221.45725920382938 0 221.45725920382938 116.23570088679844 0 0 0 0 180.47964455398323 113.83699497640919 0 113.83699497640919 -62.510355701568187 0 0 0 0 142.78637992180302 123.04143937266781 0 123.04143937266781 -64.501398009160766 0 0 0 0 178.50624015324456 154.05118995990392 0 154.05118995990392 -70.760838680304005 0 0 0 0 258.74021412694856 144.5075894685142 0 144.5075894685142 -197.27078157698998 0 0 0 0 135.67432416550764 166.64052391233099 0 166.64052391233099 -74.458415187167702 0 0 0 0 -1.9142438472539567 4.0723658675029597 0 4.0723658675029597 -9.5753748479405658 0 0 0 0 208.20121000693234 336.2288272158894 0 336.2288272158894 -631.18566421033756 0 0 0 0 -890.3206875205542 17.899955364358902 0 17.899955364358902 56.993583442614181 0 0 0 0 299.64385316954576 -21.54362468837644 0 -21.54362468837644 -320.85181120583002 0 0 0 0 227.3475879646503 287.08743194585259 0 287.08743194585259 66.821970786088059 0 0 0 0 81.415904320536356 101.6380510529707 0 101.6380510529707 -29.082921421388164 0 0 0 0 -7.6060556295019381 13.561750015879632 0 13.561750015879632 -21.24563241285307 0 0 0 0 56.928956267220201 58.726715653396241 0 58.726715653396241 23.785117263352731 0 0 0 0 73.496988582184713 88.657421162708488 0 88.657421162708488 30.434684892126825 0 0 0 0 88.373641066033088 51.684292689408721 0 51.684292689408721 -21.089647766319104 0 0 0 0 93.184721576907577 90.33065931212559 0 90.33065931212559 -10.839078687567962 0 0 0 0 56.484086990174546 50.840284709294792 0 50.840284709294792 -36.925917793909321 0 0 0 0 85.023882421628514 50.466852622150327 0 50.466852622150327 -99.307806500655715 0 0 0 0 60.898727928661373 48.36629368970074 0 48.36629368970074 -20.373507364665308 0 0 0 0 69.503641207913461 82.772182725166203 0 82.772182725166203 -22.628976462205173 0 0 0 0 79.317244223693706 60.208677300328418 0 60.208677300328418 -61.337903439882211 0 0 0 0 84.363524613778281 99.581057930994575 0 99.581057930994575 6.9145446150650969 0 0 0 0 -12.345886800850991 18.119442777761591 0 18.119442777761591 -32.761275101257525 0 0 0 0 56.300750062648149 74.420928481740702 0 74.420928481740702 14.842362238079659 0 0 0 0 90.14087969562388 172.37699185578094 0 172.37699185578094 162.60690024698124 0 0 0 0 279.36135117023878 140.91392462273325 0 140.91392462273325 57.553474603686482 0 0 0 0 102.65021877945401 225.13001642797462 0 225.13001642797462 14.287656577856978 0 0 0 0 161.66324883700872 300.95617126526486 0 300.95617126526486 -58.077881161822006 0 0 0 0 -8.9786035772574309 36.536907527081112 0 36.536907527081112 -27.245191542471275 0 0 0 0 20.07532743785508 29.820596944542352 0 29.820596944542352 19.148772200048427 0 0 0 0 70.970246687764302 57.568554825600586 0 57.568554825600586 -13.005197845690418 0 0 0 0 88.927524634784277 92.884483083082159 0 92.884483083082159 13.801806768446113 0 0 0 0 45.3390933717601 117.46841567454976 0 117.46841567454976 -48.987698031822219 0 0 0 0 45.972234733810183 87.658266156679019 0 87.658266156679019 -6.1554289339183015 0 0 0 0 56.989940764546532 47.594984701356481 0 47.594984701356481 -23.287486796656218 0 0 0 0 172.06845704614534 69.032947437779512 0 69.032947437779512 141.36355127987918 0 0 0 0 26.27990205913693 107.63745535306091 0 107.63745535306091 -11.279939428693623 0 0 0 0 68.149149326767656 57.340567275532521 0 57.340567275532521 -121.44978806999279 0 0 0 0 -5.460224572477955 25.534376503573341 0 25.534376503573341 31.936718694715637 0 0 0 0 39.819515893119387 23.773421723890351 0 23.773421723890351 203.00632551876333 0 0 0 0 49.07305386842927 167.23698269682063 0 167.23698269682063 -109.84935164948547 0 0 0 0 55.090288920699095 141.06246526301402 0 141.06246526301402 -10.177094312559348 0 0 0 0 23.198573237314122 139.48757062116056 0 139.48757062116056 1.5758801281626802 0 0 0 0 32.017614761208279 59.532708077121242 0 59.532708077121242 39.179655752290273 0 0 0 0 41.187235098965175 113.9842099208181 0 113.9842099208181 -17.912685373594286 0 0 0 0 21.735106063453713 124.22863067133585 0 124.22863067133585 -0.73446001781849191 0 0 0 0 -56.885663534339983 108.81332752588787 0 108.81332752588787 15.842961662638118 0 0 0 0 40.481012091146113 50.876141899709182 0 50.876141899709182 29.71457444569387 0 0 0 0 61.128462049737209 31.140199459285213 0 31.140199459285213 29.172437860208447 0 0 0 0 97.781253015564289 54.755879205018573 0 54.755879205018573 33.37171722567291 0 0 0 0 42.922812697281188 67.015361018718977 0 67.015361018718977 41.891806421292131 0 0 0 0 57.202160269236629 42.059327921912484 0 42.059327921912484 -11.623786698487891 0 0 0 0 -13.486816599630099 53.919542299816214 0 53.919542299816214 -33.36483459686076 0 0 0 0 292.55185015959432 157.06813934561069 0 157.06813934561069 -287.88375110033667 0 0 0 0 -11.805130535417845 49.865419910390798 0 49.865419910390798 -11.165801979522655 0 0 0 0 -51.14453594519 -77.939472083438886 0 -77.939472083438886 -1.145618922659196 0 0 0 0 236.19850461626629 -4.8143782598490361 0 -4.8143782598490361 -39.178942463237036 0 0 0 0 8.8348279868077952 20.834116646692564 0 20.834116646692564 49.759087073645787 0 0 0 0 -197.11911785216944 93.623991838147049 0 93.623991838147049 29.345914982695831 0 0 0 0 -7.5569515859169769 150.08523103843618 0 150.08523103843618 -23.182978271885077 0 0 0 0 15.698777235666057 109.79206127348152 0 109.79206127348152 -43.437515349622117 0 0 0 0 43.27072251890786 102.43981042898668 0 102.43981042898668 47.814318252043449 0 0 0 0 34.835518357474939 130.73556054389337 0 130.73556054389337 -20.477739502093755 0 0 0 0 16.858794624589791 119.22360047164693 0 119.22360047164693 -0.97244135834625922 0 0 0 0 -21.290983537444845 77.014714846489369 0 77.014714846489369 -48.35831814474659 0 0 0 0 55.371212674064736 83.090222882026865 0 83.090222882026865 -69.081948795399512 0 0 0 0 -61.988518995844061 209.02498233110964 0 209.02498233110964 -167.88065402844222 0 0 0 0 100.68125297276129 45.401205157046206 0 45.401205157046206 -161.42482264701812 0 0 0 0 45.402191410314117 -59.295027395317447 0 -59.295027395317447 -37.833505031114328 0 0 0 0 28.466775764652994 22.420963157856022 0 22.420963157856022 -49.496195501822513 0 0 0 0 -101.86916902342637 32.666748617310077 0 32.666748617310077 -50.173885426251218 0 0 0 0 46.541200927284081 39.687889870489016 0 39.687889870489016 -136.23974827524944 0 0 0 0 31.7306004963757 56.71619941368408 0 56.71619941368408 -63.417316841092543 0 0 0 0 -32.956923983321758 106.1418386856385 0 106.1418386856385 -101.17899915075395 0 0 0 0 51.69613952167856 14.784042379498715 0 14.784042379498715 -64.119161569920834 0 0 0 0 57.815898534579901 78.651132331106055 0 78.651132331106055 -94.045237463258673 0 0 0 0 -20.431907041020168 13.927682408728288 0 13.927682408728288 25.60061105582281 0 0 0 0 1.9399273243404309 3.3411248465385199 0 3.3411248465385199 0.044459106414421967 0 0 0 0 -2.6553287421702407 -23.653212843229994 0 -23.653212843229994 -65.86203630460659 0 0 0 0 22.935177969222423 29.336273953696946 0 29.336273953696946 27.253375525557203 0 0 0 0 20.822346228684182 161.00272842400955 0 161.00272842400955 -25.872517105206498 0 0 0 0 140.00100456248038 104.60249035738525 0 104.60249035738525 -21.973474548271042 0 0 0 0 -57.127045640620054 57.957358510808263 0 57.957358510808263 46.962526677292772 0 0 0 0 18.124725700283307 60.573470977178658 0 60.573470977178658 44.492139210444293 0 0 0 0 -64.305342977706459 89.615879743541882 0 89.615879743541882 1.1881626010435866 0 0 0 0 3.9503571418524359 12.52100457348368 0 12.52100457348368 -5.1537674701051515 0 0 0 0 213.25748252490303 -10.520390252233483 0 -10.520390252233483 -144.95057739724871 0 0 0 0 -0.2311292600150523 -0.82781982636392115 0 -0.82781982636392115 -4.2869988191159223 0 0 0 0 -357.03931995965468 97.71200423661503 0 97.71200423661503 62.068749201425817 0 0 0 0 53.743409542796144 134.32981375456438 0 134.32981375456438 -6.4352958842428052 0 0 0 0 -2.1244874808502132 63.512464237875001 0 63.512464237875001 -53.094397358962169 0 0 0 0 8.3165419575986874 10.151850157661343 0 10.151850157661343 21.286862712276843 0 0 0 0 -72.610413079426507 135.42414433111844 0 135.42414433111844 10.883439490135061 0 0 0 0 660.20480396948187 529.52170355292219 0 529.52170355292219 374.82726950972574 0 0 0 0 11.982113197635044 93.185307513871521 0 93.185307513871521 3.2428068238659762 0 0 0 0 148.20063135781675 122.85549173978507 0 122.85549173978507 -40.498582567684934 0 0 0 0 11.094495133535105 50.838066323478017 0 50.838066323478017 -29.64647428341317 0 0 0 0 39.566867818142327 117.38402093809191 0 117.38402093809191 14.170779436244629 0 0 0 0 38.971311766162671 101.37001883840048 0 101.37001883840048 -61.518485392240109 0 0 0 0 283.0500162889075 124.9722409027454 0 124.9722409027454 -12.090359124500537 0 0 0 0 -444.07725199838751 -20.867818253944279 0 -20.867818253944279 220.96195356975659 0 0 0 0 2296.7463140958589 1111.7615670038413 0 1111.7615670038413 182.19154846834135 0 0 0 0 1330.4913279631146 650.08385431869829 0 650.08385431869829 248.17327400115028 0 0 0 0 1.3125830444570781 -2.8662648954153553 0 -2.8662648954153553 6.0980017952915659 0 0 0 0 1302.6989700519916 1111.7075321658194 0 1111.7075321658194 621.77360003440117 0 0 0 0 209.98243414836179 533.14276518787665 0 533.14276518787665 574.99349690187955 0 0 0 0 -218.31210017504054 225.47330012964085 0 225.47330012964085 377.64877013428486 0 0 0 0 883.43095707926841 884.64832250572363 0 884.64832250572363 376.34332506010833 0 0 0 0 1247.3694372260579 548.39874138033701 0 548.39874138033701 -0.035532592999516055 0 0 0 0 427.8294271606137 297.99213326290919 0 297.99213326290919 -17.721599716081982 0 0 0 0 -3.5335512993642055 0.50680827931830663 0 0.50680827931830663 5.6340634193028336 0 0 0 0 354.81141009828571 -98.087438891734564 0 -98.087438891734564 11.253151141427225 0 0 0 0 1.1316955927031813 7.0162594603461912 0 7.0162594603461912 -0.0058953799307346344 0 0 0 0 359.88035692799895 351.49767916607379 0 351.49767916607379 0.55275669779024594 0 0 0 0 610.28659125477861 474.43946205387329 0 474.43946205387329 59.553254141064826 0 0 0 0 -238.91731417667324 62.674968953950156 0 62.674968953950156 46.182202879106626 0 0 0 0 1.687193224812404 -2.8662895022715418 0 -2.8662895022715418 -2.3182818637622518 0 0 0 0 425.04046200649464 285.97926928222296 0 285.97926928222296 253.25987077878381 0 0 0 0 304.74434247589124 123.85558445642346 0 123.85558445642346 66.221071800246136 0 0 0 0 5.6797356240276713 58.307485935278237 0 58.307485935278237 -18.096049136831425 0 0 0 0 51.50384900987774 0.17589310129005753 0 0.17589310129005753 -4.5366818907205015 0 0 0 0 45.780790582386544 28.659803934860975 0 28.659803934860975 -27.956252631622192 0 0 0 0 74.488770948315505 12.346991880534915 0 12.346991880534915 -14.819306891324231 0 0 0 0 68.269694213930052 48.150017255888088 0 48.150017255888088 8.141726245819882 0 0 0 0 -1.8518118019831888 -0.99429605323996384 0 -0.99429605323996384 1.9072601235879461 0 0 0 0 13.356982350090391 20.297255806046792 0 20.297255806046792 -1.3755017340091342 0 0 0 0 52.217866396502359 42.54025215425645 0 42.54025215425645 -23.929496656390256 0 0 0 0 93.324201773881214 11.138797336432617 0 11.138797336432617 -20.191781469562557 0 0 0 0 19.360062334992108 31.776253858304699 0 31.776253858304699 -24.4003019034717 0 0 0 0 31.595894665515516 14.87644400417048 0 14.87644400417048 -20.281311523518525 0 0 0 0 5.1341249287943356 11.121500749228289 0 11.121500749228289 -7.579755061713513 0 0 0 0 155.90554969466757 21.725997679357533 0 21.725997679357533 -46.291700568206579 0 0 0 0 239.47482623931137 94.800706081965473 0 94.800706081965473 79.921566641583922 0 0 0 0 234.36168629206077 109.88924674484588 0 109.88924674484588 38.621978498296812 0 0 0 0 1.3456096585326236 -0.44030508570907045 0 -0.44030508570907045 -3.6243121465799959 0 0 0 0 -61.340064790725592 25.780175782943843 0 25.780175782943843 -5.5206053360598162 0 0 0 0 -0.53569597669815039 1.8514303521947113 0 1.8514303521947113 -1.4700013898743975 0 0 0 0 22.511323213904689 58.756402856321074 0 58.756402856321074 37.409731757565169 0 0 0 0 9.6774902700162784 30.534243403570144 0 30.534243403570144 -4.7466164068027865 0 0 0 0 18.15165556658792 23.388994069549966 0 23.388994069549966 -18.713524559593921 0 0 0 0 7.7175086808970477 17.451074472526386 0 17.451074472526386 -35.547514332999754 0 0 0 0 20.634860438101214 26.914832830026597 0 26.914832830026597 -8.8523725156228181 0 0 0 0 21.984467177666374 28.218646631321462 0 28.218646631321462 -23.792133251554333 0 0 0 0 26.331888838525629 37.304641947426717 0 37.304641947426717 39.676577350706793 0 0 0 0 7.2507707526092418 24.174319114827085 0 24.174319114827085 -16.298073375335662 0 0 0 0 13.207303016679361 37.860034418335999 0 37.860034418335999 58.105929652854684 0 0 0 0 7.2180570335985976 27.244881663242268 0 27.244881663242268 46.492151196463965 0 0 0 0 26.924508571115439 27.470116782278637 0 27.470116782278637 -3.2369682940770872 0 0 0 0 24.776535935889115 29.636455088941148 0 29.636455088941148 -2.6183895452268189 0 0 0 0 5.6837501083569553 21.119626291564373 0 21.119626291564373 18.232141829502496 0 0 0 0 18.831351682485547 30.972599509957945 0 30.972599509957945 -1.1554210694594076 0 0 0 0 15.881501405693484 25.195788352121298 0 25.195788352121298 -4.0043647793188484 0 0 0 0 17.862201205913152 24.610959273195476 0 24.610959273195476 -19.020588987856172 0 0 0 0 12.742230140070433 28.674930824518924 0 28.674930824518924 0.50887264287952405 0 0 0 0 4.9054416425102545 30.505808132348022 0 30.505808132348022 18.37703941506939 0 0 0 0 7.977051867172122 19.135790737112984 0 19.135790737112984 -23.735837929183617 0 0 0 0 4.8107974927686996 20.945988688290697 0 20.945988688290697 3.1555251391387458 0 0 0 0 11.788812539764194 26.411274994992937 0 26.411274994992937 13.612687506390159 0 0 0 0 9.6289549803477712 33.592737924365792 0 33.592737924365792 3.6753626267018262 0 0 0 0 15.203287626907695 33.429540943528991 0 33.429540943528991 -9.412233438284602 0 0 0 0 10.824706249462906 24.370268630911596 0 24.370268630911596 -0.45740998687688261 0 0 0 0 21.745569795795546 24.352537827936885 0 24.352537827936885 -23.453445926134521 0 0 0 0 26.572095332653646 33.357658329300193 0 33.357658329300193 -5.4385705833979614 0 0 0 0 13.440550372528378 36.582091166405007 0 36.582091166405007 -3.5284849857562222 0 0 0 0 21.210078667128982 25.75139599564136 0 25.75139599564136 1.3482127289753407 0 0 0 0 -0.58383844600757584 27.914614230423467 0 27.914614230423467 27.440630956625682 0 0 0 0 -2.0213201474680318 49.377541210235904 0 49.377541210235904 14.246894869662356 0 0 0 0 -2.4263378457981162 45.463608038175153 0 45.463608038175153 -6.7009569304063916 0 0 0 0 -4.5092273441109114 35.741057767555901 0 35.741057767555901 -2.5308690764447306 0 0 0 0 21.362972349108531 42.399840093987223 0 42.399840093987223 -7.5078571861376986 0 0 0 0 8.1404142176840537 24.720563583505225 0 24.720563583505225 -12.234706364486414 0 0 0 0 -6.9266152579103277 19.108191314967911 0 19.108191314967911 10.572260255192646 0 0 0 0 3.2630495586126358 27.774830014520404 0 27.774830014520404 -6.2661227593814601 0 0 0 0 -0.025047901857760735 55.580114733369555 0 55.580114733369555 30.179336040047929 0 0 0 0 6.9399544526386308 47.52772022447607 0 47.52772022447607 22.250312315532938 0 0 0 0 -7.3405528398434399 -0.36528191000252264 0 -0.36528191000252264 17.893485369783775 0 0 0 0 9.3899611918313894 41.747293545769935 0 41.747293545769935 22.20785689749755 0 0 0 0 16.012435315256756 12.005853728007196 0 12.005853728007196 -16.595893844922102 0 0 0 0 -0.10740149195771664 22.532374786474975 0 22.532374786474975 -6.1207602792419493 0 0 0 0 7.1467481629079543 19.892200453780276 0 19.892200453780276 10.870180875528945 0 0 0 0 17.586158200268983 42.152279030589852 0 42.152279030589852 23.630289078049827 0 0 0 0 13.986844965576893 34.403212832025019 0 34.403212832025019 29.055985763450735 0 0 0 0 60.606230461446103 23.396139533826499 0 23.396139533826499 6.9202748007664923 0 0 0 0 -3.2425124923538533 9.9532506410396309 0 9.9532506410396309 43.605089691984176 0 0 0 0 -36.885967638459988 69.167471473570913 0 69.167471473570913 -17.381457412004238 0 0 0 0 2.1413865239423702 -0.93016254526790476 0 -0.93016254526790476 2.8720183670028518 0 0 0 0 -5.0705667982854834 -0.40578067066439871 0 -0.40578067066439871 4.6922338453921384 0 0 0 0 -44.513852170901373 46.923256792695611 0 46.923256792695611 -29.393036109991954 0 0 0 0 9.0880053932924056 60.081539570674067 0 60.081539570674067 -13.424987656544545 0 0 0 0 -37.809699688765249 68.041390732674699 0 68.041390732674699 12.900427889078856 0 0 0 0 -40.45099656531238 68.573354271036806 0 68.573354271036806 -13.051954569236841 0 0 0 0 -1.002365088192164 59.963806822343031 0 59.963806822343031 -26.984485988330562 0 0 0 0 0.41276644970951715 -4.6579310463782519 0 -4.6579310463782519 -0.39191809162093705 0 0 0 0 -61.870401680003852 71.087736086905352 0 71.087736086905352 -0.06564252455427777 0 0 0 0 -144.27635668330186 36.789457404025597 0 36.789457404025597 -1.1488135914187296 0 0 0 0 -44.113602234770951 30.042576859814289 0 30.042576859814289 12.465237016702304 0 0 0 0 84.72963666121359 94.066160280708573 0 94.066160280708573 -38.117260732513387 0 0 0 0 106.31552610114159 6.3041902384502464 0 6.3041902384502464 -132.44318168907193 0 0 0 0 -5.6469677105438336 -1.8072614108002654 0 -1.8072614108002654 1.7911018582073552 0 0 0 0 34.922739454108523 94.896117765063536 0 94.896117765063536 0.086321745024022262 0 0 0 0 0.30340731375144969 70.732941180860507 0 70.732941180860507 -14.896550053032115 0 0 0 0 55.224666114503634 53.232190384238493 0 53.232190384238493 -35.450599588890327 0 0 0 0 48.557633939246443 70.421150713435964 0 70.421150713435964 -51.705012808728497 0 0 0 0 48.047377854818478 73.687113222084008 0 73.687113222084008 -25.241069531504763 0 0 0 0 12.399364385462832 66.639715624434757 0 66.639715624434757 -21.316814586622058 0 0 0 0 43.35094233530981 39.489809495877125 0 39.489809495877125 2.2624824098020326 0 0 0 0 -54.841046479537908 3.4551718601796892 0 3.4551718601796892 77.856669907545438 0 0 0 0 -0.91455198131444604 0.59962594512408884 0 0.59962594512408884 -0.24581232129975206 0 0 0 0 -8.278453780887844 18.11219665331744 0 18.11219665331744 -16.480516745152897 0 0 0 0 -32.784468852791179 72.700155569407798 0 72.700155569407798 -13.497268219536636 0 0 0 0 -1.1621683154634184 16.316524637682051 0 16.316524637682051 4.5978888148949864 0 0 0 0 17.060546234832145 2.8863000987184932 0 2.8863000987184932 -29.122526705614291 0 0 0 0 32.624137704784516 4.4341850420169067 0 4.4341850420169067 -37.596821250321227 0 0 0 0 2.0346580197547723 5.1500933359866963 0 5.1500933359866963 -1.827016355324929 0 0 0 0 -8.4341696406481788 20.059416893665912 0 20.059416893665912 30.284594303630001 0 0 0 0 10.347118088131538 55.698288870655233 0 55.698288870655233 27.490763111665729 0 0 0 0 7.0098546288063517 29.803616842225892 0 29.803616842225892 21.103904521500226 0 0 0 0 -2.8795100666882831 19.049947502220448 0 19.049947502220448 -8.8255271086439961 0 0 0 0 -18.838293764663547 21.310486529530024 0 21.310486529530024 2.9318656834019521 0 0 0 0 4.1858934494962341 21.85552082938969 0 21.85552082938969 -14.781184790484389 0 0 0 0 -12.08964771652245 31.994041062469478 0 31.994041062469478 24.668540134953219 0 0 0 0 5.1182074381838447 31.52465867845234 0 31.52465867845234 -0.87001683346277048 0 0 0 0 -4.2681591561704408 44.476840515693766 0 44.476840515693766 15.092522204562556 0 0 0 0 -13.649444814531847 17.724966378226185 0 17.724966378226185 18.870290229123157 0 0 0 0 -19.728278106010507 32.457188294465908 0 32.457188294465908 -2.4053873984928487 0 0 0 0 18.234126508323243 53.055741589894751 0 53.055741589894751 -0.72173815843416378 0 0 0 0 -28.961395068487036 51.939655743808544 0 51.939655743808544 29.719465898349881 0 0 0 0 -22.644673133867627 24.233413623091167 0 24.233413623091167 15.104603440111632 0 0 0 0 -37.341711517583462 31.565800085074443 0 31.565800085074443 30.886481527850265 0 0 0 0 -36.639996436675119 66.305930582732003 0 66.305930582732003 44.137704086155281 0 0 0 0 -82.947824015202059 37.211449821448696 0 37.211449821448696 34.852666715043597 0 0 0 0 -87.698873142566299 51.662155889629503 0 51.662155889629503 53.063117570316535 0 0 0 0 70.203857840795536 56.485060010505549 0 56.485060010505549 -12.074443664663704 0 0 0 0 48.641402452631155 116.71169969972107 0 116.71169969972107 33.912574826259515 0 0 0 0 4.5050701042200672 63.699758284710697 0 63.699758284710697 6.0148160956596257 0 0 0 0 -14.39038369586342 45.95636370187276 0 45.95636370187276 5.2429070151119959 0 0 0 0 -31.24023541144561 41.046156080374203 0 41.046156080374203 8.3367803012952209 0 0 0 0 -36.297954386012407 76.718523512631918 0 76.718523512631918 17.496160643204348 0 0 0 0 54.429056119247434 49.943853489807225 0 49.943853489807225 -7.8162954758154228 0 0 0 0 -21.238589525877615 57.54741114704666 0 57.54741114704666 1.3999275716560078 0 0 0 0 -23.527607474839897 39.132130867270462 0 39.132130867270462 4.921235384143074 0 0 0 0 16.633750418328503 41.500939696836269 0 41.500939696836269 9.0725888176076523 0 0 0 0 -8.7764960276059298 32.014462200286857 0 32.014462200286857 -11.033955886235901 0 0 0 0 56.12941157988098 38.695099213604408 0 38.695099213604408 -7.1436271092825336 0 0 0 0 23.947139430545747 9.76880776283096 0 9.76880776283096 -6.5832378743818367 0 0 0 0 55.799375173926819 28.669297615473624 0 28.669297615473624 14.398424295766745 0 0 0 0 2.3015065002341837 2.5731305814528582 0 2.5731305814528582 0.1474306931946785 0 0 0 0 90.517417054725229 73.510761125493445 0 73.510761125493445 -46.12303110769426 0 0 0 0 54.558089723825105 75.162096007403306 0 75.162096007403306 -23.617245243629441 0 0 0 0 52.884069257412193 21.188321271853056 0 21.188321271853056 -42.639511884510284 0 0 0 0 107.19410810914997 106.92637625148927 0 106.92637625148927 -8.6498994465858914 0 0 0 0 -25.411655142734389 7.0949700158899418 0 7.0949700158899418 1.6917221258499922 0 0 0 0 -39.583536947071224 64.036528784992541 0 64.036528784992541 -6.383692662204453 0 0 0 0 -86.74247234872746 97.234121000688901 0 97.234121000688901 147.60905527326395 0 0 0 0 11.728678002138622 180.65452445029223 0 180.65452445029223 58.601969009425375 0 0 0 0 48.661207067798387 109.43714878412447 0 109.43714878412447 15.981817681909888 0 0 0 0 135.30524442649039 133.61121374450158 0 133.61121374450158 -11.913482992051286 0 0 0 0 -49.257730214282446 61.501900969404907 0 61.501900969404907 -12.533899812217669 0 0 0 0 94.201199007278774 155.90883290531565 0 155.90883290531565 -34.766276344540529 0 0 0 0 -33.442658144776942 116.85115282791958 0 116.85115282791958 33.998959557065973 0 0 0 0 139.36313821074145 287.72391751781106 0 287.72391751781106 0.070529328717384487 0 0 0 0 -45.978006896708393 195.06925802791375 0 195.06925802791375 10.412303517354303 0 0 0 0 -210.65430474422465 37.556605148893141 0 37.556605148893141 -20.157930407644017 0 0 0 0 4.4374611450475641 124.19249531681999 0 124.19249531681999 -31.774783206659777 0 0 0 0 -129.49363033179543 106.24519131728448 0 106.24519131728448 -262.99482188464026 0 0 0 0 -257.04079754777194 -42.427249266998842 0 -42.427249266998842 -21.907764241739642 0 0 0 0 -92.145429139309272 -20.273602986315382 0 -20.273602986315382 -21.952398841574905 0 0 0 0 -221.69450956831861 61.774182126791857 0 61.774182126791857 76.877885665162466 0 0 0 0 -67.324735922960826 114.63117325695202 0 114.63117325695202 142.47165897472587 0 0 0 0 -42.645272853289498 -0.25710787295247428 0 -0.25710787295247428 95.752614823650219 0 0 0 0 398.13212471368024 164.13550562905584 0 164.13550562905584 27.04400367627386 0 0 0 0 -5.8930935109453202 15.09122496448083 0 15.09122496448083 24.761998370801791 0 0 0 0 -103.87689024118299 -8.5112449033476878 0 -8.5112449033476878 29.795228310962557 0 0 0 0 -73.671355655940715 41.654672479009605 0 41.654672479009605 12.006487385900982 0 0 0 0 -7.8777311257999543 24.644162234695123 0 24.644162234695123 -26.677162602661099 0 0 0 0 -26.940238409879385 152.09240584111103 0 152.09240584111103 -28.742967883081292 0 0 0 0 38.591786966178915 -47.002739073992416 0 -47.002739073992416 -27.938437488832278 0 0 0 0 99.751079914829461 99.62634986480407 0 99.62634986480407 228.24473295423377 0 0 0 0 416.15600843445281 151.28958674868045 0 151.28958674868045 24.644237229716964 0 0 0 0 1601.8214301516346 378.41396841181631 0 378.41396841181631 60.817414706427371 0 0 0 0 499.39490803449735 301.40604619706573 0 301.40604619706573 58.403158407687442 0 0 0 0 103.67147555909469 328.84231617301702 0 328.84231617301702 418.2995136994723 0 0 0 0 325.27290381831699 460.34932336247584 0 460.34932336247584 286.05172070622211 0 0 0 0 36.958649219872314 192.45558145607356 0 192.45558145607356 270.43864112318261 0 0 0 0 35.187553082942031 211.61113215980004 0 211.61113215980004 211.1969961675386 0 0 0 0 226.05695392782218 320.49720179378346 0 320.49720179378346 147.9158843215846 0 0 0 0 121.62096703538555 280.98200692808314 0 280.98200692808314 133.19415318224492 0 0 0 0 235.02750909754104 292.54209796874238 0 292.54209796874238 69.291424985480262 0 0 0 0 257.3793714052299 210.32477682449826 0 210.32477682449826 24.470148094194883 0 0 0 0 256.0528849818802 219.14468681502331 0 219.14468681502331 7.6787609165767208 0 0 0 0 15.949655727497884 257.31910303731274 0 257.31910303731274 66.007982724360772 0 0 0 0 170.63456934642454 203.76910759901148 0 203.76910759901148 14.202548988891067 0 0 0 0 169.71384313730232 199.02891307078971 0 199.02891307078971 18.632247474364704 0 0 0 0 66.979139738657977 870.85925908761965 0 870.85925908761965 -294.81666202479391 0 0 0 0 -23.040422515357704 40.316481183190533 0 40.316481183190533 -68.673253227322164 0 0 0 0 302.59304820167017 -76.718786442943383 0 -76.718786442943383 5.6996413795568515 0 0 0 0 37.782044668056187 11.283316245564492 0 11.283316245564492 -6.3993350204546005 0 0 0 0 9.5447797933593392 -128.9131955266057 0 -128.9131955266057 162.3069332241721 0 0 0 0 -16.409747491962463 38.478902383209402 0 38.478902383209402 -49.833370337425265 0 0 0 0 241.9629103733605 101.27582649233955 0 101.27582649233955 2.4015928400222037 0 0 0 0 -31.635406381683424 198.56514734021039 0 198.56514734021039 154.75163912712014 0 0 0 0 -79.007091443301761 55.448917547386372 0 55.448917547386372 29.338657908781897 0 0 0 0 -2.9202979209568127 24.433934182291239 0 24.433934182291239 44.645710670581025 0 0 0 0 -45.513051772621111 52.902838092573802 0 52.902838092573802 32.874656244544894 0 0 0 0 -194.44802241257275 -5.7834602381699369 0 -5.7834602381699369 139.811746420688 0 0 0 0 0.051188750350220857 20.513835950517262 0 20.513835950517262 53.792741740223562 0 0 0 0 -170.80606494499079 103.89005719845591 0 103.89005719845591 10.247148963244399 0 0 0 0 1.5588193096410947 19.02811696392277 0 19.02811696392277 8.4137187541849698 0 0 0 0 -185.8587309794093 325.62382614117814 0 325.62382614117814 -327.97358392097522 0 0 0 0 -8.4005239660259576 2.2140513031275759 0 2.2140513031275759 9.0120079669883921 0 0 0 0 -412.09471800824394 395.12794198264601 0 395.12794198264601 186.29675797684467 0 0 0 0 -297.95962687455176 107.45504328492098 0 107.45504328492098 184.56901295500575 0 0 0 0 -41.621608535861014 202.10008681329782 0 202.10008681329782 199.16494714573491 0 0 0 0 -160.11778939078795 51.249419508414576 0 51.249419508414576 105.43341715334827 0 0 0 0 -189.13398053002311 79.125329700953444 0 79.125329700953444 101.07596186338924 0 0 0 0 -189.88048583749696 80.613072090154674 0 80.613072090154674 194.48797112537432 0 0 0 0 -295.32611828215886 91.207266428347793 0 91.207266428347793 22.337168863654369 0 0 0 0 -189.47918988223682 29.210229013100616 0 29.210229013100616 48.132579014083603 0 0 0 0 -18.721317290299339 41.197507450517151 0 41.197507450517151 11.115610414475668 0 0 0 0 -338.41300840402255 -131.39576640197629 0 -131.39576640197629 -56.422411826410098 0 0 0 0 -35.898115096468246 19.853905522206333 0 19.853905522206333 11.130195601144806 0 0 0 0 -16.516493441192665 15.032615995814766 0 15.032615995814766 -9.2872538330713041 0 0 0 0 -382.95777503591671 -21.133115424308926 0 -21.133115424308926 151.76648767830557 0 0 0 0 -264.37667879249784 93.825398641856737 0 93.825398641856737 192.91450809736853 0 0 0 0 3.1222753495894722 25.708143985855713 0 25.708143985855713 0.034433668057317846 0 0 0 0 -1235.1539242659346 -477.01968828460667 0 -477.01968828460667 -113.83080747361237 0 0 0 0 -5.3534562242512607 4.5199519603992684 0 4.5199519603992684 -5.2449833334625282 0 0 0 0 -2.6992661293552374 13.646875508122321 0 13.646875508122321 5.1705606085015461 0 0 0 0 -26.781474098155741 28.717707488045562 0 28.717707488045562 -0.0184543384672292 0 0 0 0 -8.8833827751763863 10.860558886365141 0 10.860558886365141 0.60964459637216351 0 0 0 0 1769.5899777957893 141.0224635229788 0 141.0224635229788 -310.53418848456931 0 0 0 0 776.05080322721187 1354.782762913328 0 1354.782762913328 -2.6216965513012838 0 0 0 0 -905.45101282831456 809.58444807297201 0 809.58444807297201 368.85275351442397 0 0 0 0 605.94482014044479 647.36842270681518 0 647.36842270681518 -15.274734184946283 0 0 0 0 -70.92192432997399 97.733711935637984 0 97.733711935637984 113.38412738814077 0 0 0 0 573.35132289036301 382.6558987296512 0 382.6558987296512 18.269765869161347 0 0 0 0 -19.368415268412463 46.983496300419063 0 46.983496300419063 -72.872064774898774 0 0 0 0 -98.909525886789197 320.49431851877307 0 320.49431851877307 198.93972366082016 0 0 0 0 508.14528990260442 489.19389679342567 0 489.19389679342567 165.21902993732692 0 0 0 0 -23.203878367538948 43.09581508891894 0 43.09581508891894 -76.272102358265386 0 0 0 0 339.46743128733942 -70.478807227496873 0 -70.478807227496873 114.01075539382873 0 0 0 0 -332.89735995895535 -54.190392703347243 0 -54.190392703347243 589.68881202168996 0 0 0 0 63.346217751168297 194.17101468966212 0 194.17101468966212 26.238123089875444 0 0 0 0 -373.20366705607739 276.70349523883488 0 276.70349523883488 225.81698469318508 0 0 0 0 8.0842846058367286 86.023632251413801 0 86.023632251413801 -125.604010124458 0 0 0 0 -246.76082960343047 528.22281117057719 0 528.22281117057719 -688.92514123013098 0 0 0 0 1.6571557274748727 2.6858105078208041 0 2.6858105078208041 10.610515998002484 0 0 0 0 -2297.4603420458734 1096.3121000444517 0 1096.3121000444517 -7.8010933788318653 0 0 0 0 -145.69437969321734 261.26478886906261 0 261.26478886906261 -23.709099775653158 0 0 0 0 -2.4493064593984855 24.389979441475418 0 24.389979441475418 28.00841761317389 0 0 0 0 -1155.8470480562246 -24.844899465191702 0 -24.844899465191702 -1073.1708129820472 0 0 0 0 -3827.1744132527965 1324.8183750749595 0 1324.8183750749595 -26.251134467071097 0 0 0 0 2.6969002279770393 13.053285519325527 0 13.053285519325527 6.7288181989534337 0 0 0 0 -1672.9111099810507 1679.7553244418832 0 1679.7553244418832 -1923.1498234607279 0 0 0 0 -4049.8582020135109 3313.4160812607206 0 3313.4160812607206 -1646.7024389002763 0 0 0 0 -15.517749031004001 19.949646113963468 0 19.949646113963468 -13.318914379985472 0 0 0 0 -8111.7333417035697 833.13994125009049 0 833.13994125009049 2768.4305607551651 0 0 0 0 -34.284580837367685 94.650663306223578 0 94.650663306223578 0.037350506579969078 0 0 0 0 -3476.1509593837109 3373.7482098815963 0 3373.7482098815963 288.39009415773035 0 0 0 0 -3804.6714471578052 4233.6788778384343 0 4233.6788778384343 3.113014212314738 0 0 0 0 -1247.9405728075799 3906.1666613927737 0 3906.1666613927737 -2134.859598210518 0 0 0 0 -3.4976512485009152 2286.4130824162567 0 2286.4130824162567 -2855.2437398874754 0 0 0 0 9.2454791483913823 22.167161026957046 0 22.167161026957046 15.274789128611076 0 0 0 0 -2366.2826226541947 2543.1220904068541 0 2543.1220904068541 -1753.2359396807151 0 0 0 0 -1250.4031307124678 1809.9428712729496 0 1809.9428712729496 188.58972832350992 0 0 0 0 -2167.0490452836966 1197.4163216107772 0 1197.4163216107772 -138.30012608272955 0 0 0 0 -2450.4066476058651 2471.846729287121 0 2471.846729287121 1275.5417884062772 0 0 0 0 3.6456802236574504 11.906843641192097 0 11.906843641192097 5.9819092834685534 0 0 0 0 -8.5383414997295777 4037.5751264757937 0 4037.5751264757937 44.193109569459921 0 0 0 0 -288.67305294124526 2026.8075349215578 0 2026.8075349215578 -2978.1448343951415 0 0 0 0 0.19102193234721199 33.106702669974766 0 33.106702669974766 -55.567994471464772 0 0 0 0 -3.8646974221611288 9.838315348913909 0 9.838315348913909 -21.437330753128663 0 0 0 0 149.39530248893425 -193.68718378223275 0 -193.68718378223275 -1594.5107016054426 0 0 0 0 -65.199799881014769 1099.8742283101692 0 1099.8742283101692 525.63188738799363 0 0 0 0 70.142896422563354 432.45420461188769 0 432.45420461188769 255.22949762868666 0 0 0 0 174.49282062145357 396.06101016482717 0 396.06101016482717 -4.9825205138040474 0 0 0 0 3.671615982619187 353.16477042672705 0 353.16477042672705 161.20355549524538 0 0 0 0 271.10761716790148 442.46172195587133 0 442.46172195587133 -875.541838063873 0 0 0 0 227.72661859441723 470.90695859180414 0 470.90695859180414 95.132786283676978 0 0 0 0 134.02980956868851 259.37073749539468 0 259.37073749539468 -80.790276575760799 0 0 0 0 -4.7872083979600575 116.88824276998639 0 116.88824276998639 91.319946363728377 0 0 0 0 5.1060005892795743 142.08395153097445 0 142.08395153097445 114.05603323661489 0 0 0 0 7.6885966432819259 103.85434997623088 0 103.85434997623088 96.1299584088556 0 0 0 0 -102.73764524942089 -69.47863669043727 0 -69.47863669043727 -19.834510145170498 0 0 0 0 46.791755747486604 150.93360882419802 0 150.93360882419802 65.754989928973373 0 0 0 0 -8.3416753777304962 18.811243543010477 0 18.811243543010477 -32.530808109197437 0 0 0 0 22.92582820460666 60.76490182231646 0 60.76490182231646 35.560457934130682 0 0 0 0 -22.112726380815729 35.017325077220448 0 35.017325077220448 26.080053055049575 0 0 0 0 71.638404768367764 77.591501221995713 0 77.591501221995713 1.3276394209824502 0 0 0 0 -19.416269539818245 15.775172887530537 0 15.775172887530537 -14.827643666736719 0 0 0 0 -6.5662017686907745 5.7471154305239622 0 5.7471154305239622 5.7013784874339422 0 0 0 0 0.10508366384601686 46.411007618662552 0 46.411007618662552 51.604394446752849 0 0 0 0 37.782718965841923 71.438506430386042 0 71.438506430386042 59.545361484528257 0 0 0 0 -10.53012886386017 16.649933663571346 0 16.649933663571346 -7.4959411871939778 0 0 0 0 20.808330762767582 -32.265452418323548 0 -32.265452418323548 -31.920729258650681 0 0 0 0 0.42187670560088009 136.16635553528613 0 136.16635553528613 -84.862608421848563 0 0 0 0 -3.2880929234107725 -1.0112211258632868 0 -1.0112211258632868 1.8359191180744574 0 0 0 0 -0.75363561643501953 -2.647948646692015 0 -2.647948646692015 -4.6124393063606135 0 0 0 0 -28.270954236286343 195.45357287993829 0 195.45357287993829 11.890159886897891 0 0 0 0 322.82196104682134 247.8121658256714 0 247.8121658256714 -140.69506881304551 0 0 0 0 -126.50406642125836 1362.8569705154478 0 1362.8569705154478 4418.2922653909773 0 0 0 0 88.597137516731891 561.06460088904714 0 561.06460088904714 324.89349611282523 0 0 0 0 19.88747614636668 237.17632045521168 0 237.17632045521168 -28.600444302181131 0 0 0 0 152.33089196961373 95.072149356477894 0 95.072149356477894 39.553210123907775 0 0 0 0 130.08491485448047 95.29610427662962 0 95.29610427662962 3.6775647136209386 0 0 0 0 -53.424107903916592 270.14924318887643 0 270.14924318887643 243.37594361193624 0 0 0 0 586.64884706709699 -936.40529031945152 0 -936.40529031945152 -1605.1706288485439 0 0 0 0 9.3616941380474454 8.9368371992905224 0 8.9368371992905224 11.133450891345262 0 0 0 0 64.417229054135987 309.10970163089223 0 309.10970163089223 203.58126605000871 0 0 0 0 -23.505683841442988 389.71612731998903 0 389.71612731998903 133.54124883416807 0 0 0 0 -2.4711479759280337 479.33303934795549 0 479.33303934795549 379.55662800415303 0 0 0 0 62.518175903662268 498.07920092658605 0 498.07920092658605 219.25052960487665 0 0 0 0 -1.4391619091393295 457.307347598864 0 457.307347598864 337.77911333501106 0 0 0 0 -56.809325483066232 450.86039586749393 0 450.86039586749393 435.84240025721374 0 0 0 0 494.44019847276741 239.65068195978529 0 239.65068195978529 -1406.6815160965998 0 0 0 0 -171.59041162899666 270.48423824078054 0 270.48423824078054 153.69350697705522 0 0 0 0 -0.78714143420727822 0.025678070264007147 0 0.025678070264007147 -0.3325491461441743 0 0 0 0 101.73816311994756 561.64491101988824 0 561.64491101988824 299.34870867563586 0 0 0 0 72.476003601877892 238.18329174927203 0 238.18329174927203 -658.89438053474078 0 0 0 0 -15.494767039129826 30.840870028895097 0 30.840870028895097 -2.1807954515831369 0 0 0 0 132.78677015955279 84.668383464307396 0 84.668383464307396 3.2406411405963809 0 0 0 0 293.07509046104497 116.39025970481453 0 116.39025970481453 -687.92033002474636 0 0 0 0 -61.160100338002849 665.44557302798785 0 665.44557302798785 213.7745907602075 0 0 0 0 -0.97339074264982628 -75.336326300825021 0 -75.336326300825021 -285.52495188900502 0 0 0 0 140.28493305751181 196.89810524824134 0 196.89810524824134 -209.28575219842605 0 0 0 0 60.617056170351432 34.106852822221356 0 34.106852822221356 -39.534986011058891 0 0 0 0 110.87128509063041 228.00416039350966 0 228.00416039350966 -204.31232895329595 0 0 0 0 24.866762523481157 261.72597244472126 0 261.72597244472126 -203.73037815559655 0 0 0 0 -38.497837555129081 190.33296420960687 0 190.33296420960687 -156.85336195596028 0 0 0 0 -31.68918941100128 -53.752836617321009 0 -53.752836617321009 -439.76334219420824 0 0 0 0 55.490702283492794 46.448892279339333 0 46.448892279339333 -0.65532544261941439 0 0 0 0 -29.342277807852952 251.34418341293349 0 251.34418341293349 -194.12726776927593 0 0 0 0 -36.533355409029355 318.15798931199424 0 318.15798931199424 -436.06325054855552 0 0 0 0 -0.80784807878080755 159.73813781859644 0 159.73813781859644 -299.94228070159443 0 0 0 0 -117.44305434354465 423.56995777280827 0 423.56995777280827 -289.93995283458207 0 0 0 0 -17.509016940006404 294.56458938852302 0 294.56458938852302 -262.84246094932314 0 0 0 0 -146.52458853809003 384.88731200244001 0 384.88731200244001 -181.01551226293668 0 0 0 0 -70.769766400859226 316.73438511308632 0 316.73438511308632 -128.77672525902744 0 0 0 0 -185.21513644937659 509.97011842165375 0 509.97011842165375 -176.48545933618152 0 0 0 0 -118.71573624259327 436.01636481388414 0 436.01636481388414 -303.60399225438596 0 0 0 0 121.37161041352374 67.132327272440307 0 67.132327272440307 -70.334424228552962 0 0 0 0 51.833585914384457 195.83009503419453 0 195.83009503419453 -117.01342495702556 0 0 0 0 -31.640503371192608 283.58024150901474 0 283.58024150901474 -183.75246411200351 0 0 0 0 -84.953419101657346 301.74769872083561 0 301.74769872083561 -137.64681385688527 0 0 0 0 3.3925619125220692 195.41714631809737 0 195.41714631809737 -73.582986906782025 0 0 0 0 -58.59976367445779 285.43574641086161 0 285.43574641086161 -102.98396416002652 0 0 0 0 -60.775498607792542 297.5082234913134 0 297.5082234913134 -132.01631435107993 0 0 0 0 -152.88672811684955 265.02386027129251 0 265.02386027129251 -80.929107605203171 0 0 0 0 -236.34343991006608 397.61831163385068 0 397.61831163385068 -115.84430227285156 0 0 0 0 -286.7960022180996 532.98628200707753 0 532.98628200707753 -181.69459335459396 0 0 0 0 -212.53980913299893 424.39514573357883 0 424.39514573357883 -88.662485776178073 0 0 0 0 -393.5584881084651 454.73258921015076 0 454.73258921015076 -72.016806322557386 0 0 0 0 -376.96036661184189 564.16971468082738 0 564.16971468082738 -59.469081011397066 0 0 0 0 -301.08393591761705 409.26023043798341 0 409.26023043798341 -54.602072734007379 0 0 0 0 -592.75985521363327 307.40158917430381 0 307.40158917430381 -86.355335739324801 0 0 0 0 -548.74325726146344 552.69463326851837 0 552.69463326851837 58.80884507537121 0 0 0 0 -409.67725305532804 228.99499294666748 0 228.99499294666748 -132.12589303093409 0 0 0 0 -312.59440178845171 226.01809947382026 0 226.01809947382026 -138.33769782568561 0 0 0 0 -56.744895302569475 59.234544630953494 0 59.234544630953494 -45.809040624948011 0 0 0 0 -94.30097255045257 225.09328353204182 0 225.09328353204182 -91.837280888474197 0 0 0 0 -7.1695823904447025 211.97223507375747 0 211.97223507375747 -113.4836961004039 0 0 0 0 -60.098656596543151 308.30599164476735 0 308.30599164476735 -83.275727814529091 0 0 0 0 -30.594791233493368 71.379532383077873 0 71.379532383077873 -38.147902851737967 0 0 0 0 52.57934843286057 149.29274421009177 0 149.29274421009177 -66.284615423472133 0 0 0 0 -44.016743542917538 232.80759402971307 0 232.80759402971307 -34.904660701460671 0 0 0 0 -20.095792744679784 213.39476022916642 0 213.39476022916642 -35.264945017115679 0 0 0 0 -162.89539498093154 85.356156102345267 0 85.356156102345267 4.2942501974757761 0 0 0 0 183.18164582952159 -83.819420925952727 0 -83.819420925952727 86.882614350819495 0 0 0 0 54.059207421435119 72.06223946782427 0 72.06223946782427 45.012733637118743 0 0 0 0 39.662769976572235 82.485734254138151 0 82.485734254138151 -9.96654121769825 0 0 0 0 -223.50936578395704 176.53654480763362 0 176.53654480763362 648.82677585235797 0 0 0 0 -5.8285410515072726 134.02841605554204 0 134.02841605554204 -55.204853225441184 0 0 0 0 -12.633174694419722 157.81510193375289 0 157.81510193375289 -34.246166614466347 0 0 0 0 -26.710008085472509 143.83060088456841 0 143.83060088456841 0.44061805836099666 0 0 0 0 -13.886289150192169 133.80511849652976 0 133.80511849652976 -37.020094012696063 0 0 0 0 -2.0322821422159905 142.65436651642085 0 142.65436651642085 -78.364406208042055 0 0 0 0 -42.340467294212431 177.52782108320389 0 177.52782108320389 -88.033178841084009 0 0 0 0 -88.00536330723844 182.08635943004629 0 182.08635943004629 -67.879995358205633 0 0 0 0 -34.441742110415362 177.9416385780205 0 177.9416385780205 -65.498187991179293 0 0 0 0 -14.710187805423629 144.48230953057646 0 144.48230953057646 -74.865834514028393 0 0 0 0 -20.777243809541687 141.62024541950086 0 141.62024541950086 -37.136765957460739 0 0 0 0 -5.5979513329803012 174.99843129696092 0 174.99843129696092 -56.160519370896509 0 0 0 0 -2.0873562919368851 146.68107467356458 0 146.68107467356458 -14.180455003108364 0 0 0 0 58.288256800035015 149.52113240622566 0 149.52113240622566 -126.09420603094622 0 0 0 0 59.090388311888987 67.98779082424565 0 67.98779082424565 37.806080523325249 0 0 0 0 30.607322162342964 34.404247669491042 0 34.404247669491042 23.211764397515537 0 0 0 0 142.35334909863741 -3.2103149816539371 0 -3.2103149816539371 -109.69934580160771 0 0 0 0 8.8003261407852733 154.56127112178365 0 154.56127112178365 -81.020401506801136 0 0 0 0 345.84684432783251 62.649151177858585 0 62.649151177858585 -447.21139940869762 0 0 0 0 53.239452553216097 120.13188718273886 0 120.13188718273886 -45.963219407654833 0 0 0 0 42.120480943964253 141.94929995200073 0 141.94929995200073 -78.71426231705118 0 0 0 0 37.094380397811165 161.46574827967561 0 161.46574827967561 -29.411992668174207 0 0 0 0 -78.978466019492771 83.218302212742856 0 83.218302212742856 117.60326211020583 0 0 0 0 -46.630733262526292 145.56546827283455 0 145.56546827283455 13.554787527071312 0 0 0 0 -129.43151552136624 -20.403140199283371 0 -20.403140199283371 57.309348466049414 0 0 0 0 7.2019721245051187 25.230652666134119 0 25.230652666134119 18.209983745022328 0 0 0 0 -117.85796536343648 60.918889200198464 0 60.918889200198464 43.889177818782628 0 0 0 0 7.7654787122373818 29.897522856976138 0 29.897522856976138 7.15554531669477 0 0 0 0 17.414518171489402 37.17938292549421 0 37.17938292549421 13.911858613178765 0 0 0 0 34.012011722418116 42.373073524957249 0 42.373073524957249 13.301460398254221 0 0 0 0 16.003747902182795 0.0057093404466286302 0 0.0057093404466286302 16.149108397599775 0 0 0 0 67.421661779643955 101.20976659015287 0 101.20976659015287 -6.2839457815862261 0 0 0 0 18.588353234049737 12.608179845638688 0 12.608179845638688 -13.842185031940744 0 0 0 0 34.588997036702494 56.515292754076654 0 56.515292754076654 39.116980101680383 0 0 0 0 10.546225542219361 78.621934583385155 0 78.621934583385155 54.342895976267755 0 0 0 0 158.98083388158147 96.360252026337548 0 96.360252026337548 -58.247302459960338 0 0 0 0 10.773444614687167 10.276068924694862 0 10.276068924694862 1.375964075076638 0 0 0 0 79.478093153706084 153.76318927801913 0 153.76318927801913 -15.021272317797411 0 0 0 0 71.076067366350003 -20.575105301162694 0 -20.575105301162694 45.299382455035811 0 0 0 0 38.813151482229159 24.201627942060441 0 24.201627942060441 80.399556717311498 0 0 0 0 36.282564755248131 12.817334101782762 0 12.817334101782762 35.996227290019306 0 0 0 0 129.96590536772641 -14.426564562483691 0 -14.426564562483691 -225.80304288709885 0 0 0 0 101.93541801789218 -55.573575558555603 0 -55.573575558555603 -166.07947291515302 0 0 0 0 106.2205756193739 -22.436258094123332 0 -22.436258094123332 -146.05093742270401 0 0 0 0 54.401383607722266 27.244440826019854 0 27.244440826019854 -115.77227802886046 0 0 0 0 -21.118939978668095 -58.01508505390666 0 -58.01508505390666 -223.60593253542902 0 0 0 0 -11.094567465681962 -29.198485066226567 0 -29.198485066226567 -161.81634390167892 0 0 0 0 60.538613621412424 59.933722434667288 0 59.933722434667288 -198.02229086507577 0 0 0 0 36.763806102469971 22.015330765367253 0 22.015330765367253 -257.98487555340398 0 0 0 0 38.671832960604661 109.31838057108689 0 109.31838057108689 -180.45668744563591 0 0 0 0 72.058818820482429 30.34826817677822 0 30.34826817677822 -122.07497251251334 0 0 0 0 75.135918366475607 22.037282855060766 0 22.037282855060766 -164.67626548721455 0 0 0 0 -135.77911429973392 51.363888270716416 0 51.363888270716416 -21.857315358822234 0 0 0 0 -152.02345759553441 112.59907122421828 0 112.59907122421828 4.4126414438942447 0 0 0 0 -138.98185612899761 26.332337175423163 0 26.332337175423163 25.111129784898367 0 0 0 0 -104.76854639752651 141.2348092810671 0 141.2348092810671 122.06071262157639 0 0 0 0 -115.47950855802208 53.765215954572341 0 53.765215954572341 128.96774430148071 0 0 0 0 -109.84208021763834 5.7892159634793643 0 5.7892159634793643 85.36995181418024 0 0 0 0 -96.688618187909015 60.715688069889438 0 60.715688069889438 92.679882926226128 0 0 0 0 -159.48606029582697 -15.466506391734583 0 -15.466506391734583 56.585931827605236 0 0 0 0 -172.10770347715879 32.846414701081812 0 32.846414701081812 88.953145596329705 0 0 0 0 -171.48702174028949 61.967887834936846 0 61.967887834936846 40.080672940384829 0 0 0 0 -0.36446119709100699 14.523038250824143 0 14.523038250824143 17.52336011528439 0 0 0 0 -60.228425366835381 -31.215557823168638 0 -31.215557823168638 62.096445269897231 0 0 0 0 -57.414180912690426 -31.070569381103269 0 -31.070569381103269 48.932676255295519 0 0 0 0 -168.40453804361823 -24.118620666151401 0 -24.118620666151401 53.619626129322569 0 0 0 0 -134.29518681015179 -13.833016928416328 0 -13.833016928416328 33.832014754007105 0 0 0 0 -77.398398534889566 -41.892680097313132 0 -41.892680097313132 56.485191529114672 0 0 0 0 -149.77444810880115 -5.4678170887782471 0 -5.4678170887782471 66.776859279081691 0 0 0 0 -58.3123525884439 4.4403546056710184 0 4.4403546056710184 70.367485131209833 0 0 0 0 -71.781045149620695 -6.2757985109637957 0 -6.2757985109637957 66.778293741159359 0 0 0 0 -78.267231125821127 -22.477061324039823 0 -22.477061324039823 55.635706904693507 0 0 0 0 -80.243698713324193 -81.386223933746805 0 -81.386223933746805 57.846051551838173 0 0 0 0 39.771751236577984 25.722915400954662 0 25.722915400954662 -84.961222815560177 0 0 0 0 -39.107514627266482 -77.253966279116867 0 -77.253966279116867 37.395093751314562 0 0 0 0 130.65934461024881 110.73653628470493 0 110.73653628470493 68.651281591737643 0 0 0 0 12.433904524755611 5.3543366458126549 0 5.3543366458126549 -14.863846958993122 0 0 0 0 10.541334066458148 -89.726373270052136 0 -89.726373270052136 -202.21061211041524 0 0 0 0 -250.04464940770231 174.69956736354652 0 174.69956736354652 -245.23181665924494 0 0 0 0 -148.58831223222296 -48.71133925934555 0 -48.71133925934555 61.563724284846103 0 0 0 0 -233.92862204256744 34.198148045717971 0 34.198148045717971 10.717515329597518 0 0 0 0 -246.98917120433362 40.528471956626163 0 40.528471956626163 29.068133031367324 0 0 0 0 -210.62317342834376 85.098672617015836 0 85.098672617015836 -18.843289609241765 0 0 0 0 -171.00814424777855 37.570499897672562 0 37.570499897672562 -81.556121678208001 0 0 0 0 -145.31153631576126 145.81349485904502 0 145.81349485904502 -292.86576085656998 0 0 0 0 -250.15530694447261 149.36557342344895 0 149.36557342344895 -102.2805607555274 0 0 0 0 -171.09633215338465 108.18409113714097 0 108.18409113714097 -152.58146227506222 0 0 0 0 -164.36351166653367 38.828349732488277 0 38.828349732488277 -140.42416451775352 0 0 0 0 -96.760916992368038 192.15097546861944 0 192.15097546861944 -660.64308564673411 0 0 0 0 -169.02914575051909 53.683256027812604 0 53.683256027812604 -329.41595935296209 0 0 0 0 2.2751230378265066 -0.65579272277490475 0 -0.65579272277490475 -7.828219886085833 0 0 0 0 -3.2694198605340716 -53.497703327666386 0 -53.497703327666386 -627.34018820279744 0 0 0 0 -110.84345965695866 474.74169677736791 0 474.74169677736791 -52.707186341081979 0 0 0 0 -47.231383566993827 50.441173497485579 0 50.441173497485579 -737.92435164580093 0 0 0 0 -270.60126637443318 220.21150715751719 0 220.21150715751719 -628.71525355402264 0 0 0 0 -78.885362631061071 17.700543656894297 0 17.700543656894297 -714.22494067970547 0 0 0 0 222.70924451246992 328.11027550033759 0 328.11027550033759 -359.49418315719231 0 0 0 0 268.25334863788294 477.49514782769256 0 477.49514782769256 29.072339707563515 0 0 0 0 -19.120072328665401 155.97500095222495 0 155.97500095222495 -43.386775006074458 0 0 0 0 85.722565410635895 70.229451616760343 0 70.229451616760343 -129.13291503745131 0 0 0 0 133.0805954547119 82.270901865624182 0 82.270901865624182 -177.87283593343454 0 0 0 0 172.15858226210071 33.135912369180005 0 33.135912369180005 -207.27454883716564 0 0 0 0 157.01590326907831 -71.420548342372058 0 -71.420548342372058 -563.78696026909165 0 0 0 0 318.63324434807691 317.6763978746967 0 317.6763978746967 -674.52919862296039 0 0 0 0 213.35609242758642 236.43186459652497 0 236.43186459652497 -151.51762414655968 0 0 0 0 293.82817354438066 383.8327055121008 0 383.8327055121008 -316.1328906105191 0 0 0 0 442.29344082927003 560.94203047102928 0 560.94203047102928 182.19453898517531 0 0 0 0 162.99393110940485 651.51007164351358 0 651.51007164351358 -363.8986927648657 0 0 0 0 358.3410262407034 107.39925810327804 0 107.39925810327804 128.17093363440654 0 0 0 0 333.26682664429381 -310.73684454613249 0 -310.73684454613249 -679.77461270694039 0 0 0 0 -10.116184257455124 14.922419303352001 0 14.922419303352001 -4.8031674076234196 0 0 0 0 -78.060301521967631 498.89563698008715 0 498.89563698008715 1029.8594984151423 0 0 0 0 83.164445050661016 -59.925158845093392 0 -59.925158845093392 -460.67522246279259 0 0 0 0 201.10281959761141 330.94205728113593 0 330.94205728113593 -323.00443341396749 0 0 0 0 -190.42846910773005 589.34021125649451 0 589.34021125649451 209.50801596665406 0 0 0 0 -216.90618603944358 70.110065074346494 0 70.110065074346494 -265.98821399136796 0 0 0 0 -293.0767788862313 260.56758709049609 0 260.56758709049609 -540.50896471529268 0 0 0 0 -106.85789950735034 436.04284466515674 0 436.04284466515674 1092.8264213729417 0 0 0 0 15.160517675206393 1196.1251113902108 0 1196.1251113902108 1435.0724989568116 0 0 0 0 -2.246540419354556 8.1874098655613068 0 8.1874098655613068 -2.9238413325573589 0 0 0 0 288.74975866131012 723.82891820110308 0 723.82891820110308 37.730079254426528 0 0 0 0 -50.904969628667459 1484.5793196722807 0 1484.5793196722807 1498.0315392561024 0 0 0 0 79.602182709006001 1002.6033905221484 0 1002.6033905221484 -632.03603139158804 0 0 0 0 5.6575400478738906 7.174330302506803 0 7.174330302506803 2.2210248258661238 0 0 0 0 -1462.4651968952294 452.15042975881079 0 452.15042975881079 2381.4955398041639 0 0 0 0 -169.56707811423985 1771.9068072497903 0 1771.9068072497903 -2777.530134652945 0 0 0 0 -637.3309097712131 1509.0645975031694 0 1509.0645975031694 -712.18066247820389 0 0 0 0 -686.17447761409198 1788.1549480583726 0 1788.1549480583726 -1423.8385608273093 0 0 0 0 -506.17851594576859 995.34050675760955 0 995.34050675760955 -1151.5913172347573 0 0 0 0 985.29827564639436 354.29089578354615 0 354.29089578354615 -398.06099689309485 0 0 0 0 -293.88085988145394 852.30374634164036 0 852.30374634164036 -2093.2316407173057 0 0 0 0 -544.16995509276899 775.82921531957254 0 775.82921531957254 -1362.2180989775807 0 0 0 0 -726.94731160201263 1156.7073266414227 0 1156.7073266414227 -807.98715577689291 0 0 0 0 -549.12206193826387 786.3730764649099 0 786.3730764649099 -680.66967756935628 0 0 0 0 -625.90094243031808 1240.5336338932902 0 1240.5336338932902 -739.36495466745691 0 0 0 0 -914.33304436168146 1372.6778071263689 0 1372.6778071263689 -795.7973774598504 0 0 0 0 -444.82970660894352 1271.0959637844644 0 1271.0959637844644 -876.86365917207149 0 0 0 0 -617.53691773893343 1215.3172317672543 0 1215.3172317672543 -841.28576154488837 0 0 0 0 -563.40322454315174 1237.1800554789952 0 1237.1800554789952 -870.06298787571723 0 0 0 0 -570.40641438575949 1364.4333167318837 0 1364.4333167318837 -1334.582024076517 0 0 0 0 -573.06285963261155 973.81664007516429 0 973.81664007516429 -1119.4742782972171 0 0 0 0 -359.48837558938067 1158.6990255515848 0 1158.6990255515848 -965.07199471883359 0 0 0 0 -501.93026999347785 888.5060247099027 0 888.5060247099027 -584.78856541489949 0 0 0 0 -380.23199598460315 994.31538301342516 0 994.31538301342516 -687.73436181299621 0 0 0 0 -149.11322022359582 728.11319155105593 0 728.11319155105593 -530.79384715668857 0 0 0 0 -34.750746757261368 775.20136300160084 0 775.20136300160084 -727.46819574004621 0 0 0 0 -289.00948588348513 664.16822616999161 0 664.16822616999161 -438.67758372356184 0 0 0 0 -346.83151324902428 1116.8323371809965 0 1116.8323371809965 -1058.9793412041618 0 0 0 0 -111.01641924224987 -16.456525900619454 0 -16.456525900619454 253.81905964296311 0 0 0 0 45.636699262442392 28.888391233199343 0 28.888391233199343 0.11971228581703031 0 0 0 0 59.265604817036547 220.9822813379069 0 220.9822813379069 -224.11867453510058 0 0 0 0 137.90390463660697 8.5001481944782427 0 8.5001481944782427 2.4307322433014633 0 0 0 0 -520.61211510371686 827.13078653231787 0 827.13078653231787 -625.41765168632264 0 0 0 0 20.451745349199623 18.961538816707844 0 18.961538816707844 8.2873252718014498 0 0 0 0 266.1708195964161 82.706188088370254 0 82.706188088370254 58.104896588789416 0 0 0 0 -267.39890971023692 -220.89022058428964 0 -220.89022058428964 100.40775650296564 0 0 0 0 -365.22626151946076 -14.864088783062471 0 -14.864088783062471 45.189047965599457 0 0 0 0 -8.9777264271222066 621.72353825808204 0 621.72353825808204 -597.32526299447636 0 0 0 0 -766.8369653998634 877.13863165589282 0 877.13863165589282 -435.57820729607192 0 0 0 0 60.804690187599817 -35.006485702665486 0 -35.006485702665486 -314.37852092826506 0 0 0 0 -623.3194220809828 945.02055877086968 0 945.02055877086968 -540.5884260055027 0 0 0 0 -1068.3673903293384 1180.8481970579887 0 1180.8481970579887 -613.7221461183799 0 0 0 0 -961.53912519282403 594.42846059458861 0 594.42846059458861 -336.59505829573027 0 0 0 0 -576.05285661364564 274.75328386632236 0 274.75328386632236 -95.953399286256172 0 0 0 0 -554.41586092791476 795.43462817012914 0 795.43462817012914 -529.76619164034491 0 0 0 0 -939.53635221028617 792.68993649748882 0 792.68993649748882 -422.51099511660868 0 0 0 0 10.246633792331401 4.7215790231901451 0 4.7215790231901451 3.8505853053445662 0 0 0 0 335.84787977112137 -242.53261054653558 0 -242.53261054653558 86.98536150327709 0 0 0 0 -633.12742344709659 187.5384216800303 0 187.5384216800303 -21.823214450239902 0 0 0 0 -436.40153360259319 -175.8930547913551 0 -175.8930547913551 280.88352477287117 0 0 0 0 -56.303530951900029 204.95193583423679 0 204.95193583423679 -10.631237016612431 0 0 0 0 3.6103860896873812 108.92684162006481 0 108.92684162006481 -261.77401527754773 0 0 0 0 -27.985656204050027 55.63996779520815 0 55.63996779520815 -41.041892155579546 0 0 0 0 57.115433766859496 -16.779789046660881 0 -16.779789046660881 -303.47687993562431 0 0 0 0 -78.640820065520529 115.14927196914505 0 115.14927196914505 89.325977054948453 0 0 0 0 87.574288666319688 31.690269970736551 0 31.690269970736551 -41.624440741745033 0 0 0 0 33.313277127326728 136.07620622080867 0 136.07620622080867 -63.38021958029276 0 0 0 0 8.2844760396874335 39.273632143111172 0 39.273632143111172 -21.893240464560222 0 0 0 0 45.690431950527973 32.07053962045174 0 32.07053962045174 -3.0964972167458882 0 0 0 0 194.67272469095769 -85.261968823993811 0 -85.261968823993811 -211.97761173569597 0 0 0 0 2.2404097991391438 22.805001039259693 0 22.805001039259693 -19.764820543124188 0 0 0 0 447.15638545216643 -0.7390516742161708 0 -0.7390516742161708 -309.40181118884357 0 0 0 0 241.22000149048108 183.30635934390011 0 183.30635934390011 -82.980568562081316 0 0 0 0 84.492216857528774 251.30729240423716 0 251.30729240423716 27.217429716925835 0 0 0 0 -2.5917854803666955 42.715542092344094 0 42.715542092344094 -57.558924242550347 0 0 0 0 -131.78174362355094 43.555576385308086 0 43.555576385308086 96.670413693354931 0 0 0 0 238.77163628504786 628.66866823298915 0 628.66866823298915 -174.48952051281231 0 0 0 0 155.17859360776129 128.29355154187942 0 128.29355154187942 -184.1664616167036 0 0 0 0 -15.296167492226331 48.109213036652136 0 48.109213036652136 -54.578372506611117 0 0 0 0 -367.25958580249426 -27.335338991179015 0 -27.335338991179015 487.24999595286499 0 0 0 0 -56.745991302625043 495.22037173043645 0 495.22037173043645 -313.55111431141268 0 0 0 0 -403.23973872336455 265.35577862249193 0 265.35577862249193 -232.73844810287119 0 0 0 0 -231.25414741825443 440.02670731167018 0 440.02670731167018 214.46764680427441 0 0 0 0 -6.425088059645617 31.229646745365869 0 31.229646745365869 -20.237893468538175 0 0 0 0 -213.68128791654453 113.58173256521695 0 113.58173256521695 25.660902042727685 0 0 0 0 334.77631650317471 487.52137845974357 0 487.52137845974357 -181.82422263138869 0 0 0 0 98.707890923188643 -193.35369737987639 0 -193.35369737987639 334.25834211264737 0 0 0 0 -189.46956068370491 -177.10564054572023 0 -177.10564054572023 -384.00553367161774 0 0 0 0 3.5109255812412812 -589.94136172739854 0 -589.94136172739854 193.19375252221653 0 0 0 0 1631.893729272153 149.91554174452904 0 149.91554174452904 -819.95237509875733 0 0 0 0 -300.00527838905691 177.85108123959799 0 177.85108123959799 63.51371514100174 0 0 0 0 -2.6513951460660508 19.994806934295326 0 19.994806934295326 -4.8526388503998987 0 0 0 0 51.704213605343952 51.18789288387984 0 51.18789288387984 7.5941517669666609 0 0 0 0 198.00916510383831 -171.38214013502147 0 -171.38214013502147 -781.88356492256571 0 0 0 0 -24.450835400588403 418.14022171599208 0 418.14022171599208 -360.51867867883993 0 0 0 0 0.35278079242561944 115.0962717445509 0 115.0962717445509 -262.14924016859732 0 0 0 0 22.052797322748162 1.5786938620957187 0 1.5786938620957187 -16.928418634231548 0 0 0 0 310.60902548847662 268.98800259211566 0 268.98800259211566 -367.24695419921773 0 0 0 0 372.20407568855444 224.15500677679665 0 224.15500677679665 -334.66398077784106 0 0 0 0 310.60902548857848 268.98800259249401 0 268.98800259249401 -367.24695419950876 0 0 0 0 -50.082586200132198 65.606452277126365 0 65.606452277126365 -20.166456826539388 0 0 0 0 310.60902548857121 268.98800259246491 0 268.98800259246491 -367.2469541990431 0 0 0 0 427.88347817937029 75.507155205938034 0 75.507155205938034 -241.89261556485144 0 0 0 0 -45.89929416020459 1.1891144297551364 0 1.1891144297551364 22.31846513443088 0 0 0 0 -85.53004007234631 149.32176708693441 0 149.32176708693441 -185.97732044290751 0 0 0 0 110.31034117554373 76.305841594119556 0 76.305841594119556 -222.75458161186543 0 0 0 0 158.69845075311969 15.706317389631295 0 15.706317389631295 -153.80790786794387 0 0 0 0 127.20961770949361 136.12385547114536 0 136.12385547114536 -234.65172897023149 0 0 0 0 267.59140349976951 -2.2172389493789524 0 -2.2172389493789524 -210.32369846338406 0 0 0 0 31.469768204449792 -175.16551914811134 0 -175.16551914811134 -621.25736960271024 0 0 0 0 -2.4031267964913354 4.3657805463552108 0 4.3657805463552108 -7.7647403529807093 0 0 0 0 454.22957458325254 490.04130172832811 0 490.04130172832811 -744.86038848466706 0 0 0 0 499.77849477178279 383.11718836375439 0 383.11718836375439 -583.55606170956162 0 0 0 0 -785.89776008994886 -345.51979490253871 0 -345.51979490253871 221.83414612292836 0 0 0 0 237.38347979157697 226.59926029380586 0 226.59926029380586 -183.47846906663472 0 0 0 0 147.62776696428409 96.137841560586821 0 96.137841560586821 30.766550135289435 0 0 0 0 -245.70981644560379 278.11777956234437 0 278.11777956234437 -9.3130526897439267 0 0 0 0 -19.38559855864878 39.129179059469607 0 39.129179059469607 32.523968930854608 0 0 0 0 -283.36461894005697 89.083792785459082 0 89.083792785459082 87.577459549545893 0 0 0 0 30.025889582063598 18.84714972544333 0 18.84714972544333 9.3049089956941202 0 0 0 0 -84.257890066804976 212.31624705239301 0 212.31624705239301 -243.31175339744368 0 0 0 0 -128.71669871159065 217.65071768598864 0 217.65071768598864 76.575088755198522 0 0 0 0 424.3975098434239 185.06054029669758 0 185.06054029669758 -555.18165104638319 0 0 0 0 206.08728581204196 143.94669868772689 0 143.94669868772689 -16.576709545814083 0 0 0 0 141.33737271344216 141.87064836535137 0 141.87064836535137 105.36332122236854 0 0 0 0 794.41588184835382 892.13280489676617 0 892.13280489676617 469.61399386373523 0 0 0 0 -15.054570848926232 525.04345944923261 0 525.04345944923261 854.11210187373945 0 0 0 0 1476.9183490763317 1247.9153162304792 0 1247.9153162304792 629.5228299671071 0 0 0 0 48.666804856494309 927.63400965477285 0 927.63400965477285 2773.8124030068284 0 0 0 0 1610.4191746864235 586.83912554676499 0 586.83912554676499 -1510.782282723434 0 0 0 0 17.638300204892715 11.272788051222165 0 11.272788051222165 6.0206816598961268 0 0 0 0 258.63770354379812 479.40247903774798 0 479.40247903774798 621.13099995358061 0 0 0 0 42.945673976708065 28.880842174235397 0 28.880842174235397 14.030196243623266 0 0 0 0 -71.273936883682836 676.1059602564228 0 676.1059602564228 -28.706554216158111 0 0 0 0 348.0518299907344 520.22141954301333 0 520.22141954301333 -1578.5333078992116 0 0 0 0 47.996004321857981 -209.3434333563514 0 -209.3434333563514 -108.31018573904294 0 0 0 0 603.60946911985229 817.87771079446247 0 817.87771079446247 -2453.6689235816266 0 0 0 0 521.42094828185509 765.95149108363694 0 765.95149108363694 1566.1728809412307 0 0 0 0 5.1102788564158175 2.8512236104338058 0 2.8512236104338058 -0.25843982807505483 0 0 0 0 13.155811479115016 14.494560307393073 0 14.494560307393073 2.3938132368223179 0 0 0 0 -356.15798784611252 -155.01104819696047 0 -155.01104819696047 1397.9666559321922 0 0 0 0 815.39836278738221 173.59277389230556 0 173.59277389230556 -138.98549708676728 0 0 0 0 -418.97496812419558 394.64069618616486 0 394.64069618616486 -269.0615922814759 0 0 0 0 -2246.3871896205528 96.91388901922619 0 96.91388901922619 565.78724452222377 0 0 0 0 -39.183137556323345 909.57911858292573 0 909.57911858292573 336.8832159487938 0 0 0 0 33.625751290899643 994.31100898670411 0 994.31100898670411 -716.22463300626987 0 0 0 0 273.13080275483117 -9.2450298712551557 0 -9.2450298712551557 50.12841980176745 0 0 0 0 53.05292100149876 35.497899158183628 0 35.497899158183628 20.596352300467075 0 0 0 0 -529.16565993534459 409.70503684916184 0 409.70503684916184 -36.672416105506272 0 0 0 0 -884.40666533038893 1166.5855385900031 0 1166.5855385900031 -483.23752477942617 0 0 0 0 -1578.5133362486085 626.67640229009703 0 626.67640229009703 -384.51174618776713 0 0 0 0 -531.93416489928495 160.75220993631956 0 160.75220993631956 -358.2657030854316 0 0 0 0 -1091.0667487667233 1484.269503213276 0 1484.269503213276 -540.88436709209782 0 0 0 0 -1076.3712129737651 -178.82820137024464 0 -178.82820137024464 -111.84469974116655 0 0 0 0 69.6406315059794 785.66288295436971 0 785.66288295436971 -118.65039416428044 0 0 0 0 -652.06882715565371 -298.66031660245426 0 -298.66031660245426 1013.1724190672976 0 0 0 0 175.85420916449948 470.7423312195242 0 470.7423312195242 87.82630733185033 0 0 0 0 0.19392781057901232 -1.9999333723996529 0 -1.9999333723996529 2.389674629198737 0 0 0 0 1285.9250472766362 -392.32158486513799 0 -392.32158486513799 564.978963663787 0 0 0 0 50.559956123230222 917.58272698755172 0 917.58272698755172 2012.9912210994007 0 0 0 0 1817.9042398530182 1272.1763648530996 0 1272.1763648530996 -380.60745906738157 0 0 0 0 722.78670047547712 934.11293532359559 0 934.11293532359559 -468.06756525232049 0 0 0 0 96.957614307611948 1125.2087446751248 0 1125.2087446751248 -143.56572123751721 0 0 0 0 422.52268057785477 738.38676442315409 0 738.38676442315409 -196.68239899730543 0 0 0 0 -779.35290985952452 483.59968564900191 0 483.59968564900191 60.707981455227127 0 0 0 0 -423.828975856326 1345.8695344705557 0 1345.8695344705557 -108.1228368160173 0 0 0 0 -961.19153474347513 394.58892426336934 0 394.58892426336934 -150.08388267514238 0 0 0 0 -5.0614441298147419 14.060891500856727 0 14.060891500856727 -32.712068514548434 0 0 0 0 -1044.8041718371023 559.93049630490714 0 559.93049630490714 17.200130311088287 0 0 0 0 190.04353326530691 122.68131110240938 0 122.68131110240938 18.216583536966937 0 0 0 0 103.07257169699005 46.968906057838467 0 46.968906057838467 108.80227192633174 0 0 0 0 -2.9835251067238922 6.5649872126958257 0 6.5649872126958257 -10.041525490302774 0 0 0 0 615.69948617802947 317.38233175959613 0 317.38233175959613 -117.65272415883373 0 0 0 0 -3334.0084730534145 615.29127741308912 0 615.29127741308912 331.26577862646081 0 0 0 0 76.911688367501483 68.634942660202796 0 68.634942660202796 -40.47666118509369 0 0 0 0 8.774058175049678 27.572699180990369 0 27.572699180990369 -55.316839192182101 0 0 0 0 -227.82879091084033 260.51693728228565 0 260.51693728228565 -100.54454564528714 0 0 0 0 6.2601734700540135 22.071965252616565 0 22.071965252616565 -7.2750622133262866 0 0 0 0 225.67108679728699 72.408515519928187 0 72.408515519928187 -102.47042847370903 0 0 0 0 -50.157568645372521 157.23298101499677 0 157.23298101499677 2.4273728496846161 0 0 0 0 -20.217367195931729 130.4956806001137 0 130.4956806001137 -78.351454478804953 0 0 0 0 -72.31824050071009 346.4119695075351 0 346.4119695075351 -178.88775798892311 0 0 0 0 -200.69830319241737 458.95247516859672 0 458.95247516859672 -147.74518668814562 0 0 0 0 -68.971652535983594 368.55211701632652 0 368.55211701632652 -212.53614069276955 0 0 0 0 -65.204628264733856 536.96680855432828 0 536.96680855432828 -336.77281784982188 0 0 0 0 -101.45336104275702 280.86027166383064 0 280.86027166383064 -92.22580959185143 0 0 0 0 41.363524020620389 319.83198639526381 0 319.83198639526381 -231.07164826072403 0 0 0 0 79.736330343119334 170.29564580813167 0 170.29564580813167 -98.567657626932487 0 0 0 0 31.405004962682142 244.51744254782534 0 244.51744254782534 -136.16088829474756 0 0 0 0 226.33657400983793 255.70344420256151 0 255.70344420256151 -224.20253511801457 0 0 0 0 6.1201487216603709 355.37484910420608 0 355.37484910420608 -229.62675960111665 0 0 0 0 236.53465778323152 374.53109544933977 0 374.53109544933977 -317.05324224260403 0 0 0 0 314.99346056659124 403.94037338615453 0 403.94037338615453 -613.54698904756879 0 0 0 0 170.05191091405868 437.08823046855105 0 437.08823046855105 -322.02080662801745 0 0 0 0 168.59491826548037 658.26004433343769 0 658.26004433343769 -307.68069938203553 0 0 0 0 -360.10256426173692 788.31686046914183 0 788.31686046914183 -327.35716854219208 0 0 0 0 270.0199866106268 648.04226698014099 0 648.04226698014099 -563.69981708636624 0 0 0 0 328.8607916108158 542.4401432237355 0 542.4401432237355 -1000.1274282837221 0 0 0 0 680.01583276393649 1178.9897345981663 0 1178.9897345981663 -917.6566959786287 0 0 0 0 204.57367280089238 575.65243199276301 0 575.65243199276301 -816.58171780378325 0 0 0 0 295.72522779319843 393.0120859042072 0 393.0120859042072 -804.28865516172664 0 0 0 0 211.7226407352864 429.95546247509628 0 429.95546247509628 -497.21162685441959 0 0 0 0 209.44072544615119 478.81168973603781 0 478.81168973603781 -424.45705061472836 0 0 0 0 390.87189952859262 281.1255983280389 0 281.1255983280389 -469.42211843031691 0 0 0 0 388.41169587943841 437.89018059283353 0 437.89018059283353 -159.83298888328136 0 0 0 0 610.06807051444775 322.47091189572529 0 322.47091189572529 -112.87686990557995 0 0 0 0 545.4751405979041 214.82297244529764 0 214.82297244529764 -60.401873266717303 0 0 0 0 417.63910405684601 184.63100571797713 0 184.63100571797713 -215.82626528292894 0 0 0 0 382.57132747487049 265.84207879658788 0 265.84207879658788 -75.992382120195543 0 0 0 0 444.7325759125797 99.655083236113569 0 99.655083236113569 -132.97516998538049 0 0 0 0 256.8758599384455 201.49726891724276 0 201.49726891724276 -187.28649259945087 0 0 0 0 315.34413485802179 177.76303540993649 0 177.76303540993649 -242.7377837842796 0 0 0 0 293.87982791544346 325.23283706723305 0 325.23283706723305 -306.6805706165469 0 0 0 0 205.4383388923743 319.56103825980972 0 319.56103825980972 -362.79274497450388 0 0 0 0 90.607768168541952 172.17036055063363 0 172.17036055063363 -119.35287609070656 0 0 0 0 210.44136513477133 121.67739931836695 0 121.67739931836695 -136.42415253969375 0 0 0 0 269.29496902762912 83.595919152881834 0 83.595919152881834 -15.790032382094068 0 0 0 0 242.39617024444124 80.256064434008294 0 80.256064434008294 -84.01709966067574 0 0 0 0 265.55182509637234 106.27491529863619 0 106.27491529863619 -74.212959339412919 0 0 0 0 237.21560850467358 9.3420944504468935 0 9.3420944504468935 -37.83136622047823 0 0 0 0 -10.538240741409908 52.892091600216162 0 52.892091600216162 13.026400342007264 0 0 0 0 129.72787288088148 33.204097742709564 0 33.204097742709564 -42.650929632844054 0 0 0 0 95.879562337358948 55.598360705347659 0 55.598360705347659 -46.396589783369564 0 0 0 0 139.40516710231896 118.85870969457028 0 118.85870969457028 26.277090595300251 0 0 0 0 90.977318695018766 70.075567387830233 0 70.075567387830233 -18.475547194953833 0 0 0 0 -135.79721548533416 639.25128285211395 0 639.25128285211395 -513.29976931959391 0 0 0 0 -174.39729588723276 574.67180135298258 0 574.67180135298258 -503.58694688681862 0 0 0 0 -206.06578239742521 578.55980685179384 0 578.55980685179384 -313.94445578448358 0 0 0 0 -205.64536998257972 570.52437621973513 0 570.52437621973513 -353.16822803955438 0 0 0 0 -116.45453173115675 435.68404998972255 0 435.68404998972255 -414.17561626630049 0 0 0 0 -126.25144937341975 424.5260990622337 0 424.5260990622337 -659.41860931692645 0 0 0 0 -119.58417221155833 476.80397754961086 0 476.80397754961086 -480.64511750152451 0 0 0 0 29.530638845194716 19.463302800617782 0 19.463302800617782 4.2506897236042605 0 0 0 0 -16.217363556745113 389.47770631762978 0 389.47770631762978 -879.35499107149371 0 0 0 0 -11.602854704309721 229.85867307179433 0 229.85867307179433 -677.93675644032191 0 0 0 0 -143.08491082046339 435.6660730102094 0 435.6660730102094 -666.7065837601258 0 0 0 0 -130.68093744380712 291.8271954593688 0 291.8271954593688 -989.65622069482924 0 0 0 0 -30.949129234606517 636.44634159268753 0 636.44634159268753 -1593.1635606786658 0 0 0 0 97.924001622959622 187.52440394819132 0 187.52440394819132 -1567.9758725299762 0 0 0 0 -263.67509805578084 439.95703578576649 0 439.95703578576649 -943.26135434002208 0 0 0 0 108.17580182563688 370.37383846272132 0 370.37383846272132 -515.74170179929934 0 0 0 0 8.0709046879928792 375.18704536242876 0 375.18704536242876 -930.98723376958515 0 0 0 0 155.10800726746675 596.95744881608698 0 596.95744881608698 -689.8366994124226 0 0 0 0 -43.08067655233026 664.26048454415286 0 664.26048454415286 -833.24705541141884 0 0 0 0 -190.82689614938135 576.60355552645342 0 576.60355552645342 -595.43079067647341 0 0 0 0 72.446643195449724 619.00446280006145 0 619.00446280006145 -592.00462268028605 0 0 0 0 -117.78943129994877 709.2295345906241 0 709.2295345906241 -314.82972564621014 0 0 0 0 -46.196906388497155 568.42233722471428 0 568.42233722471428 -383.99467476538848 0 0 0 0 253.04030989459716 546.63192166393856 0 546.63192166393856 -387.86808061341071 0 0 0 0 46.616884761609981 814.09876734854333 0 814.09876734854333 -137.23400085527101 0 0 0 0 -39.429478095335071 684.21997344023839 0 684.21997344023839 -312.85204330779379 0 0 0 0 378.68097115238197 306.46272167934512 0 306.46272167934512 -338.26292599905719 0 0 0 0 212.86532408901257 610.31378030099586 0 610.31378030099586 -166.5812181327201 0 0 0 0 572.84257145636366 527.71462761650037 0 527.71462761650037 -162.5049745660217 0 0 0 0 421.51625122659607 573.01510907928605 0 573.01510907928605 50.968409214983694 0 0 0 0 135.9428224809235 707.99828263642848 0 707.99828263642848 -101.01367542509979 0 0 0 0 357.37062233459437 819.6666499809071 0 819.6666499809071 -47.583154294654378 0 0 0 0 256.0397227776557 647.53288360832084 0 647.53288360832084 77.775418809527764 0 0 0 0 89.053839703279664 932.74639134059544 0 932.74639134059544 172.21301586012123 0 0 0 0 -104.67763162693882 837.25781130895484 0 837.25781130895484 -2.3634103209478781 0 0 0 0 -111.13670642871875 832.63196501227503 0 832.63196501227503 125.46593360343832 0 0 0 0 -388.56339549488621 828.84820603628759 0 828.84820603628759 235.68421461601974 0 0 0 0 -279.80157587247959 743.41969631145184 0 743.41969631145184 -51.945945630010101 0 0 0 0 -93.572706907827524 833.79363415512489 0 833.79363415512489 -135.96333077797317 0 0 0 0 -220.15574079927683 691.88050418698913 0 691.88050418698913 -252.96599336859072 0 0 0 0 -57.110296632687096 722.79614247180871 0 722.79614247180871 -449.96942517341085 0 0 0 0 -212.87175018503694 706.38500177647074 0 706.38500177647074 -251.76783750075265 0 0 0 0 -300.35164365032688 656.10328631132143 0 656.10328631132143 -71.15523345398833 0 0 0 0 -321.81386017649493 586.01807686725806 0 586.01807686725806 -98.846208211936755 0 0 0 0 -383.93145864154212 606.24825855295057 0 606.24825855295057 -4.1733788237615954 0 0 0 0 -312.64118280215553 790.175557091472 0 790.175557091472 64.629058307036757 0 0 0 0 -419.37921908148564 667.03892999315576 0 667.03892999315576 -67.817482588987332 0 0 0 0 -431.47935917039285 688.08912202740612 0 688.08912202740612 40.220996613428724 0 0 0 0 -647.83499895065688 485.40016175853088 0 485.40016175853088 15.066636710980674 0 0 0 0 -559.48464492909989 699.69102774274506 0 699.69102774274506 201.21568996043061 0 0 0 0 -676.61548333646351 449.54846665431251 0 449.54846665431251 56.444226170744514 0 0 0 0 -915.79198565553816 119.45653640877572 0 119.45653640877572 -244.21702020188968 0 0 0 0 -775.08182672231487 503.04462826125382 0 503.04462826125382 98.857328319107182 0 0 0 0 -885.34649833406729 496.15902963581902 0 496.15902963581902 90.298667549795937 0 0 0 0 -809.90869986941107 155.93171324369905 0 155.93171324369905 -508.9928287557268 0 0 0 0 -212.29889059871493 441.00795883056708 0 441.00795883056708 126.81412166763039 0 0 0 0 -456.15219438466949 544.23762295709673 0 544.23762295709673 111.23403149357182 0 0 0 0 -455.1946954044397 316.13367103898781 0 316.13367103898781 75.092239509511273 0 0 0 0 -516.26964574362501 671.08236950681021 0 671.08236950681021 94.571613958068156 0 0 0 0 -525.09822086275381 590.51161922244501 0 590.51161922244501 563.96490810171235 0 0 0 0 -114.99087475439592 900.74185379348637 0 900.74185379348637 231.78491755032155 0 0 0 0 4.0144142846838804 749.69188288116129 0 749.69188288116129 257.81378952182422 0 0 0 0 773.09273502176802 438.29879669714137 0 438.29879669714137 435.66137798957061 0 0 0 0 587.29515413238551 1098.4500993275578 0 1098.4500993275578 354.60413940568105 0 0 0 0 575.46386129070015 791.67608958968776 0 791.67608958968776 141.0039205813955 0 0 0 0 671.73230155394413 366.75008268898273 0 366.75008268898273 188.13145276482101 0 0 0 0 530.63525254443812 616.06524668940256 0 616.06524668940256 1112.0101284529956 0 0 0 0 781.50948417931795 608.64776780264219 0 608.64776780264219 348.88424621705781 0 0 0 0 787.97026972085587 882.50436290650396 0 882.50436290650396 687.03564783584443 0 0 0 0 1536.8701803899312 1463.7553990179294 0 1463.7553990179294 1121.3163129703041 0 0 0 0 803.29857429285767 850.26880044827703 0 850.26880044827703 728.20729650559952 0 0 0 0 961.98057084858738 769.69083181936003 0 769.69083181936003 609.68079331284389 0 0 0 0 -393.0197742729797 -33.212185716707609 0 -33.212185716707609 133.67999352289189 0 0 0 0 -247.21753434662241 581.61375876962848 0 581.61375876962848 1255.490627574778 0 0 0 0 0.36915192752128689 -0.52809646081339423 0 -0.52809646081339423 7.3621719293948331 0 0 0 0 -49.985545204738827 47.636755576440009 0 47.636755576440009 -20.623957289577945 0 0 0 0 -130.52480077580549 69.606257002502389 0 69.606257002502389 108.47359889792278 0 0 0 0 -32.584438623130609 42.913518231554463 0 42.913518231554463 44.685614090412855 0 0 0 0 80.881731653978932 244.71143238554941 0 244.71143238554941 157.66461667486874 0 0 0 0 484.51321000204189 850.38809498891351 0 850.38809498891351 738.36854050855618 0 0 0 0 692.61149684705015 765.73026654137357 0 765.73026654137357 732.38272705400595 0 0 0 0 -12.993829781762102 3.2179045130043349 0 3.2179045130043349 29.639590323330935 0 0 0 0 114.33111576442025 143.29263872440788 0 143.29263872440788 203.88187080482021 0 0 0 0 -16.83309330656887 26.674903424396057 0 26.674903424396057 -26.62589587378659 0 0 0 0 59.348051986326027 97.763050137582468 0 97.763050137582468 33.21823579352349 0 0 0 0 105.42384315537493 70.401823449588846 0 70.401823449588846 -2.2667407680855831 0 0 0 0 4.08729366775583 8.558177291004057 0 8.558177291004057 -5.4570260185358279 0 0 0 0 79.631664996053587 151.84809374104225 0 151.84809374104225 72.767839814623585 0 0 0 0 175.01967745019647 164.66972334962338 0 164.66972334962338 17.525829112448264 0 0 0 0 115.81930065472989 280.16929044469725 0 280.16929044469725 37.608990451524733 0 0 0 0 161.82280181599344 193.18246916972566 0 193.18246916972566 -33.654693590404349 0 0 0 0 -217.73751016737515 455.72915443591774 0 455.72915443591774 -147.92724796300172 0 0 0 0 64.669087989977925 98.504055842056914 0 98.504055842056914 182.26944442745298 0 0 0 0 -496.2552474235722 433.90557562283539 0 433.90557562283539 -199.49570813958417 0 0 0 0 -498.09742637861928 438.75144955801079 0 438.75144955801079 175.29133704269771 0 0 0 0 -782.47892882558881 492.18134187516989 0 492.18134187516989 793.81492144861841 0 0 0 0 -472.80801460985094 579.9452720903646 0 579.9452720903646 146.02154425573099 0 0 0 0 -67.074291794831879 47.982065393367122 0 47.982065393367122 -19.439781056667726 0 0 0 0 -264.9655271157244 376.08312045654748 0 376.08312045654748 -321.05879794902285 0 0 0 0 -437.37144098425779 438.50424828562245 0 438.50424828562245 586.28478034319414 0 0 0 0 -34.904229106803541 105.27341230610909 0 105.27341230610909 -2.3007118316781998 0 0 0 0 291.24412549850967 149.95991849433631 0 149.95991849433631 18.407180794376472 0 0 0 0 -32.670660527400287 13.828131804790246 0 13.828131804790246 82.499989688425558 0 0 0 0 22.50606875016274 -10.035532491347112 0 -10.035532491347112 17.707466360210674 0 0 0 0 304.02494370956265 -25.106120034834021 0 -25.106120034834021 -39.865715905703837 0 0 0 0 361.14931090425671 128.74812546855901 0 128.74812546855901 72.082138418714749 0 0 0 0 426.40894748913706 -43.35340175114834 0 -43.35340175114834 -0.60322412951791193 0 0 0 0 886.450927359052 685.49138825840055 0 685.49138825840055 316.68512347451178 0 0 0 0 973.62676726540667 207.41557276326057 0 207.41557276326057 -14.334687872040377 0 0 0 0 578.33169199346321 368.3908658208602 0 368.3908658208602 116.20308014025795 0 0 0 0 538.6708161710776 95.367081347154453 0 95.367081347154453 -40.181902400232502 0 0 0 0 542.00277793626447 320.11304510459013 0 320.11304510459013 243.16107850029948 0 0 0 0 459.43782936004936 373.12824000326873 0 373.12824000326873 172.20077317580581 0 0 0 0 700.07010757007811 434.12725912453607 0 434.12725912453607 149.6458848338807 0 0 0 0 580.10590852844325 455.13067215694173 0 455.13067215694173 596.62360715662362 0 0 0 0 684.24584491525457 777.09693435231748 0 777.09693435231748 591.68661840594723 0 0 0 0 776.36464117726428 613.6604229734221 0 613.6604229734221 290.93999677802094 0 0 0 0 787.28474080661545 952.35069003878743 0 952.35069003878743 478.78880116353685 0 0 0 0 923.9276647020888 941.05862370033537 0 941.05862370033537 202.91727062949212 0 0 0 0 955.63942399421649 1139.4812321753561 0 1139.4812321753561 645.05349676747574 0 0 0 0 197.50421702184121 1012.3119771458314 0 1012.3119771458314 1023.1125813662948 0 0 0 0 726.81123944526189 1141.3985459494797 0 1141.3985459494797 930.75294413836673 0 0 0 0 87.555505201613414 39.744107743434142 0 39.744107743434142 367.02236853788054 0 0 0 0 221.86996484007977 531.10529388158466 0 531.10529388158466 1786.1303871797281 0 0 0 0 1688.5691215446486 241.79271631183769 0 241.79271631183769 -140.29506925467285 0 0 0 0 1764.2765528153759 1420.7590002404977 0 1420.7590002404977 452.30811225905927 0 0 0 0 1294.779235788832 2117.67004165666 0 2117.67004165666 2520.8955466066182 0 0 0 0 22.166834605616771 -3.3750981594526479 0 -3.3750981594526479 2.890031522783886 0 0 0 0 358.77063626854215 -362.0608519987727 0 -362.0608519987727 -260.7785527157539 0 0 0 0 113.9999920890441 123.0816494129449 0 123.0816494129449 -203.4730991148972 0 0 0 0 69.520488994352263 2.6434146169044368 0 2.6434146169044368 -7.1560548462027498 0 0 0 0 182.39598894755909 275.00572793506581 0 275.00572793506581 16.939864443520491 0 0 0 0 837.34982224584382 966.84576166255283 0 966.84576166255283 517.94521073021497 0 0 0 0 1064.0794274985892 1077.196632119274 0 1077.196632119274 355.01133022215799 0 0 0 0 796.58208932479465 707.52079608451459 0 707.52079608451459 604.79441444122858 0 0 0 0 701.88498201999755 826.93608697340824 0 826.93608697340824 543.83419853891246 0 0 0 0 706.65626115875421 903.05043201507942 0 903.05043201507942 1001.45302088873 0 0 0 0 1040.0607266718362 1221.543398454698 0 1221.543398454698 566.28692991629941 0 0 0 0 912.21848699832481 890.98026302408834 0 890.98026302408834 10.586694188212277 0 0 0 0 637.62755105465067 763.57284019943882 0 763.57284019943882 305.72650042953319 0 0 0 0 377.98725944564649 398.60816646447347 0 398.60816646447347 -397.53282952535665 0 0 0 0 626.64031292704749 381.6464296173508 0 381.6464296173508 -100.29029871278908 0 0 0 0 344.91187941654061 220.4467545341904 0 220.4467545341904 -141.56004609435331 0 0 0 0 372.75201075061341 157.98411352315452 0 157.98411352315452 -33.609945873555262 0 0 0 0 -5.8710136150430401 1.7106894279891094 0 1.7106894279891094 -0.55040580310264886 0 0 0 0 1297.0209895521257 773.94398000229558 0 773.94398000229558 -272.32404075467639 0 0 0 0 2091.5191692997287 1080.9974901907444 0 1080.9974901907444 343.5211216576572 0 0 0 0 528.48571092614293 134.38515670280322 0 134.38515670280322 -47.021237061795546 0 0 0 0 55.247928202647017 -369.23211937086307 0 -369.23211937086307 93.752210240330896 0 0 0 0 1505.910125143193 -42.348499584975798 0 -42.348499584975798 -232.51439865530119 0 0 0 0 -8.2494760600360593 12.85727962845472 0 12.85727962845472 -12.228662681424794 0 0 0 0 108.6478807510648 26.202419014909538 0 26.202419014909538 -23.751098358392483 0 0 0 0 -0.86838816031377064 21.664680442914687 0 21.664680442914687 1.0269627387751825 0 0 0 0 213.09132346088882 -31.1688345641669 0 -31.1688345641669 7.050294753156777 0 0 0 0 -0.13921977796417195 22.657694924857424 0 22.657694924857424 -11.254639806371415 0 0 0 0 0.24003415756374125 7.3845909347161296 0 7.3845909347161296 5.8576107142833393 0 0 0 0 -5.5734830690344097 7.5507795959201758 0 7.5507795959201758 -1.3423260952113196 0 0 0 0 6.4407693581088097 20.962275924102869 0 20.962275924102869 0.011947277336730622 0 0 0 0 34.940703092215699 17.011887086482602 0 17.011887086482602 -7.2430966821557377 0 0 0 0 1.7690084955259948 -1.1437482712202964 0 -1.1437482712202964 -5.6932300414897554 0 0 0 0 -677.8103608897909 120.64832760276477 0 120.64832760276477 177.34859070600942 0 0 0 0 -120.28842039403389 3.9374712945427746 0 3.9374712945427746 37.450515036736761 0 0 0 0 353.45983329851151 465.01179559550656 0 465.01179559550656 103.71460616472177 0 0 0 0 1.3252413726973629 3.5279184475829126 0 3.5279184475829126 -11.122141936210369 0 0 0 0 9.2856632847433502 342.76328572042985 0 342.76328572042985 164.56937629578169 0 0 0 0 362.97575928266451 450.96971083097742 0 450.96971083097742 124.37723943973106 0 0 0 0 364.58922955740127 768.30555676180666 0 768.30555676180666 -0.15315607997763436 0 0 0 0 989.25946415567159 596.34964389996458 0 596.34964389996458 466.18290946722846 0 0 0 0 1009.4013469012134 475.16474927190575 0 475.16474927190575 11.494822302280227 0 0 0 0 944.11378629015235 673.09760273294523 0 673.09760273294523 373.08149945311379 0 0 0 0 663.27550457482721 910.80461922408358 0 910.80461922408358 222.89285426377319 0 0 0 0 -2.0680702103751187 -1.617681407498452 0 -1.617681407498452 2.0191806199692337 0 0 0 0 -178.30570959557372 67.373301773332059 0 67.373301773332059 -154.95330211947294 0 0 0 0 -486.44390905595355 194.61131179660879 0 194.61131179660879 -44.621819124062313 0 0 0 0 -1.7751387536241054 -1.7784123385461328 0 -1.7784123385461328 1.5690126615332929 0 0 0 0 -270.5280268173592 184.7007468719894 0 184.7007468719894 -248.01628259594145 0 0 0 0 318.41153233539444 117.56415793935594 0 117.56415793935594 -116.04447309623356 0 0 0 0 194.03784017444559 130.59458516258746 0 130.59458516258746 -72.338980406580959 0 0 0 0 271.64756187158491 175.78582611308957 0 175.78582611308957 -46.169095768855186 0 0 0 0 150.98089855912986 101.27476856393332 0 101.27476856393332 -21.113998835386155 0 0 0 0 113.51116637029918 107.79600008827401 0 107.79600008827401 -22.242856441560434 0 0 0 0 229.36630232963216 47.242096745569143 0 47.242096745569143 -70.130269966017295 0 0 0 0 177.9943755464883 96.894785783086263 0 96.894785783086263 -61.796468130050926 0 0 0 0 258.92275715660799 81.584460270605632 0 81.584460270605632 -137.60244084181613 0 0 0 0 181.85529512177891 39.887658610350627 0 39.887658610350627 -102.65516064173426 0 0 0 0 213.1013054234536 70.763472116366756 0 70.763472116366756 -104.08754835047876 0 0 0 0 -1.2123487360005498 1.3739674146378036 0 1.3739674146378036 5.5942987994412192 0 0 0 0 -17.588524994444015 20.380966990192974 0 20.380966990192974 -0.017565134417964146 0 0 0 0 754.49054274408991 -225.69602240397944 0 -225.69602240397944 -24.522451117609307 0 0 0 0 252.41583269287912 418.50025632797406 0 418.50025632797406 0.61551010148832574 0 0 0 0 -118.79826493999644 35.124219537727186 0 35.124219537727186 -54.874104838920175 0 0 0 0 -66.040485267993063 307.9653140057635 0 307.9653140057635 -112.87265126997954 0 0 0 0 -488.99887607242999 166.16258184394974 0 166.16258184394974 28.836606707161991 0 0 0 0 -438.29445616571502 394.55799809557357 0 394.55799809557357 -0.18877821770729497 0 0 0 0 -3.0117845119097595 -2.3654777908254232 0 -2.3654777908254232 2.7353777639968939 0 0 0 0 -36.729237306823052 132.85926759246286 0 132.85926759246286 -27.685519263031892 0 0 0 0 -578.32497488159424 321.60851567084319 0 321.60851567084319 87.194520694756648 0 0 0 0 -545.33385443307634 431.8485486047648 0 431.8485486047648 -53.782721959636547 0 0 0 0 -362.65279318443936 377.22741422451509 0 377.22741422451509 0.082935518424233093 0 0 0 0 -417.01365233094293 289.79317050893587 0 289.79317050893587 -26.149206229165429 0 0 0 0 -482.99384601880593 406.15000212986342 0 406.15000212986342 -103.9577974230051 0 0 0 0 -519.8015106486564 394.7406025240125 0 394.7406025240125 0.00069382698908011168 0 0 0 0 -391.37730296325753 410.09366950478579 0 410.09366950478579 -105.12074145434599 0 0 0 0 -459.48821740820858 300.44092578416894 0 300.44092578416894 -260.00203393600532 0 0 0 0 -481.73521722977421 551.29761992073691 0 551.29761992073691 -284.52892786376469 0 0 0 0 -77.19082771183821 483.88593865044822 0 483.88593865044822 -332.11695436950686 0 0 0 0 -322.33146820862203 368.82050337085821 0 368.82050337085821 -242.03165156986506 0 0 0 0 -227.47319045742734 251.76958953880967 0 251.76958953880967 -97.647703075432219 0 0 0 0 -921.4058705269199 222.80649149102101 0 222.80649149102101 -12.136135303873743 0 0 0 0 -588.95919968855014 466.76334955426864 0 466.76334955426864 -22.87051878748025 0 0 0 0 -694.07221603951984 573.12113892161869 0 573.12113892161869 -103.36257281538565 0 0 0 0 -571.57704227752401 842.39955279946298 0 842.39955279946298 -425.47284893358301 0 0 0 0 -1300.6041944114695 538.22358981397701 0 538.22358981397701 -105.33535683523951 0 0 0 0 -1025.5025871352846 -157.27148454170674 0 -157.27148454170674 -646.87519217944646 0 0 0 0 -458.14247347097262 238.01932912235497 0 238.01932912235497 -371.49314345570747 0 0 0 0 -1866.69813255802 1119.16065519322 0 1119.16065519322 222.26034815178718 0 0 0 0 -744.09212600011961 935.89744492100726 0 935.89744492100726 -991.90114269490005 0 0 0 0 -77.667735741969693 53.747556210920067 0 53.747556210920067 -22.395239092980162 0 0 0 0 -2357.1585133720364 452.15966144618869 0 452.15966144618869 860.20584400637017 0 0 0 0 -1231.7438500162461 1086.8547764250252 0 1086.8547764250252 148.73586613647058 0 0 0 0 -1271.943453096191 612.27202788260456 0 612.27202788260456 638.57728888496058 0 0 0 0 -22.899009613269556 8.7525747119049839 0 8.7525747119049839 18.143381835856133 0 0 0 0 982.7179620281895 1568.1826806192694 0 1568.1826806192694 851.48346555392345 0 0 0 0 -676.47215099678215 537.2520133055732 0 537.2520133055732 1665.0926299335697 0 0 0 0 239.2533670028788 549.68583312349801 0 549.68583312349801 -97.832613611876695 0 0 0 0 -1352.1881999532279 -822.04898055683225 0 -822.04898055683225 -27.601351966906805 0 0 0 0 -10.949431297314661 9.4795706753801028 0 9.4795706753801028 -8.6025308967330716 0 0 0 0 338.90265979125616 436.26955061360786 0 436.26955061360786 -418.27481702762816 0 0 0 0 -137.14536124305778 78.216332869371399 0 78.216332869371399 336.47606800287031 0 0 0 0 -212.84171561593394 218.44448328480939 0 218.44448328480939 -124.58952978694288 0 0 0 0 -70.571305733319605 4.2728932152385823 0 4.2728932152385823 119.67356399659184 0 0 0 0 91.698155105204933 491.20296032709302 0 491.20296032709302 395.38625969806162 0 0 0 0 -22.861070906670648 213.77318231677054 0 213.77318231677054 130.1397725838433 0 0 0 0 -135.63825786649977 215.12460452449159 0 215.12460452449159 268.05217119748704 0 0 0 0 -119.32859037086746 246.15292746186606 0 246.15292746186606 493.42043534692493 0 0 0 0 -3.7876486571304895 -1.3285805122670808 0 -1.3285805122670808 1.7489704526177547 0 0 0 0 -38.967940013356326 28.616820443152733 0 28.616820443152733 -23.700004645786578 0 0 0 0 -369.8779028013123 21.779354083650105 0 21.779354083650105 1571.1175382415531 0 0 0 0 137.09919834508764 203.91375379129022 0 203.91375379129022 -1140.8346810662188 0 0 0 0 -285.65425009333467 689.60277754291019 0 689.60277754291019 -710.091458429466 0 0 0 0 -30.197868183786341 182.62764103192603 0 182.62764103192603 258.85977927729255 0 0 0 0 234.60472870572994 286.17621742238407 0 286.17621742238407 99.282675952214049 0 0 0 0 84.593568076223164 75.335663959223893 0 75.335663959223893 172.69267074565869 0 0 0 0 -371.44975980460003 307.62659384898143 0 307.62659384898143 32.996045260108076 0 0 0 0 -118.37282311287709 96.239816415705718 0 96.239816415705718 204.89427048986545 0 0 0 0 114.68938586066361 191.74467306723818 0 191.74467306723818 -102.81533289240906 0 0 0 0 111.47726092570247 317.54574389314394 0 317.54574389314394 -159.66667566163233 0 0 0 0 -17.897467910705018 248.04669965390349 0 248.04669965390349 -57.174506217706949 0 0 0 0 -15.193955450442445 259.01418431774073 0 259.01418431774073 -100.48676350340247 0 0 0 0 -62.447218600907945 177.7407426207501 0 177.7407426207501 -232.25902779740682 0 0 0 0 -54.704727319884114 353.22637762950035 0 353.22637762950035 -242.5850648964406 0 0 0 0 -51.360856013146986 212.66359484166605 0 212.66359484166605 -157.19658890308347 0 0 0 0 -211.41475978488597 316.69429880894313 0 316.69429880894313 -172.11151009402238 0 0 0 0 -10.341551251651254 200.25588829471963 0 200.25588829471963 -147.12759640920558 0 0 0 0 -57.122505404695403 149.10882888472406 0 149.10882888472406 -96.007731989724562 0 0 0 0 -16.604520790511742 160.54942513207789 0 160.54942513207789 -73.424168940749951 0 0 0 0 -2.8354623553750571 225.9445282308734 0 225.9445282308734 -60.023491336600273 0 0 0 0 5.0419556521665072 225.46650646423222 0 225.46650646423222 -77.204315425595269 0 0 0 0 -160.19692860732539 357.24061260875897 0 357.24061260875897 -207.08886930934386 0 0 0 0 40.304595824280113 367.27726514926326 0 367.27726514926326 -219.89163534383988 0 0 0 0 -80.514607627148507 234.18196976112085 0 234.18196976112085 -446.02513802997419 0 0 0 0 -387.39872936814936 262.59007457139887 0 262.59007457139887 -119.15577011846472 0 0 0 0 -772.76897887683299 69.844422077265335 0 69.844422077265335 -215.47585211829573 0 0 0 0 -778.51683702328592 484.36507556618017 0 484.36507556618017 67.509592700749636 0 0 0 0 -854.15417055362923 256.62341110551642 0 256.62341110551642 -161.11351586604724 0 0 0 0 -1253.6560234650533 9.4815540895651793 0 9.4815540895651793 -126.75103936637606 0 0 0 0 -1003.1759817234633 382.49543320022349 0 382.49543320022349 -261.9033631272905 0 0 0 0 4.5179813162157529 14.008593152479904 0 14.008593152479904 -12.16544241207572 0 0 0 0 -60.409632296151344 61.185561967873326 0 61.185561967873326 -42.309520255160976 0 0 0 0 82.651529352024227 156.52450943291478 0 156.52450943291478 -213.24029570681159 0 0 0 0 -0.10475433278770652 -5.3248840268643107 0 -5.3248840268643107 -528.4698201980209 0 0 0 0 -15.255199662476116 -137.83720983567764 0 -137.83720983567764 202.34051577045466 0 0 0 0 95.725419745384443 86.772816044347564 0 86.772816044347564 7.3424186011834536 0 0 0 0 142.89528084225049 182.39427639982387 0 182.39427639982387 99.458003757987171 0 0 0 0 -265.13730665829098 353.84646117921511 0 353.84646117921511 540.83097152511618 0 0 0 0 -7.7343539434022688 0.38297214303992178 0 0.38297214303992178 13.468571158926011 0 0 0 0 18.358812910698735 65.860074128338198 0 65.860074128338198 113.56080146512778 0 0 0 0 215.56925204061554 -126.68114812202111 0 -126.68114812202111 325.06994112010943 0 0 0 0 11.421313221568198 232.37895996410225 0 232.37895996410225 208.87081053477596 0 0 0 0 30.96731610705865 275.42059385720859 0 275.42059385720859 258.81567031092709 0 0 0 0 47.974234338649694 264.59437938092742 0 264.59437938092742 235.0048200313322 0 0 0 0 110.85876937190005 256.31836029945407 0 256.31836029945407 185.55960973468609 0 0 0 0 33.580734169439893 153.57406639229157 0 153.57406639229157 168.08077306833002 0 0 0 0 57.343383270152117 195.69319168507354 0 195.69319168507354 118.30606732415617 0 0 0 0 -22.839089422770485 110.92513504074304 0 110.92513504074304 133.55300428372902 0 0 0 0 -62.111541403980937 178.15230276501097 0 178.15230276501097 211.91888971481239 0 0 0 0 -57.186100511009499 70.997175052514649 0 70.997175052514649 116.53367403728771 0 0 0 0 -61.251259511372552 -29.510319789723326 0 -29.510319789723326 59.454914029658539 0 0 0 0 -48.255278233933495 1.5295130817612517 0 1.5295130817612517 62.715394818282221 0 0 0 0 -25.395357367384349 55.46356975735398 0 55.46356975735398 104.73151974206849 0 0 0 0 6.539760531133652 39.222603610251099 0 39.222603610251099 78.933634787332267 0 0 0 0 4.5958594873359289 61.940153044459294 0 61.940153044459294 30.007032337598503 0 0 0 0 -19.429476128719443 -24.914566589784954 0 -24.914566589784954 8.1678332831070293 0 0 0 0 -0.51053942473541625 19.857307725346146 0 19.857307725346146 43.496900069127946 0 0 0 0 5.273499649307098 26.240009214592646 0 26.240009214592646 26.72407269422547 0 0 0 0 18.742563645109044 52.517916294754706 0 52.517916294754706 25.131055943519584 0 0 0 0 -0.14922830548277943 66.912264901320668 0 66.912264901320668 18.188926296250429 0 0 0 0 14.186190589659523 35.299003725827362 0 35.299003725827362 9.7496818105371972 0 0 0 0 16.131875794180814 53.120971681302763 0 53.120971681302763 24.17805658839643 0 0 0 0 27.528379803792234 74.510538287652054 0 74.510538287652054 45.993752184705102 0 0 0 0 -4.990188262528207 51.723908202835645 0 51.723908202835645 42.77245474518196 0 0 0 0 -18.713316128112638 159.89646082173567 0 159.89646082173567 -59.343511645565741 0 0 0 0 -35.67135940234698 64.004299951590838 0 64.004299951590838 56.930391955247615 0 0 0 0 -50.138805389562734 61.330623380769623 0 61.330623380769623 -25.401900620962579 0 0 0 0 -90.497413034172496 314.76604128084728 0 314.76604128084728 165.58096025558189 0 0 0 0 52.186985776206711 336.79551890134462 0 336.79551890134462 -22.495723850268405 0 0 0 0 1.0162522111058934 243.02389429020695 0 243.02389429020695 50.457379081715771 0 0 0 0 1.254097870492842 195.48728235377348 0 195.48728235377348 41.263645483995788 0 0 0 0 12.482336323446361 250.22894645715132 0 250.22894645715132 -11.024991800150019 0 0 0 0 -7.2001045254946803 171.69489398186852 0 171.69489398186852 -25.374886457924731 0 0 0 0 -15.246573232466858 283.88904988411286 0 283.88904988411286 16.572008333634585 0 0 0 0 -357.88292186240324 194.29675431490614 0 194.29675431490614 155.51122050095 0 0 0 0 -183.54098328898363 242.44680234466796 0 242.44680234466796 195.81444248493062 0 0 0 0 -129.19703806251346 163.07913394350908 0 163.07913394350908 298.53212166990852 0 0 0 0 -240.02950179629261 132.00610140309436 0 132.00610140309436 87.122454909404041 0 0 0 0 -213.13274929985346 189.41117572702933 0 189.41117572702933 145.17212451947853 0 0 0 0 -205.0467367305755 77.607407454226632 0 77.607407454226632 170.45991462601887 0 0 0 0 104.66473306753505 58.835577700658177 0 58.835577700658177 -68.425267590268049 0 0 0 0 -433.18505722117152 92.163329716066073 0 92.163329716066073 154.77664910649764 0 0 0 0 2.910685546806862 7.9705585910864762 0 7.9705585910864762 14.825621599447459 0 0 0 0 8.6380417018148474 46.925175144601326 0 46.925175144601326 81.76564374830258 0 0 0 0 0.317530281545082 29.939867831039123 0 29.939867831039123 69.751463876381706 0 0 0 0 -39.797221010632711 57.283637955275481 0 57.283637955275481 57.294788229092774 0 0 0 0 -219.56329826018191 32.630989443743601 0 32.630989443743601 -20.393611938969116 0 0 0 0 185.42224989686929 146.43130777706028 0 146.43130777706028 -148.19712260202505 0 0 0 0 7.3983050002532007 18.126290909707627 0 18.126290909707627 2.8429701122413462 0 0 0 0 -18.237354690634675 1.9181752875520033 0 1.9181752875520033 348.96784764050972 0 0 0 0 -134.55428369880332 33.277425476306007 0 33.277425476306007 86.501050033373758 0 0 0 0 -96.912040942497697 215.1763466741686 0 215.1763466741686 173.44742420618422 0 0 0 0 -249.56844173987338 166.9729071638576 0 166.9729071638576 -8.4983505283598788 0 0 0 0 -321.84241695529272 -99.836980156949721 0 -99.836980156949721 -53.411290550142439 0 0 0 0 -238.51856531354133 81.923466969732544 0 81.923466969732544 136.65410989671363 0 0 0 0 -286.53739778662202 2.3471232535375748 0 2.3471232535375748 107.66888696319074 0 0 0 0 -394.92163302356494 68.395600737982022 0 68.395600737982022 233.06789324869169 0 0 0 0 -0.29022347841404184 -4.4460615042483056 0 -4.4460615042483056 4.4381575733864338 0 0 0 0 -1.354949711221451 0.14347660736192047 0 0.14347660736192047 1.3607693284895959 0 0 0 0 -421.60261016506411 82.485102596023353 0 82.485102596023353 863.11181904317345 0 0 0 0 -569.32575151640049 -59.536555218182912 0 -59.536555218182912 184.90094206228969 0 0 0 0 288.92881774055058 45.577686168020591 0 45.577686168020591 -743.62804269776097 0 0 0 0 -60.162508721679473 303.87202610668737 0 303.87202610668737 -25.093078600737499 0 0 0 0 20.70854873747794 52.246076571886078 0 52.246076571886078 -64.89450550257061 0 0 0 0 275.24941956739895 -21.73508882036549 0 -21.73508882036549 -12.860884968613391 0 0 0 0 -61.73843004160517 113.41514948655094 0 113.41514948655094 107.03762380195258 0 0 0 0 -49.633753963885169 109.75021667364308 0 109.75021667364308 -247.80819432472344 0 0 0 0 21.237383590934769 46.22557288382086 0 46.22557288382086 77.882438002852723 0 0 0 0 3.3783801043922637 6.6814407876926225 0 6.6814407876926225 12.019087612767066 0 0 0 0 10.618087077304267 7.6571487882538349 0 7.6571487882538349 -31.034855025878642 0 0 0 0 10.535218093383927 12.310895153124505 0 12.310895153124505 -0.019166917836230368 0 0 0 0 24.298076875397125 60.865820786579803 0 60.865820786579803 -50.64563391505223 0 0 0 0 28.829127891213716 -9.5395243225357262 0 -9.5395243225357262 -67.800187744374853 0 0 0 0 40.25432451353447 22.471721828493173 0 22.471721828493173 -55.596996229069191 0 0 0 0 40.03461612333161 48.789466796593729 0 48.789466796593729 -13.584934245067416 0 0 0 0 34.640012434380367 362.37135597168526 0 362.37135597168526 453.56634980844683 0 0 0 0 -220.03729721357257 140.2833108584673 0 140.2833108584673 501.7547164799762 0 0 0 0 -1.5974530095333082 1.958326645930839 0 1.958326645930839 8.5553287122048687 0 0 0 0 27.254311613787195 97.532865267548914 0 97.532865267548914 217.87741726479726 0 0 0 0 176.00823227879755 175.87626481752523 0 175.87626481752523 229.03077972948086 0 0 0 0 -99.753648199033705 456.41483046526264 0 456.41483046526264 161.32227800265537 0 0 0 0 382.478231112701 131.95493457877456 0 131.95493457877456 229.88537908854778 0 0 0 0 125.31233966407973 243.89558678275353 0 243.89558678275353 152.39482821374258 0 0 0 0 -95.59832259482755 244.48749782975938 0 244.48749782975938 350.51132632543158 0 0 0 0 -472.64884401950621 204.12877529123216 0 204.12877529123216 -38.536852469973383 0 0 0 0 -410.65447525768468 350.55564034063718 0 350.55564034063718 91.833494431630243 0 0 0 0 -342.98072089875495 114.05841533539933 0 114.05841533539933 -298.93724002366071 0 0 0 0 416.35914126549505 134.66447419986071 0 134.66447419986071 51.878316245216411 0 0 0 0 -236.80460489365396 290.83776006402331 0 290.83776006402331 -167.07058381085517 0 0 0 0 0.29868533495820415 -0.53900096164737832 0 -0.53900096164737832 0.63640547858585705 0 0 0 0 927.0773149788738 476.51763769715035 0 476.51763769715035 -229.76517379732104 0 0 0 0 -1067.692411896589 98.138015534699662 0 98.138015534699662 -125.2779004904296 0 0 0 0 -587.16626007087825 459.92002566382507 0 459.92002566382507 -106.40077658364316 0 0 0 0 278.40201313527814 585.70824373049982 0 585.70824373049982 70.080962523585185 0 0 0 0 -200.15493023820471 347.42482183943105 0 347.42482183943105 -46.163068895926699 0 0 0 0 -200.68987827426645 422.06669910417986 0 422.06669910417986 -103.81919769915658 0 0 0 0 -450.07589199890572 346.00329117912406 0 346.00329117912406 0.016677538165822625 0 0 0 0 -19.216876988269178 169.035819447432 0 169.035819447432 -472.51199093874311 0 0 0 0 -2.2500311841307257 5.1595191047114781 0 5.1595191047114781 -1.414825705035355 0 0 0 0 109.65206953593133 148.73233525651449 0 148.73233525651449 -175.600201078385 0 0 0 0 -142.79082427039975 333.8847457655429 0 333.8847457655429 -132.5986312199384 0 0 0 0 -81.663450698302313 268.91993296358123 0 268.91993296358123 -0.20111974491737783 0 0 0 0 -126.56772239006114 192.98125127681124 0 192.98125127681124 -113.24061521974727 0 0 0 0 -159.99235660836553 179.66749464549866 0 179.66749464549866 -0.055899794999277219 0 0 0 0 -85.525758205772945 135.39982148950367 0 135.39982148950367 -133.64526017200842 0 0 0 0 -27.895816363971335 39.562599858109024 0 39.562599858109024 -120.96413228362508 0 0 0 0 -38.586069976257249 50.583219434760395 0 50.583219434760395 -95.644898084108718 0 0 0 0 -50.425993241220567 66.830744733419124 0 66.830744733419124 -0.10341694674571045 0 0 0 0 -30.698479571265125 47.514450121714617 0 47.514450121714617 -52.342068305384601 0 0 0 0 -23.874066683598357 29.34724071760138 0 29.34724071760138 0.022303029763861559 0 0 0 0 -28.010237815189612 36.099468620748667 0 36.099468620748667 -8.1736982979637105 0 0 0 0 -20.089614690692542 33.318391727414564 0 33.318391727414564 -14.01752592754201 0 0 0 0 -57.193953368925577 16.137755965522956 0 16.137755965522956 -5.227751068858197 0 0 0 0 -13.754315560901887 10.386690744417137 0 10.386690744417137 -30.609549325563421 0 0 0 0 -82.432800218946795 -0.34859655868058326 0 -0.34859655868058326 162.34523839855683 0 0 0 0 -56.72653132270807 -0.33926055731717497 0 -0.33926055731717497 137.70172492459824 0 0 0 0 -37.178835444618016 12.937629888459924 0 12.937629888459924 -16.570858463062905 0 0 0 0 -24.372234626784408 7.3806339857420653 0 7.3806339857420653 -2.113451269421077 0 0 0 0 -26.906417748772583 -5.0003968790988438 0 -5.0003968790988438 119.65743318740715 0 0 0 0 -67.78785089259145 51.057799901551334 0 51.057799901551334 85.957559124202817 0 0 0 0 -60.664384538220474 51.812927149061579 0 51.812927149061579 83.697373319475446 0 0 0 0 -17.622720131081223 150.32273700792575 0 150.32273700792575 165.85480029869359 0 0 0 0 -67.786485187744688 39.799834334435218 0 39.799834334435218 201.30959059210727 0 0 0 0 258.89143342489342 381.14247555100883 0 381.14247555100883 356.63848234072066 0 0 0 0 -42.436991388704882 -37.980044258962153 0 -37.980044258962153 504.0467069053775 0 0 0 0 255.48441347976546 356.89247310523933 0 356.89247310523933 244.70355276411283 0 0 0 0 161.82422677548595 -197.23124727833419 0 -197.23124727833419 214.22067611649982 0 0 0 0 -49.369938604778781 80.693154939741362 0 80.693154939741362 221.07271574385231 0 0 0 0 -11.341601966318713 7.4391888587223889 0 7.4391888587223889 -1.6859672359664586 0 0 0 0 159.42831189761546 -74.458110633553588 0 -74.458110633553588 -40.820557169514359 0 0 0 0 12.724987808779133 9.9586287124979549 0 9.9586287124979549 5.5880461655183069 0 0 0 0 -61.630126048490638 -3.1596859265118837 0 -3.1596859265118837 -38.230158624413889 0 0 0 0 42.342740500345826 -140.7814272884134 0 -140.7814272884134 74.200949259626213 0 0 0 0 1.4723760507476982 -20.762104139779694 0 -20.762104139779694 32.622509970475221 0 0 0 0 -49.39053472460364 25.416764721318032 0 25.416764721318032 -6.5444393323996337 0 0 0 0 -86.723751095043554 -22.363650113249605 0 -22.363650113249605 126.63395126507385 0 0 0 0 -35.927881879289998 -19.683744390189531 0 -19.683744390189531 0.37832672719378024 0 0 0 0 -65.721103854582907 -45.956494205260242 0 -45.956494205260242 -14.062736694744672 0 0 0 0 -16.024074241362541 26.23814346526342 0 26.23814346526342 -31.43245074225706 0 0 0 0 -31.192537605198595 -13.162301202355593 0 -13.162301202355593 -43.508384220825974 0 0 0 0 22.849425569678715 -14.786913029798598 0 -14.786913029798598 -69.464475052074704 0 0 0 0 -0.84649717146385228 77.940721393490094 0 77.940721393490094 -8.987336046899145 0 0 0 0 -0.23966702837578424 -2.3379599524299977 0 -2.3379599524299977 2.655198168148388 0 0 0 0 -16.747434734956187 23.452812459727284 0 23.452812459727284 -15.240822267820477 0 0 0 0 -15.78276549389193 20.95209437891026 0 20.95209437891026 -13.441882434446597 0 0 0 0 -4.8502925720903534 5.8109532957361694 0 5.8109532957361694 5.5280931050964739 0 0 0 0 -15.612638025972046 21.726840315255686 0 21.726840315255686 -22.648701276804786 0 0 0 0 -16.888723449928875 23.308703816641355 0 23.308703816641355 -15.371247355738888 0 0 0 0 -23.394458481658148 12.427394578480744 0 12.427394578480744 -0.14942120511841495 0 0 0 0 -20.888378751164055 28.143432853423292 0 28.143432853423292 -14.891739430575399 0 0 0 0 -7.0912664510397008 29.687367580714636 0 29.687367580714636 -15.416841997139272 0 0 0 0 21.051250875359983 54.215243271435611 0 54.215243271435611 -13.763819192958181 0 0 0 0 -19.365961259369215 38.297712882515043 0 38.297712882515043 -18.923157318029553 0 0 0 0 -35.662501851633785 16.912841732336489 0 16.912841732336489 2.7369624561835337 0 0 0 0 -84.310787738775616 87.308865093626082 0 87.308865093626082 80.030258083934314 0 0 0 0 33.748460052789596 36.384248144924641 0 36.384248144924641 47.493315041829192 0 0 0 0 -41.223205606102056 69.400625560720073 0 69.400625560720073 58.764993421034887 0 0 0 0 -2.5334778490356626 2.8279912222718906 0 2.8279912222718906 2.8344087521801953 0 0 0 0 6.9576180409712833 29.887829855812015 0 29.887829855812015 -33.364869175537024 0 0 0 0 -22.51232795325592 66.645094730620713 0 66.645094730620713 69.881872343277792 0 0 0 0 -98.701877871952092 68.172270178023609 0 68.172270178023609 78.453099438134814 0 0 0 0 -79.275195854226695 102.42981594610319 0 102.42981594610319 28.596699349407572 0 0 0 0 -87.728773128535977 63.67891803351813 0 63.67891803351813 19.712941889360081 0 0 0 0 -66.653090087766032 93.11506853546598 0 93.11506853546598 -29.062953212065622 0 0 0 0 75.559839599525731 27.674783926442615 0 27.674783926442615 29.169203014549566 0 0 0 0 -101.17503600443115 79.995871853810968 0 79.995871853810968 76.859899209899595 0 0 0 0 93.452479001360189 13.753882448057993 0 13.753882448057993 24.603426744579338 0 0 0 0 44.318204793940914 46.779239899213394 0 46.779239899213394 17.741901023104731 0 0 0 0 93.161588422321074 29.258212881701184 0 29.258212881701184 22.040730488399277 0 0 0 0 -21.664500010563643 15.93548948285752 0 15.93548948285752 27.588705913134618 0 0 0 0 -9.631116221746197 -6.5449185900797602 0 -6.5449185900797602 69.414772203701432 0 0 0 0 75.801663167457775 10.006551226133524 0 10.006551226133524 34.082988473586738 0 0 0 0 8.9441108030005125 -37.587037869307096 0 -37.587037869307096 -63.178129025327507 0 0 0 0 10.523159555537852 2.8089634698527277 0 2.8089634698527277 -4.5344551044979085 0 0 0 0 5.8776734378728364 13.288823176958971 0 13.288823176958971 8.8891137671510023 0 0 0 0 12.808851877318375 31.117794411140494 0 31.117794411140494 -9.1502794205152895 0 0 0 0 25.271583765358017 27.398054868906229 0 27.398054868906229 15.67101902336573 0 0 0 0 16.577594744238105 26.817834774373409 0 26.817834774373409 45.230847343267669 0 0 0 0 -6.529774944363453 149.04355186970497 0 149.04355186970497 -40.865636702917982 0 0 0 0 7.9815942265959166 89.34345800326264 0 89.34345800326264 -103.65353811418754 0 0 0 0 -17.213237781557837 135.16547403333243 0 135.16547403333243 17.52151627081912 0 0 0 0 35.63408610051556 142.9404278730799 0 142.9404278730799 -153.70528830090188 0 0 0 0 64.304983345093206 57.869402290991275 0 57.869402290991275 -42.836839971976588 0 0 0 0 86.10180553823011 91.817048468918074 0 91.817048468918074 -196.33385644558939 0 0 0 0 93.197578214254463 37.879885895425105 0 37.879885895425105 -84.664295939990552 0 0 0 0 -14.404567189558293 60.335480016234214 0 60.335480016234214 104.08046406085487 0 0 0 0 -166.43279444333166 -311.41063613689039 0 -311.41063613689039 -456.21174263319699 0 0 0 0 60.310651253795243 41.31084932745884 0 41.31084932745884 -10.629082354661058 0 0 0 0 35.166855650706566 -92.001059530855855 0 -92.001059530855855 -130.66389318150686 0 0 0 0 86.404511245025788 26.30584113439545 0 26.30584113439545 -139.8944304935867 0 0 0 0 13.077151618083946 5.8997885347635872 0 5.8997885347635872 -0.56789757340436609 0 0 0 0 40.451389645502786 -7.1932499047543388 0 -7.1932499047543388 -174.75480936688837 0 0 0 0 -27.689366059334134 -79.048290225269739 0 -79.048290225269739 -79.942008876940235 0 0 0 0 -9.2819662675028667 -74.051747639488894 0 -74.051747639488894 -55.538198642316274 0 0 0 0 26.58828948768496 -51.026794492499903 0 -51.026794492499903 -100.26695619715611 0 0 0 0 -10.905426391445872 -78.71945210078411 0 -78.71945210078411 5.92307742749108 0 0 0 0 76.11587651980517 -115.39036083270912 0 -115.39036083270912 -72.60040476260474 0 0 0 0 78.982152772143309 551.98286771903804 0 551.98286771903804 -353.63880825067463 0 0 0 0 539.08069594298286 390.27246648770233 0 390.27246648770233 -589.07598071568646 0 0 0 0 145.41418147966397 712.72785832064619 0 712.72785832064619 -847.29468264669413 0 0 0 0 112.09515260646413 317.0891728588731 0 317.0891728588731 -342.5401252200827 0 0 0 0 109.99458943442733 292.64551903248503 0 292.64551903248503 -522.10755516690551 0 0 0 0 57.751471814204706 162.47269387614506 0 162.47269387614506 -197.56883883129149 0 0 0 0 121.66098612299538 120.35175753737713 0 120.35175753737713 -392.46780934842536 0 0 0 0 54.18843094937256 126.92114535804831 0 126.92114535804831 -169.47119982552249 0 0 0 0 -131.55151466050302 162.30052255114788 0 162.30052255114788 -45.056993946433067 0 0 0 0 -73.011967643105891 286.76449404511368 0 286.76449404511368 -285.65294977444137 0 0 0 0 -232.56222630407865 577.85115756186133 0 577.85115756186133 -229.7161996452196 0 0 0 0 -79.296157488759491 476.94488561447361 0 476.94488561447361 -386.29938657952152 0 0 0 0 -440.72921186596795 319.46449100779137 0 319.46449100779137 -70.181054088505334 0 0 0 0 -332.61271677641344 314.51315008184974 0 314.51315008184974 -119.91267646092456 0 0 0 0 5.6242612925121662 13.324054290946094 0 13.324054290946094 28.389199012253016 0 0 0 0 231.81106653559982 -44.574412400950678 0 -44.574412400950678 11.405821899286821 0 0 0 0 86.56958570509596 -21.186156052761362 0 -21.186156052761362 83.971413761610165 0 0 0 0 48.77602958373889 52.45496248551715 0 52.45496248551715 26.870503239985112 0 0 0 0 -130.94444777203512 105.06953474149122 0 105.06953474149122 45.667110657086596 0 0 0 0 -146.28624390081131 176.64217607770115 0 176.64217607770115 0.0012056178820785135 0 0 0 0 88.341732698331043 64.952432740717995 0 64.952432740717995 44.37358405708801 0 0 0 0 227.3467140536668 47.507063019409543 0 47.507063019409543 -39.819092913254281 0 0 0 0 527.99822935337579 -52.878137148902169 0 -52.878137148902169 -103.6184682714229 0 0 0 0 1.4021695724575096 3.8407174585409791 0 3.8407174585409791 9.4609082039891064 0 0 0 0 38.694419221072167 92.732225717234542 0 92.732225717234542 73.265809414137038 0 0 0 0 -567.12316734610795 213.44927150344301 0 213.44927150344301 -102.86064707483456 0 0 0 0 -1207.3580638645799 872.23900228564162 0 872.23900228564162 44.830267641244063 0 0 0 0 -879.11619732363761 243.1677329698723 0 243.1677329698723 79.406908166594803 0 0 0 0 -997.3154604370211 569.486617255694 0 569.486617255694 -386.8726469365356 0 0 0 0 -899.21716734617644 672.74322150328362 0 672.74322150328362 -294.62868320930284 0 0 0 0 -533.02837562477362 436.4068093175083 0 436.4068093175083 -198.87691340010497 0 0 0 0 -700.39004700077203 381.82315939709224 0 381.82315939709224 -84.08343503929791 0 0 0 0 -105.84258002600109 645.64465566033323 0 645.64465566033323 -200.21502532176964 0 0 0 0 -655.03547427534795 698.55661823018818 0 698.55661823018818 -201.03868235636037 0 0 0 0 -752.68056048513245 897.81668760766479 0 897.81668760766479 -822.50734869251028 0 0 0 0 -886.07390034743003 944.65607985237148 0 944.65607985237148 -479.34445727639832 0 0 0 0 -165.86274632350978 770.31493117482751 0 770.31493117482751 -438.56300650513731 0 0 0 0 -766.5131427618544 1313.818108635438 0 1313.818108635438 -394.01635377443745 0 0 0 0 -173.12015169744097 1566.1162603939122 0 1566.1162603939122 -385.01645666509285 0 0 0 0 -566.67510576784844 767.56277056917315 0 767.56277056917315 -956.32252678167424 0 0 0 0 10.557430443010048 8.6340434915957474 0 8.6340434915957474 6.1734231275651723 0 0 0 0 1407.0516516718635 1125.2989305297087 0 1125.2989305297087 -763.27917013154365 0 0 0 0 83.922714263710986 144.41262269219442 0 144.41262269219442 -31.862981768732425 0 0 0 0 195.06000871590732 234.12947885345238 0 234.12947885345238 40.556239600817207 0 0 0 0 249.14045144311467 64.135384017470642 0 64.135384017470642 -87.639725845700013 0 0 0 0 97.785044351096303 107.30177702804212 0 107.30177702804212 -70.786927833498339 0 0 0 0 496.96769045986559 48.633642227388918 0 48.633642227388918 -9.5658719500206644 0 0 0 0 119.45084575602209 4.7914339714188827 0 4.7914339714188827 -5.1753485598019324 0 0 0 0 48.085621155527406 150.48921953639365 0 150.48921953639365 122.2070258500753 0 0 0 0 15.433225649161614 122.65519303032488 0 122.65519303032488 48.480478253943147 0 0 0 0 48.081934635855461 152.33665422480564 0 152.33665422480564 75.305222108290764 0 0 0 0 -74.718742168673998 100.67308491702715 0 100.67308491702715 -10.234504043211928 0 0 0 0 -75.813783362458707 123.43976207677042 0 123.43976207677042 36.892793918043026 0 0 0 0 -52.000215015847971 88.372122110507917 0 88.372122110507917 76.116703162901103 0 0 0 0 -28.2076401788363 153.78019988685264 0 153.78019988685264 50.295185274022515 0 0 0 0 -107.90537249216504 177.14815304020885 0 177.14815304020885 -2.6005266101710731 0 0 0 0 51.318307797192411 56.044492000625738 0 56.044492000625738 35.997305830411165 0 0 0 0 -14.977637358137144 162.75737062438566 0 162.75737062438566 -36.696935925814614 0 0 0 0 81.921746850458476 159.27259304125619 0 159.27259304125619 -27.677682741777971 0 0 0 0 -14.584970734696071 171.68750355367956 0 171.68750355367956 39.385787765881105 0 0 0 0 66.972160656252527 139.6955897481821 0 139.6955897481821 -30.108655899151927 0 0 0 0 46.340381761661774 168.09433715540217 0 168.09433715540217 -45.159481651979149 0 0 0 0 29.892711138076265 162.797083853613 0 162.797083853613 -26.141935449770244 0 0 0 0 6.7370777941200686 120.42720795030618 0 120.42720795030618 -31.541394532192498 0 0 0 0 -93.434988394998527 248.63639384181806 0 248.63639384181806 86.002427778410492 0 0 0 0 47.953575496837509 67.470411004818928 0 67.470411004818928 33.565153099250438 0 0 0 0 -96.452163733309135 279.06284466291254 0 279.06284466291254 306.19388912714203 0 0 0 0 23.569930356349687 138.29732351750135 0 138.29732351750135 -22.684701551057515 0 0 0 0 33.534970086578824 94.955458448959689 0 94.955458448959689 35.620191333757248 0 0 0 0 78.374541513269833 139.34609860879573 0 139.34609860879573 -70.333944086189149 0 0 0 0 2.7009305479065642 15.582144131555168 0 15.582144131555168 28.267746046477725 0 0 0 0 21.270681391318881 58.111491506911307 0 58.111491506911307 -30.43242782889331 0 0 0 0 42.923974092613207 60.851071257027797 0 60.851071257027797 24.566871109302156 0 0 0 0 47.41764573629996 35.629416404727181 0 35.629416404727181 -35.676314380200864 0 0 0 0 151.10673007615333 -46.830800061376067 0 -46.830800061376067 -84.516069679113571 0 0 0 0 320.52892722700199 367.53857633247389 0 367.53857633247389 161.82147989328951 0 0 0 0 236.61270460343803 361.87696768250316 0 361.87696768250316 177.54961804150662 0 0 0 0 189.38384470879464 344.50109746176167 0 344.50109746176167 184.83291607091087 0 0 0 0 62.772042764194339 214.32988305483013 0 214.32988305483013 13.131415622774512 0 0 0 0 24.098383027573554 56.030054403814688 0 56.030054403814688 -75.867713441340214 0 0 0 0 158.20062205238719 385.29001751594478 0 385.29001751594478 207.62334177311277 0 0 0 0 160.27632380289651 354.68830182348029 0 354.68830182348029 219.21299838274717 0 0 0 0 178.83547070490749 339.97443912549352 0 339.97443912549352 211.35090636623499 0 0 0 0 86.959086040062175 150.02165830673766 0 150.02165830673766 -34.853431009789347 0 0 0 0 58.515791074385561 133.98561892399448 0 133.98561892399448 50.134870976486127 0 0 0 0 72.9376124303094 97.652858712885063 0 97.652858712885063 -31.725528056587791 0 0 0 0 126.44542728457236 131.5654652385856 0 131.5654652385856 -53.081851768482011 0 0 0 0 126.55769692030162 84.911496504792012 0 84.911496504792012 -99.443653428985272 0 0 0 0 94.622859956931279 51.61044535972178 0 51.61044535972178 -94.504988527711248 0 0 0 0 23.018801339880682 55.69013783596148 0 55.69013783596148 -69.791852860722031 0 0 0 0 -10.25457082142384 281.73716687047272 0 281.73716687047272 371.31326622997585 0 0 0 0 -26.382919441935883 151.58073407648772 0 151.58073407648772 231.60924695373978 0 0 0 0 118.12024065855258 177.8096445136689 0 177.8096445136689 299.97429518037825 0 0 0 0 7.4114438148917543 254.86766432509467 0 254.86766432509467 246.98279994464247 0 0 0 0 -46.676979129904794 184.29781471990282 0 184.29781471990282 231.60514632891864 0 0 0 0 -73.101357892609144 209.56432526326671 0 209.56432526326671 207.47244858456543 0 0 0 0 -78.661006770962558 107.23480825885781 0 107.23480825885781 161.89353097544517 0 0 0 0 -63.968948282763449 134.0903110227664 0 134.0903110227664 136.85026145682787 0 0 0 0 -127.30180048933107 218.43773206162587 0 218.43773206162587 243.89152880816255 0 0 0 0 -152.68465274914161 165.57658432355674 0 165.57658432355674 127.45112045819405 0 0 0 0 -134.78842523726962 50.377531612379244 0 50.377531612379244 95.784329294081545 0 0 0 0 145.99599510820917 427.22457605868112 0 427.22457605868112 321.95869819034124 0 0 0 0 -36.088168896323623 290.32852113904664 0 290.32852113904664 321.52331390296627 0 0 0 0 254.62396337720293 421.84224269673723 0 421.84224269673723 217.20423864765326 0 0 0 0 8.3602845788700506 335.98297859428567 0 335.98297859428567 267.57471994776279 0 0 0 0 66.943117270353468 289.27896845962823 0 289.27896845962823 228.17360679784906 0 0 0 0 -146.47493281904462 97.150242279021768 0 97.150242279021768 232.18517021302978 0 0 0 0 3.975497491643182 295.2548587226338 0 295.2548587226338 235.36241391004296 0 0 0 0 17.116760448345303 58.100258264712465 0 58.100258264712465 626.80412379725021 0 0 0 0 140.90772498352089 556.24380226029461 0 556.24380226029461 686.21600237351959 0 0 0 0 -139.71056289952321 129.77325685354299 0 129.77325685354299 34.415451281628521 0 0 0 0 53.965770992468606 203.35919755055511 0 203.35919755055511 37.377838454616722 0 0 0 0 -198.75410635001481 49.546107246555039 0 49.546107246555039 -68.517287593305809 0 0 0 0 -82.804152798309588 159.54617495262937 0 159.54617495262937 -264.51778185059084 0 0 0 0 -216.55353061752976 61.988847063243156 0 61.988847063243156 -322.88640319141268 0 0 0 0 -213.21962766051695 327.86218616088354 0 327.86218616088354 -347.09893320483388 0 0 0 0 140.19567294446824 161.95482104073744 0 161.95482104073744 -331.07713353729923 0 0 0 0 -165.77816321430146 24.420410838065436 0 24.420410838065436 -14.836235316906823 0 0 0 0 -154.90756160128285 122.72830353678091 0 122.72830353678091 -108.87877909594681 0 0 0 0 -101.84270160465712 179.96292657247977 0 179.96292657247977 -9.8491959559323732 0 0 0 0 -168.27285593597844 48.717809809735627 0 48.717809809735627 36.47143823550141 0 0 0 0 -222.13251177242455 49.728474085102789 0 49.728474085102789 -133.77573679511988 0 0 0 0 -144.28033339541071 106.12749689430348 0 106.12749689430348 -343.64338721946115 0 0 0 0 -147.86882528378919 -5.3187068015395198 0 -5.3187068015395198 -278.49511474155588 0 0 0 0 -237.3592650369028 160.36724317276094 0 160.36724317276094 -647.87754494603359 0 0 0 0 -160.23028568828113 138.5714322901149 0 138.5714322901149 -388.97848375773174 0 0 0 0 -151.475689073377 0.30465571470267605 0 0.30465571470267605 -623.6483013720499 0 0 0 0 -288.4525080234971 104.52987283607217 0 104.52987283607217 -338.52108958788449 0 0 0 0 -175.26015378462489 212.50071284428122 0 212.50071284428122 -605.90735373311327 0 0 0 0 -43.668997509437759 286.78002790511528 0 286.78002790511528 -641.72149056273702 0 0 0 0 -449.07721583531747 441.31800944702263 0 441.31800944702263 -616.56515443825629 0 0 0 0 -287.60635428026762 389.81822999592987 0 389.81822999592987 -922.31479614088312 0 0 0 0 -427.7289954172702 140.32762968733732 0 140.32762968733732 -612.6976068134536 0 0 0 0 -447.1648632928509 349.56598168754135 0 349.56598168754135 -1116.1013468917226 0 0 0 0 -479.3495849279243 401.69420663590427 0 401.69420663590427 -873.27518158662133 0 0 0 0 -719.11386230284916 442.22868943958019 0 442.22868943958019 -857.24738050495216 0 0 0 0 -579.46791561560985 692.07231442777993 0 692.07231442777993 -1243.2269622001913 0 0 0 0 -744.51544293781808 963.00971604062943 0 963.00971604062943 -1814.0836750881572 0 0 0 0 -928.7642687210755 644.00819156727812 0 644.00819156727812 -939.39394741327851 0 0 0 0 -370.32684135346994 50.426310116872628 0 50.426310116872628 -727.03005153551931 0 0 0 0 -222.57745962966874 254.51227681725868 0 254.51227681725868 -894.53590004843136 0 0 0 0 71.991031704310444 33.44017064027139 0 33.44017064027139 -15.581916534865741 0 0 0 0 -400.55135266095385 1070.8169607332529 0 1070.8169607332529 -1451.3896123743725 0 0 0 0 82.918828613580644 34.141649285930882 0 34.141649285930882 -3.6875640700508256 0 0 0 0 -418.49329152300197 1112.5601574645116 0 1112.5601574645116 -1440.0233561208988 0 0 0 0 -479.54723877894503 1365.4192071967118 0 1365.4192071967118 -1590.3618292100437 0 0 0 0 -1215.7912571561292 1088.3442038914145 0 1088.3442038914145 -1196.2396951137634 0 0 0 0 -972.2393052860898 553.21687473519705 0 553.21687473519705 -1291.9651768390322 0 0 0 0 -802.45012977012448 702.85637460803264 0 702.85637460803264 -964.39862287620781 0 0 0 0 -610.57425363381481 1020.0669697945123 0 1020.0669697945123 -1194.8761008463653 0 0 0 0 -555.3115902247082 910.59919054823695 0 910.59919054823695 -1025.8201584735943 0 0 0 0 -466.66103203639886 927.20045036501688 0 927.20045036501688 -1025.0892587514245 0 0 0 0 -231.29104474633277 581.12249411578523 0 581.12249411578523 -964.38911314973882 0 0 0 0 -129.97344236388017 596.22047762088187 0 596.22047762088187 -803.4804852277739 0 0 0 0 -421.28856739626644 1095.4758610912832 0 1095.4758610912832 -979.98401450170786 0 0 0 0 -701.03965127571792 902.02501803668565 0 902.02501803668565 -1112.6942101744935 0 0 0 0 -587.37808427375785 821.40743900649977 0 821.40743900649977 -436.75579369679326 0 0 0 0 12.102397213198856 872.25166745735623 0 872.25166745735623 -640.80008142386214 0 0 0 0 -331.77000585104906 710.76205406894587 0 710.76205406894587 -713.62349109968636 0 0 0 0 -16.388965328165796 784.09039451595163 0 784.09039451595163 -357.33331261957574 0 0 0 0 -419.13199296998937 952.14178927050671 0 952.14178927050671 -346.94617943168851 0 0 0 0 -213.11846779753796 732.79266817038661 0 732.79266817038661 -616.31682725102291 0 0 0 0 329.3199829468831 445.55381221981952 0 445.55381221981952 -522.54323632316664 0 0 0 0 588.83349529144471 763.14443457858579 0 763.14443457858579 -169.42555000539869 0 0 0 0 -122.06400602279973 651.72858858955442 0 651.72858858955442 -186.02268716646358 0 0 0 0 -75.663690976969519 420.39654847725615 0 420.39654847725615 -157.65913432184607 0 0 0 0 719.0093862342801 101.78551816400432 0 101.78551816400432 -79.497309639278683 0 0 0 0 125.21706912529226 11.989493097411469 0 11.989493097411469 737.26418102960452 0 0 0 0 -15.48730342649651 607.24270214690478 0 607.24270214690478 548.13286588230403 0 0 0 0 -0.74977293381656906 22.359572584002706 0 22.359572584002706 -17.356289006579061 0 0 0 0 1.033776865841844 99.314191666074834 0 99.314191666074834 -66.006450725362185 0 0 0 0 771.43865805755195 236.35567226591229 0 236.35567226591229 -45.26116777502466 0 0 0 0 586.6920270333685 647.44639086991083 0 647.44639086991083 274.52015650720568 0 0 0 0 251.17092368842441 405.594357474969 0 405.594357474969 141.01150237355614 0 0 0 0 78.349901247696835 211.69908415534883 0 211.69908415534883 -89.063774438749533 0 0 0 0 -24.956060072511832 51.64982800369765 0 51.64982800369765 -60.642171988605014 0 0 0 0 -10.171505002814229 319.73118503086152 0 319.73118503086152 67.60418522747932 0 0 0 0 63.440996548783005 48.876722092289128 0 48.876722092289128 43.159889299131464 0 0 0 0 -52.61830628260941 -96.625340451835655 0 -96.625340451835655 -125.31281309428596 0 0 0 0 -5.8836372983497114 33.322828938758931 0 33.322828938758931 -12.512199160954196 0 0 0 0 -66.232523580554698 -124.12611521406507 0 -124.12611521406507 340.44741215107933 0 0 0 0 -1386.9733617940656 417.34331025852589 0 417.34331025852589 -94.030981328411144 0 0 0 0 591.84218039546977 111.63874835470051 0 111.63874835470051 -289.54533407694544 0 0 0 0 165.40657410531821 -21.548905854457189 0 -21.548905854457189 -1530.0008665221394 0 0 0 0 -7.4569541817368048 6.1005313908916037 0 6.1005313908916037 -5.1605474196825298 0 0 0 0 -914.64975522478198 710.17788099696918 0 710.17788099696918 -442.54141388155404 0 0 0 0 -998.01118838067123 1003.4955377278129 0 1003.4955377278129 -805.32424642617116 0 0 0 0 -961.93451986458967 688.99081116329762 0 688.99081116329762 -1436.4389751225826 0 0 0 0 -712.69149565939733 1279.1942671077559 0 1279.1942671077559 -1346.3800817213487 0 0 0 0 -871.24090785587032 1570.5276387219783 0 1570.5276387219783 -1731.8422657614574 0 0 0 0 -1094.5709333417253 1634.608720451899 0 1634.608720451899 -1046.8873932531569 0 0 0 0 -710.79144439745312 1228.1598728421552 0 1228.1598728421552 -1713.0512904228817 0 0 0 0 -1113.6034749635364 842.23116274291533 0 842.23116274291533 -700.65137252895511 0 0 0 0 8.509620744490789 31.025402022429205 0 31.025402022429205 16.694107678261162 0 0 0 0 -0.3141456382254546 51.420168324930273 0 51.420168324930273 -6.7673541336553171 0 0 0 0 -773.88825217530393 629.78300862920878 0 629.78300862920878 -1579.61969092855 0 0 0 0 -930.84995787628577 556.58429491971037 0 556.58429491971037 -959.14894803868083 0 0 0 0 -1356.2459444965061 1478.804180299252 0 1478.804180299252 -700.27320330310613 0 0 0 0 -658.58378724102658 1628.7010930817196 0 1628.7010930817196 -1023.3202124647942 0 0 0 0 -22.196016766047606 56.655158426063906 0 56.655158426063906 -64.845037481097108 0 0 0 0 -2122.6040303272603 1599.5955758733035 0 1599.5955758733035 -817.00771231950785 0 0 0 0 -545.4751853190653 1042.8943876492685 0 1042.8943876492685 -1128.9484643924225 0 0 0 0 2517.2365699745351 14.455475343354919 0 14.455475343354919 -351.95567742609273 0 0 0 0 84.771476008879745 -455.15076644979581 0 -455.15076644979581 695.16064875901793 0 0 0 0 18.861832456925185 310.72953287856944 0 310.72953287856944 -82.565574161388213 0 0 0 0 -763.76010881599359 1137.0864819785929 0 1137.0864819785929 -1279.9800800864614 0 0 0 0 -176.36513087598723 609.81499012780841 0 609.81499012780841 -1698.2512644973176 0 0 0 0 20.706228549138274 24.93788207742827 0 24.93788207742827 11.634285282397002 0 0 0 0 -1163.7622962207533 895.76434464578051 0 895.76434464578051 -781.64408176127472 0 0 0 0 5.0075581416459443 5.9600200399974597 0 5.9600200399974597 -0.82558941120555573 0 0 0 0 -1547.2175167675741 1803.6912537250028 0 1803.6912537250028 -1020.9287017549796 0 0 0 0 1.2898123839586333 53.82066979760566 0 53.82066979760566 -12.567330590973143 0 0 0 0 -10.822163791968968 34.040865248096793 0 34.040865248096793 -26.381191878857294 0 0 0 0 -40.570451162733661 -174.99934950024181 0 -174.99934950024181 177.09215371296159 0 0 0 0 989.42311327015341 119.10879135288997 0 119.10879135288997 -204.00951444853945 0 0 0 0 384.33657506272357 -220.25110514594417 0 -220.25110514594417 15.418008863052819 0 0 0 0 1686.7289278121607 -87.530707110330695 0 -87.530707110330695 -2.470191226731913 0 0 0 0 236.60431690658152 60.831271265513351 0 60.831271265513351 -61.007240603095852 0 0 0 0 293.55732478503887 137.64747078602522 0 137.64747078602522 -204.49142510793172 0 0 0 0 313.65612219418108 2.2506345761212287 0 2.2506345761212287 -154.63098356469709 0 0 0 0 -1.9411119493161095 62.838516238087323 0 62.838516238087323 -17.648989174762391 0 0 0 0 -434.45241274154978 -27.489639519626508 0 -27.489639519626508 348.88555157123483 0 0 0 0 -6.8770308018520296 2.8139118377998784 0 2.8139118377998784 -0.91033183391641614 0 0 0 0 82.835210551074852 131.38928911271432 0 131.38928911271432 36.76762227533618 0 0 0 0 282.09759865089291 53.707753128073819 0 53.707753128073819 -207.01316863537068 0 0 0 0 -19.62606528320724 35.990418999812761 0 35.990418999812761 -57.570673403922285 0 0 0 0 274.58823556390416 61.804115824605105 0 61.804115824605105 -113.89236836991768 0 0 0 0 -899.77967928637645 1446.0992497464322 0 1446.0992497464322 -1193.8742230846256 0 0 0 0 56.915031826530935 33.022653605992204 0 33.022653605992204 -17.094297392699616 0 0 0 0 -1.8096079841503183 15.896856154116904 0 15.896856154116904 -6.100570520608926 0 0 0 0 -2.2359179710256285 59.447188770180219 0 59.447188770180219 -6.9754285468643502 0 0 0 0 38.888232386678283 42.054538913478609 0 42.054538913478609 -23.239451211571577 0 0 0 0 20.833438399014995 26.31351402355358 0 26.31351402355358 -32.999584682380373 0 0 0 0 35.744193681886827 21.224880696659966 0 21.224880696659966 -4.8101785865437705 0 0 0 0 72.388371494882449 52.959093463156023 0 52.959093463156023 -56.414577627903782 0 0 0 0 42.633893568357962 67.48837244970855 0 67.48837244970855 -38.598125250253361 0 0 0 0 62.551493814607966 57.014454778029176 0 57.014454778029176 -48.754415865376359 0 0 0 0 51.816217040926858 75.612897531922499 0 75.612897531922499 -152.61217693724029 0 0 0 0 36.29402285238757 117.63510020299873 0 117.63510020299873 -92.485551345918793 0 0 0 0 28.56758125095439 7.4665432050605887 0 7.4665432050605887 -192.48417421634076 0 0 0 0 22.910728369975914 164.93052886308942 0 164.93052886308942 -245.7182051470445 0 0 0 0 -1.1073704428054043 155.52915985682921 0 155.52915985682921 -99.196311051229713 0 0 0 0 7.6162453776632901 157.69880594197457 0 157.69880594197457 -105.5983612286218 0 0 0 0 35.756580821584066 128.65354303961794 0 128.65354303961794 -97.438332159057609 0 0 0 0 395.25262541089432 194.67072827570155 0 194.67072827570155 -491.86749081494054 0 0 0 0 146.12850426195655 321.37482183068641 0 321.37482183068641 -215.11861976861837 0 0 0 0 149.49574973520066 299.94790966022993 0 299.94790966022993 -258.40477509688935 0 0 0 0 -10.76181053424294 59.890407105769498 0 59.890407105769498 -70.238861414142036 0 0 0 0 140.90117971859581 275.60732932000246 0 275.60732932000246 -256.14562207914423 0 0 0 0 50.683415139203134 279.3227086411498 0 279.3227086411498 -155.86353984870948 0 0 0 0 76.356575816083932 308.07195770525141 0 308.07195770525141 -123.95347463842882 0 0 0 0 251.49263502735994 -370.59934713301482 0 -370.59934713301482 -1245.202175940969 0 0 0 0 24.424649689113721 48.321258847558056 0 48.321258847558056 -423.22000732604647 0 0 0 0 -60.808479413812165 210.73599836541689 0 210.73599836541689 -213.1463163990702 0 0 0 0 -95.272642474257736 103.75434116533143 0 103.75434116533143 -134.25754014678387 0 0 0 0 -159.69258709542191 261.63080506669939 0 261.63080506669939 -237.72627936204663 0 0 0 0 -260.85981645545689 164.9762222385034 0 164.9762222385034 -152.24105828028405 0 0 0 0 12.626060293318005 139.21822979221179 0 139.21822979221179 -97.717779665437206 0 0 0 0 26.815238384939022 58.046393789363833 0 58.046393789363833 26.403731047700262 0 0 0 0 -68.564211712873657 97.123832916287938 0 97.123832916287938 31.323879932308046 0 0 0 0 -58.496729352111288 177.28082570331026 0 177.28082570331026 -97.294968951580813 0 0 0 0 -34.141560241114348 198.04328894590435 0 198.04328894590435 -4.412342929164879 0 0 0 0 -13.501019514926156 360.10176818719992 0 360.10176818719992 -584.08775947302638 0 0 0 0 -28.700033588276966 90.260255285249343 0 90.260255285249343 -48.299065083051744 0 0 0 0 -94.321314137872832 317.46050181345345 0 317.46050181345345 -326.29494717856869 0 0 0 0 -174.06448045372963 279.26825579689466 0 279.26825579689466 -348.27949089088361 0 0 0 0 3.3964026203175308 261.53468603597867 0 261.53468603597867 -385.64738343597128 0 0 0 0 -107.63453814424793 190.56258727181557 0 190.56258727181557 -191.13962759952119 0 0 0 0 103.93779038764478 159.64057123946259 0 159.64057123946259 -356.2381757148396 0 0 0 0 -42.871427356483764 209.80577062293014 0 209.80577062293014 -195.17529179643316 0 0 0 0 -24.137153062954894 135.12466097791548 0 135.12466097791548 -83.955328691998147 0 0 0 0 -100.04905980292824 433.12970494350157 0 433.12970494350157 -558.66484103650146 0 0 0 0 49.233058382752063 53.001143251238943 0 53.001143251238943 44.729666920746553 0 0 0 0 3.8457841429626569 163.77832148619927 0 163.77832148619927 -103.03797029793714 0 0 0 0 -55.583581903279992 242.84591003069363 0 242.84591003069363 -468.08176420098243 0 0 0 0 -71.434023843139585 322.17060995891734 0 322.17060995891734 -645.94779009812555 0 0 0 0 30.3777151129907 174.09469040708791 0 174.09469040708791 -143.47810401460447 0 0 0 0 2.5003862438024953 157.41220726554093 0 157.41220726554093 -71.639530757442117 0 0 0 0 56.897398724296011 62.636629411741183 0 62.636629411741183 48.856048038812105 0 0 0 0 57.7926216936321 95.188620422442909 0 95.188620422442909 -75.889665150071778 0 0 0 0 94.221198626430123 48.840721050233697 0 48.840721050233697 -16.747235836193795 0 0 0 0 51.186698562672973 98.682690091965924 0 98.682690091965924 -94.032087321829749 0 0 0 0 118.78564115488552 77.492480339940812 0 77.492480339940812 -74.017770235506759 0 0 0 0 65.49074886667799 76.093869687294529 0 76.093869687294529 -21.38802187419202 0 0 0 0 -13.266045712430014 378.90404669481723 0 378.90404669481723 -300.184084434135 0 0 0 0 -283.52194546135797 704.21694391733035 0 704.21694391733035 -364.29116525137215 0 0 0 0 19.08041384474916 138.75740877254975 0 138.75740877254975 80.106395475653699 0 0 0 0 -605.18574831329397 636.51918237126665 0 636.51918237126665 317.50725739382324 0 0 0 0 -110.65187273846414 -283.87454898118449 0 -283.87454898118449 320.67463974758238 0 0 0 0 -709.61681707817479 1312.5166382886528 0 1312.5166382886528 -1008.6561139253754 0 0 0 0 -3.304466958822891 -1.5165780946984171 0 -1.5165780946984171 -3.6711329801629518 0 0 0 0 -1729.0246747007113 834.57538797249435 0 834.57538797249435 500.70454379267176 0 0 0 0 55.886567771143746 127.48072121670702 0 127.48072121670702 -28.095137852287735 0 0 0 0 81.723743836805468 77.876900638262157 0 77.876900638262157 -11.843298300470337 0 0 0 0 -362.05526845569261 200.07531111970457 0 200.07531111970457 115.4836833019508 0 0 0 0 -1438.3835776966446 1120.9504469160511 0 1120.9504469160511 -847.49548272319953 0 0 0 0 162.01782539623673 58.973264123080298 0 58.973264123080298 -38.68200038865325 0 0 0 0 -37.832815430160849 3.8146522532916833 0 3.8146522532916833 0.054767327002878119 0 0 0 0 -1291.4163662618139 672.76248052858864 0 672.76248052858864 -549.74368924566079 0 0 0 0 -989.30684686862151 927.18728157458827 0 927.18728157458827 -1128.1597032986747 0 0 0 0 -1987.5080407507603 2347.4913336158206 0 2347.4913336158206 -1054.2390063563653 0 0 0 0 -1030.6634318851266 674.07866419499624 0 674.07866419499624 229.70194451166026 0 0 0 0 -712.4702385296614 654.25403053934133 0 654.25403053934133 -714.85991862075753 0 0 0 0 -788.4749323779215 345.50183059486153 0 345.50183059486153 -547.90667925140588 0 0 0 0 -1715.4979263182349 1516.1746815269507 0 1516.1746815269507 -1274.9701060977823 0 0 0 0 -1286.0032131200496 899.15733996429481 0 899.15733996429481 -740.13966616908147 0 0 0 0 -754.78757288532631 782.11172774225815 0 782.11172774225815 -1229.1971024141239 0 0 0 0 170.78508037650499 -59.909370216038951 0 -59.909370216038951 -597.32607875339454 0 0 0 0 12.417681751820751 -2.177742967588344 0 -2.177742967588344 -10.236846340244142 0 0 0 0 80.31845954713009 55.732854404509197 0 55.732854404509197 1.2397990631931179 0 0 0 0 85.950809871435922 45.97888578211132 0 45.97888578211132 12.250021529569494 0 0 0 0 64.266390322853113 72.218991428002482 0 72.218991428002482 -19.342920962983044 0 0 0 0 93.586116398670129 60.124488549805392 0 60.124488549805392 -33.207011348684318 0 0 0 0 53.176413488123217 81.883638985193102 0 81.883638985193102 -3.4489464782964205 0 0 0 0 16.659725216206425 129.34526226561866 0 129.34526226561866 -43.856055183248827 0 0 0 0 66.745129469905805 98.384900602977723 0 98.384900602977723 -74.815521166405233 0 0 0 0 60.895407066251209 114.40119452566432 0 114.40119452566432 -21.966281813569367 0 0 0 0 99.528993170009926 98.391124780915561 0 98.391124780915561 10.960200369610448 0 0 0 0 85.301798449094349 72.636876594158821 0 72.636876594158821 -35.468296774663031 0 0 0 0 211.58130966175668 436.14912403676135 0 436.14912403676135 1307.3763445029908 0 0 0 0 684.39034393925976 432.74206777167274 0 432.74206777167274 327.83058182287641 0 0 0 0 485.98099121245468 756.50076422515122 0 756.50076422515122 1118.3336663521477 0 0 0 0 889.55399322097946 809.34816609015979 0 809.34816609015979 1117.6792626209542 0 0 0 0 829.01219119202869 1090.2975787198266 0 1090.2975787198266 2032.3936039275432 0 0 0 0 471.70849766160245 1000.8571332883439 0 1000.8571332883439 1971.2385843530064 0 0 0 0 -54.23428698964068 18.30685322137407 0 18.30685322137407 8.9194852137314911 0 0 0 0 -144.95954992101179 61.308336442205473 0 61.308336442205473 21.421174166549463 0 0 0 0 445.09174764211639 1110.9354205862473 0 1110.9354205862473 1525.3122098950844 0 0 0 0 -45.824665299309459 10.496219616015765 0 10.496219616015765 2.9765923163107857 0 0 0 0 -291.9237663317399 -139.85086999458872 0 -139.85086999458872 1.0971024294412928 0 0 0 0 -127.45825778699873 -10.131136338064607 0 -10.131136338064607 102.635993192147 0 0 0 0 -333.4202578701661 -10.703715307811763 0 -10.703715307811763 177.68100628408138 0 0 0 0 -493.10872044480311 2153.4197253538596 0 2153.4197253538596 479.06652216491057 0 0 0 0 288.94976282389325 796.4271934168919 0 796.4271934168919 1454.7738467589079 0 0 0 0 -41.331918194126047 -294.64512722935615 0 -294.64512722935615 639.25490523966437 0 0 0 0 138.11049818989704 982.51906510425761 0 982.51906510425761 -582.16494623885956 0 0 0 0 -2.9549636815144273 2.2210007412118955 0 2.2210007412118955 -15.775983932898441 0 0 0 0 1035.1981648489891 496.96715579895681 0 496.96715579895681 66.956296559699695 0 0 0 0 -2392.7346533245509 747.57246982408105 0 747.57246982408105 137.07224720755039 0 0 0 0 925.80633272789419 469.7771670673319 0 469.7771670673319 -418.24735113101269 0 0 0 0 344.30176111344736 -96.967535531561225 0 -96.967535531561225 103.14233565320319 0 0 0 0 0.40800926354781097 5.644473853171462 0 5.644473853171462 -3.3990588406389293 0 0 0 0 252.34442286350713 391.87785072746192 0 391.87785072746192 137.92918269403162 0 0 0 0 1191.0615044042788 380.42509207183321 0 380.42509207183321 297.04761712163236 0 0 0 0 847.64372878926224 226.99564579187427 0 226.99564579187427 -97.597363584354753 0 0 0 0 0.52700336099820788 8.4192824984634456 0 8.4192824984634456 -8.6398941710235704 0 0 0 0 668.76539907927508 115.29653251907439 0 115.29653251907439 -103.27926796124848 0 0 0 0 473.40679116179672 154.73807902193766 0 154.73807902193766 11.583173698949395 0 0 0 0 460.48143958844594 56.337919653044082 0 56.337919653044082 -107.21822151297238 0 0 0 0 165.27448531344999 -24.790311891003512 0 -24.790311891003512 -30.589041074426859 0 0 0 0 443.9222546696401 77.138177810978959 0 77.138177810978959 -49.871591261315189 0 0 0 0 546.79131173291535 -33.572336713328696 0 -33.572336713328696 -45.723382623589714 0 0 0 0 770.6037729492673 207.44983102089464 0 207.44983102089464 -85.489299173461404 0 0 0 0 -43.866126398990502 74.749378997324158 0 74.749378997324158 -53.43894262065146 0 0 0 0 99.951329407445883 211.57658169615388 0 211.57658169615388 -169.20755127335724 0 0 0 0 -131.71128265339939 91.665385204651102 0 91.665385204651102 -117.94771638604288 0 0 0 0 43.115325127910182 151.09206616690062 0 151.09206616690062 -39.547290130169131 0 0 0 0 -16.739573920845771 21.662444808988809 0 21.662444808988809 -13.966277410505427 0 0 0 0 -202.75957233726695 233.35893877314629 0 233.35893877314629 -331.65735938277794 0 0 0 0 -211.02412877506868 261.16396741650533 0 261.16396741650533 -316.46411656716373 0 0 0 0 13.888758467964692 6.5623895201745839 0 6.5623895201745839 -6.172511359064174 0 0 0 0 2.5213931708713062 378.11846651160158 0 378.11846651160158 -475.43987501459196 0 0 0 0 -192.89637862771633 163.18161211638653 0 163.18161211638653 -137.58740370300075 0 0 0 0 59.548737336561317 238.35320773131389 0 238.35320773131389 -498.06874025001889 0 0 0 0 -457.64047513384139 571.75349729324807 0 571.75349729324807 -473.88828321092296 0 0 0 0 345.56945101421297 4.4176977477764012 0 4.4176977477764012 -225.5975408568047 0 0 0 0 19.019892507018142 8.4034273816003946 0 8.4034273816003946 -17.389517620912727 0 0 0 0 52.24238611191609 90.169498537527446 0 90.169498537527446 34.613251709978385 0 0 0 0 -138.20290858365479 434.31562724559626 0 434.31562724559626 -643.85164690391684 0 0 0 0 -199.20291604104204 223.37300432902703 0 223.37300432902703 -369.87947750109015 0 0 0 0 -390.56475306043285 346.60397312694113 0 346.60397312694113 -310.69266209285706 0 0 0 0 -232.31579703374882 252.17344436268104 0 252.17344436268104 -295.9899305520812 0 0 0 0 -280.96307241973409 351.3698544325016 0 351.3698544325016 -442.29868162423372 0 0 0 0 -197.39296585624106 273.115232715405 0 273.115232715405 -328.27518375270301 0 0 0 0 37.412414215658217 49.779834645204446 0 49.779834645204446 58.81193344156577 0 0 0 0 -299.66978491099144 282.6736444219714 0 282.6736444219714 -133.86222501199518 0 0 0 0 -139.15118394949241 138.39893260358076 0 138.39893260358076 35.514843969474896 0 0 0 0 210.78192578024755 626.47541534315678 0 626.47541534315678 86.475681952768355 0 0 0 0 -344.16198586646351 371.94444028637372 0 371.94444028637372 -196.43035894130298 0 0 0 0 -334.36938086463624 557.00192301081506 0 557.00192301081506 -219.44481111821369 0 0 0 0 -345.83364846712902 396.31436823392232 0 396.31436823392232 -380.09605896833818 0 0 0 0 -310.09870845255682 240.64143071673971 0 240.64143071673971 -86.616720292833634 0 0 0 0 -13.130655384693227 6.5062536376363482 0 6.5062536376363482 19.629176847809447 0 0 0 0 35.867926083607017 217.45159294282712 0 217.45159294282712 -233.69067934999475 0 0 0 0 -151.28955007743207 379.1000316949212 0 379.1000316949212 -192.06757708567238 0 0 0 0 -38.662816683354322 160.77048296754947 0 160.77048296754947 -223.34129384969128 0 0 0 0 1102.5563270650018 556.09018199811908 0 556.09018199811908 472.48936217201117 0 0 0 0 1191.2265926657492 531.96346283680759 0 531.96346283680759 51.024719342414755 0 0 0 0 7.1530542328897013 4.6828480896779894 0 4.6828480896779894 -4.7712595598854932 0 0 0 0 1632.1607278210431 -44.037659761983377 0 -44.037659761983377 -46.325234956241729 0 0 0 0 -549.73011227042298 508.15925577689268 0 508.15925577689268 -48.07313001138391 0 0 0 0 147.02906886822893 845.22797961694596 0 845.22797961694596 109.1804225568485 0 0 0 0 1341.6239640847634 804.19372033579566 0 804.19372033579566 341.42510127011337 0 0 0 0 1018.4516153115037 1869.5423477881923 0 1869.5423477881923 2183.3695566480455 0 0 0 0 0.90581580769290326 5.443402603512709 0 5.443402603512709 0.24168337321930267 0 0 0 0 1648.2989239196468 1601.1417543247517 0 1601.1417543247517 1264.9466545519099 0 0 0 0 1441.532479561145 980.7984767567541 0 980.7984767567541 -233.10622791464993 0 0 0 0 557.26691128418315 531.60233830794459 0 531.60233830794459 -381.3080048331467 0 0 0 0 12.340903891003137 16.845912297629525 0 16.845912297629525 23.792149605431803 0 0 0 0 2634.1980781237653 281.57806036104739 0 281.57806036104739 -418.78573197558489 0 0 0 0 230.78714243732975 341.85073901849682 0 341.85073901849682 -1621.7407236034051 0 0 0 0 1279.4563278328897 1665.5641940776986 0 1665.5641940776986 -355.52817218682321 0 0 0 0 60.869996843728586 148.20292129351583 0 148.20292129351583 -149.55045215609425 0 0 0 0 -70.392891449551826 508.59904177466524 0 508.59904177466524 -433.30877001903718 0 0 0 0 219.61646498167829 249.53583088173764 0 249.53583088173764 -498.65771162880992 0 0 0 0 150.16427860597469 257.52793624543119 0 257.52793624543119 -265.2437373981229 0 0 0 0 10.733852500619832 232.20825950772269 0 232.20825950772269 -164.18159680488679 0 0 0 0 -763.29564836779537 332.41034060159654 0 332.41034060159654 667.09464846304036 0 0 0 0 475.86457556439564 321.323197906313 0 321.323197906313 -77.386472002719529 0 0 0 0 -262.14850510047108 403.38514197143377 0 403.38514197143377 75.75609803320549 0 0 0 0 1930.5967522127321 1122.2721783394081 0 1122.2721783394081 123.46462015497673 0 0 0 0 617.19100140476803 854.59846874888171 0 854.59846874888171 148.33372582166339 0 0 0 0 -501.85106085788721 1532.524018522301 0 1532.524018522301 1065.6752007048635 0 0 0 0 -220.86368222459578 1013.2230580406665 0 1013.2230580406665 1213.1313727064116 0 0 0 0 2693.6842392306789 688.69156042319082 0 688.69156042319082 -1596.3601284049655 0 0 0 0 279.60372486555571 1857.9356741026495 0 1857.9356741026495 276.84335332992487 0 0 0 0 13.084427918532384 7.9522960046477067 0 7.9522960046477067 1.3453485281437736 0 0 0 0 -171.88104611989547 -51.536892994045047 0 -51.536892994045047 1352.7683227749367 0 0 0 0 2144.1007744378294 -467.0095751509798 0 -467.0095751509798 -1072.5400088690803 0 0 0 0 406.56618354475359 804.11882799155137 0 804.11882799155137 -1846.6152791330169 0 0 0 0 486.02757703320822 -781.53145014634356 0 -781.53145014634356 -422.59796206921965 0 0 0 0 1152.8829609000604 281.22011389515683 0 281.22011389515683 -1056.0869812356759 0 0 0 0 -242.41624818637501 568.59037834039918 0 568.59037834039918 -691.78934232934262 0 0 0 0 193.87831478313456 439.26236806193629 0 439.26236806193629 -839.38642109111242 0 0 0 0 111.57282720549847 182.53634858167061 0 182.53634858167061 -114.12558897500821 0 0 0 0 31.450567634252366 646.98405601743434 0 646.98405601743434 -494.10934993701812 0 0 0 0 -381.9307937768026 487.00002059467806 0 487.00002059467806 -388.18014435531222 0 0 0 0 -519.8699428515647 911.49897173170757 0 911.49897173170757 -886.49089186653146 0 0 0 0 -143.77273054154648 377.31288725550985 0 377.31288725550985 -716.40290629677474 0 0 0 0 40.2986159554344 39.089457218596209 0 39.089457218596209 14.163387222246456 0 0 0 0 -201.79312144670985 111.95854978627176 0 111.95854978627176 48.608793420804432 0 0 0 0 -104.82993203848309 89.463815021590563 0 89.463815021590563 28.591011030119262 0 0 0 0 120.647856223688 -53.362091068265727 0 -53.362091068265727 -1613.5690502168436 0 0 0 0 16.825339104063517 23.809031887771653 0 23.809031887771653 -6.3503896310717209 0 0 0 0 290.86676168131817 544.28930308396593 0 544.28930308396593 -1211.7053750221385 0 0 0 0 -74.145208493981045 -7.6191643408965319 0 -7.6191643408965319 -1054.165313163423 0 0 0 0 -376.24780517843283 268.32945479496993 0 268.32945479496993 833.91479623426858 0 0 0 0 -188.27200183747482 49.581190679997235 0 49.581190679997235 102.53752861032262 0 0 0 0 -380.60803274592763 172.87003370160528 0 172.87003370160528 24.369578098223428 0 0 0 0 40.803090873732572 32.041259211317168 0 32.041259211317168 10.410254705314799 0 0 0 0 -226.10409623177839 341.06091349992494 0 341.06091349992494 83.411950431400328 0 0 0 0 30.411089323935528 24.389448684737758 0 24.389448684737758 5.2739445217130765 0 0 0 0 -100.97594894692884 440.28149447150645 0 440.28149447150645 -336.16030501360365 0 0 0 0 404.09459443486412 329.4240373544817 0 329.4240373544817 -321.03567185036081 0 0 0 0 -306.3934705139327 468.36117978799302 0 468.36117978799302 -831.59203462161076 0 0 0 0 -863.18160935021297 1389.7428265785202 0 1389.7428265785202 -1168.728485393658 0 0 0 0 -1059.4201705459272 574.34869142308889 0 574.34869142308889 -831.72326975112082 0 0 0 0 -1471.3464605857243 2333.0136838133349 0 2333.0136838133349 -1065.6883186360938 0 0 0 0 -433.83362346034846 1287.4077034636575 0 1287.4077034636575 -316.22498652507784 0 0 0 0 399.24395289862878 960.77257272669522 0 960.77257272669522 -1061.6021127287677 0 0 0 0 66.095983965618871 342.42719200280771 0 342.42719200280771 -469.13382669184648 0 0 0 0 712.00272530475559 -522.56819078060835 0 -522.56819078060835 -978.77739581379865 0 0 0 0 411.79075315428781 300.63458580050064 0 300.63458580050064 -884.73987121456594 0 0 0 0 9.6746311558215439 1.6203150956009154 0 1.6203150956009154 -1.3352653381414541 0 0 0 0 1279.5113454874372 32.287151245771383 0 32.287151245771383 -1453.3631551888684 0 0 0 0 1516.3041516777739 508.87440510351735 0 508.87440510351735 -857.54924668728199 0 0 0 0 1796.9033724241381 1065.0390562108805 0 1065.0390562108805 -973.02670390202366 0 0 0 0 671.95871951064328 516.74703029073135 0 516.74703029073135 -1130.6086691961027 0 0 0 0 1978.4355395914245 264.35498294972058 0 264.35498294972058 -1248.1862060337589 0 0 0 0 1448.1029221695062 2047.8859468135634 0 2047.8859468135634 2337.7445452049869 0 0 0 0 19.785503116990952 -1.5965060056086031 0 -1.5965060056086031 -1.9850057542401203 0 0 0 0 204.42418735874526 -231.60380453390098 0 -231.60380453390098 -1341.1003534545089 0 0 0 0 1619.5765393223119 572.83490771435027 0 572.83490771435027 185.44324567596777 0 0 0 0 -180.53084601304727 976.93510421192332 0 976.93510421192332 340.99513704059791 0 0 0 0 532.99044739933197 1199.9637038053443 0 1199.9637038053443 -144.99440140437218 0 0 0 0 157.07479862512992 942.29856914807897 0 942.29856914807897 -308.46733057890106 0 0 0 0 438.47524706633703 928.04639374207909 0 928.04639374207909 584.33397273947776 0 0 0 0 1568.8745978599618 -128.64562295438373 0 -128.64562295438373 -1245.6984100203845 0 0 0 0 -29.752884186440497 9.6054194554089918 0 9.6054194554089918 -84.910753700758505 0 0 0 0 -150.83607206203305 444.99339289055933 0 444.99339289055933 -1238.4665453196503 0 0 0 0 -391.21397453526151 -1018.9707531151435 0 -1018.9707531151435 -1881.8490784167443 0 0 0 0 -173.04088860400952 722.37425894938497 0 722.37425894938497 -1663.4791319898359 0 0 0 0 22.967177898812906 9.1573708813342876 0 9.1573708813342876 0.32836525404380268 0 0 0 0 -493.76408572213404 371.08274598111166 0 371.08274598111166 -600.72011558891973 0 0 0 0 -636.1526428629586 792.83280267797818 0 792.83280267797818 -986.80669981462415 0 0 0 0 -191.63985215879802 -393.76506447571592 0 -393.76506447571592 -1618.9857029209379 0 0 0 0 613.2150573556828 713.83284537487816 0 713.83284537487816 -1663.9350038074772 0 0 0 0 -79.162625216871675 726.82312318644836 0 726.82312318644836 -806.97741142219456 0 0 0 0 -134.49907379087017 104.53588537793985 0 104.53588537793985 -153.36033480917104 0 0 0 0 -11.847996871976648 156.07418977442285 0 156.07418977442285 -381.56853694460005 0 0 0 0 265.69168545991852 -105.52146935369819 0 -105.52146935369819 -144.2337897450343 0 0 0 0 502.56918249537557 129.68006121295912 0 129.68006121295912 -313.53073769746698 0 0 0 0 -2.8320677462237995 7.4798755916514779 0 7.4798755916514779 -14.350262446206045 0 0 0 0 -79.0604717950349 646.38211663647326 0 646.38211663647326 335.56683195850928 0 0 0 0 220.57849591195554 -142.53682976263372 0 -142.53682976263372 -843.59623023835593 0 0 0 0 332.75354833395977 446.27944456534169 0 446.27944456534169 145.23815862662741 0 0 0 0 -11.245655178086565 20.808698296660708 0 20.808698296660708 -35.949585680286646 0 0 0 0 1.8435167806601385 -368.33316284391185 0 -368.33316284391185 -871.31294938505744 0 0 0 0 9.9444830616630497 -108.02483031179872 0 -108.02483031179872 -490.34471070820291 0 0 0 0 127.95467975498468 88.356890720082447 0 88.356890720082447 -238.13581991643878 0 0 0 0 250.41071186150657 -160.2061839480084 0 -160.2061839480084 -947.11885802468169 0 0 0 0 537.6256199738491 2.433093985542655 0 2.433093985542655 -869.27046187428641 0 0 0 0 94.098268285605684 0.72713417965445615 0 0.72713417965445615 -15.083429391870013 0 0 0 0 303.19521791307125 71.395902598313114 0 71.395902598313114 -345.44626874508685 0 0 0 0 707.11938266819925 257.72294545811019 0 257.72294545811019 -128.69047197780208 0 0 0 0 187.61460459954105 -77.10915702485363 0 -77.10915702485363 -43.455240502778906 0 0 0 0 40.086649987428245 -36.984473267344583 0 -36.984473267344583 -53.212644808867481 0 0 0 0 72.319289782550186 -84.609509064583108 0 -84.609509064583108 -78.170429155026795 0 0 0 0 551.94790773469867 5.7419994672090979 0 5.7419994672090979 -346.95888711966109 0 0 0 0 176.59583444228338 204.25218551782018 0 204.25218551782018 -99.10851583481417 0 0 0 0 91.560408002213535 74.2640450207698 0 74.2640450207698 -229.23069179320009 0 0 0 0 -5.1751932776195417 40.61173252678401 0 40.61173252678401 -45.726474674665781 0 0 0 0 80.683234207722194 -5.9256305939036906 0 -5.9256305939036906 -2.9557523236115486 0 0 0 0 191.52414512885389 -83.541477967321953 0 -83.541477967321953 -60.671272683684947 0 0 0 0 163.9439206738607 81.276419558591442 0 81.276419558591442 -388.84813030998339 0 0 0 0 8.555389671502013 7.252054816310249 0 7.252054816310249 -3.711789356850602 0 0 0 0 46.66011004345637 165.25972016311425 0 165.25972016311425 87.965775854070671 0 0 0 0 92.817954175116029 292.41338458120299 0 292.41338458120299 299.96771350181734 0 0 0 0 547.6268127577423 38.368597122593201 0 38.368597122593201 -127.73077060714542 0 0 0 0 832.77589505363721 622.87739494093694 0 622.87739494093694 239.20226960194123 0 0 0 0 1053.7347466659267 916.65831300179707 0 916.65831300179707 259.33335592361982 0 0 0 0 874.18798525197781 860.17758957276237 0 860.17758957276237 249.73746748731355 0 0 0 0 808.63937887629436 676.51054103985371 0 676.51054103985371 494.97904648142867 0 0 0 0 567.87009351824236 930.85216130140179 0 930.85216130140179 687.32488940053736 0 0 0 0 -1.2806339890146035 -6.6795499992734335 0 -6.6795499992734335 0.047389063719407432 0 0 0 0 -15.97201055433834 -131.10352084695478 0 -131.10352084695478 -36.916141615831293 0 0 0 0 57.679516863891109 -4.6450473678652884 0 -4.6450473678652884 -4.6843485155148414 0 0 0 0 176.96872947888914 -216.02063093308243 0 -216.02063093308243 -511.70060939882387 0 0 0 0 811.13874396978645 867.0725553430384 0 867.0725553430384 1047.4998518445645 0 0 0 0 941.41982139479069 933.96682484223948 0 933.96682484223948 1141.3864201807301 0 0 0 0 942.20322401469457 925.05011106244638 0 925.05011106244638 863.08406410476891 0 0 0 0 1251.3289701585236 924.89526063550875 0 924.89526063550875 229.61048070111428 0 0 0 0 864.16178885301633 804.41841906180343 0 804.41841906180343 788.38824069208931 0 0 0 0 1093.0418537724036 1023.8705247355974 0 1023.8705247355974 537.93761522663408 0 0 0 0 1219.689176284086 953.38561434059375 0 953.38561434059375 221.41319274280977 0 0 0 0 1167.1428337398938 872.74468579125823 0 872.74468579125823 109.54425246655592 0 0 0 0 1255.9155650344619 842.69196885340352 0 842.69196885340352 0.30401270384027157 0 0 0 0 1185.5046696076297 712.42084629932651 0 712.42084629932651 170.69758791712229 0 0 0 0 1138.8092994835679 819.13127305272792 0 819.13127305272792 108.59816225463874 0 0 0 0 1065.0169618692162 925.47414577004383 0 925.47414577004383 193.68573767394992 0 0 0 0 818.17409667381435 665.93161278575644 0 665.93161278575644 161.33246628727647 0 0 0 0 1014.4977304658223 758.8047521086919 0 758.8047521086919 152.69225573010044 0 0 0 0 1099.962859892039 514.44719721886213 0 514.44719721886213 -2.6946127569499367 0 0 0 0 599.33097315619307 273.47743034845189 0 273.47743034845189 -41.485680894053075 0 0 0 0 735.60397156561521 257.70651697831636 0 257.70651697831636 -50.209425086533884 0 0 0 0 977.96549481501279 753.60360285986098 0 753.60360285986098 170.64962835621554 0 0 0 0 1119.2189810723285 729.04595011789206 0 729.04595011789206 352.33374161319807 0 0 0 0 1734.9030320470483 295.31174840284802 0 295.31174840284802 0.35025989347195718 0 0 0 0 1560.8703546081051 501.59457230191038 0 501.59457230191038 21.618226757040247 0 0 0 0 4.1922112397133873 4.580689759413616 0 4.580689759413616 3.4520885351664958 0 0 0 0 444.74498075608426 399.89609980321256 0 399.89609980321256 253.5517192727857 0 0 0 0 884.02294750010333 -190.56374636440887 0 -190.56374636440887 124.22381784554454 0 0 0 0 42.486967551885755 -129.28833660739474 0 -129.28833660739474 154.23390682773606 0 0 0 0 75.208000177335634 63.509703088639071 0 63.509703088639071 18.539527669432573 0 0 0 0 924.33556588368083 63.11290564990486 0 63.11290564990486 -0.088561066047986969 0 0 0 0 1036.4611854677132 543.70481663668761 0 543.70481663668761 236.9052856439157 0 0 0 0 339.67516483558938 697.95072608258852 0 697.95072608258852 211.28463227987231 0 0 0 0 424.41297976394526 918.08894023444191 0 918.08894023444191 560.57047017922741 0 0 0 0 2220.3108308931478 1641.5471178396074 0 1641.5471178396074 722.88431463632151 0 0 0 0 1520.5525393455318 713.0269712403533 0 713.0269712403533 367.70900639489628 0 0 0 0 1504.6117383839446 1273.7656236214243 0 1273.7656236214243 625.36366641882341 0 0 0 0 1173.8528711740291 946.06409983232879 0 946.06409983232879 218.8426054125739 0 0 0 0 1254.03314760996 727.04596344731181 0 727.04596344731181 51.384045903454535 0 0 0 0 1396.0613968153484 918.59242811274453 0 918.59242811274453 28.288678833647282 0 0 0 0 1237.862851731199 831.53216572142264 0 831.53216572142264 20.030690295199747 0 0 0 0 1210.0059763847239 856.57126107878139 0 856.57126107878139 -0.24952506137196906 0 0 0 0 963.8168073074994 795.57468436859926 0 795.57468436859926 89.916200190433301 0 0 0 0 960.48641699597738 656.33188638100751 0 656.33188638100751 -46.153420256421668 0 0 0 0 396.04693334806507 809.36718377835496 0 809.36718377835496 210.37120769247122 0 0 0 0 399.24054847951811 805.61492109453684 0 805.61492109453684 -1.3964904331369326 0 0 0 0 468.07762894740154 882.99140768437064 0 882.99140768437064 0.20249770150985569 0 0 0 0 -7.6308082782707061 553.58219393814943 0 553.58219393814943 92.068201177869923 0 0 0 0 -322.42781717781327 931.81657924980391 0 931.81657924980391 -0.47317827440277449 0 0 0 0 -0.94127093038235898 -0.2975984777463907 0 -0.2975984777463907 -0.54589717446168606 0 0 0 0 -1464.6129071187847 443.30395639103335 0 443.30395639103335 252.91977936662443 0 0 0 0 -79.776350090294727 618.70416425379517 0 618.70416425379517 55.531328620367276 0 0 0 0 -146.13426907253597 670.91953702689352 0 670.91953702689352 368.19957563528442 0 0 0 0 205.93303439632291 802.29239036652871 0 802.29239036652871 154.25935272898641 0 0 0 0 -1.0691132807196801 0.50039117269844269 0 0.50039117269844269 -0.45019282172961539 0 0 0 0 -148.15746423921519 969.15126261807018 0 969.15126261807018 112.7515262796951 0 0 0 0 -172.19575308795902 811.30691854371253 0 811.30691854371253 378.85641482399296 0 0 0 0 -1506.9654067880474 1156.7255353029759 0 1156.7255353029759 67.005539915320696 0 0 0 0 -1235.9297082980638 1061.9077922655506 0 1061.9077922655506 -77.406845413614064 0 0 0 0 -1234.7471230670926 1048.3836865540361 0 1048.3836865540361 72.258782582379354 0 0 0 0 -1713.9481019351451 834.05792620686407 0 834.05792620686407 52.003713732294273 0 0 0 0 -1944.2564766758151 1058.3259056087845 0 1058.3259056087845 130.36766837972391 0 0 0 0 -1456.5092750766635 582.55310260507395 0 582.55310260507395 -252.71992050713743 0 0 0 0 -4.0833201459817019 1.3231284386367008 0 1.3231284386367008 5.0007890516049542 0 0 0 0 -1021.5179629964987 1056.962568768271 0 1056.962568768271 -526.98620273296547 0 0 0 0 -852.35298262671131 392.07219869193068 0 392.07219869193068 173.7482388044009 0 0 0 0 437.07994707184935 547.76473521449861 0 547.76473521449861 -530.16103160832427 0 0 0 0 -477.76538590862765 786.37112220702693 0 786.37112220702693 0.87419744572252966 0 0 0 0 -908.11366070614895 316.43216591863893 0 316.43216591863893 -88.424199719513126 0 0 0 0 -1304.7173084084825 747.77870039464688 0 747.77870039464688 -0.88393869223364163 0 0 0 0 2423.9662897220551 1635.6656821237484 0 1635.6656821237484 -2.7755611911125015 0 0 0 0 -71.886976577661699 1872.0705129514827 0 1872.0705129514827 -212.12617006969231 0 0 0 0 -5.1316893121236262 1.4708776219959958 0 1.4708776219959958 5.2659762998781616 0 0 0 0 -362.22298863781543 2182.1324462590455 0 2182.1324462590455 282.60456256732868 0 0 0 0 1630.2938780069526 1617.9389175689867 0 1617.9389175689867 42.542943634027324 0 0 0 0 -260.02847670105257 2647.488330022381 0 2647.488330022381 258.70463368397031 0 0 0 0 -2388.1586308509868 871.15367728209822 0 871.15367728209822 -143.33914302365974 0 0 0 0 -1506.003900994725 866.79505569417597 0 866.79505569417597 -755.26321831168025 0 0 0 0 2918.2764766739492 1690.9539028790969 0 1690.9539028790969 -76.094892093395174 0 0 0 0 5137.8489465031998 556.44758344213187 0 556.44758344213187 482.34278551262105 0 0 0 0 3362.5248118399322 2844.9336928692646 0 2844.9336928692646 3552.2293581309932 0 0 0 0 3130.4743088598698 3295.9665814228138 0 3295.9665814228138 1205.9976064514194 0 0 0 0 -152.42292165843537 1812.6349604003044 0 1812.6349604003044 3629.6421741165905 0 0 0 0 535.60156979838212 -308.78495346558338 0 -308.78495346558338 221.94370414009609 0 0 0 0 -555.27789989492157 -29.686536788227386 0 -29.686536788227386 2682.9963403290312 0 0 0 0 11.753126462660816 15.404739741366484 0 15.404739741366484 29.738282630814695 0 0 0 0 9575.7834953135171 2247.6404703335356 0 2247.6404703335356 55.685225750261452 0 0 0 0 -2070.3945841704844 1369.2510372422694 0 1369.2510372422694 -355.85650948386319 0 0 0 0 -3355.4956084719088 81.977533073157247 0 81.977533073157247 231.48506800705218 0 0 0 0 -7.8770186453624262 6.8374519471239523 0 6.8374519471239523 -13.984798633588468 0 0 0 0 668.0456712252344 1077.0599540645635 0 1077.0599540645635 872.33016674341707 0 0 0 0 803.28932571344922 1377.0284868740709 0 1377.0284868740709 1432.3849826617225 0 0 0 0 -1870.6665235807814 600.24432680992322 0 600.24432680992322 282.25074676645454 0 0 0 0 -1290.2055598833394 102.85732329284656 0 102.85732329284656 139.9333744696778 0 0 0 0 -1042.7627883741006 642.96189715514265 0 642.96189715514265 127.4359178628074 0 0 0 0 -554.83987747614083 264.95951680303187 0 264.95951680303187 -16.506667253735941 0 0 0 0 -5.8257653457554568 38.465789956684489 0 38.465789956684489 -29.806774528702363 0 0 0 0 -643.52429411158664 135.12295877384895 0 135.12295877384895 -57.719588515392388 0 0 0 0 -20.441924084429047 60.969073851025314 0 60.969073851025314 -43.526962722740791 0 0 0 0 -479.11482267775136 323.07886483141556 0 323.07886483141556 20.101239742027246 0 0 0 0 -1102.2007857654535 733.39895424194401 0 733.39895424194401 53.808315685470006 0 0 0 0 -251.19549068067863 567.34152748646738 0 567.34152748646738 -177.48962039448088 0 0 0 0 2539.5953088173555 1078.260658248706 0 1078.260658248706 63.541415679166676 0 0 0 0 3732.5329291340458 1598.5168862367718 0 1598.5168862367718 152.20863492626813 0 0 0 0 4544.3417831572824 1032.9725108814637 0 1032.9725108814637 -115.18359672892257 0 0 0 0 2482.2186082037661 1065.2958558007449 0 1065.2958558007449 382.28035976897809 0 0 0 0 9.2818794245022787 49.843528317120281 0 49.843528317120281 77.031126914284357 0 0 0 0 65.57551771949511 173.99699880898697 0 173.99699880898697 -69.489477108589199 0 0 0 0 26.25814812387398 62.67233145992941 0 62.67233145992941 34.735812468687072 0 0 0 0 17.201418211093937 46.007486663146018 0 46.007486663146018 29.917738033177557 0 0 0 0 776.80980529195222 39.87068107882078 0 39.87068107882078 209.5863748402262 0 0 0 0 1.9052998346556933 28.251703965756462 0 28.251703965756462 38.410019033995241 0 0 0 0 2819.5604178092035 941.09903038843913 0 941.09903038843913 576.51862331086886 0 0 0 0 1469.6125608367729 1908.6746168250465 0 1908.6746168250465 1251.280282624648 0 0 0 0 0.1315910737916397 2.4589950574988251 0 2.4589950574988251 10.519777070742691 0 0 0 0 3104.6493160776827 1580.9848372655651 0 1580.9848372655651 661.63384590460919 0 0 0 0 1318.6346551295719 -155.14399982830946 0 -155.14399982830946 212.81030599560108 0 0 0 0 909.79480627193698 804.67171068766038 0 804.67171068766038 956.46155439136783 0 0 0 0 6.9271335849308571 3.0289865305983881 0 3.0289865305983881 27.859185143221964 0 0 0 0 35.806800025231496 22.182219340532356 0 22.182219340532356 41.534430694417097 0 0 0 0 2498.8137796197261 834.27472949633375 0 834.27472949633375 -69.377877297898522 0 0 0 0 3022.2678350093574 699.92686887268519 0 699.92686887268519 -409.36311130298418 0 0 0 0 26.72089542876347 28.235367160465103 0 28.235367160465103 27.363265589432558 0 0 0 0 35.53039811499184 21.935139109264128 0 21.935139109264128 61.635240232353681 0 0 0 0 40.714064335800913 31.295465729459693 0 31.295465729459693 27.658013852490456 0 0 0 0 42.424771602498367 37.581278712605126 0 37.581278712605126 43.985621914995136 0 0 0 0 53.102785703443431 22.073377325008295 0 22.073377325008295 11.056082719239427 0 0 0 0 43.879513722495176 34.297844582339167 0 34.297844582339167 28.847131652488315 0 0 0 0 47.054103113101519 42.638177449187729 0 42.638177449187729 26.625606757761489 0 0 0 0 100.41804276670155 100.59866391877586 0 100.59866391877586 -96.075730138330982 0 0 0 0 -15.785927798759076 63.505814761883812 0 63.505814761883812 33.131657728546998 0 0 0 0 50.132526821442298 17.318773408333072 0 17.318773408333072 49.918072569489595 0 0 0 0 122.26622437508195 69.521364890868426 0 69.521364890868426 -17.828802151925629 0 0 0 0 33.674436250287158 45.097823865052192 0 45.097823865052192 43.449053149164968 0 0 0 0 93.33323512277164 34.381283392012037 0 34.381283392012037 -3.5178149205401041 0 0 0 0 -64.453968614718178 416.33976192724003 0 416.33976192724003 -147.41281458645244 0 0 0 0 -168.54503028388717 151.70797447292716 0 151.70797447292716 48.860227374447277 0 0 0 0 84.6461359802488 107.43471357089584 0 107.43471357089584 34.757174897171353 0 0 0 0 277.73594491131371 102.23485149259795 0 102.23485149259795 13.69012669599033 0 0 0 0 360.9058659523871 239.09089222355396 0 239.09089222355396 -74.814243945220369 0 0 0 0 448.83924976912385 399.76541165576782 0 399.76541165576782 -553.64662601771124 0 0 0 0 -807.55667354629259 1116.323570728855 0 1116.323570728855 -575.50160312917114 0 0 0 0 -1997.7127944724925 1787.7935887182975 0 1787.7935887182975 -793.31939647375839 0 0 0 0 -2.4544818421404102 5.4214496465635946 0 5.4214496465635946 -12.014797980350977 0 0 0 0 -2941.2714876605023 1855.4240698365611 0 1855.4240698365611 -1159.5873144365614 0 0 0 0 750.91396994316892 15.811868674591096 0 15.811868674591096 -246.63950856693555 0 0 0 0 -3388.6728383060108 1729.9301949705841 0 1729.9301949705841 -427.85046317827073 0 0 0 0 -2079.1759475369763 526.83625337254489 0 526.83625337254489 -1075.4858629974769 0 0 0 0 -5409.2724597455381 1994.76704929884 0 1994.76704929884 -1125.8527396359714 0 0 0 0 -0.79242030387919726 2.4328916246090841 0 2.4328916246090841 0.58906728333215597 0 0 0 0 -1604.7077020876459 950.87998547527241 0 950.87998547527241 -1699.7877141497884 0 0 0 0 -533.74929203023203 1941.0766405294271 0 1941.0766405294271 -457.4197511322709 0 0 0 0 -880.63786249591794 548.82491795258829 0 548.82491795258829 268.13770875566843 0 0 0 0 -485.88344928853621 1639.8413973622664 0 1639.8413973622664 -1401.849596836415 0 0 0 0 -768.56786742914119 825.63652683267719 0 825.63652683267719 -1095.0243339884182 0 0 0 0 -1540.6055821131922 1415.3336824303151 0 1415.3336824303151 -630.52114815911045 0 0 0 0 -1977.704079742718 881.39190935037914 0 881.39190935037914 -533.58084818828502 0 0 0 0 12.378558754525841 9.7926136204678613 0 9.7926136204678613 0.5649525667467401 0 0 0 0 485.80960802000482 1611.1169200951408 0 1611.1169200951408 -1050.8874086879403 0 0 0 0 892.08523772215631 693.97339774546163 0 693.97339774546163 -695.136600407277 0 0 0 0 -916.77853796833006 1094.33198933323 0 1094.33198933323 -8.5562754167185631 0 0 0 0 142.71463378444605 1086.0453288225981 0 1086.0453288225981 -260.5531643636059 0 0 0 0 -460.43850826576818 581.32964228581113 0 581.32964228581113 -644.80853052713064 0 0 0 0 -360.24812532584838 737.72183226785637 0 737.72183226785637 30.061514137487393 0 0 0 0 -474.32387628421202 1023.5290312145225 0 1023.5290312145225 -77.348660864226986 0 0 0 0 -913.92068196556647 950.50274488599825 0 950.50274488599825 214.51316573908116 0 0 0 0 -1000.7166328905878 1145.1163516667802 0 1145.1163516667802 -7.669332841396681 0 0 0 0 -1206.9380455172504 984.67159374128096 0 984.67159374128096 80.297900772682624 0 0 0 0 -1228.4523999994199 1010.6913499341317 0 1010.6913499341317 35.41227090448956 0 0 0 0 -1091.7672964757221 958.22470774462272 0 958.22470774462272 54.182781250834523 0 0 0 0 -985.39940970041062 853.68927244835504 0 853.68927244835504 -638.99835610599439 0 0 0 0 1200.4324707567866 3041.7291858334211 0 3041.7291858334211 -1.3100858640173101 0 0 0 0 199.42163909507508 1748.37561733654 0 1748.37561733654 258.56851118059421 0 0 0 0 2086.5824072348041 3657.1456778995271 0 3657.1456778995271 705.37561716632626 0 0 0 0 1615.8287891638283 2167.0563088620493 0 2167.0563088620493 -3737.502583568843 0 0 0 0 -3.8135187915344444 3474.1302857920937 0 3474.1302857920937 3139.51637735033 0 0 0 0 2713.2194061069822 4702.9606645021267 0 4702.9606645021267 1271.2225553457392 0 0 0 0 -283.43335157146794 2604.3164212601696 0 2604.3164212601696 1869.8401770680648 0 0 0 0 -1011.4120035712112 2017.5494710265339 0 2017.5494710265339 4489.7734096512941 0 0 0 0 -1254.789361652076 904.20538030512125 0 904.20538030512125 465.41087820197572 0 0 0 0 -1070.8898153258779 2449.0275577262 0 2449.0275577262 -1086.6957482351208 0 0 0 0 19.863339199168195 23.105788736460511 0 23.105788736460511 17.064370113446842 0 0 0 0 -368.59335507129435 -236.42391850850981 0 -236.42391850850981 -500.41892941723927 0 0 0 0 37.566073669717525 47.065222479786257 0 47.065222479786257 35.27428381111784 0 0 0 0 -1262.2080141404294 3256.3793340721313 0 3256.3793340721313 -666.50382951071515 0 0 0 0 -1166.1589618443977 493.45599152967043 0 493.45599152967043 -519.8131911348537 0 0 0 0 1236.1128820339945 3044.2115821461412 0 3044.2115821461412 -2948.9390582232518 0 0 0 0 689.54158680143883 1590.0632227125243 0 1590.0632227125243 99.038699711905792 0 0 0 0 -535.31472173769453 1211.7870018619469 0 1211.7870018619469 591.87734456159524 0 0 0 0 987.741910918543 1575.1924656411356 0 1575.1924656411356 3.0913148044637637 0 0 0 0 2692.6903378553034 670.09937453581733 0 670.09937453581733 18.71464942273451 0 0 0 0 2416.272583166181 1722.1488461447007 0 1722.1488461447007 -146.77271520272188 0 0 0 0 678.7407747797115 1161.0267276785664 0 1161.0267276785664 910.62471645898768 0 0 0 0 1676.2360088130517 3229.1762817057752 0 3229.1762817057752 596.64827014674665 0 0 0 0 2491.0819919892674 1390.0464033068347 0 1390.0464033068347 1318.9452038710297 0 0 0 0 4157.9247427695682 3764.7357351134497 0 3764.7357351134497 1776.0495104951551 0 0 0 0 2475.3823560768215 2324.578306696174 0 2324.578306696174 631.70727995912603 0 0 0 0 2897.1911819593806 2606.4841696631338 0 2606.4841696631338 635.69910494251712 0 0 0 0 1179.5679550144268 2324.893350492337 0 2324.893350492337 1630.0003750922333 0 0 0 0 1229.9056243329396 2994.2963753478834 0 2994.2963753478834 700.36425907129887 0 0 0 0 976.33208100640695 3845.1178581711911 0 3845.1178581711911 166.51940734355594 0 0 0 0 2540.4852134768407 2999.3965829488261 0 2999.3965829488261 2811.9976467494271 0 0 0 0 2943.5528428204852 1453.9373919657519 0 1453.9373919657519 1127.3455103745509 0 0 0 0 2534.9542799008777 1460.4365738794586 0 1460.4365738794586 1700.0792109141412 0 0 0 0 2594.9020426021598 1482.3518035983579 0 1482.3518035983579 1311.3724295310676 0 0 0 0 2643.6448836966738 1492.4123861375119 0 1492.4123861375119 913.14768387077493 0 0 0 0 2567.4038940558967 1389.2429410539335 0 1389.2429410539335 918.74523733732258 0 0 0 0 2348.924369436485 1313.6310609316715 0 1313.6310609316715 1323.7491188779823 0 0 0 0 2774.1248464013479 1165.978608803096 0 1165.978608803096 543.95488338428549 0 0 0 0 2729.6045540894847 622.83811895667168 0 622.83811895667168 -361.97448610223364 0 0 0 0 2768.3197526079603 1122.947592385055 0 1122.947592385055 236.7158915597829 0 0 0 0 2094.8893966608448 1260.7496478431858 0 1260.7496478431858 271.22218444562168 0 0 0 0 3582.4144307244278 2253.4440429834794 0 2253.4440429834794 701.47856702859281 0 0 0 0 1993.0417879611778 2556.779741414779 0 2556.779741414779 1518.5736986241536 0 0 0 0 1222.0355408737305 2010.9430296803985 0 2010.9430296803985 1459.2393299184041 0 0 0 0 3910.8491115886718 933.95018585841171 0 933.95018585841171 -150.80426022096071 0 0 0 0 2010.3922806781738 2177.4836733385255 0 2177.4836733385255 510.95376864925493 0 0 0 0 3460.8221114916087 1466.3246234903054 0 1466.3246234903054 -743.22934803125099 0 0 0 0 2109.9820571970777 1091.7770106398093 0 1091.7770106398093 2936.40574643953 0 0 0 0 4202.6218419698998 1859.127813252504 0 1859.127813252504 362.76712946122279 0 0 0 0 11.331210796549442 -2.0331495341077357 0 -2.0331495341077357 3.6922381224415375 0 0 0 0 300.65280847859685 1285.9238493146986 0 1285.9238493146986 4452.5522670268911 0 0 0 0 2987.6212334043666 1781.0430484930584 0 1781.0430484930584 -3068.255237166406 0 0 0 0 4.7070332222326101 9.3919920747079289 0 9.3919920747079289 2.7145452809492596 0 0 0 0 2339.060800116582 136.19941672681307 0 136.19941672681307 -1978.2158244387538 0 0 0 0 2350.1487653968652 709.05140724121156 0 709.05140724121156 890.71857891633408 0 0 0 0 -71.294590341218282 -272.91816031763301 0 -272.91816031763301 1407.3771390794318 0 0 0 0 -832.19438406681729 1969.2907939622637 0 1969.2907939622637 2583.0904495892901 0 0 0 0 -1019.176745713834 623.70473185258743 0 623.70473185258743 1560.8328134959247 0 0 0 0 0.090353833945812312 25.933729145169224 0 25.933729145169224 7.6776941895762576 0 0 0 0 152.20637179020559 1769.5061484256221 0 1769.5061484256221 709.59165195336391 0 0 0 0 -156.59981536172563 1484.7906875707267 0 1484.7906875707267 2415.5847411562863 0 0 0 0 -6.3934147805609314 32.772059801405391 0 32.772059801405391 8.6581178934890914 0 0 0 0 406.72599961966625 675.62309464449936 0 675.62309464449936 2995.5575169356453 0 0 0 0 1.2981166799624475 17.198235736354491 0 17.198235736354491 4.6102330130003963 0 0 0 0 5482.1264015898341 2786.5556177786202 0 2786.5556177786202 -3305.0891199863163 0 0 0 0 -469.6790218071983 1686.1174878184102 0 1686.1174878184102 7424.3874700919696 0 0 0 0 16.682244153073441 24.319632421838435 0 24.319632421838435 19.655470782468228 0 0 0 0 -2380.1115537855658 598.40599970774201 0 598.40599970774201 3454.7144776397035 0 0 0 0 -1888.3629209359497 1229.1062860459606 0 1229.1062860459606 4026.3208228120202 0 0 0 0 1.9743335960083641 2281.2800908242953 0 2281.2800908242953 2083.8017252453865 0 0 0 0 1024.874843957281 14.334303562587593 0 14.334303562587593 651.70726230466607 0 0 0 0 -1810.0808958853886 616.79632819792823 0 616.79632819792823 7266.5710663027858 0 0 0 0 194.30359953350853 1743.3944694991806 0 1743.3944694991806 2145.4451152487236 0 0 0 0 330.01724319449568 1289.0680219282585 0 1289.0680219282585 -1862.5202867817716 0 0 0 0 -7.6088535603122409 14.495807084557526 0 14.495807084557526 5.4233125171456749 0 0 0 0 -230.58301409106934 1555.3913133773021 0 1555.3913133773021 2628.1310336289607 0 0 0 0 202.21428596819169 926.14992960634117 0 926.14992960634117 2560.2365811576046 0 0 0 0 -1732.2392545752082 971.01551932605435 0 971.01551932605435 6186.691113048335 0 0 0 0 -216.9002376106655 919.00335769735102 0 919.00335769735102 -722.51410809904337 0 0 0 0 -4.3293343734877112 15.208356661440746 0 15.208356661440746 5.863962399320414 0 0 0 0 -317.81555495376233 1099.9911048409704 0 1099.9911048409704 -777.38564702501753 0 0 0 0 -129.57449989730958 2119.4129302253859 0 2119.4129302253859 -2267.381110436716 0 0 0 0 -1294.5177444071014 2603.9355972336343 0 2603.9355972336343 349.59147650317755 0 0 0 0 -1070.8827078651811 3068.8916122697956 0 3068.8916122697956 2379.5990175408515 0 0 0 0 -1428.8657499930268 2154.0107966509313 0 2154.0107966509313 3773.7804686739255 0 0 0 0 -421.02556423332135 1327.5076944781686 0 1327.5076944781686 1755.9838658775261 0 0 0 0 13.43592120819784 10.270400711625342 0 10.270400711625342 10.525852892659543 0 0 0 0 -868.55620021888899 1011.8661280581837 0 1011.8661280581837 6038.4507372589505 0 0 0 0 -82.820246771931124 1969.0381959979386 0 1969.0381959979386 1021.7747395690094 0 0 0 0 -718.95303304484696 655.23898201299016 0 655.23898201299016 2344.4328865292773 0 0 0 0 0.26237564085886333 4.2800417000173354 0 4.2800417000173354 -0.0080370869985735283 0 0 0 0 -240.38976916699903 464.90724158310331 0 464.90724158310331 702.4544510595224 0 0 0 0 398.44214281364111 1333.5713804825064 0 1333.5713804825064 347.39755420733127 0 0 0 0 292.56139034041553 537.58015997999064 0 537.58015997999064 -489.7426140041498 0 0 0 0 30.73929619291448 -57.558265437270165 0 -57.558265437270165 925.66088790034701 0 0 0 0 -204.59191997343441 -165.52384601174708 0 -165.52384601174708 -1353.7507225714362 0 0 0 0 -206.90743535988588 540.43001226462241 0 540.43001226462241 -488.51179984193004 0 0 0 0 -0.47939737353590317 1069.7549352853675 0 1069.7549352853675 -1161.9274269189191 0 0 0 0 691.91702349908883 254.28710916425189 0 254.28710916425189 -3433.3164195344871 0 0 0 0 -33.26709108898649 1071.7895686340198 0 1071.7895686340198 -799.84205624560127 0 0 0 0 -151.37478495120013 59.84855508228793 0 59.84855508228793 629.35465278018091 0 0 0 0 -5.6399357508452681 2.1702758837132023 0 2.1702758837132023 -2.9201145664452355 0 0 0 0 0.66937700343217632 249.70092547521344 0 249.70092547521344 25.720183969911886 0 0 0 0 -0.70223390939872066 249.65151580164508 0 249.65151580164508 25.751941546026501 0 0 0 0 135.62187454373634 183.15114756973344 0 183.15114756973344 -473.75859721263987 0 0 0 0 -40.750445581245003 20.28751206342713 0 20.28751206342713 49.704154662540532 0 0 0 0 -113.92774922303943 248.16394653661519 0 248.16394653661519 260.10592643896234 0 0 0 0 -19.910438584378198 10.175330378981215 0 10.175330378981215 -4.7454253051710182 0 0 0 0 43.039233253402131 33.380663666987957 0 33.380663666987957 20.826207516039545 0 0 0 0 -1135.0497967232077 842.95546817820286 0 842.95546817820286 1162.9914553771705 0 0 0 0 131.72874569872511 181.39928488963778 0 181.39928488963778 -243.19959056589869 0 0 0 0 -485.5225251873926 1025.4484180335166 0 1025.4484180335166 -624.19250373268733 0 0 0 0 -772.87253800404142 2105.2000763954202 0 2105.2000763954202 -1623.282192035389 0 0 0 0 -626.83490263143904 1209.788104666688 0 1209.788104666688 -686.30833857284597 0 0 0 0 -18.434528064070037 290.69272815425211 0 290.69272815425211 -485.70502898849372 0 0 0 0 73.225068090900891 48.258822022492566 0 48.258822022492566 12.412298812987046 0 0 0 0 -114.66566805212642 200.21953166822641 0 200.21953166822641 183.22619268973358 0 0 0 0 -35.884775442367925 24.808300910972605 0 24.808300910972605 8.463026205022345 0 0 0 0 -45.594340639712755 367.95980374506325 0 367.95980374506325 -378.37047607426939 0 0 0 0 -47.539847091102274 391.48021289944882 0 391.48021289944882 -405.56705788703403 0 0 0 0 -81.064617563140928 402.26537919283965 0 402.26537919283965 -262.10233170198626 0 0 0 0 -82.976024733816303 386.51429636516514 0 386.51429636516514 -387.57875303228502 0 0 0 0 163.56769998854725 300.49733785427088 0 300.49733785427088 -1454.9961375837283 0 0 0 0 -32.447188824524346 383.31191163700714 0 383.31191163700714 -401.49101694457931 0 0 0 0 1.8676452926649745 13.397113432046496 0 13.397113432046496 0.79160643447684365 0 0 0 0 -147.59750010127027 505.82742884067193 0 505.82742884067193 477.22828614542959 0 0 0 0 57.729069893364795 382.23541811066389 0 382.23541811066389 -406.29633214179876 0 0 0 0 22.13260682226246 481.0832724508582 0 481.0832724508582 -651.07772411982296 0 0 0 0 3.866623264839177 13.802038489535619 0 13.802038489535619 1.3762485892869183 0 0 0 0 -107.12398455460789 528.60874036666064 0 528.60874036666064 -320.19588552937785 0 0 0 0 227.4248163614684 359.2462010007257 0 359.2462010007257 -1690.1944013329048 0 0 0 0 139.75204795766331 982.58528976891103 0 982.58528976891103 -126.04168996126464 0 0 0 0 2.1475286010106061 6.0764299657186882 0 6.0764299657186882 1.3112737733408952 0 0 0 0 -136.10580336786916 33.206127410390309 0 33.206127410390309 498.7591459636169 0 0 0 0 -0.16665899043437093 389.17418795924459 0 389.17418795924459 -320.08654653768065 0 0 0 0 -69.586864320415771 412.20249601462274 0 412.20249601462274 -213.46200902073178 0 0 0 0 -41.903093977918616 231.79384419207054 0 231.79384419207054 -321.57377516095585 0 0 0 0 -684.40834483478102 1995.4516370595811 0 1995.4516370595811 -3250.1149795152669 0 0 0 0 -59.079247497487813 176.79542819537892 0 176.79542819537892 209.15744420484407 0 0 0 0 35.912822578782709 64.641365668991 0 64.641365668991 37.974436445299375 0 0 0 0 -1641.0274122584087 1436.1399454728526 0 1436.1399454728526 -100.82741194369737 0 0 0 0 364.42283160475199 485.93664296094721 0 485.93664296094721 -438.88645679378533 0 0 0 0 -200.9422250862408 1441.8170997718116 0 1441.8170997718116 -269.48204972461099 0 0 0 0 48.015140686892266 44.062041075672823 0 44.062041075672823 24.051296037256094 0 0 0 0 686.05559226559126 2322.5483307863688 0 2322.5483307863688 -3938.8372636227068 0 0 0 0 -1110.9412617635462 593.35014638364373 0 593.35014638364373 -337.06466966355219 0 0 0 0 -596.94789678089728 896.46791698989546 0 896.46791698989546 -993.81000899284663 0 0 0 0 -255.66807201629854 154.37442982623907 0 154.37442982623907 3051.5512191301241 0 0 0 0 2713.1492183927476 310.40404353883787 0 310.40404353883787 -1113.992009816604 0 0 0 0 3783.9834393330093 1975.2200181608205 0 1975.2200181608205 955.60098080582975 0 0 0 0 -198.8883876788459 -704.42932026494964 0 -704.42932026494964 -1046.7576232534775 0 0 0 0 6.1334452094133667 4.482463228582219 0 4.482463228582219 8.3958505849965377 0 0 0 0 3348.0275981747545 35.283541727600095 0 35.283541727600095 250.38673491232112 0 0 0 0 1684.8054240807105 -540.9681243202831 0 -540.9681243202831 -2565.0185592484631 0 0 0 0 1126.6254815337306 -647.04312517929793 0 -647.04312517929793 -1163.0221253823838 0 0 0 0 1988.2757196036255 1065.5227841616215 0 1065.5227841616215 -3624.2202232014752 0 0 0 0 25.280847851578983 15.092125424285555 0 15.092125424285555 6.5738982837441426 0 0 0 0 92.000461709329102 855.58677352195446 0 855.58677352195446 1287.3242399578739 0 0 0 0 119.43688890813064 1406.4991470698878 0 1406.4991470698878 3528.1241269305465 0 0 0 0 1110.6844300182856 1720.8927933552477 0 1720.8927933552477 973.75228229463391 0 0 0 0 307.86784555208578 1397.0147354009314 0 1397.0147354009314 1364.2818878021035 0 0 0 0 8.8770977390231565 1239.0666894497372 0 1239.0666894497372 848.34964156619026 0 0 0 0 821.89220624460722 908.07314960447547 0 908.07314960447547 -256.0281659818138 0 0 0 0 -16.849176906644459 76.835784303209977 0 76.835784303209977 -79.956512265447927 0 0 0 0 -50.369069610445877 423.86027198304419 0 423.86027198304419 357.3737145352643 0 0 0 0 -168.95320904219989 1177.1408419379404 0 1177.1408419379404 -635.35471501922802 0 0 0 0 336.46222682392181 807.73725869484861 0 807.73725869484861 -87.28739711459275 0 0 0 0 103.02271960826329 232.80444497067765 0 232.80444497067765 -137.68832358087093 0 0 0 0 189.37161512990133 305.16598807597438 0 305.16598807597438 -578.62094786711896 0 0 0 0 -120.94650390461902 -230.34735253632607 0 -230.34735253632607 -1407.8285831511494 0 0 0 0 -16.312897061084755 76.919691903824344 0 76.919691903824344 -81.232278122151811 0 0 0 0 568.70997587438615 1086.4716281309884 0 1086.4716281309884 930.55403943066631 0 0 0 0 172.32738343282836 110.17329357058043 0 110.17329357058043 -336.9187767774456 0 0 0 0 182.66065037727822 133.08666404853284 0 133.08666404853284 -286.52971358391369 0 0 0 0 176.56394125863153 167.38040426237421 0 167.38040426237421 -108.8285104813549 0 0 0 0 463.1619809869444 1318.6540037316008 0 1318.6540037316008 1487.6211050198235 0 0 0 0 -17.862658502570071 72.866602135459658 0 72.866602135459658 -75.79812165175862 0 0 0 0 44.711637217755197 108.58877907670467 0 108.58877907670467 301.93347308965167 0 0 0 0 258.69839865187532 1280.0412633040178 0 1280.0412633040178 1496.8879734060465 0 0 0 0 579.86303484867858 1161.6684865611228 0 1161.6684865611228 1260.2687143536023 0 0 0 0 204.06535844673635 1200.5991456233314 0 1200.5991456233314 1374.2942140313389 0 0 0 0 467.22164972071914 1605.1938232794964 0 1605.1938232794964 1319.4709268762308 0 0 0 0 114.22571563429665 1112.3708065664905 0 1112.3708065664905 3081.2434315126375 0 0 0 0 92.493184035723971 758.89515850256066 0 758.89515850256066 1099.4155979305942 0 0 0 0 -97.567690785494051 683.7887759852747 0 683.7887759852747 962.74331156478002 0 0 0 0 117.72257919763797 814.47449721681187 0 814.47449721681187 909.81078155454998 0 0 0 0 75.441047394531779 802.65939193938539 0 802.65939193938539 -666.22361956943951 0 0 0 0 58.871845542540541 564.24606161272823 0 564.24606161272823 -312.49829050872358 0 0 0 0 -338.20010832986736 750.20060626728809 0 750.20060626728809 652.46823978961038 0 0 0 0 -190.35919214481692 1056.6566643579899 0 1056.6566643579899 1402.5831849808164 0 0 0 0 -35.896880651227548 1191.091618686798 0 1191.091618686798 685.35338584448618 0 0 0 0 219.97215275952476 966.57639822036435 0 966.57639822036435 700.77716405197862 0 0 0 0 -101.87879684017389 1276.8106593558186 0 1276.8106593558186 1280.5724021248607 0 0 0 0 83.395092877210118 1206.842262017286 0 1206.842262017286 1291.7760761154495 0 0 0 0 267.51303312957725 1042.2970700999213 0 1042.2970700999213 1437.6307518542599 0 0 0 0 653.68218274525134 996.54053314356133 0 996.54053314356133 1382.7986085354351 0 0 0 0 -32.80090712668607 889.80831742969167 0 889.80831742969167 1616.5640889766073 0 0 0 0 336.92568908265093 1066.5902596856467 0 1066.5902596856467 1441.6491287907411 0 0 0 0 336.3459019359434 784.12598094953137 0 784.12598094953137 1570.8508434070391 0 0 0 0 -6.4636403807962779 791.75284444014687 0 791.75284444014687 1753.7018314059333 0 0 0 0 -90.299348631087923 788.6002427960193 0 788.6002427960193 1855.6898301930632 0 0 0 0 -330.87136930349516 1124.9550363824674 0 1124.9550363824674 1724.4567900159745 0 0 0 0 21.934595311508019 969.12429933648764 0 969.12429933648764 1430.5559780430194 0 0 0 0 -34.687187727948185 1426.2590239386118 0 1426.2590239386118 1581.4495618381552 0 0 0 0 -322.08886609250476 977.78502996156521 0 977.78502996156521 2403.5210458002985 0 0 0 0 -293.37596317008138 495.44605674895865 0 495.44605674895865 2352.208403647468 0 0 0 0 -407.14396563818445 335.12674319210055 0 335.12674319210055 2135.8021752312925 0 0 0 0 -266.67521757335635 666.31784023604268 0 666.31784023604268 1869.8976444335567 0 0 0 0 1.0483452156477142 1518.6685649378778 0 1518.6685649378778 2670.7481060741775 0 0 0 0 -353.93018051597755 -271.39163457904215 0 -271.39163457904215 5122.6331466243428 0 0 0 0 -22.743281753067322 814.36449319647522 0 814.36449319647522 1580.7992268215603 0 0 0 0 -379.3167763655656 1085.7890677617252 0 1085.7890677617252 1505.0198587324594 0 0 0 0 -0.35931213355797809 1306.9090159694279 0 1306.9090159694279 375.02449254872045 0 0 0 0 -338.04968171307701 1083.2377039518833 0 1083.2377039518833 1418.29571392445 0 0 0 0 -90.193931379413698 1081.7557957641984 0 1081.7557957641984 357.08710095846618 0 0 0 0 -371.28118008177262 1081.1020869511922 0 1081.1020869511922 366.23298321679977 0 0 0 0 -426.38826508421334 418.58657921678241 0 418.58657921678241 -491.29918170558813 0 0 0 0 61.135575737309409 1078.394293536956 0 1078.394293536956 -514.24892079531855 0 0 0 0 -190.90239332927013 1334.9511310536918 0 1334.9511310536918 -897.92069047411496 0 0 0 0 396.66393712777062 757.88752187029604 0 757.88752187029604 -2726.3319423939201 0 0 0 0 -0.26248299237340689 477.30688850877777 0 477.30688850877777 -835.01870460732607 0 0 0 0 9.7739464180485811 723.31052638312394 0 723.31052638312394 -676.82397887505067 0 0 0 0 -273.48900900105946 309.88600179911009 0 309.88600179911009 461.33718642501481 0 0 0 0 -204.58966554509243 142.72480249646469 0 142.72480249646469 489.4806142354555 0 0 0 0 -205.20082783668477 101.93073851826193 0 101.93073851826193 26.692424993263558 0 0 0 0 -206.17670847680347 307.39174174315303 0 307.39174174315303 440.60771769846906 0 0 0 0 -193.56579622940626 336.26861163847207 0 336.26861163847207 365.59645535980235 0 0 0 0 -268.37741118921258 323.64124412649107 0 323.64124412649107 497.99245808506384 0 0 0 0 -168.61104073253227 349.31935067562154 0 349.31935067562154 427.26707749153138 0 0 0 0 -134.56451432859103 471.10653239688691 0 471.10653239688691 593.97751540920581 0 0 0 0 -329.46221983843861 305.39144921373372 0 305.39144921373372 708.70338009670377 0 0 0 0 -251.38775071169948 638.03500322147738 0 638.03500322147738 374.44349018785579 0 0 0 0 -284.34872440395702 754.64722761955636 0 754.64722761955636 921.72196648054523 0 0 0 0 251.26259724432748 920.09996022003179 0 920.09996022003179 669.80101053068211 0 0 0 0 -395.53912397845124 439.52227854177909 0 439.52227854177909 1513.7655337995966 0 0 0 0 -342.50212982414087 -262.47149874557363 0 -262.47149874557363 419.03569158280152 0 0 0 0 -60.21686202242563 882.60825137540814 0 882.60825137540814 381.45223790258024 0 0 0 0 -175.61385369249183 1235.8916039296964 0 1235.8916039296964 -490.47004494414432 0 0 0 0 -45.382643620308954 -263.41682993168797 0 -263.41682993168797 766.81981313481811 0 0 0 0 3.2377513286478745 6.3210376243424591 0 6.3210376243424591 11.723964732185948 0 0 0 0 303.09447874577018 612.68297977787734 0 612.68297977787734 -734.65483509663318 0 0 0 0 273.25738351529435 558.96831644428312 0 558.96831644428312 -720.19368652708363 0 0 0 0 1768.3710450260551 -697.04819279909862 0 -697.04819279909862 -5.2199071760987863 0 0 0 0 1687.6600686427373 831.62483376336741 0 831.62483376336741 -973.95800136134494 0 0 0 0 -1641.2002837861801 934.43877188207989 0 934.43877188207989 -440.48049606110726 0 0 0 0 -1979.0800403090398 1601.8249296803842 0 1601.8249296803842 -178.20273756538518 0 0 0 0 -1714.4244901212805 993.52048033918254 0 993.52048033918254 -868.54439115370769 0 0 0 0 -1.999746229966533 16.580488937224921 0 16.580488937224921 28.039373705451737 0 0 0 0 -93.932044969624258 118.4408681003988 0 118.4408681003988 -15.672942808101652 0 0 0 0 28.503373700921173 65.283414760189487 0 65.283414760189487 -41.033046490045422 0 0 0 0 210.72403377696173 149.68713913911779 0 149.68713913911779 1.7678009768715128 0 0 0 0 -85.272329918137984 97.375848663446959 0 97.375848663446959 34.533185345004313 0 0 0 0 -21.925138851361055 38.07253349290869 0 38.07253349290869 22.005685524991407 0 0 0 0 -174.36857121918001 145.38966018716746 0 145.38966018716746 27.232591501888237 0 0 0 0 -46.895478731974436 -2.8965301617354271 0 -2.8965301617354271 51.142099195611081 0 0 0 0 -209.98606467538048 226.12973258201964 0 226.12973258201964 -151.48854410869535 0 0 0 0 -157.22574280619915 124.91048734817105 0 124.91048734817105 86.973933510266875 0 0 0 0 709.11037927555662 545.7844883554676 0 545.7844883554676 -112.97079694116837 0 0 0 0 -151.04455976989993 19.523136190065998 0 19.523136190065998 110.56050032650819 0 0 0 0 679.71376067834353 226.5405498737714 0 226.5405498737714 -238.77900609010248 0 0 0 0 401.02189266952337 474.62384116186695 0 474.62384116186695 50.171639322390547 0 0 0 0 170.96061791251122 241.63461508041655 0 241.63461508041655 -24.932093045877991 0 0 0 0 265.54601465007636 150.13753016539147 0 150.13753016539147 18.740263859768845 0 0 0 0 245.57433756295359 206.68715378518391 0 206.68715378518391 -26.980553675544797 0 0 0 0 63.212932953465497 87.86667262550327 0 87.86667262550327 -8.8915829788311385 0 0 0 0 114.13623897891193 68.204284745754933 0 68.204284745754933 36.439550881887101 0 0 0 0 447.93596520787105 57.841481890776777 0 57.841481890776777 -164.02033014648987 0 0 0 0 107.02394278993904 75.257316063051235 0 75.257316063051235 53.521495011001562 0 0 0 0 76.377621241819497 32.263799666067854 0 32.263799666067854 8.2492380085500656 0 0 0 0 76.995158999561681 387.71102807775605 0 387.71102807775605 -687.09426067193272 0 0 0 0 99.080088138609426 570.7923151449213 0 570.7923151449213 -379.38226269552979 0 0 0 0 -480.64089102088474 664.05955846369397 0 664.05955846369397 -304.09666801214917 0 0 0 0 27.102693780129385 7.9637959869605481 0 7.9637959869605481 -16.587139718710091 0 0 0 0 300.95933625869657 156.00970229653649 0 156.00970229653649 -84.403848411049694 0 0 0 0 522.47481755787157 52.221642008371418 0 52.221642008371418 -975.70587618205172 0 0 0 0 77.514284693192167 -33.000575284204388 0 -33.000575284204388 -770.32043703713862 0 0 0 0 121.66295060316043 484.21309987797576 0 484.21309987797576 -487.73333679421921 0 0 0 0 171.28687714826083 484.46730274160655 0 484.46730274160655 -487.7731919727471 0 0 0 0 636.39156937502412 88.68719537524521 0 88.68719537524521 -1027.5032067681459 0 0 0 0 951.00590691863908 488.7704069157553 0 488.7704069157553 -1432.7590908974453 0 0 0 0 2197.7451168067928 1944.8126186833106 0 1944.8126186833106 -245.74220005751704 0 0 0 0 343.19028427315061 1650.4380822004568 0 1650.4380822004568 1885.0953939988831 0 0 0 0 -26.066665019359789 884.14984520255166 0 884.14984520255166 296.14052116610401 0 0 0 0 697.22688563101474 1140.8250329122393 0 1140.8250329122393 294.75090949726291 0 0 0 0 -232.92080253048334 683.45547602631996 0 683.45547602631996 942.44318785268115 0 0 0 0 -374.99230348778656 81.462426552199759 0 81.462426552199759 1137.5555115339957 0 0 0 0 679.2264194219315 -535.51489309134195 0 -535.51489309134195 1381.9998585569574 0 0 0 0 263.07743767238571 669.53438220045064 0 669.53438220045064 301.60958724957163 0 0 0 0 -434.42380534598487 526.18629742453049 0 526.18629742453049 392.25159483953757 0 0 0 0 -159.28607375263744 134.21135626886971 0 134.21135626886971 115.97738590879641 0 0 0 0 -47.329279638535809 682.15380449438089 0 682.15380449438089 288.48996537907806 0 0 0 0 -219.41536481690127 386.81913307007926 0 386.81913307007926 507.53512050755671 0 0 0 0 -264.87239791080356 494.36597675242228 0 494.36597675242228 321.99386881868668 0 0 0 0 -318.06057181503274 139.60161191469524 0 139.60161191469524 460.55105948170785 0 0 0 0 -10.65088760225683 90.805662002760926 0 90.805662002760926 -50.325202527409502 0 0 0 0 -44.279165909072617 461.56015258757907 0 461.56015258757907 719.70115912720939 0 0 0 0 64.550362633601253 412.63317857859147 0 412.63317857859147 441.06224532722263 0 0 0 0 61.699176396447001 397.38173030802864 0 397.38173030802864 359.59021889357246 0 0 0 0 -196.654589630516 41.607895771392037 0 41.607895771392037 235.23115821517757 0 0 0 0 200.62090244956198 244.1379240481474 0 244.1379240481474 358.76951030717464 0 0 0 0 -133.86543171554149 58.11097712757558 0 58.11097712757558 255.31914206786257 0 0 0 0 -147.90561745851301 -153.43862418358185 0 -153.43862418358185 458.47170087112318 0 0 0 0 171.3170008205343 -175.63802298562223 0 -175.63802298562223 332.90724526716804 0 0 0 0 188.99258510927029 251.43591795761313 0 251.43591795761313 344.20945512986873 0 0 0 0 274.9413483695389 332.39486031734123 0 332.39486031734123 304.64582735736622 0 0 0 0 170.69798225992827 207.87529530687945 0 207.87529530687945 192.5304249646681 0 0 0 0 -330.2850984891702 320.66634214877195 0 320.66634214877195 276.92054044714314 0 0 0 0 189.37148756628449 199.87387508155371 0 199.87387508155371 198.82365935523558 0 0 0 0 117.37088534852955 321.89000325385678 0 321.89000325385678 287.48051108422806 0 0 0 0 441.45460521757195 97.144705138027348 0 97.144705138027348 -189.34665241315088 0 0 0 0 -26.910733150139038 69.255859858509382 0 69.255859858509382 -76.518918740412175 0 0 0 0 -278.15783573755471 1063.4122718412073 0 1063.4122718412073 1196.7246603844033 0 0 0 0 -674.22305734828115 386.0636682119075 0 386.0636682119075 575.76173304016265 0 0 0 0 571.226379267624 460.97393456690588 0 460.97393456690588 468.0819034466258 0 0 0 0 -336.81527754158014 297.90204120619455 0 297.90204120619455 406.28930373142066 0 0 0 0 -740.29747165739536 602.13562253213604 0 602.13562253213604 200.57923152104195 0 0 0 0 -480.65811541071162 -83.87951363492175 0 -83.87951363492175 -234.75609239202822 0 0 0 0 -669.1869145304081 -230.03273539720976 0 -230.03273539720976 -223.14223106432473 0 0 0 0 -54.970370521302357 18.252114545533686 0 18.252114545533686 64.830947568993281 0 0 0 0 -790.56256207462866 172.19841688254382 0 172.19841688254382 -444.55095253643231 0 0 0 0 -379.66201678285142 192.66501485529807 0 192.66501485529807 291.93876280541008 0 0 0 0 -617.6381057342951 113.19272008861299 0 113.19272008861299 607.06545520565123 0 0 0 0 -339.57333744832613 715.49450866131349 0 715.49450866131349 433.38062932147295 0 0 0 0 351.20942230746732 491.29562742409144 0 491.29562742409144 289.59289538662415 0 0 0 0 -622.10047647710599 498.05795987473539 0 498.05795987473539 1300.1470645578447 0 0 0 0 -386.88074202591088 47.374978551137247 0 47.374978551137247 898.93173711652344 0 0 0 0 -1126.0689519200387 738.93812098580383 0 738.93812098580383 515.76851069376062 0 0 0 0 -198.74792905131471 1226.8404086246592 0 1226.8404086246592 746.53832315381442 0 0 0 0 16.449778934300696 41.035283685843751 0 41.035283685843751 17.236462857147899 0 0 0 0 145.53352962723875 -95.601743416784302 0 -95.601743416784302 634.36463662952883 0 0 0 0 -1397.515479321024 -185.42959159294696 0 -185.42959159294696 578.4503112425482 0 0 0 0 2620.3230252702488 -535.96917841281902 0 -535.96917841281902 618.82981067663422 0 0 0 0 -1147.9417192293622 -559.20100875685603 0 -559.20100875685603 161.23136906305808 0 0 0 0 -236.35513540486772 433.52142381109252 0 433.52142381109252 -1851.3569048386635 0 0 0 0 -247.76664357101436 228.1805832314401 0 228.1805832314401 -2525.9234627459082 0 0 0 0 261.36072913199314 808.78661872774501 0 808.78661872774501 -4209.0392969721797 0 0 0 0 -1131.8876777522091 1032.0838770929786 0 1032.0838770929786 -1867.7873852424418 0 0 0 0 -4059.3217084076605 325.06467570857785 0 325.06467570857785 1706.6964913357151 0 0 0 0 -6.2100703835259878 9.423960939482825 0 9.423960939482825 -2.3338989235600565 0 0 0 0 187.66518386625103 152.29445430352644 0 152.29445430352644 151.66089940420352 0 0 0 0 183.61167857635883 230.20210773199506 0 230.20210773199506 151.26523103090585 0 0 0 0 174.49758076336872 179.19150838072164 0 179.19150838072164 162.39612833856285 0 0 0 0 -209.75541412381426 468.49721539369239 0 468.49721539369239 574.81100351506029 0 0 0 0 -112.68246284950874 464.81673875538399 0 464.81673875538399 1440.2306937309841 0 0 0 0 113.09157429591869 -144.79484065261931 0 -144.79484065261931 594.80271918347717 0 0 0 0 344.11407068662811 833.85775343499336 0 833.85775343499336 -135.6970051665412 0 0 0 0 533.09978498495184 1303.0893501995706 0 1303.0893501995706 -1062.2662913809618 0 0 0 0 358.62392410187749 747.90369426081452 0 747.90369426081452 -1685.2405516464296 0 0 0 0 -11.781674097543714 16.471947979440898 0 16.471947979440898 -7.2780438686976323 0 0 0 0 226.65815301501425 686.89736142589209 0 686.89736142589209 -1449.2331409119106 0 0 0 0 411.55021628213581 785.53274632935063 0 785.53274632935063 -2335.1181597197683 0 0 0 0 -925.7087643701816 540.0385738379664 0 540.0385738379664 330.98551801417716 0 0 0 0 0.79970442493515748 50.380694589969124 0 50.380694589969124 75.132022816730228 0 0 0 0 -1247.4340284524951 378.23007425965625 0 378.23007425965625 1018.0040454115951 0 0 0 0 238.57153689888219 803.55620928886219 0 803.55620928886219 -1517.3307231508443 0 0 0 0 321.8463624571159 -41.353098017889806 0 -41.353098017889806 -812.23477010318311 0 0 0 0 -16.67909941173275 391.17297188815428 0 391.17297188815428 46.715375093815965 0 0 0 0 134.55954993625878 175.85917699807703 0 175.85917699807703 173.76461743403436 0 0 0 0 175.99345469848777 -549.77127917474081 0 -549.77127917474081 429.65244511776837 0 0 0 0 326.22188739207922 114.5087136879738 0 114.5087136879738 581.59927979343047 0 0 0 0 45.624280472979365 24.702755747903154 0 24.702755747903154 -62.179565111298928 0 0 0 0 -339.96991640956549 357.39601088914787 0 357.39601088914787 741.68852785569788 0 0 0 0 1505.6832698067155 880.13370476416458 0 880.13370476416458 -1185.6184007218108 0 0 0 0 120.14959826425866 181.17261583965413 0 181.17261583965413 204.19374350227957 0 0 0 0 137.89178756571346 211.13722724803665 0 211.13722724803665 735.77552603828372 0 0 0 0 120.96640042595027 63.896588033474472 0 63.896588033474472 58.044745073566446 0 0 0 0 182.73174920014571 204.9776614184957 0 204.9776614184957 -94.733664842657163 0 0 0 0 105.83121020199906 184.69852181189344 0 184.69852181189344 -158.81444628327154 0 0 0 0 124.56624727537746 66.550303932899624 0 66.550303932899624 -227.41396224798518 0 0 0 0 34.212222914049619 28.614492847974219 0 28.614492847974219 76.450889315860366 0 0 0 0 112.13642306762631 148.8983235766209 0 148.8983235766209 179.32900217059432 0 0 0 0 187.48693090279994 170.88702724622271 0 170.88702724622271 76.455141892482061 0 0 0 0 176.73151671956293 192.69265810865909 0 192.69265810865909 90.177634486506577 0 0 0 0 192.3324664924512 220.83671730333299 0 220.83671730333299 43.147072440537158 0 0 0 0 122.16625189141268 326.8381242681171 0 326.8381242681171 192.2386593647534 0 0 0 0 126.13478795425908 411.78266929755046 0 411.78266929755046 -148.56393256988667 0 0 0 0 125.26799681950069 350.52867462042195 0 350.52867462042195 157.40635010293772 0 0 0 0 52.239681336679496 669.67757018749398 0 669.67757018749398 -199.14746415929403 0 0 0 0 178.54108437697869 306.33498443299322 0 306.33498443299322 -16.229990429535974 0 0 0 0 177.06110006606104 262.64443996504633 0 262.64443996504633 -371.84676174164633 0 0 0 0 -22.666229657799704 532.36113070961437 0 532.36113070961437 249.79718306699215 0 0 0 0 50.034914784962893 570.22601901060989 0 570.22601901060989 199.06005529302638 0 0 0 0 -56.770997761806939 460.79281368108059 0 460.79281368108059 330.99517748967628 0 0 0 0 20.138925213432231 538.12618679398656 0 538.12618679398656 200.6703343137051 0 0 0 0 -799.34503906323516 567.29970422887709 0 567.29970422887709 202.01241319812289 0 0 0 0 17.141742080551921 562.92748578632018 0 562.92748578632018 -384.79800909040205 0 0 0 0 -331.54629776850925 668.71200459796819 0 668.71200459796819 -401.1836766111519 0 0 0 0 123.9376099617366 193.19590663355484 0 193.19590663355484 -967.03450841396989 0 0 0 0 -523.26856444092846 1212.3202307791435 0 1212.3202307791435 -1121.585412558692 0 0 0 0 -1216.9663390619171 -625.24065849453473 0 -625.24065849453473 -244.43417307797063 0 0 0 0 -18.493517256809042 4.846690910704524 0 4.846690910704524 1.0273249593131766 0 0 0 0 -1376.796168641551 1033.370198412842 0 1033.370198412842 -97.149336745234905 0 0 0 0 -103.46555262626498 1355.3899657266302 0 1355.3899657266302 -480.46336201801751 0 0 0 0 -886.48548292859414 518.21847017658001 0 518.21847017658001 1132.8383299148991 0 0 0 0 9.3397740827915072 -4.0613242410976795 0 -4.0613242410976795 -3.3948074922902194 0 0 0 0 -92.386231061689614 19.902864376083016 0 19.902864376083016 97.827793909746106 0 0 0 0 185.18548326277232 -5.2270903537428239 0 -5.2270903537428239 -1551.956464260209 0 0 0 0 -23.093001716559229 -142.55843740344426 0 -142.55843740344426 -156.0727156297944 0 0 0 0 -347.15467335900757 302.87224312919716 0 302.87224312919716 1369.8193321517465 0 0 0 0 147.18027602923394 567.63787397573469 0 567.63787397573469 733.94617083226331 0 0 0 0 -37.89137590941391 -5.4620330353936879 0 -5.4620330353936879 150.89183015187155 0 0 0 0 198.81986931712436 220.64643352001713 0 220.64643352001713 313.06258661797619 0 0 0 0 -33.442034071747912 327.99924876304431 0 327.99924876304431 263.46566696423542 0 0 0 0 203.88482732688499 8.0444602099451004 0 8.0444602099451004 45.418477194005391 0 0 0 0 129.02424226839139 493.34697496752779 0 493.34697496752779 -137.15409834287129 0 0 0 0 33.816478764158092 459.17461696739338 0 459.17461696739338 -324.58562053311653 0 0 0 0 45.372731765971849 86.381329348999117 0 86.381329348999117 110.52908244760616 0 0 0 0 101.27310741278097 115.57495321674403 0 115.57495321674403 89.639631002438023 0 0 0 0 -78.056355924738455 216.205400908304 0 216.205400908304 10.679940963531408 0 0 0 0 -297.09578442764905 549.08406735129574 0 549.08406735129574 -343.15086787573455 0 0 0 0 -301.87554745936359 241.23877093167903 0 241.23877093167903 612.91218142519938 0 0 0 0 72.348262572672354 103.76293930831331 0 103.76293930831331 101.28097846790527 0 0 0 0 -162.95349204981176 292.44050999174578 0 292.44050999174578 -33.764059170607652 0 0 0 0 68.014296309568437 94.524415184898203 0 94.524415184898203 129.04331240680219 0 0 0 0 -582.19974196641124 596.92508664213619 0 596.92508664213619 -212.9986588853626 0 0 0 0 -313.99297191532969 687.39969388256759 0 687.39969388256759 -354.46627137745236 0 0 0 0 -127.38278345245635 666.24046048939636 0 666.24046048939636 -351.62725925881841 0 0 0 0 -113.26302066123753 623.38862374239216 0 623.38862374239216 -362.32977663859492 0 0 0 0 -365.81255277997116 699.94345953979882 0 699.94345953979882 -158.29829266159504 0 0 0 0 -354.40728164586471 730.48891830157481 0 730.48891830157481 -168.0675961925117 0 0 0 0 30.099175810195447 390.75531907564255 0 390.75531907564255 -192.7660246026644 0 0 0 0 -207.53850811796292 245.5069707994835 0 245.5069707994835 -241.5398594173239 0 0 0 0 -158.63320487760939 577.27709377699102 0 577.27709377699102 -328.18407020535005 0 0 0 0 -369.64542482078832 567.47130953963551 0 567.47130953963551 -233.78511345530933 0 0 0 0 -514.35023445187835 645.61926969927481 0 645.61926969927481 -233.32063038645629 0 0 0 0 -347.07900062555564 667.6166120777998 0 667.6166120777998 -232.29824340860432 0 0 0 0 -965.69027979765087 1109.0434925607769 0 1109.0434925607769 -463.08906035299879 0 0 0 0 -314.96961759584519 739.482795327438 0 739.482795327438 -432.62729956157636 0 0 0 0 -119.15266029306804 625.0661729808071 0 625.0661729808071 -366.59469460122273 0 0 0 0 -0.3221624980942579 588.77009718497538 0 588.77009718497538 -318.73133730664995 0 0 0 0 120.6154771206202 627.62425296482979 0 627.62425296482979 -551.29122283841934 0 0 0 0 290.07500256792991 20.161622059778438 0 20.161622059778438 126.21092446686089 0 0 0 0 -263.48314374368056 779.97183505866087 0 779.97183505866087 -564.09798582561052 0 0 0 0 -253.67352399771335 816.8345591594134 0 816.8345591594134 -426.78112067840266 0 0 0 0 410.26567577256355 464.46422675831127 0 464.46422675831127 -647.41515857671766 0 0 0 0 -1367.2600085479789 1678.2591961942198 0 1678.2591961942198 -1008.340485864921 0 0 0 0 -6.255844479429129 10.283710953481915 0 10.283710953481915 -11.009634865167428 0 0 0 0 -2414.0894131568857 526.53300752511495 0 526.53300752511495 69.109106245996372 0 0 0 0 1483.6828214383131 1589.8016560637279 0 1589.8016560637279 -1230.573136661943 0 0 0 0 782.75174515755498 818.08360964551048 0 818.08360964551048 850.66088814492105 0 0 0 0 703.00757110590348 653.61457401574808 0 653.61457401574808 738.54687707836274 0 0 0 0 -1226.9502377963872 167.97964992677635 0 167.97964992677635 24.651130590136745 0 0 0 0 -28.412063221586322 -575.71923459714276 0 -575.71923459714276 -785.24490889069421 0 0 0 0 0.10854557115573016 7.7796019443671867 0 7.7796019443671867 -6.1653724001680459 0 0 0 0 -131.49041941409814 729.90133496943599 0 729.90133496943599 -2481.1295439322621 0 0 0 0 -64.406639617751352 645.66554820479359 0 645.66554820479359 -2375.6609702530041 0 0 0 0 605.91721217849408 869.80573223752071 0 869.80573223752071 1110.2211544036873 0 0 0 0 504.78446650443948 688.88362961751409 0 688.88362961751409 1027.639444924931 0 0 0 0 71.539752239783411 425.33501117943706 0 425.33501117943706 632.15105454656441 0 0 0 0 420.08007375769375 388.35439440992923 0 388.35439440992923 108.09933612982422 0 0 0 0 8.3302090249202365 3.9542795546585836 0 3.9542795546585836 -1.8281540507086618 0 0 0 0 45.636272164076217 685.53670847609101 0 685.53670847609101 1097.7674042260296 0 0 0 0 368.24657866524649 1245.9212579466675 0 1245.9212579466675 1347.7312666882353 0 0 0 0 270.45162192790303 23.627915444547398 0 23.627915444547398 -45.744745975138358 0 0 0 0 994.76009899653582 698.05895020110529 0 698.05895020110529 261.25024784916968 0 0 0 0 -34.431034408262349 23.49667999936355 0 23.49667999936355 233.27500735909416 0 0 0 0 -18.742616904765839 34.788994300876197 0 34.788994300876197 -50.84717205122314 0 0 0 0 341.0816005543893 159.24941266753285 0 159.24941266753285 72.723029774948373 0 0 0 0 675.40161621062725 827.35975708234037 0 827.35975708234037 636.96758913352096 0 0 0 0 -23.028516937600216 308.25501014828478 0 308.25501014828478 423.09932874206424 0 0 0 0 210.70163537023473 657.37682658485028 0 657.37682658485028 810.72668172955309 0 0 0 0 -440.10997972304176 58.919502739703603 0 58.919502739703603 -5.3815021383138628 0 0 0 0 -154.62354770419915 185.33933207233167 0 185.33933207233167 -102.30283009251434 0 0 0 0 343.72971101892472 529.92591512192666 0 529.92591512192666 828.83096169228611 0 0 0 0 -15.569695411469866 25.135140172209958 0 25.135140172209958 -30.170901906996249 0 0 0 0 -91.808683191266027 25.435571782153602 0 25.435571782153602 -45.667288278333217 0 0 0 0 16.827089121567553 6.6396636758130185 0 6.6396636758130185 -14.068845836182657 0 0 0 0 26.432241896727646 75.334913766801037 0 75.334913766801037 -138.88213492478098 0 0 0 0 9.4289502354513388 69.29530568730388 0 69.29530568730388 -9.1291985392908828 0 0 0 0 59.270209207039443 58.816286588637922 0 58.816286588637922 -29.99030078695796 0 0 0 0 -1.0666514676548786 13.105300972415307 0 13.105300972415307 -20.057938757375947 0 0 0 0 -23.336241294571664 48.401064493955346 0 48.401064493955346 -118.39898345544862 0 0 0 0 132.7474069586533 27.227546821881333 0 27.227546821881333 -199.19146001634363 0 0 0 0 283.24095645418856 -1.0909388300569844 0 -1.0909388300569844 -374.42735787962738 0 0 0 0 -147.97566582192667 -224.8659112605892 0 -224.8659112605892 -123.88414178123276 0 0 0 0 -56.94326171312423 230.37943983259356 0 230.37943983259356 575.89824548445176 0 0 0 0 -96.291290826455224 277.3318658670396 0 277.3318658670396 552.49380337396724 0 0 0 0 201.76998581996304 342.08082215804097 0 342.08082215804097 180.36694712655662 0 0 0 0 -17.593849110242445 89.542548665944196 0 89.542548665944196 -157.09703330440971 0 0 0 0 1.7331514783290913 40.869391588978942 0 40.869391588978942 -58.511323826984153 0 0 0 0 5.0565956043283222 40.59317769509471 0 40.59317769509471 -72.563068484016185 0 0 0 0 21.656714264181119 39.440431106507901 0 39.440431106507901 20.948692234378569 0 0 0 0 49.427846566890366 159.97865137831832 0 159.97865137831832 -301.7900744741346 0 0 0 0 -1265.0529531760549 2185.5632140298258 0 2185.5632140298258 -2472.2974332084559 0 0 0 0 -1071.4243014761305 1462.7883721086582 0 1462.7883721086582 -2784.8424955434402 0 0 0 0 -1045.039542917686 1246.2875456107649 0 1246.2875456107649 -1841.0624037518483 0 0 0 0 -1470.9947232274862 2175.4857391029182 0 2175.4857391029182 -2246.7361400648733 0 0 0 0 -590.15156261742231 1350.4530419320599 0 1350.4530419320599 -1438.9140475908316 0 0 0 0 11.356845791225368 2.8848587618083457 0 2.8848587618083457 -33.275996132443169 0 0 0 0 -393.299097032188 196.79164688946094 0 196.79164688946094 -1059.7195236451334 0 0 0 0 -1632.6345706278516 1272.0677268299041 0 1272.0677268299041 -697.06694568739476 0 0 0 0 -870.58074792649131 2013.4509018906938 0 2013.4509018906938 -2025.7694005547019 0 0 0 0 -1685.7965225994703 1179.7262605712367 0 1179.7262605712367 -1301.5952802516258 0 0 0 0 59.916575159957631 25.95946464341452 0 25.95946464341452 -14.461400855423186 0 0 0 0 -553.6650689119524 1124.2882757383438 0 1124.2882757383438 -2233.615446071155 0 0 0 0 -643.4692923855564 512.48123362831745 0 512.48123362831745 -59.522967873232119 0 0 0 0 12.381491704072687 109.31821979289089 0 109.31821979289089 -71.651573071453868 0 0 0 0 7.2478083126770798 85.992366479187694 0 85.992366479187694 -6.0340286299342552 0 0 0 0 -1119.0359711635538 814.80749794522126 0 814.80749794522126 -973.0951768082341 0 0 0 0 449.61267669063818 33.509479056103373 0 33.509479056103373 -119.15722612220543 0 0 0 0 -1005.5603557889117 2018.2773034977017 0 2018.2773034977017 -1861.335239858563 0 0 0 0 46.051343781341075 20.961532101246547 0 20.961532101246547 1.4523967309088306 0 0 0 0 802.43285055568049 9.5165966593938265 0 9.5165966593938265 -279.25642642372986 0 0 0 0 486.23773563971918 197.92459002138912 0 197.92459002138912 -216.25970488953271 0 0 0 0 1105.5562882742815 516.20607458850873 0 516.20607458850873 -469.74672401806492 0 0 0 0 104.72427427620278 1237.2153154938342 0 1237.2153154938342 -605.67041226210677 0 0 0 0 -1054.4803176246642 1910.8136721125775 0 1910.8136721125775 -1581.2743800993649 0 0 0 0 -144.13551211950835 854.72540922308508 0 854.72540922308508 -404.39259503214043 0 0 0 0 -808.66984590773063 1241.3949111466254 0 1241.3949111466254 -256.36748285838667 0 0 0 0 -53.209287451565615 872.47010737547498 0 872.47010737547498 -380.77257555908659 0 0 0 0 -97.970334750207257 679.07158308600174 0 679.07158308600174 -24.454990703557996 0 0 0 0 -702.13886106107384 624.14725393452954 0 624.14725393452954 112.38639201256592 0 0 0 0 -685.04060532302537 589.70613573640958 0 589.70613573640958 -77.760779780823214 0 0 0 0 -474.22430391330272 835.17625606717411 0 835.17625606717411 89.892791117357774 0 0 0 0 -200.00217293603055 681.52543119328857 0 681.52543119328857 -204.93137668420241 0 0 0 0 -116.55388293827127 849.45738465678414 0 849.45738465678414 44.307502820112859 0 0 0 0 392.32158585252182 574.02244493845137 0 574.02244493845137 -331.15459565153583 0 0 0 0 138.6553610163246 201.46511867735899 0 201.46511867735899 -361.99538521418435 0 0 0 0 6.1364487806179113 -0.74937969615944411 0 -0.74937969615944411 2.2354945821978838 0 0 0 0 176.03271387948553 311.60651252420348 0 311.60651252420348 431.89392053349547 0 0 0 0 521.87885224520869 467.50268853462876 0 467.50268853462876 -115.28667088303246 0 0 0 0 516.75260817154776 368.18223298356497 0 368.18223298356497 -12.353358600706997 0 0 0 0 -38.438778949072002 237.63966139037802 0 237.63966139037802 115.18596090310348 0 0 0 0 -8.3409985537582543 3.9153765266673872 0 3.9153765266673872 -20.63433213702956 0 0 0 0 102.62763139598246 61.752007282491832 0 61.752007282491832 -103.88121170798695 0 0 0 0 2.7506842654693173 39.956160836536583 0 39.956160836536583 -101.70224051788682 0 0 0 0 -33.416822675149888 58.020039740098582 0 58.020039740098582 -68.140743601055874 0 0 0 0 -48.69381364856963 20.000215952175495 0 20.000215952175495 -110.14611523827625 0 0 0 0 0.10043461738678161 38.186767802777467 0 38.186767802777467 -129.18194144916197 0 0 0 0 -15.653876683674753 -1.0863481356536795 0 -1.0863481356536795 -209.27668289850408 0 0 0 0 2.3641872778534889 83.695892126597755 0 83.695892126597755 -218.34549776263066 0 0 0 0 -0.073669683023097079 28.47348156545711 0 28.47348156545711 -75.426946401377791 0 0 0 0 6.132153252882631 3.9973569555530375 0 3.9973569555530375 6.9502746474215371 0 0 0 0 13.000007494549209 33.989340593831912 0 33.989340593831912 -35.186145092477091 0 0 0 0 -92.083844194086851 243.28245729998889 0 243.28245729998889 1996.537436085775 0 0 0 0 48.349682100379141 423.00394834139297 0 423.00394834139297 1898.7656150351932 0 0 0 0 18.083293213704223 18.534739804768467 0 18.534739804768467 -9.4851117796419686 0 0 0 0 -0.36259751200674373 -1.5664355468559279 0 -1.5664355468559279 -8.1647799674137076 0 0 0 0 31.101082589710131 -28.57378630014864 0 -28.57378630014864 -288.22049146579229 0 0 0 0 6.0309706234984333 87.182392871878619 0 87.182392871878619 -213.50697498665249 0 0 0 0 34.93343176313374 -17.603486270639905 0 -17.603486270639905 -50.935608633766464 0 0 0 0 29.017760317565262 17.701041225925906 0 17.701041225925906 -146.00813830787956 0 0 0 0 66.016278084687656 70.320299617342243 0 70.320299617342243 -155.95348986047793 0 0 0 0 -106.84693144320045 528.87050086949603 0 528.87050086949603 -516.34229749796214 0 0 0 0 9.1656797459290829 -55.157568637405348 0 -55.157568637405348 -36.826396552503866 0 0 0 0 -4.7911568061383605 63.9533766198183 0 63.9533766198183 -70.508721560751241 0 0 0 0 -9.7827002050471492 547.62858265922841 0 547.62858265922841 1692.4353580622992 0 0 0 0 106.40053307780181 559.77841512123996 0 559.77841512123996 1496.5733862176148 0 0 0 0 -291.51364034353173 341.30269321287415 0 341.30269321287415 -299.42934155603143 0 0 0 0 6.8327462376841055 -7.3144311169310754 0 -7.3144311169310754 -8.0156365626429249 0 0 0 0 295.17786249599885 384.65668499142339 0 384.65668499142339 -1007.1926441474243 0 0 0 0 295.67154357480467 -500.79335578194514 0 -500.79335578194514 -210.33013633404335 0 0 0 0 146.75883082284417 159.60367638256685 0 159.60367638256685 -430.38636893648072 0 0 0 0 773.60806460137246 -533.79515738063492 0 -533.79515738063492 -1338.728546190745 0 0 0 0 -117.40805696908501 61.45871818872547 0 61.45871818872547 -96.791664857941214 0 0 0 0 -4.1493808447096399 8.0117264022287884 0 8.0117264022287884 -12.600008533556633 0 0 0 0 113.06747390411329 -89.101403616376047 0 -89.101403616376047 -1.9773006981631625 0 0 0 0 12.574910483730491 40.606163799162459 0 40.606163799162459 -73.597323605936253 0 0 0 0 14.83488522455589 28.026006502407256 0 28.026006502407256 -71.112318989387035 0 0 0 0 21.1939994636341 39.759776060517197 0 39.759776060517197 -55.440414561962825 0 0 0 0 37.932124812941765 120.41025873643594 0 120.41025873643594 -19.686300073968596 0 0 0 0 -239.98335698043229 299.76759441146714 0 299.76759441146714 -668.80759370375017 0 0 0 0 -20.773700727394498 19.380333538538792 0 19.380333538538792 -17.705763267113042 0 0 0 0 2.0540808917388276 6.203027299456096 0 6.203027299456096 -33.617924440382183 0 0 0 0 214.94263474407126 -151.96922440026401 0 -151.96922440026401 -345.83465730740136 0 0 0 0 69.721784225810552 217.30335527086936 0 217.30335527086936 586.29156364512164 0 0 0 0 7.5976744741574294 2.0171042350417565 0 2.0171042350417565 -1.9374511828583962 0 0 0 0 481.82373453615583 540.90468181786127 0 540.90468181786127 166.75994858471131 0 0 0 0 -23.516875954112038 -144.02201194147347 0 -144.02201194147347 -635.68295782877567 0 0 0 0 7.6324686084408313 -244.01544797474344 0 -244.01544797474344 -628.01070821623307 0 0 0 0 102.24425885357778 458.27229092616108 0 458.27229092616108 695.25553763088828 0 0 0 0 -345.32752215358778 -273.74503174628626 0 -273.74503174628626 -385.99089221740724 0 0 0 0 -35.743247657344909 101.90971575603908 0 101.90971575603908 624.38599266082747 0 0 0 0 121.48497339506866 213.63476295052533 0 213.63476295052533 385.68536455941648 0 0 0 0 45.410721386841033 45.282592957846646 0 45.282592957846646 -123.35965322188895 0 0 0 0 31.870517066205252 5.4430638220949845 0 5.4430638220949845 -20.220821129056652 0 0 0 0 96.436166481988039 -39.567900729671237 0 -39.567900729671237 -121.26257695372624 0 0 0 0 295.10924420689116 140.3972932137076 0 140.3972932137076 131.72493490817806 0 0 0 0 96.428017229540274 -26.364261958864518 0 -26.364261958864518 -147.84856378573022 0 0 0 0 114.80653583604726 111.53323879041272 0 111.53323879041272 -179.43932311962999 0 0 0 0 54.718653004034422 13.642539859698445 0 13.642539859698445 -30.807003958976566 0 0 0 0 94.640277190890629 115.64359175654681 0 115.64359175654681 -176.92560337406212 0 0 0 0 33.807654712931253 222.1995429936178 0 222.1995429936178 -347.91384380796808 0 0 0 0 217.33715988934273 100.42748545484937 0 100.42748545484937 -429.73986920922835 0 0 0 0 123.9959664955677 86.341668963774282 0 86.341668963774282 -307.27418250645133 0 0 0 0 188.91670856798009 23.748223218051862 0 23.748223218051862 -262.79700673859043 0 0 0 0 149.71425507008098 10.132753623554891 0 10.132753623554891 -255.36008461890196 0 0 0 0 -20.486301904267748 -31.979291475321588 0 -31.979291475321588 -202.39795220440283 0 0 0 0 143.92003205816945 20.639277838142334 0 20.639277838142334 -234.87933167788287 0 0 0 0 35.642991724402236 -95.006436023594688 0 -95.006436023594688 -182.00479481803632 0 0 0 0 14.627307086807605 8.470011397893785 0 8.470011397893785 -7.4084806921841846 0 0 0 0 73.956339206866687 -194.39075612278248 0 -194.39075612278248 -256.27701912075645 0 0 0 0 145.15802586220616 -50.979561045606943 0 -50.979561045606943 -460.83575451473735 0 0 0 0 243.11272200694657 100.57685659745766 0 100.57685659745766 -361.95346646883991 0 0 0 0 -416.26577387217549 -10.354481971311543 0 -10.354481971311543 19.020321323605458 0 0 0 0 50.725116302462993 -289.32161665998501 0 -289.32161665998501 -601.54357199617698 0 0 0 0 220.92820400400888 -2.5368989614989914 0 -2.5368989614989914 -831.9492927845713 0 0 0 0 2.448379978088667 12.10306387505662 0 12.10306387505662 -9.6311725442366267 0 0 0 0 180.38489302508242 293.93779721502506 0 293.93779721502506 312.17585495857929 0 0 0 0 -95.329572694696253 41.213216764292156 0 41.213216764292156 525.90298024994081 0 0 0 0 134.27130359195871 285.36902542698226 0 285.36902542698226 397.79647030311389 0 0 0 0 14.776345593070118 4.2241946607287559 0 4.2241946607287559 -3.6102348998081197 0 0 0 0 169.31729632208589 227.08571646614291 0 227.08571646614291 289.63134270921364 0 0 0 0 1107.1343652698561 159.85676110206987 0 159.85676110206987 -174.04600178198962 0 0 0 0 31.738817963720066 706.72389501661746 0 706.72389501661746 271.82936460453675 0 0 0 0 1308.8081071568195 -139.27991446510896 0 -139.27991446510896 786.06914544036408 0 0 0 0 1594.6466831259313 844.9529480073179 0 844.9529480073179 207.6020589882728 0 0 0 0 473.07709340806468 1090.452777765473 0 1090.452777765473 1182.5388841076638 0 0 0 0 74.044683887797873 710.80677109438693 0 710.80677109438693 822.49583740264643 0 0 0 0 95.342125761671923 596.73746748293706 0 596.73746748293706 817.33000580462249 0 0 0 0 331.49515378358774 273.69379463567748 0 273.69379463567748 337.99133104857174 0 0 0 0 610.05206983309472 786.45824176604947 0 786.45824176604947 -2782.8858761993033 0 0 0 0 8.3221831743352368 11.498569951758526 0 11.498569951758526 11.884514272305978 0 0 0 0 -77.110613782213477 218.74899685754599 0 218.74899685754599 1080.8732959739282 0 0 0 0 76.931523069433752 738.22639644313222 0 738.22639644313222 1354.0738555251082 0 0 0 0 1224.3449661968334 2130.2053660004822 0 2130.2053660004822 -1141.6128174242403 0 0 0 0 659.77620398439467 1905.9212685307539 0 1905.9212685307539 719.66908827766019 0 0 0 0 904.90651208593044 1270.5541541917446 0 1270.5541541917446 -759.13983112716232 0 0 0 0 1511.8875280479551 1308.755833638952 0 1308.755833638952 -2198.3007658389288 0 0 0 0 2148.4741088423762 516.50137822036413 0 516.50137822036413 -1834.9518708329942 0 0 0 0 1188.0973533652141 391.45519105638959 0 391.45519105638959 -795.83105194767268 0 0 0 0 -1736.8363653964625 1875.7723100012563 0 1875.7723100012563 -1614.9094220501138 0 0 0 0 2800.7936845251897 -707.3811798543984 0 -707.3811798543984 -910.03186082957109 0 0 0 0 6.2817676561105316 2.5076978245421628 0 2.5076978245421628 -17.546307525559897 0 0 0 0 -1902.7652123406442 2513.7165053124918 0 2513.7165053124918 -2293.6907568984534 0 0 0 0 1055.7053450882668 -53.596145804189291 0 -53.596145804189291 51.219074266933603 0 0 0 0 554.40141358945402 554.2791929652758 0 554.2791929652758 -471.78062473539103 0 0 0 0 542.20691662831814 499.29877414589646 0 499.29877414589646 -525.40796463171591 0 0 0 0 555.06516186266253 1063.6474904078434 0 1063.6474904078434 -711.92340725026588 0 0 0 0 606.00320078084769 1076.5006308085794 0 1076.5006308085794 -761.11640094147151 0 0 0 0 1217.1341668418318 815.30685629602203 0 815.30685629602203 -978.48711115316837 0 0 0 0 755.59572799605667 753.51210662594167 0 753.51210662594167 -692.65376794199574 0 0 0 0 786.80748296287493 959.62657664369544 0 959.62657664369544 -1125.1473656749349 0 0 0 0 419.84581868792884 1278.7644724328966 0 1278.7644724328966 -946.74038190228748 0 0 0 0 389.84603323339445 1033.8925882640199 0 1033.8925882640199 -1065.4311669289964 0 0 0 0 65.614874556325958 1072.9851912035701 0 1072.9851912035701 -773.10742883373678 0 0 0 0 236.76752125716303 1129.8800231495261 0 1129.8800231495261 -892.48110769014238 0 0 0 0 432.91496144773555 1332.4233433203699 0 1332.4233433203699 -872.08168140378575 0 0 0 0 -354.80437715747394 991.15913924662527 0 991.15913924662527 -1146.0586791972673 0 0 0 0 271.67918332951376 1218.8070981908149 0 1218.8070981908149 -1175.2733465444981 0 0 0 0 -420.6598480262619 1231.3959493892507 0 1231.3959493892507 -1699.1174278005965 0 0 0 0 529.32277951522701 729.46709078307686 0 729.46709078307686 -2502.6300704545793 0 0 0 0 389.82678161124932 1019.3330822329262 0 1019.3330822329262 -1650.4768983665708 0 0 0 0 799.03646517579909 599.76524746602809 0 599.76524746602809 -1402.5655575416968 0 0 0 0 1019.2503319489188 818.25310157334206 0 818.25310157334206 -1272.7786397065502 0 0 0 0 473.07069141202373 619.73032855021665 0 619.73032855021665 -1267.1612725253217 0 0 0 0 569.56084910900972 277.67241191052199 0 277.67241191052199 -1542.5345348768024 0 0 0 0 626.67732622366748 448.34598039601769 0 448.34598039601769 -1043.3125601040629 0 0 0 0 783.28773044359332 648.91064506278599 0 648.91064506278599 -844.96364185861603 0 0 0 0 39.566657125717029 158.99013292164454 0 158.99013292164454 -107.17779009959486 0 0 0 0 -23.100940985321358 -94.514570198769434 0 -94.514570198769434 -725.64529621967813 0 0 0 0 -7.3975473542232066 -194.99652148336463 0 -194.99652148336463 -841.36359500824801 0 0 0 0 336.04143529522116 328.27293584683866 0 328.27293584683866 -83.682386744505493 0 0 0 0 134.36338747787522 -133.57310400630377 0 -133.57310400630377 -696.50945846713148 0 0 0 0 -35.945929023000645 -135.58987611526209 0 -135.58987611526209 -681.45011518117099 0 0 0 0 167.14416655522655 -571.91094322239223 0 -571.91094322239223 -1387.6160249356981 0 0 0 0 406.9462773684063 -168.24379649500224 0 -168.24379649500224 -2287.7898739726734 0 0 0 0 351.93006803881144 148.39761474330589 0 148.39761474330589 -891.27541336675131 0 0 0 0 -750.55129838036373 1394.9501041848089 0 1394.9501041848089 -1757.1050016493828 0 0 0 0 24.041292277746834 -465.87420584757638 0 -465.87420584757638 -838.39742201505942 0 0 0 0 -0.38315666662266779 -0.65582674637400373 0 -0.65582674637400373 -12.58024461214589 0 0 0 0 -479.31548420310719 641.98986019762742 0 641.98986019762742 -368.18964905085886 0 0 0 0 -122.4428493094747 189.7609198199425 0 189.7609198199425 -740.06261669971354 0 0 0 0 -224.1390838747393 799.70075958200141 0 799.70075958200141 -2094.9030066013001 0 0 0 0 106.19970491013373 548.8685376714966 0 548.8685376714966 -2075.6895996014382 0 0 0 0 218.32858883935842 661.47724891390862 0 661.47724891390862 -2128.2308926744881 0 0 0 0 120.49273869323224 609.11002045038913 0 609.11002045038913 -2806.598074041387 0 0 0 0 -875.39783430908574 355.16929839413206 0 355.16929839413206 -1747.825368406237 0 0 0 0 -14.622535770700779 722.65370872989661 0 722.65370872989661 -1728.754427303219 0 0 0 0 -191.33737083108281 896.9627531171991 0 896.9627531171991 -1266.5531122291977 0 0 0 0 -120.46068864392873 753.11163826575103 0 753.11163826575103 -1121.2702231473158 0 0 0 0 393.1063399912091 1011.5229205090218 0 1011.5229205090218 -1083.7382333265405 0 0 0 0 -196.34419661277207 615.6017828382337 0 615.6017828382337 383.28400232562672 0 0 0 0 -128.3273928355411 844.41505514708751 0 844.41505514708751 -1717.1487408789835 0 0 0 0 113.71506773724104 1009.0218983387131 0 1009.0218983387131 -2008.2453614201659 0 0 0 0 203.22092457616236 812.02190230425549 0 812.02190230425549 -2106.1255036912116 0 0 0 0 -3.9375222363507874 1.2050769337718634 0 1.2050769337718634 -0.23168629430870169 0 0 0 0 196.11004227143712 1016.2776668445495 0 1016.2776668445495 -1633.0675176128643 0 0 0 0 513.28735657681318 358.08663180326994 0 358.08663180326994 -1425.4302665743562 0 0 0 0 -0.048143227089894935 982.13105434329373 0 982.13105434329373 236.58305189619205 0 0 0 0 -229.06640484632226 866.00499663859955 0 866.00499663859955 -1397.4462094976875 0 0 0 0 0.036684123959275894 1097.0562676356858 0 1097.0562676356858 -2139.8550958964915 0 0 0 0 96.317611727834446 781.81755350094591 0 781.81755350094591 -2950.4550025938006 0 0 0 0 278.69825264524843 851.76825964001364 0 851.76825964001364 -2736.9069412276804 0 0 0 0 -75.165731094690273 1024.664113980918 0 1024.664113980918 -2167.1851614906445 0 0 0 0 -10.519275539118382 4.8831709787208979 0 4.8831709787208979 -4.1006962487320635 0 0 0 0 48.420119791560865 -113.68617419616385 0 -113.68617419616385 -2447.0027362200526 0 0 0 0 437.25044557344518 255.94301134194393 0 255.94301134194393 -4144.4962085498191 0 0 0 0 -0.7244264373091942 252.57869138872934 0 252.57869138872934 -3329.826313772006 0 0 0 0 -505.86692131659947 1082.3986121189664 0 1082.3986121189664 -2922.9170177897522 0 0 0 0 82.367492975739879 659.55153549702482 0 659.55153549702482 495.4235388504294 0 0 0 0 -0.081524034118046984 848.7894829717352 0 848.7894829717352 308.38011544706205 0 0 0 0 298.3298909260775 969.14017169974522 0 969.14017169974522 372.2176401138845 0 0 0 0 -120.92626722720161 880.24173606858403 0 880.24173606858403 359.81643744344183 0 0 0 0 315.66329474441591 1183.6549908029483 0 1183.6549908029483 368.39626986408012 0 0 0 0 -299.25580342993635 551.74276141387554 0 551.74276141387554 368.63378076125082 0 0 0 0 96.343943609681446 728.67179806164586 0 728.67179806164586 -29.396605110625387 0 0 0 0 -211.82911822476308 487.39695949638553 0 487.39695949638553 -54.597175237508509 0 0 0 0 -0.46570991269254591 800.78471675112814 0 800.78471675112814 -713.43193784650066 0 0 0 0 206.31342882901663 678.07452281286351 0 678.07452281286351 -1272.0852343506085 0 0 0 0 4.845849792195736 0.68752397311533286 0 0.68752397311533286 -1.7649158103466291 0 0 0 0 -4.2267140483851335 0.96108534240653398 0 0.96108534240653398 0.29873554264257507 0 0 0 0 -148.26573646138422 699.24937911033339 0 699.24937911033339 128.00023009718825 0 0 0 0 -0.068502687849104404 1578.8257557336619 0 1578.8257557336619 -465.68025296749329 0 0 0 0 299.12769558514992 610.63515536248633 0 610.63515536248633 -1133.8461093717488 0 0 0 0 174.0359136408515 537.28108048730701 0 537.28108048730701 -411.9949214921071 0 0 0 0 -70.434097269564518 43.289972177511117 0 43.289972177511117 -426.25560033831061 0 0 0 0 -48.977209162039799 259.45128834643037 0 259.45128834643037 -803.57391053473111 0 0 0 0 520.4149849247915 433.15276978730253 0 433.15276978730253 -1050.626436360335 0 0 0 0 287.65498925279826 1032.1331868222915 0 1032.1331868222915 643.34065612913764 0 0 0 0 4.7056470494097766 0.83415211314422066 0 0.83415211314422066 -0.84478688610586516 0 0 0 0 -123.84934234891625 995.6308001912239 0 995.6308001912239 -759.23034179916431 0 0 0 0 726.73698866129416 1333.6454631573042 0 1333.6454631573042 -728.75051438201626 0 0 0 0 375.57326952062431 742.54624484089072 0 742.54624484089072 -643.10569686753297 0 0 0 0 592.07111729920143 1183.6456708313417 0 1183.6456708313417 149.75083587522386 0 0 0 0 1103.4334948148462 1060.4250875600919 0 1060.4250875600919 -538.31841420192177 0 0 0 0 1833.5395331454056 947.4176745915538 0 947.4176745915538 156.86897070445411 0 0 0 0 733.63099990045885 1314.0741588009096 0 1314.0741588009096 668.86775788032435 0 0 0 0 1185.256806280071 586.19338498261368 0 586.19338498261368 700.1168494925987 0 0 0 0 1245.6549056437434 1150.2571868004529 0 1150.2571868004529 24.456719617272029 0 0 0 0 584.66860303885187 1076.9149040466145 0 1076.9149040466145 249.56863014041846 0 0 0 0 513.58679455620586 1015.6383100288413 0 1015.6383100288413 264.96931045149176 0 0 0 0 786.93719620606862 904.82621761884548 0 904.82621761884548 -35.360283962236281 0 0 0 0 1317.1786185126402 591.93898567567339 0 591.93898567567339 -49.09227272796852 0 0 0 0 798.69382671252242 930.71894614630401 0 930.71894614630401 15.085284742013755 0 0 0 0 2151.3882774708327 1275.1774296898475 0 1275.1774296898475 -628.13510771002984 0 0 0 0 1402.2561740716192 1480.7281671937444 0 1480.7281671937444 -511.38018874586487 0 0 0 0 -173.78599954929086 438.81824104808948 0 438.81824104808948 -562.74477590890456 0 0 0 0 -341.17652626920608 532.23394664421903 0 532.23394664421903 -545.32952026911835 0 0 0 0 -142.79142464438337 895.90917039554188 0 895.90917039554188 275.87337527276031 0 0 0 0 -388.54070156507441 281.04393393219243 0 281.04393393219243 -129.60042228557722 0 0 0 0 -294.28798913641367 799.51356436116293 0 799.51356436116293 968.22105410880977 0 0 0 0 807.81376927386736 1737.5078849865968 0 1737.5078849865968 618.17526821757929 0 0 0 0 8.0887609749696026 7.4145973638323994 0 7.4145973638323994 4.592424705522987 0 0 0 0 44.070695701102977 1296.8434330125042 0 1296.8434330125042 364.75148382079351 0 0 0 0 893.99459295431734 1501.1180646393004 0 1501.1180646393004 -269.69827471995632 0 0 0 0 300.57135089271469 1279.5237739257573 0 1279.5237739257573 -334.0953210755315 0 0 0 0 349.74933224954293 1235.7181030394804 0 1235.7181030394804 -608.53139894950436 0 0 0 0 349.73774388170932 1380.773102128444 0 1380.773102128444 -505.06334826205784 0 0 0 0 60.788082632469013 1109.5270801620245 0 1109.5270801620245 -175.58887913859144 0 0 0 0 41.65503549192681 1140.6290705455935 0 1140.6290705455935 -134.54954426309268 0 0 0 0 105.82696366271557 1032.4209511015474 0 1032.4209511015474 -349.56588544748229 0 0 0 0 -19.447710549633484 841.40544980392042 0 841.40544980392042 -615.69202468888398 0 0 0 0 -248.35816221660934 648.88944295552938 0 648.88944295552938 -291.11054608667382 0 0 0 0 349.57757254812168 1075.441912842145 0 1075.441912842145 -585.76289171506141 0 0 0 0 303.25990449194796 1157.6653816541439 0 1157.6653816541439 -701.1664983851324 0 0 0 0 -42.157622022554278 584.62652601104492 0 584.62652601104492 -537.65426635670974 0 0 0 0 -490.48246932431357 772.70072587813411 0 772.70072587813411 -529.98271629181545 0 0 0 0 127.80364290905709 733.88431433446385 0 733.88431433446385 -729.58694984563044 0 0 0 0 -226.6992468899989 533.84454562369865 0 533.84454562369865 -607.32270949157282 0 0 0 0 -160.15286594741337 510.22398289932426 0 510.22398289932426 -790.87200380302966 0 0 0 0 -168.87207041619695 394.72961891736122 0 394.72961891736122 -561.75597274880056 0 0 0 0 -114.65635688637849 519.80543246707384 0 519.80543246707384 -649.7863049308362 0 0 0 0 -194.25625452285021 447.11222412692769 0 447.11222412692769 -519.42883353230718 0 0 0 0 -94.860312706630793 583.762630727123 0 583.762630727123 -443.82332425214554 0 0 0 0 -170.59985139739001 386.93899290004993 0 386.93899290004993 -371.25511095583988 0 0 0 0 -198.01045945682563 320.44949302279747 0 320.44949302279747 -456.48276233383513 0 0 0 0 -144.06722739018733 287.99814313081333 0 287.99814313081333 -504.21776439516543 0 0 0 0 -193.85428736332688 372.93972283334733 0 372.93972283334733 -505.769681995469 0 0 0 0 -66.227132309955778 378.55625360409613 0 378.55625360409613 -496.79309602119611 0 0 0 0 49.610119865828892 538.10269242278537 0 538.10269242278537 -466.26583146014309 0 0 0 0 -34.888866377950762 360.74164362771808 0 360.74164362771808 -513.90593361596984 0 0 0 0 -156.54534243556554 499.75019684908216 0 499.75019684908216 -512.3901032765134 0 0 0 0 -138.15351716891746 343.10183576990676 0 343.10183576990676 -509.40881422804523 0 0 0 0 23.349883255286841 386.78777369320233 0 386.78777369320233 -449.86293928591112 0 0 0 0 165.78693056449993 423.55092407899429 0 423.55092407899429 -489.82015353546012 0 0 0 0 193.82536630734103 358.01320497904817 0 358.01320497904817 -466.90575413493934 0 0 0 0 250.65185351156106 477.00205496621948 0 477.00205496621948 -462.94432767654507 0 0 0 0 148.27935311000329 440.85407202589886 0 440.85407202589886 -497.18731076110271 0 0 0 0 27.855900181113611 325.20736519437605 0 325.20736519437605 -536.82337957122945 0 0 0 0 -148.09533377620392 345.22356468555517 0 345.22356468555517 -481.69184765336831 0 0 0 0 -271.35218899611209 233.48460380667166 0 233.48460380667166 -462.11585215690866 0 0 0 0 -411.14243692313903 343.80325517480742 0 343.80325517480742 -427.12000933075979 0 0 0 0 -120.98536870389944 253.01160997883017 0 253.01160997883017 -502.32140998464456 0 0 0 0 3.8586946463510685 4.8085080888303082 0 4.8085080888303082 4.3241367762250107 0 0 0 0 -284.43795914275688 878.8572096007083 0 878.8572096007083 -641.97508813192326 0 0 0 0 12.622901259299681 17.487518321951057 0 17.487518321951057 15.89717842591195 0 0 0 0 -363.68858902264037 201.72063306366726 0 201.72063306366726 -40.283849023886432 0 0 0 0 -354.07554108079057 469.11479312956362 0 469.11479312956362 466.64717714855578 0 0 0 0 33.085751616512425 -1208.6638487714608 0 -1208.6638487714608 58.795296935160877 0 0 0 0 123.28588457038859 67.428847718856559 0 67.428847718856559 -984.0697917548714 0 0 0 0 41.119296270830091 377.15520815974742 0 377.15520815974742 -455.25855102719379 0 0 0 0 -1766.4911690971931 -661.8624362825758 0 -661.8624362825758 175.64892161758326 0 0 0 0 95.083290923939785 464.62223923117563 0 464.62223923117563 -342.98195496817425 0 0 0 0 163.28442238199932 316.91912222584779 0 316.91912222584779 -268.12222727070184 0 0 0 0 2785.1836179622333 693.44333586254652 0 693.44333586254652 -385.78900909275035 0 0 0 0 742.92470649117604 236.36089034374527 0 236.36089034374527 -368.08811343501293 0 0 0 0 8.1021993631200075 9.9604614496577426 0 9.9604614496577426 11.425403772500051 0 0 0 0 272.76962293393444 48.140849611392696 0 48.140849611392696 3569.896779072038 0 0 0 0 -466.67495021961531 -1005.7069839464089 0 -1005.7069839464089 478.4795051759429 0 0 0 0 -469.63542232552436 -834.35291563519672 0 -834.35291563519672 2545.6434852717139 0 0 0 0 -735.99701427252148 245.92006921238772 0 245.92006921238772 3351.1496054735144 0 0 0 0 -366.06531299630296 564.00253742470341 0 564.00253742470341 3346.1433751391232 0 0 0 0 -288.90620921517257 233.32809090826231 0 233.32809090826231 4108.3832553342363 0 0 0 0 179.20534929336281 1106.9810654985922 0 1106.9810654985922 3916.0865485977229 0 0 0 0 -448.86769570794422 1014.3579057477764 0 1014.3579057477764 4122.9210769392412 0 0 0 0 98.861778787744697 1411.3143733399593 0 1411.3143733399593 3338.7747148543385 0 0 0 0 130.18668003311905 1625.0751578280306 0 1625.0751578280306 4793.5573914031047 0 0 0 0 -423.47936363500776 1138.2371272072942 0 1138.2371272072942 2925.443846790753 0 0 0 0 -289.6568886104651 1576.3203022296625 0 1576.3203022296625 2606.2701141134166 0 0 0 0 -249.38215762632899 1478.6555075486613 0 1478.6555075486613 2705.9865583611172 0 0 0 0 -13.946778711106163 1917.8854241939589 0 1917.8854241939589 3443.6066485609954 0 0 0 0 581.27131277503213 1905.1377480029842 0 1905.1377480029842 2472.8932383559077 0 0 0 0 -414.24017452652333 1264.0172562494372 0 1264.0172562494372 2384.1245924915056 0 0 0 0 -622.49957852630178 987.96203635738675 0 987.96203635738675 2384.2791179304995 0 0 0 0 -586.62684404905303 1038.0243125609777 0 1038.0243125609777 2373.5982847385967 0 0 0 0 -692.2699077380239 1036.7137477606029 0 1036.7137477606029 3011.9234644248645 0 0 0 0 -480.21173469146015 930.05896860730354 0 930.05896860730354 2363.1638622633473 0 0 0 0 -472.07204988718149 520.09118481503174 0 520.09118481503174 1493.8236035792252 0 0 0 0 -769.33998612934374 401.45063434650365 0 401.45063434650365 1932.979616156299 0 0 0 0 -832.16728453309042 591.06953392695686 0 591.06953392695686 2879.3501692882674 0 0 0 0 -645.48007030173903 422.31880312427984 0 422.31880312427984 1978.3263500182293 0 0 0 0 -766.08198430162156 -540.89143442386921 0 -540.89143442386921 2471.6724279526861 0 0 0 0 -450.9757788880961 118.16729608641435 0 118.16729608641435 570.84963620149938 0 0 0 0 -415.42807776975678 -112.48892931089563 0 -112.48892931089563 504.04407398549301 0 0 0 0 -658.97258588607656 134.56654073501431 0 134.56654073501431 1366.5979349320041 0 0 0 0 -112.55099393444834 486.38311962179341 0 486.38311962179341 996.3972064225627 0 0 0 0 -353.46554928278783 572.23006596498453 0 572.23006596498453 561.35109862095851 0 0 0 0 -259.43866827175952 212.91694847693861 0 212.91694847693861 1283.3128821380269 0 0 0 0 -536.38298087479779 560.07859617936992 0 560.07859617936992 1837.1504781441945 0 0 0 0 -481.84192239744004 671.93372002701483 0 671.93372002701483 1819.8591891367032 0 0 0 0 134.18748894306191 542.99554664115158 0 542.99554664115158 1459.3794246515699 0 0 0 0 -249.01524760620669 914.33545262384814 0 914.33545262384814 2072.1602917429591 0 0 0 0 -247.09975782808397 988.7760841052758 0 988.7760841052758 2052.3117976761714 0 0 0 0 569.08070967304229 803.55381815827923 0 803.55381815827923 1634.7898818593885 0 0 0 0 28.181245948653668 428.91189574090731 0 428.91189574090731 1468.2596424587746 0 0 0 0 483.26545358372096 369.23436051202088 0 369.23436051202088 1104.6763428606209 0 0 0 0 8.5107061552480445 79.072433625602116 0 79.072433625602116 929.32340888117687 0 0 0 0 459.04710828370298 573.63807358774557 0 573.63807358774557 409.66240059250413 0 0 0 0 50.860862247180194 76.295739176510324 0 76.295739176510324 -57.379742586879274 0 0 0 0 281.2123678723583 719.56788854599654 0 719.56788854599654 -222.47191570712221 0 0 0 0 -431.92119212829857 52.333391471303912 0 52.333391471303912 524.27608600472013 0 0 0 0 -115.52809128355148 524.28660294210727 0 524.28660294210727 190.64148722181199 0 0 0 0 -257.91106154591398 319.09226530062324 0 319.09226530062324 12.567770488891256 0 0 0 0 -928.72004574124003 682.19487573542392 0 682.19487573542392 82.823997080441814 0 0 0 0 -845.13701101578772 -128.86639685199407 0 -128.86639685199407 -351.99857535741467 0 0 0 0 10.57834644661358 12.373227132601158 0 12.373227132601158 10.471372604964969 0 0 0 0 195.40521896522841 271.14498449350685 0 271.14498449350685 -1138.9053824994644 0 0 0 0 279.19782627598033 736.91034980222503 0 736.91034980222503 -321.16246694601068 0 0 0 0 6.3994071409950948 6.2259835771289005 0 6.2259835771289005 4.1440854424163049 0 0 0 0 -1331.5103880068928 -602.07795397246718 0 -602.07795397246718 601.90318369190118 0 0 0 0 336.09834789246088 1025.382793178067 0 1025.382793178067 -958.50700487123322 0 0 0 0 124.52324370935094 992.91934382069121 0 992.91934382069121 -217.81348505512142 0 0 0 0 603.45560139605368 593.00628055252855 0 593.00628055252855 -415.71766923797986 0 0 0 0 588.58029571298539 807.27733092920107 0 807.27733092920107 522.74977640124962 0 0 0 0 -2.166845877628873 0.17849386145442736 0 0.17849386145442736 2.6408884915154474 0 0 0 0 516.43815523051308 638.85007351562126 0 638.85007351562126 -50.542391133548335 0 0 0 0 685.57850979935756 972.51936511743543 0 972.51936511743543 -76.12184769256055 0 0 0 0 516.18574150157656 600.47288806597339 0 600.47288806597339 421.86211139451189 0 0 0 0 562.1358831783582 613.62179759753053 0 613.62179759753053 -286.51307884127255 0 0 0 0 356.15882556476572 958.04243372899782 0 958.04243372899782 269.52150824371529 0 0 0 0 611.14070564002031 203.97569927762743 0 203.97569927762743 481.98291324617344 0 0 0 0 -1.1460488750729496 -2.2519753516126002 0 -2.2519753516126002 5.9190121794437971 0 0 0 0 357.16785836300551 -24.874941843074225 0 -24.874941843074225 638.8774471976476 0 0 0 0 629.66275079640036 658.49294649264471 0 658.49294649264471 976.07358932095667 0 0 0 0 230.06691407501057 148.47475516023221 0 148.47475516023221 1191.4892746960577 0 0 0 0 366.1611794310902 434.73526429065532 0 434.73526429065532 753.83509890213099 0 0 0 0 385.34806069915066 587.570699990398 0 587.570699990398 1161.3968551337889 0 0 0 0 260.29645903132041 499.97404605665542 0 499.97404605665542 939.08784278746907 0 0 0 0 -2.2695664131598505 -3.8287916712984895 0 -3.8287916712984895 10.059576467251025 0 0 0 0 385.94669723833795 714.60499287142386 0 714.60499287142386 959.18536553286219 0 0 0 0 0.29327876667957753 628.43811576728649 0 628.43811576728649 830.97079818133625 0 0 0 0 251.84876523348066 476.45968688560254 0 476.45968688560254 916.83530023960941 0 0 0 0 0.57533023173196463 619.92849016787375 0 619.92849016787375 1069.4443783268343 0 0 0 0 -3.6723121952313136 -0.096905177042543755 0 -0.096905177042543755 4.8362830165928372 0 0 0 0 295.79317828238709 433.53197303273646 0 433.53197303273646 692.1788784421642 0 0 0 0 312.70388119187555 536.76883768485277 0 536.76883768485277 870.95302564659869 0 0 0 0 -3.1816645782876662 0.91685035269500759 0 0.91685035269500759 3.473447640563208 0 0 0 0 269.67949221534946 838.47313722821855 0 838.47313722821855 851.20287158759584 0 0 0 0 0.12323760038627622 805.04399451337406 0 805.04399451337406 659.44515562385459 0 0 0 0 1145.4292993024865 746.15578532336895 0 746.15578532336895 -273.06248862115535 0 0 0 0 1048.5882559768979 1091.9651890045041 0 1091.9651890045041 -732.16780066439969 0 0 0 0 422.91501761463587 1388.0242980817693 0 1388.0242980817693 -247.51563392444405 0 0 0 0 609.72781433788623 1022.2689351258487 0 1022.2689351258487 290.69766484786851 0 0 0 0 540.73623841069639 832.13112334216748 0 832.13112334216748 -231.24487262533376 0 0 0 0 -657.42889894589462 541.91150701260813 0 541.91150701260813 265.25237979222948 0 0 0 0 -518.81965121823669 806.41164018617519 0 806.41164018617519 241.86153293415555 0 0 0 0 28.664026517108141 82.944540780258649 0 82.944540780258649 19.908995059617155 0 0 0 0 -529.90727394749774 -40.406463650474052 0 -40.406463650474052 -1257.0129577101961 0 0 0 0 -158.41268023131124 867.92253835275119 0 867.92253835275119 192.13275805480771 0 0 0 0 1856.4446365430485 675.32585843231118 0 675.32585843231118 -784.53750238433759 0 0 0 0 -859.28073193119781 1799.2806104382971 0 1799.2806104382971 -901.80080396388985 0 0 0 0 2201.992399724988 -804.15331156422769 0 -804.15331156422769 -48.681214119096694 0 0 0 0 16.210497785960001 9.3504899995684241 0 9.3504899995684241 2.7059148635305164 0 0 0 0 -463.64178835309576 911.89377671860893 0 911.89377671860893 -1577.5384305408793 0 0 0 0 -787.32458187376324 591.66194230815017 0 591.66194230815017 -465.0431508917718 0 0 0 0 487.95706983708078 578.60273321160821 0 578.60273321160821 -1257.2410670236659 0 0 0 0 -638.96539633310749 735.93234020225827 0 735.93234020225827 -288.74832732731011 0 0 0 0 -809.49728593451437 1044.5327870853125 0 1044.5327870853125 -153.26325016834016 0 0 0 0 1045.8631364387111 1049.58509245606 0 1049.58509245606 -476.26252019911772 0 0 0 0 -808.72802196734119 694.98157990071923 0 694.98157990071923 -302.72337429807158 0 0 0 0 10.318984130457409 3.7994390530495252 0 3.7994390530495252 -26.3415184369359 0 0 0 0 -493.02458921876678 807.23236114782867 0 807.23236114782867 -755.20734421670932 0 0 0 0 138.88829772014287 -257.79652807877574 0 -257.79652807877574 -621.10420527322185 0 0 0 0 -147.42737179886899 200.30608719877637 0 200.30608719877637 -397.77868645711715 0 0 0 0 4.5909360233584664 2.5435168824074879 0 2.5435168824074879 -9.4849030052016872 0 0 0 0 -1879.5164792587602 1963.6353807764358 0 1963.6353807764358 -928.14773510816303 0 0 0 0 3693.3929589996114 651.6648736634852 0 651.6648736634852 794.05870142857748 0 0 0 0 1562.013851662774 -852.44116085282803 0 -852.44116085282803 -28.066129585491581 0 0 0 0 -1251.1109305806749 623.26383784354448 0 623.26383784354448 -676.00643392025449 0 0 0 0 -357.53716724699188 674.21181904788864 0 674.21181904788864 -690.00260689654169 0 0 0 0 -306.60400575969834 646.90676523639922 0 646.90676523639922 -1047.112301455516 0 0 0 0 -279.77480932910112 375.94328358731582 0 375.94328358731582 -601.41737486909187 0 0 0 0 -852.67909177741967 606.16075220453786 0 606.16075220453786 -671.77034812893908 0 0 0 0 -296.48540222833981 711.97184095076591 0 711.97184095076591 -697.40183783416069 0 0 0 0 -224.35000494700466 483.19660435236494 0 483.19660435236494 -428.77170258003753 0 0 0 0 -221.35532528173644 740.88156413980323 0 740.88156413980323 -49.994206286857661 0 0 0 0 -175.03187622653058 1777.8458602533638 0 1777.8458602533638 -1791.3972776705705 0 0 0 0 1437.5892473701097 810.16558910361164 0 810.16558910361164 -1509.5383986912821 0 0 0 0 -225.70722726284293 773.67293392673673 0 773.67293392673673 91.106446018293354 0 0 0 0 570.99980778813187 95.846015993972287 0 95.846015993972287 490.55483298461331 0 0 0 0 -79.960092457040446 759.4380101351253 0 759.4380101351253 -207.71127275565232 0 0 0 0 90.647927480342332 1021.9013975588641 0 1021.9013975588641 -199.79491185021152 0 0 0 0 130.17049829311145 941.09736757303835 0 941.09736757303835 -196.45144038421131 0 0 0 0 -62.98763487697579 789.57074304000344 0 789.57074304000344 -312.02838149593845 0 0 0 0 -198.37659606384113 644.57276772179466 0 644.57276772179466 -384.0062121613737 0 0 0 0 174.62385807413375 751.11180724979931 0 751.11180724979931 -388.93455152767115 0 0 0 0 -51.832481670076959 470.3947237278262 0 470.3947237278262 -507.62368211672583 0 0 0 0 -357.94273385198903 784.66055616046106 0 784.66055616046106 -364.08547870872098 0 0 0 0 3759.1140559650667 731.77902250706575 0 731.77902250706575 -2624.4231602407526 0 0 0 0 3.128276041239701 6.0889847975250291 0 6.0889847975250291 4.5609102018914598 0 0 0 0 -1907.2181330618187 875.34996839414453 0 875.34996839414453 97.366134293650248 0 0 0 0 -695.12174688786035 721.5503257061755 0 721.5503257061755 -282.17769271507359 0 0 0 0 -1099.1922780372988 126.04471638362338 0 126.04471638362338 -27.806099444824213 0 0 0 0 2523.9924113594752 -528.03087656550815 0 -528.03087656550815 -615.36843285433861 0 0 0 0 239.32987400830098 366.88753483899995 0 366.88753483899995 -553.4689009360809 0 0 0 0 1185.8611944683798 335.63082550731087 0 335.63082550731087 -492.69443663215498 0 0 0 0 -649.94062784549897 541.70519589105061 0 541.70519589105061 428.04567704093643 0 0 0 0 -954.88418578117125 1591.5527237919009 0 1591.5527237919009 -344.74814266202884 0 0 0 0 5.5699216423789721 17.454763269628927 0 17.454763269628927 16.291038104518577 0 0 0 0 -3345.5883981703519 563.41149691254668 0 563.41149691254668 1459.0413704495986 0 0 0 0 84.285087512427708 970.04314738856556 0 970.04314738856556 -998.85283819199503 0 0 0 0 2220.1545454259467 1835.4987742880203 0 1835.4987742880203 523.60530304312579 0 0 0 0 1.9192367928828702 9.0122346601210381 0 9.0122346601210381 13.006185976772898 0 0 0 0 282.58374896683381 654.65264129586467 0 654.65264129586467 -511.45752622681175 0 0 0 0 336.83873365877662 612.45384897276017 0 612.45384897276017 -506.42424746094184 0 0 0 0 39.139093792880885 562.97816004722335 0 562.97816004722335 -511.92432451348577 0 0 0 0 45.893093036691425 895.21810781249405 0 895.21810781249405 -533.69880196197482 0 0 0 0 509.31299781386042 855.44313544914621 0 855.44313544914621 -533.80135161922954 0 0 0 0 751.12800359021639 934.29377554652456 0 934.29377554652456 -648.32185042429046 0 0 0 0 268.37350601959042 1104.3066037996377 0 1104.3066037996377 -691.32800235224568 0 0 0 0 -15.356985401187558 1194.8495198019646 0 1194.8495198019646 -467.29666277075739 0 0 0 0 93.523618965104106 1108.7390093948547 0 1108.7390093948547 -112.32365804737128 0 0 0 0 841.81072516136919 1241.290317416293 0 1241.290317416293 -90.987307295875326 0 0 0 0 483.69909341815219 694.26670856442161 0 694.26670856442161 -377.78145685087293 0 0 0 0 1264.7172754729982 827.48969917832073 0 827.48969917832073 -372.40870859243296 0 0 0 0 688.26988446500036 797.5149115671793 0 797.5149115671793 309.04930496466841 0 0 0 0 732.01838861021679 710.31049771947437 0 710.31049771947437 -70.612161777062283 0 0 0 0 609.3390980232507 693.81650814924797 0 693.81650814924797 -509.73116084909691 0 0 0 0 555.17771438838099 342.04988198475621 0 342.04988198475621 -456.81346066194601 0 0 0 0 1541.0860487105092 959.33966384963423 0 959.33966384963423 -236.18223724901418 0 0 0 0 3351.173764476669 725.73891494971031 0 725.73891494971031 3904.3247547788401 0 0 0 0 1574.1686468024272 827.3961519838158 0 827.3961519838158 3901.2136009761489 0 0 0 0 1813.0868864762015 1412.6437616514304 0 1412.6437616514304 514.77871260575557 0 0 0 0 1162.1009647207102 639.78214260738241 0 639.78214260738241 -66.358535263014346 0 0 0 0 1898.3202059228097 2148.9703083083091 0 2148.9703083083091 1089.467150406912 0 0 0 0 1361.7025544676799 1568.6997427192669 0 1568.6997427192669 1056.6752169656102 0 0 0 0 -6.8572132141562179 1895.8845282852417 0 1895.8845282852417 4510.1505153877461 0 0 0 0 -1366.4304466202157 778.5501969125653 0 778.5501969125653 1931.7934305612471 0 0 0 0 -1029.774974444299 1171.2723822940352 0 1171.2723822940352 3428.9149636367256 0 0 0 0 117.54264261713251 1731.0205655109485 0 1731.0205655109485 2414.4897779768289 0 0 0 0 6.9214371398993535 -528.92330309232375 0 -528.92330309232375 3125.3629031769233 0 0 0 0 14.422415522724407 16.056423422537733 0 16.056423422537733 28.559047434580165 0 0 0 0 235.40306559790042 -83.966694157363236 0 -83.966694157363236 3955.6116035980885 0 0 0 0 -328.27171909863682 625.89444567882765 0 625.89444567882765 2800.5338982138273 0 0 0 0 569.07653839699924 316.54742594910203 0 316.54742594910203 4085.600036686893 0 0 0 0 -209.52786783348711 1083.4003646197234 0 1083.4003646197234 4559.1929745766392 0 0 0 0 1952.9180380952312 1721.7371013251086 0 1721.7371013251086 1444.147134579227 0 0 0 0 3011.4011250049225 2251.7478853393332 0 2251.7478853393332 5028.3642941330982 0 0 0 0 4686.8162112447608 220.9244865403507 0 220.9244865403507 4023.2367872949108 0 0 0 0 1806.6743024192474 2649.0237041776531 0 2649.0237041776531 3557.9729292843331 0 0 0 0 1706.3542538813199 1991.8315421079278 0 1991.8315421079278 1639.9180717175423 0 0 0 0 647.81623532029334 2245.3678837260632 0 2245.3678837260632 3806.6115005905303 0 0 0 0 886.9232939677313 1807.7697411049485 0 1807.7697411049485 3642.1384155993073 0 0 0 0 780.62208756944165 1654.9285611643354 0 1654.9285611643354 6306.8288909333787 0 0 0 0 2747.2814704139601 -365.25133572495179 0 -365.25133572495179 5754.4712536773586 0 0 0 0 739.82847715052776 779.2758697510144 0 779.2758697510144 5183.7053705571816 0 0 0 0 703.62531866086647 604.17851939576576 0 604.17851939576576 4397.1809314485145 0 0 0 0 -489.39425065382966 1677.1257835867618 0 1677.1257835867618 2296.186719949369 0 0 0 0 -1153.6921461567399 2060.3393071604605 0 2060.3393071604605 2405.2003305356702 0 0 0 0 -309.35886996699264 203.71280326795568 0 203.71280326795568 3088.2370663799375 0 0 0 0 -317.50386440048351 56.312482285105943 0 56.312482285105943 888.0492383546225 0 0 0 0 534.57087758788839 1343.806012150575 0 1343.806012150575 2208.5269866816816 0 0 0 0 -4.160189578077393 0.1210928021035329 0 0.1210928021035329 5.4508370054102571 0 0 0 0 757.62430569309799 422.89267409223839 0 422.89267409223839 271.78320862723194 0 0 0 0 212.71715225069784 140.05846240908613 0 140.05846240908613 -160.95103771297727 0 0 0 0 -360.36929781854269 354.71332033799627 0 354.71332033799627 240.17311704748499 0 0 0 0 -402.63416998658795 248.46852420825235 0 248.46852420825235 28.856422362281592 0 0 0 0 -436.35566753311286 254.8882164623692 0 254.8882164623692 28.519404195307288 0 0 0 0 -588.07421562500531 -37.169705922080539 0 -37.169705922080539 -75.697656316293433 0 0 0 0 1666.6476839778406 2081.0382495033164 0 2081.0382495033164 1474.3221353789813 0 0 0 0 -7.8697041352437509 -0.53619578261177026 0 -0.53619578261177026 31.866119191580765 0 0 0 0 682.65340578978066 1354.6044794811478 0 1354.6044794811478 2190.1152478466993 0 0 0 0 2326.8777602241898 1465.2504986205677 0 1465.2504986205677 684.95050575215282 0 0 0 0 -1779.124179791972 17.70001664247502 0 17.70001664247502 198.44872138990831 0 0 0 0 2870.6905554400291 2598.410708881137 0 2598.410708881137 711.02908304086304 0 0 0 0 -1.0413308125221761 1.330939071659202 0 1.330939071659202 9.3368836687395032 0 0 0 0 1665.9615558749938 2379.9452370291947 0 2379.9452370291947 1049.2448507863865 0 0 0 0 740.72840506715147 1640.1768671736222 0 1640.1768671736222 1237.3593405713182 0 0 0 0 -928.78242529559066 675.73205807085469 0 675.73205807085469 539.48756659723574 0 0 0 0 -197.77651022380451 1067.1390069762228 0 1067.1390069762228 516.19524007310611 0 0 0 0 -693.08632941761607 500.29584408664869 0 500.29584408664869 130.26500418804426 0 0 0 0 -883.74507016161806 526.73494602366009 0 526.73494602366009 113.95191833337958 0 0 0 0 -781.41304162728193 584.12088424425383 0 584.12088424425383 115.84088004172008 0 0 0 0 -646.97390625665139 261.05292867339813 0 261.05292867339813 131.17487032498593 0 0 0 0 -560.49549369513988 482.53618788989661 0 482.53618788989661 5.5873188092155033 0 0 0 0 -801.41957411616022 638.12150872291386 0 638.12150872291386 22.201753807748901 0 0 0 0 -609.12857975059887 485.7892643383675 0 485.7892643383675 115.11425708336742 0 0 0 0 -787.05038027078263 556.89320418641364 0 556.89320418641364 110.78534458348804 0 0 0 0 -907.89108098122961 533.20619240310225 0 533.20619240310225 112.60453530871746 0 0 0 0 -731.98512423984357 482.03556003232734 0 482.03556003232734 143.34611886997754 0 0 0 0 -853.05366752686314 474.03494520818913 0 474.03494520818913 143.29977798600885 0 0 0 0 -747.2375430844404 529.56656394964011 0 529.56656394964011 126.79645613223147 0 0 0 0 -511.39885490879169 523.55864412587584 0 523.55864412587584 344.82873180813476 0 0 0 0 -718.84841774335655 408.33317045319745 0 408.33317045319745 154.62569195132528 0 0 0 0 -721.92875153673231 461.35441160804112 0 461.35441160804112 67.548144221997063 0 0 0 0 -637.56884438729321 447.45372148367824 0 447.45372148367824 56.901402632210193 0 0 0 0 -517.9258159694582 414.87257893115748 0 414.87257893115748 65.702152255271358 0 0 0 0 -519.53685054872767 433.5770971371096 0 433.5770971371096 142.33813956367521 0 0 0 0 -498.4353829316824 512.62600377956915 0 512.62600377956915 -25.347195631322393 0 0 0 0 -494.9120596917528 509.26992226559059 0 509.26992226559059 -89.732070906204171 0 0 0 0 -660.11712225251904 513.64538716776633 0 513.64538716776633 116.78628179842781 0 0 0 0 -664.3540715039635 696.38856352134189 0 696.38856352134189 -27.491044989776128 0 0 0 0 -487.64379443475627 616.63521306438088 0 616.63521306438088 -172.33543053795438 0 0 0 0 -527.99727908849309 597.51450157233921 0 597.51450157233921 0.82618777172137925 0 0 0 0 -480.47619936723277 694.10537171012584 0 694.10537171012584 -126.36565838616661 0 0 0 0 -799.05865386784717 511.51090873328576 0 511.51090873328576 166.26023758904921 0 0 0 0 -759.65070664189989 531.62390016985046 0 531.62390016985046 168.62594790121238 0 0 0 0 -737.74738970960607 543.52004466220023 0 543.52004466220023 108.45702995227839 0 0 0 0 -710.04982192171155 642.49630775969126 0 642.49630775969126 176.03108158872601 0 0 0 0 -781.85292855782609 495.52630552019855 0 495.52630552019855 310.27542265085867 0 0 0 0 -847.7687048441876 653.07033880721065 0 653.07033880721065 344.2950556091605 0 0 0 0 -1228.5865575727366 1013.1654194020084 0 1013.1654194020084 123.48143243451523 0 0 0 0 -902.44760123624292 789.85576052078795 0 789.85576052078795 268.81646546852608 0 0 0 0 -800.29201104120875 680.50021217651101 0 680.50021217651101 182.34670626877414 0 0 0 0 -532.60753022821154 749.52278863127867 0 749.52278863127867 -12.230874142129323 0 0 0 0 -434.86718284205563 833.24099205083439 0 833.24099205083439 -190.7317405861977 0 0 0 0 -680.82425054745545 978.77384377570979 0 978.77384377570979 -72.07201111980612 0 0 0 0 -523.17764545345563 807.88308834660529 0 807.88308834660529 -40.921569980205277 0 0 0 0 -199.5295095325564 973.62884304730051 0 973.62884304730051 -465.79519277094369 0 0 0 0 -783.04028323243256 1025.4087871263237 0 1025.4087871263237 -88.45689952691464 0 0 0 0 -80.578610329554067 666.2915150713643 0 666.2915150713643 -203.52552492406176 0 0 0 0 -238.68538914622332 767.30709192532322 0 767.30709192532322 -227.60456843075372 0 0 0 0 193.16423455312179 623.61768207557543 0 623.61768207557543 -441.81892626673289 0 0 0 0 -15.068467619857984 304.46756609178374 0 304.46756609178374 -148.32637120651907 0 0 0 0 22.335687039834738 433.74532701874159 0 433.74532701874159 -79.775071169271541 0 0 0 0 -624.13931544912339 1338.7845073988165 0 1338.7845073988165 -756.03993812829867 0 0 0 0 88.174787626790931 257.913974252343 0 257.913974252343 -816.5698664598101 0 0 0 0 -1706.0329903837992 1853.1626285024968 0 1853.1626285024968 -1029.2430387088789 0 0 0 0 -2273.6465968122793 709.03574059202583 0 709.03574059202583 47.807756527836546 0 0 0 0 -947.77471851727023 435.0389180652237 0 435.0389180652237 73.24537877990042 0 0 0 0 -822.22591373643809 1111.9082869651197 0 1111.9082869651197 -243.26045611939844 0 0 0 0 -933.1955713695861 1061.0533638232168 0 1061.0533638232168 -244.185427236338 0 0 0 0 -40.979378114076098 375.62630778295716 0 375.62630778295716 184.52914407808566 0 0 0 0 -191.86188572368701 232.96158098099477 0 232.96158098099477 315.2903798256084 0 0 0 0 -137.54463682122878 27.373086284844248 0 27.373086284844248 565.41766722286548 0 0 0 0 -209.714200864124 392.20578199735792 0 392.20578199735792 126.17448615911417 0 0 0 0 -195.93374049315753 307.88429450627882 0 307.88429450627882 488.40951517411213 0 0 0 0 -557.34741058664076 -59.433968585485673 0 -59.433968585485673 948.69970352425298 0 0 0 0 -2.3422666494548388 37.21730802496009 0 37.21730802496009 149.742132165404 0 0 0 0 -27.187217011480243 296.71814039168657 0 296.71814039168657 -49.129468550863365 0 0 0 0 433.90504687145585 0.94942573284970422 0 0.94942573284970422 -54.068654120974315 0 0 0 0 -51.230393656122033 88.040839991592293 0 88.040839991592293 131.45434077126083 0 0 0 0 -99.24997825724131 125.39182144497317 0 125.39182144497317 186.52646744292633 0 0 0 0 -172.47670890182781 145.34964668468592 0 145.34964668468592 182.34166529805589 0 0 0 0 -66.429647755649057 191.78866638601176 0 191.78866638601176 167.91877754632333 0 0 0 0 -66.58334475292213 218.71297031901713 0 218.71297031901713 121.64569442435823 0 0 0 0 -52.138375139300479 277.88223031717644 0 277.88223031717644 60.429099365430375 0 0 0 0 144.4443504413357 301.92909404178499 0 301.92909404178499 -29.311725408419989 0 0 0 0 -213.21401690949278 533.12478688702504 0 533.12478688702504 -89.222396704100447 0 0 0 0 -122.96719426534401 410.18461969697455 0 410.18461969697455 11.634869092988083 0 0 0 0 -250.44622150930809 348.82558917452116 0 348.82558917452116 137.5080459909102 0 0 0 0 -288.29747974635393 529.46313109245148 0 529.46313109245148 -33.789207827358041 0 0 0 0 -367.85456870356575 600.29557132108675 0 600.29557132108675 -45.797846248556198 0 0 0 0 -271.5450748634903 680.89996572426389 0 680.89996572426389 -122.33519414170951 0 0 0 0 -456.71713359368732 714.29212666844069 0 714.29212666844069 -125.57427697309481 0 0 0 0 -411.57778550421062 607.80559967644876 0 607.80559967644876 -73.973848830477436 0 0 0 0 -609.34044782519049 582.11323406620068 0 582.11323406620068 -65.880639605711622 0 0 0 0 -603.30453676304023 120.41136043207371 0 120.41136043207371 -15.701507989407219 0 0 0 0 -605.69411736165057 489.50773155876232 0 489.50773155876232 -49.489836383101647 0 0 0 0 -516.20020164561356 407.60055218854541 0 407.60055218854541 24.916887630308338 0 0 0 0 -307.06136907608015 427.72977382651334 0 427.72977382651334 25.595278433946987 0 0 0 0 -343.73503351688123 272.30893602461992 0 272.30893602461992 149.44438970927877 0 0 0 0 -345.78409836723586 392.90474595940032 0 392.90474595940032 136.25193616592878 0 0 0 0 -304.809575493171 16.902166596930329 0 16.902166596930329 131.80834493807924 0 0 0 0 -153.31012076546176 -91.6114382116466 0 -91.6114382116466 -191.07693752188788 0 0 0 0 55.093398348260962 273.96601698162976 0 273.96601698162976 48.70441756794753 0 0 0 0 -11.349600957329624 28.734615117194295 0 28.734615117194295 104.33221905415314 0 0 0 0 0.85942420282641585 -4.2886932866450991 0 -4.2886932866450991 9.1911616521771435 0 0 0 0 -118.31244114041328 131.47373351873102 0 131.47373351873102 -17.422634116104746 0 0 0 0 -321.10361268403358 -22.479025954504323 0 -22.479025954504323 47.452833676150476 0 0 0 0 -10.281927360850265 -7.2399642171785956 0 -7.2399642171785956 27.584124563575173 0 0 0 0 -808.7609933079807 247.34285809403821 0 247.34285809403821 -22.892165226141515 0 0 0 0 -0.81254541880428377 44.012646448510935 0 44.012646448510935 60.39365619440423 0 0 0 0 1285.6417411022885 476.87988786626465 0 476.87988786626465 133.70877665881562 0 0 0 0 -877.34544741327409 194.10770631492414 0 194.10770631492414 -64.202302597193921 0 0 0 0 -1004.092509837963 623.10279724296015 0 623.10279724296015 -107.28048110784584 0 0 0 0 -526.05643530873931 482.38637290501538 0 482.38637290501538 -93.182192372281861 0 0 0 0 -1672.7706280872953 343.38249861312943 0 343.38249861312943 -43.784771160808305 0 0 0 0 -980.74811966701964 792.09385187493581 0 792.09385187493581 -299.34486069654668 0 0 0 0 -987.60222322789195 837.761304693483 0 837.761304693483 -596.83075795879995 0 0 0 0 -7.5479640291388632 30.932050944948159 0 30.932050944948159 54.790428449454268 0 0 0 0 -2204.1423011498409 724.80611180984488 0 724.80611180984488 -96.682119239150779 0 0 0 0 -127.11942293989523 709.81026985701601 0 709.81026985701601 -580.20420600048965 0 0 0 0 2557.4605302712462 865.32923789485653 0 865.32923789485653 337.20022788441565 0 0 0 0 7.1511724416149178 7.2522447362091214 0 7.2522447362091214 0.68861023580386416 0 0 0 0 -438.3266872435961 690.73553299795003 0 690.73553299795003 -216.12137053296101 0 0 0 0 -584.07575000240467 641.97115404279248 0 641.97115404279248 -369.21153687770857 0 0 0 0 -585.9274445483461 606.77027987250949 0 606.77027987250949 -192.34490832110623 0 0 0 0 -411.12835612604977 650.20910061662107 0 650.20910061662107 -295.84849695050434 0 0 0 0 -423.51996020434308 541.25858105943735 0 541.25858105943735 -90.838113482266635 0 0 0 0 -328.10546409319795 367.47830166308995 0 367.47830166308995 -34.930942788842003 0 0 0 0 -367.60579032504756 525.07086785136198 0 525.07086785136198 -4.2908070028279326 0 0 0 0 -364.72031489285291 398.70155949437321 0 398.70155949437321 -187.37951424294806 0 0 0 0 -547.04718142796628 664.06699483053853 0 664.06699483053853 -177.30976547161845 0 0 0 0 -541.6703298323846 314.57489752128458 0 314.57489752128458 -43.560934653125514 0 0 0 0 -354.65835672013964 657.63680953400171 0 657.63680953400171 389.79894284049806 0 0 0 0 -139.37966212100946 894.73902002783234 0 894.73902002783234 968.43925215002673 0 0 0 0 -436.56140102338395 459.91800824320671 0 459.91800824320671 566.53025596747102 0 0 0 0 -289.89479001070868 418.51302588057933 0 418.51302588057933 707.2296156508819 0 0 0 0 -299.21027647138726 312.78995358167731 0 312.78995358167731 131.09919068725867 0 0 0 0 -305.44259297377721 368.37773226289573 0 368.37773226289573 158.73098890083565 0 0 0 0 -289.54409917110752 634.72046374034107 0 634.72046374034107 473.05268544093633 0 0 0 0 7926.4144271073428 2560.7351157510825 0 2560.7351157510825 -1033.7032339256257 0 0 0 0 -4841.3090684675117 516.69041822214058 0 516.69041822214058 1200.9541888916938 0 0 0 0 3.8274812831118119 12.186336203258719 0 12.186336203258719 18.265008784032631 0 0 0 0 -2227.2995417351776 504.94446966367104 0 504.94446966367104 -75.283536389557412 0 0 0 0 -3060.9895816280041 200.9154128974842 0 200.9154128974842 27.393709729454713 0 0 0 0 4238.6111289710971 113.75556495674391 0 113.75556495674391 527.81154809739382 0 0 0 0 2361.4626756080834 543.27581800275948 0 543.27581800275948 1142.923970463271 0 0 0 0 -1709.2842965322488 375.57908189688169 0 375.57908189688169 -762.07414887411869 0 0 0 0 -2224.6705397692276 -286.11636219658249 0 -286.11636219658249 -1012.4693640810874 0 0 0 0 -2872.0518357261317 -538.26088041318872 0 -538.26088041318872 -642.18846919614589 0 0 0 0 -2892.2339489901087 -18.68018948900999 0 -18.68018948900999 -363.02257449628087 0 0 0 0 -2257.0517695269245 367.4373332840305 0 367.4373332840305 -388.93037125028786 0 0 0 0 -1310.0206763334572 619.16098879255151 0 619.16098879255151 -303.66643598325027 0 0 0 0 -1341.3310660745337 756.26600913234142 0 756.26600913234142 -548.92041602400423 0 0 0 0 -2106.5517692572903 288.12888171522354 0 288.12888171522354 -358.45056546703563 0 0 0 0 -921.78560351747728 839.94942210780209 0 839.94942210780209 -405.223218201485 0 0 0 0 -709.64235689811176 482.66999261822639 0 482.66999261822639 -363.46346416286724 0 0 0 0 -766.5151717676199 789.49239903998387 0 789.49239903998387 185.2578522030235 0 0 0 0 -1253.9705592332757 422.21433459933905 0 422.21433459933905 -85.969649290869711 0 0 0 0 -1233.6849946824368 625.65668647764687 0 625.65668647764687 -355.39766515036172 0 0 0 0 -2209.5566016251978 968.90069122101704 0 968.90069122101704 378.05803530843696 0 0 0 0 -382.35196503865882 1493.0303935785996 0 1493.0303935785996 446.27810176191269 0 0 0 0 -1086.4790187052859 478.75934341614266 0 478.75934341614266 1169.195359243633 0 0 0 0 -2441.9428919834027 756.45767951627204 0 756.45767951627204 476.76248474650492 0 0 0 0 -815.71759059486794 393.89466826608259 0 393.89466826608259 384.29431448437026 0 0 0 0 -419.17890727357008 1057.6419220462194 0 1057.6419220462194 1258.3985154665424 0 0 0 0 115.75633911472505 1192.7467250849036 0 1192.7467250849036 802.89153051315225 0 0 0 0 1489.1230343113421 2641.2898986992514 0 2641.2898986992514 1466.9602470520185 0 0 0 0 113.92299656933756 1108.4769484325006 0 1108.4769484325006 33.331440687146824 0 0 0 0 -2452.1855365524243 2660.662812238239 0 2660.662812238239 1284.6660873484652 0 0 0 0 11.1302955253025 13.534583537817539 0 13.534583537817539 4.1004949649989655 0 0 0 0 3632.5139629867626 2095.5196514203853 0 2095.5196514203853 1060.1312641648256 0 0 0 0 383.99459798792668 866.05844118260211 0 866.05844118260211 -1384.6022247534493 0 0 0 0 -4320.1147010742352 1575.7748289006358 0 1575.7748289006358 1484.2020956657507 0 0 0 0 -3372.931518800804 2494.0624520306537 0 2494.0624520306537 1560.9662252019771 0 0 0 0 974.77682022663066 4749.7693467926802 0 4749.7693467926802 3145.8070251544304 0 0 0 0 575.68805657848134 -226.37698610583175 0 -226.37698610583175 -2138.8023094460077 0 0 0 0 -149.65437466793082 -1009.6901511215583 0 -1009.6901511215583 -901.02642194904911 0 0 0 0 326.71988673662418 398.53578544888296 0 398.53578544888296 -131.06371822564688 0 0 0 0 -101.96783633093582 84.862670110247564 0 84.862670110247564 984.88939472004131 0 0 0 0 -1217.106673358423 57.368232121480105 0 57.368232121480105 786.21644243798801 0 0 0 0 732.1513533651887 1877.5395065358753 0 1877.5395065358753 2202.0890779801412 0 0 0 0 3591.1205484583043 2447.8839593835728 0 2447.8839593835728 900.50422155096021 0 0 0 0 1870.0334452345269 851.56695853143538 0 851.56695853143538 946.2765007847338 0 0 0 0 1076.0019774418615 1518.8246269133961 0 1518.8246269133961 1271.2913385929878 0 0 0 0 413.33795678248134 537.8471142578237 0 537.8471142578237 773.39979704254074 0 0 0 0 1188.591702144302 819.96347450753819 0 819.96347450753819 724.96411287180672 0 0 0 0 1708.4575431674893 1487.7983105566091 0 1487.7983105566091 891.1614115691782 0 0 0 0 2498.9047620226338 872.0943472158433 0 872.0943472158433 468.73999867445673 0 0 0 0 -357.4837939611316 761.96590457842467 0 761.96590457842467 646.16104911323055 0 0 0 0 271.95810890670691 604.57909317776648 0 604.57909317776648 583.05703947043366 0 0 0 0 500.50256121110579 1242.784786031676 0 1242.784786031676 951.38415471915141 0 0 0 0 208.34417283664516 776.73227755749394 0 776.73227755749394 495.46804164072091 0 0 0 0 39.680292585457209 325.22902084836096 0 325.22902084836096 -48.29384292854229 0 0 0 0 -182.01701375805715 326.68555530445155 0 326.68555530445155 -36.565902574864594 0 0 0 0 19.507029164698906 -54.14797610045207 0 -54.14797610045207 167.12195090184832 0 0 0 0 181.39495973440353 279.59984927184996 0 279.59984927184996 -861.15286047453264 0 0 0 0 280.30658205444342 -244.61949628704315 0 -244.61949628704315 -1023.2489786114893 0 0 0 0 48.761403709475417 365.8639570905143 0 365.8639570905143 -1487.9979276617378 0 0 0 0 64.023636774050829 168.91705394502196 0 168.91705394502196 -1242.0509082148783 0 0 0 0 -361.60197416433948 -16.077602318335266 0 -16.077602318335266 -1297.6708351075649 0 0 0 0 -846.36625582864508 56.396324197870854 0 56.396324197870854 -1020.8028982346586 0 0 0 0 -857.32703388144728 796.08802852717054 0 796.08802852717054 -1809.3937905727671 0 0 0 0 -1094.0051615694247 813.17633131552066 0 813.17633131552066 8.8530953993176809 0 0 0 0 -160.83466969374786 486.41902390231735 0 486.41902390231735 -1363.987013451333 0 0 0 0 -12.386409242151728 1.2752155298618248 0 1.2752155298618248 -0.65385992510249924 0 0 0 0 -1008.5803112825815 24.608000100146455 0 24.608000100146455 355.34606739861192 0 0 0 0 -319.23022905958351 -178.36037716973078 0 -178.36037716973078 271.25874548110005 0 0 0 0 -1055.9545780580083 972.91279128416863 0 972.91279128416863 -1436.2780359244643 0 0 0 0 102.99972302200331 1173.2670828434493 0 1173.2670828434493 -1953.6770010428536 0 0 0 0 -228.33417214138899 -18.093699510060105 0 -18.093699510060105 338.46579004864907 0 0 0 0 -259.55414160108194 -40.952759176667314 0 -40.952759176667314 337.15091962961742 0 0 0 0 -729.70537922253425 238.88103442662032 0 238.88103442662032 588.29917094941629 0 0 0 0 -283.43571179284481 328.30686066193812 0 328.30686066193812 245.02793347593251 0 0 0 0 -21.15761371969711 437.55584045483192 0 437.55584045483192 597.56569307664063 0 0 0 0 -84.909427577294991 496.24968533297942 0 496.24968533297942 605.89038701920072 0 0 0 0 -263.94322816745262 200.96382783880654 0 200.96382783880654 482.38350806183735 0 0 0 0 -77.939072893706907 102.73219084372977 0 102.73219084372977 354.41647688880039 0 0 0 0 -77.918758179293945 231.71519720823562 0 231.71519720823562 344.56256377298996 0 0 0 0 119.67842220835155 425.07728206765751 0 425.07728206765751 506.75532370802284 0 0 0 0 130.08116569424601 447.08007805091984 0 447.08007805091984 409.79136536593433 0 0 0 0 478.2707733343268 769.88924002623025 0 769.88924002623025 601.7177246383435 0 0 0 0 595.73956470451958 630.11506077450758 0 630.11506077450758 338.36999410618 0 0 0 0 1218.9119168633906 984.80921545846923 0 984.80921545846923 445.19011494070583 0 0 0 0 1335.159569152027 401.01274130545062 0 401.01274130545062 193.45024136708525 0 0 0 0 2390.8822111590707 674.41295447453012 0 674.41295447453012 193.00545206633979 0 0 0 0 1501.2568466486009 820.6522515192155 0 820.6522515192155 643.8404971434793 0 0 0 0 1429.2007032580623 1132.851519687576 0 1132.851519687576 595.37323428489617 0 0 0 0 675.36510921509762 762.71616803095094 0 762.71616803095094 538.1840141020075 0 0 0 0 328.95699845379568 958.8517786592638 0 958.8517786592638 751.52705674309254 0 0 0 0 -58.944918013658025 979.49517809136978 0 979.49517809136978 1184.9767001173823 0 0 0 0 172.97510046113166 -310.86357860523276 0 -310.86357860523276 841.88087873508994 0 0 0 0 639.45416883898724 -477.3996454304106 0 -477.3996454304106 -809.74512270865671 0 0 0 0 -16.203541298149503 314.00278104324389 0 314.00278104324389 12.989970296417596 0 0 0 0 27.507148692588089 459.369378488027 0 459.369378488027 -400.39022160843558 0 0 0 0 -10.474643489658632 -2.7085188094530679 0 -2.7085188094530679 0.40982855185060485 0 0 0 0 -310.84982181806845 -108.19520355231361 0 -108.19520355231361 850.69322807226854 0 0 0 0 -364.30683978622255 -32.125726045494957 0 -32.125726045494957 401.74246253650927 0 0 0 0 -192.14317565999227 149.65162570941175 0 149.65162570941175 482.79035248811124 0 0 0 0 -106.21044405437715 49.665447060844599 0 49.665447060844599 300.90890997947281 0 0 0 0 -195.21082576955814 75.519530403297381 0 75.519530403297381 293.40427560448734 0 0 0 0 -1072.3896861182948 232.1607664655312 0 232.1607664655312 755.49491446887259 0 0 0 0 -22.898281754093261 0.75046556249267837 0 0.75046556249267837 0.74090371033423241 0 0 0 0 -85.24950558731507 117.54226280222429 0 117.54226280222429 287.00999215723584 0 0 0 0 -87.184350254305173 5.3433682878749096 0 5.3433682878749096 253.93075013212729 0 0 0 0 85.759473969330429 17.423742393410066 0 17.423742393410066 188.90967196466227 0 0 0 0 -123.20064203086076 -42.432410243680351 0 -42.432410243680351 203.48115461130692 0 0 0 0 -123.14036635508455 27.057074976522927 0 27.057074976522927 242.22348043391685 0 0 0 0 -15.230856479407521 168.10817007429432 0 168.10817007429432 240.78620079678512 0 0 0 0 1.7715752994481591 191.55854228255157 0 191.55854228255157 271.49962626353226 0 0 0 0 -16.638159005415218 103.57980545828468 0 103.57980545828468 -179.161492979576 0 0 0 0 -169.44192406229558 -36.723874030920342 0 -36.723874030920342 182.97676519344532 0 0 0 0 -161.99026331102141 -207.93489525544828 0 -207.93489525544828 -497.76005848561908 0 0 0 0 -130.0957064589893 -8.9633038161118748 0 -8.9633038161118748 189.17002661198421 0 0 0 0 -754.42670169509802 104.67077844526284 0 104.67077844526284 202.44363418613102 0 0 0 0 309.02456832805183 51.175660090113524 0 51.175660090113524 203.2244293935546 0 0 0 0 493.04648062976776 -52.682119032448099 0 -52.682119032448099 242.25392773689236 0 0 0 0 -318.83683822560852 121.4230738989263 0 121.4230738989263 497.77449066078407 0 0 0 0 -275.09158280066913 283.59881810469233 0 283.59881810469233 254.37211301871298 0 0 0 0 -184.92243676989892 360.8789779648414 0 360.8789779648414 157.30220781696698 0 0 0 0 -646.62105979079206 521.70974122700409 0 521.70974122700409 110.80961468387977 0 0 0 0 -171.00566268891271 622.65201799745773 0 622.65201799745773 -663.03366103016015 0 0 0 0 -71.245176126663864 345.78342638806316 0 345.78342638806316 -21.21694780576945 0 0 0 0 -160.18747478799196 597.78539028100204 0 597.78539028100204 75.784556547843749 0 0 0 0 -309.99927645233402 429.48980316361485 0 429.48980316361485 290.97837903407344 0 0 0 0 -19.209619693487184 548.84245687324437 0 548.84245687324437 244.41489940022802 0 0 0 0 -60.135316432915715 463.25042643092456 0 463.25042643092456 254.37859309348278 0 0 0 0 -6.9124759664482553 372.0082500071112 0 372.0082500071112 131.64701861354115 0 0 0 0 -41.909812207853975 411.9280652252437 0 411.9280652252437 93.77426444835146 0 0 0 0 33.033708199975081 449.49859159504922 0 449.49859159504922 229.93620039259258 0 0 0 0 70.008217661204981 304.88038217705616 0 304.88038217705616 59.207845728000393 0 0 0 0 63.711301742238902 336.60577860882768 0 336.60577860882768 302.21666824696877 0 0 0 0 56.562796901191177 413.71373768595004 0 413.71373768595004 280.21994378673844 0 0 0 0 118.97082256459544 548.22741785490871 0 548.22741785490871 284.3638958567899 0 0 0 0 99.123122731070907 538.8848665519763 0 538.8848665519763 311.99673224917933 0 0 0 0 15.45715662038856 492.90733321228254 0 492.90733321228254 333.17596535794291 0 0 0 0 8.8800422283020453 528.95362949408081 0 528.95362949408081 336.08717859626631 0 0 0 0 102.58148686662025 517.94128587692103 0 517.94128587692103 328.22020029441046 0 0 0 0 -18.109958477823966 474.54043790792639 0 474.54043790792639 360.45365379573195 0 0 0 0 -85.237446517538046 425.54284603113774 0 425.54284603113774 288.00607386104184 0 0 0 0 -139.5406238084397 531.21206256355435 0 531.21206256355435 357.05805743111705 0 0 0 0 -91.212165914344951 436.95081994931024 0 436.95081994931024 410.48105492029572 0 0 0 0 -14.614829680707771 463.91494317285105 0 463.91494317285105 386.99387925901829 0 0 0 0 -22.198696804814972 355.65489380402869 0 355.65489380402869 477.42768382075883 0 0 0 0 -32.041964016694692 340.95655751155573 0 340.95655751155573 457.51891135696678 0 0 0 0 -124.96095718097058 446.69876027016289 0 446.69876027016289 451.5904157272962 0 0 0 0 18.474248491242179 295.18657543231166 0 295.18657543231166 253.96081719562255 0 0 0 0 581.27609635370027 536.73420140620692 0 536.73420140620692 297.09840361242095 0 0 0 0 754.81907964785933 389.17191238402302 0 389.17191238402302 231.88283144267552 0 0 0 0 806.46073143307876 520.3398714568757 0 520.3398714568757 108.06138947526779 0 0 0 0 853.57164167938026 539.19664683584415 0 539.19664683584415 117.2194906869845 0 0 0 0 933.27771695398405 428.28170356910414 0 428.28170356910414 170.61408128804032 0 0 0 0 582.9351390583779 412.21240876166667 0 412.21240876166667 210.4974132564239 0 0 0 0 866.01577488672638 568.54643581189805 0 568.54643581189805 142.30521797163237 0 0 0 0 874.57793674601999 352.59608277601365 0 352.59608277601365 153.3654491287889 0 0 0 0 1007.86794176884 368.95740385215322 0 368.95740385215322 155.05179664233583 0 0 0 0 1073.742485689836 553.6912958695857 0 553.6912958695857 137.64733588715899 0 0 0 0 757.05221337528201 698.90219769808755 0 698.90219769808755 333.4316701113853 0 0 0 0 542.71069600958435 497.2371926681335 0 497.2371926681335 286.27716628171038 0 0 0 0 324.9621820331231 521.26807073756208 0 521.26807073756208 359.60376605096144 0 0 0 0 403.42146536127257 586.50303906503541 0 586.50303906503541 436.08685046923256 0 0 0 0 175.14901129357895 409.1828854767773 0 409.1828854767773 353.88098564750544 0 0 0 0 167.52176776611304 417.99340052805928 0 417.99340052805928 353.90646818459504 0 0 0 0 153.28630161305773 485.66043745285424 0 485.66043745285424 282.52140567946935 0 0 0 0 183.24665259825269 428.89763171600498 0 428.89763171600498 368.3247963385511 0 0 0 0 267.28147785576584 547.62710142048309 0 547.62710142048309 334.11771294317441 0 0 0 0 292.55010830155516 467.36894002259214 0 467.36894002259214 456.83759648355044 0 0 0 0 495.44948799947451 410.07236147166805 0 410.07236147166805 342.07498016388854 0 0 0 0 361.27336957788066 576.63485392810253 0 576.63485392810253 358.94546893109873 0 0 0 0 476.6773482799581 435.28006733513757 0 435.28006733513757 329.49749990802957 0 0 0 0 280.86492833052398 484.14481347993024 0 484.14481347993024 309.6955353426747 0 0 0 0 148.17567965481066 493.46108909076611 0 493.46108909076611 358.97670357010793 0 0 0 0 211.23231611590018 572.25607365734322 0 572.25607365734322 339.7027255868652 0 0 0 0 170.87228045592201 553.60112990653579 0 553.60112990653579 316.26502476865062 0 0 0 0 210.77002095359785 497.9656937624386 0 497.9656937624386 247.14682112212176 0 0 0 0 106.27379010588629 512.90290641053798 0 512.90290641053798 339.79051452557906 0 0 0 0 256.57831496116705 561.12191725125012 0 561.12191725125012 330.6346367683218 0 0 0 0 329.48117404294317 473.29837624239735 0 473.29837624239735 169.56645748828305 0 0 0 0 420.31582317482389 584.60646303727117 0 584.60646303727117 304.85520228045152 0 0 0 0 791.44512389779993 530.30327457897874 0 530.30327457897874 132.09230046263838 0 0 0 0 567.45461075840285 340.95038939426013 0 340.95038939426013 -20.783489794317575 0 0 0 0 480.82038390544039 506.18185152700607 0 506.18185152700607 802.26208456093445 0 0 0 0 884.23870444511704 306.332600840542 0 306.332600840542 275.17908274009824 0 0 0 0 -24.555998008327151 116.45380928167651 0 116.45380928167651 656.56828455364666 0 0 0 0 -6.2989718760296682 -1.608602586969603 0 -1.608602586969603 26.154031147198765 0 0 0 0 683.49763508473552 42.559467683895491 0 42.559467683895491 31.593486039477284 0 0 0 0 -129.89736346225254 72.351984454435296 0 72.351984454435296 106.53066625226347 0 0 0 0 14.855151286854245 32.193441269032448 0 32.193441269032448 8.2296028708802567 0 0 0 0 336.27177413625759 146.55429156235186 0 146.55429156235186 -20.38861826545326 0 0 0 0 34.804545301391045 142.38741535197914 0 142.38741535197914 73.776821769148228 0 0 0 0 141.94997079091263 215.15457538094779 0 215.15457538094779 101.46309321024455 0 0 0 0 58.489661869818519 169.40722170731897 0 169.40722170731897 93.653657262333581 0 0 0 0 182.1842449963442 190.69836354308791 0 190.69836354308791 72.429211433773162 0 0 0 0 169.58535487310292 295.74831228546827 0 295.74831228546827 100.18094977635246 0 0 0 0 175.68210966622428 212.29276772191224 0 212.29276772191224 72.970658209829708 0 0 0 0 188.96231647135846 237.29585071486781 0 237.29585071486781 96.902456297641038 0 0 0 0 353.53041679207308 380.85411788375131 0 380.85411788375131 109.80248193496664 0 0 0 0 274.43324936007411 247.8310496234335 0 247.8310496234335 27.466877582904999 0 0 0 0 345.25979896844638 309.13955632116654 0 309.13955632116654 71.098631656685029 0 0 0 0 255.63969277193974 449.43620998206097 0 449.43620998206097 174.89413456119655 0 0 0 0 243.73427616564732 436.75770552019821 0 436.75770552019821 173.72358248546243 0 0 0 0 160.17621898488142 483.82232693546393 0 483.82232693546393 249.3306761139047 0 0 0 0 163.29393012748551 495.38966614979472 0 495.38966614979472 269.28359148313757 0 0 0 0 147.78637096676539 413.28243830945939 0 413.28243830945939 211.71107610799663 0 0 0 0 142.5268034541732 402.52039562039135 0 402.52039562039135 192.31294105581219 0 0 0 0 185.92611168004078 315.76008134605945 0 315.76008134605945 124.60958014526113 0 0 0 0 79.665211794897914 263.40564686953076 0 263.40564686953076 143.1476808249281 0 0 0 0 70.519452605010656 262.44563541073205 0 262.44563541073205 150.71374744251079 0 0 0 0 42.999388007883681 356.81679422844172 0 356.81679422844172 204.06281088623837 0 0 0 0 67.535101731933537 340.90616266125289 0 340.90616266125289 212.04900547181023 0 0 0 0 -31.336367186275311 269.415146234649 0 269.415146234649 208.07587187552417 0 0 0 0 -9.0511882770806551 281.97969209792791 0 281.97969209792791 210.6072810394021 0 0 0 0 -5.5633200178563129 203.42305683600716 0 203.42305683600716 148.65489917523541 0 0 0 0 47.511731067304936 196.59839290069067 0 196.59839290069067 114.52750739635667 0 0 0 0 27.174923835103982 162.58271261851041 0 162.58271261851041 92.988571780127131 0 0 0 0 70.568815436010482 182.14128457560219 0 182.14128457560219 64.134283549086831 0 0 0 0 52.697119257354643 142.59398473740475 0 142.59398473740475 43.340377055123099 0 0 0 0 61.225297169530677 180.51653410232757 0 180.51653410232757 97.242645183636341 0 0 0 0 104.04840884883743 208.69532942985825 0 208.69532942985825 95.676804710657962 0 0 0 0 186.25069894707121 196.89983700635639 0 196.89983700635639 320.55425812156864 0 0 0 0 310.19580674598546 114.0473667713195 0 114.0473667713195 -62.187606150022475 0 0 0 0 80.079507404778269 155.94903229031479 0 155.94903229031479 333.65914302824058 0 0 0 0 26.041102396144197 236.88192162009136 0 236.88192162009136 531.65665914867714 0 0 0 0 14.404421999164697 311.04016304141714 0 311.04016304141714 343.86437074511196 0 0 0 0 33.515869997878326 367.08080073048041 0 367.08080073048041 435.01029089316216 0 0 0 0 168.25002693239367 265.73822132443456 0 265.73822132443456 158.47566421837109 0 0 0 0 107.66750853319536 325.61406083854672 0 325.61406083854672 315.55553726361904 0 0 0 0 110.65426187001867 429.18365188731696 0 429.18365188731696 224.13622521546495 0 0 0 0 132.7910168361559 384.62788777929381 0 384.62788777929381 312.59939160329088 0 0 0 0 12.670475424518372 418.15154746508051 0 418.15154746508051 313.44906238035765 0 0 0 0 50.025153745038551 460.8436777764291 0 460.8436777764291 360.42129853974825 0 0 0 0 48.434754903450084 472.0078420208265 0 472.0078420208265 298.32786415920418 0 0 0 0 114.09928789325204 497.60903360891825 0 497.60903360891825 277.3273208909377 0 0 0 0 115.97959297208581 460.2762104841313 0 460.2762104841313 300.23489163928934 0 0 0 0 113.7216229956357 458.12182305566239 0 458.12182305566239 237.22784071284696 0 0 0 0 121.0293740825291 456.16901704506017 0 456.16901704506017 237.65249610748288 0 0 0 0 76.935933860366276 440.35084319185989 0 440.35084319185989 282.28526642265206 0 0 0 0 132.15873402201396 465.71531736665929 0 465.71531736665929 238.61097566454555 0 0 0 0 -50.837242704321397 376.20339793603489 0 376.20339793603489 341.03010216159601 0 0 0 0 26.427104946196778 410.26652005140932 0 410.26652005140932 266.18080858492613 0 0 0 0 59.552612181842051 533.56601449951813 0 533.56601449951813 355.50432082552288 0 0 0 0 284.11858679579746 538.71416878903256 0 538.71416878903256 237.29995177670935 0 0 0 0 133.15717626799415 464.52792073059118 0 464.52792073059118 203.12530554435216 0 0 0 0 284.53413950253889 418.21299009253926 0 418.21299009253926 8.903231602627784 0 0 0 0 246.34767649035348 386.04766960519555 0 386.04766960519555 140.70203466716339 0 0 0 0 598.67203880236775 783.38847966847243 0 783.38847966847243 32.60629891922872 0 0 0 0 319.56456184972194 397.51134751841164 0 397.51134751841164 -95.577747463859851 0 0 0 0 353.84632445643365 293.85548921820009 0 293.85548921820009 -642.51337479516224 0 0 0 0 271.09359140119341 343.33744845152978 0 343.33744845152978 -0.43961256451439112 0 0 0 0 268.99361161615525 351.18652012020175 0 351.18652012020175 -25.307967507003923 0 0 0 0 -432.75354958605021 3099.9152598375513 0 3099.9152598375513 3804.2897433916951 0 0 0 0 3548.2434385211309 916.49734180609812 0 916.49734180609812 -910.86774674578919 0 0 0 0 740.62131674717239 1202.8005923601158 0 1202.8005923601158 -635.64323338576651 0 0 0 0 617.90393437949933 1640.4156806365363 0 1640.4156806365363 917.99132876971271 0 0 0 0 289.43008224165533 664.15598813564429 0 664.15598813564429 277.24281746119232 0 0 0 0 -282.60723649254214 708.34441413696186 0 708.34441413696186 2631.5840269759574 0 0 0 0 763.84223809023388 -1582.6226126284018 0 -1582.6226126284018 1407.1042539867703 0 0 0 0 -225.31423957621882 180.49830014251711 0 180.49830014251711 526.89602673410263 0 0 0 0 -387.76465527421897 238.2006422089944 0 238.2006422089944 636.97108892830147 0 0 0 0 178.50609679828267 837.28263717407935 0 837.28263717407935 840.9011148007703 0 0 0 0 -69.423355669307057 483.91412370432954 0 483.91412370432954 339.99175942850707 0 0 0 0 -83.215436880178459 437.58213880396943 0 437.58213880396943 510.28487474967551 0 0 0 0 -174.39587178911461 281.67634427258599 0 281.67634427258599 289.82810081848584 0 0 0 0 -267.32449333976547 98.391906711658521 0 98.391906711658521 368.18707628550328 0 0 0 0 -166.55951367302259 3.4053141881158808 0 3.4053141881158808 -76.794115853699623 0 0 0 0 -72.185422526687034 103.09349497758103 0 103.09349497758103 -300.04596097921603 0 0 0 0 48.456639219875797 175.74327419106703 0 175.74327419106703 -138.63640638967991 0 0 0 0 103.89050904592295 280.43472955122343 0 280.43472955122343 -1399.1231002278946 0 0 0 0 -110.11743077835308 263.38476350382734 0 263.38476350382734 -689.44268615897454 0 0 0 0 67.647991477760598 66.917841489493426 0 66.917841489493426 50.392446937016814 0 0 0 0 -321.81051343775471 -403.34398109719768 0 -403.34398109719768 46.610237177425006 0 0 0 0 169.79469051521664 105.46784505820324 0 105.46784505820324 -659.73420273797819 0 0 0 0 -913.67575226619374 -37.639478163175227 0 -37.639478163175227 -632.18127812752209 0 0 0 0 9.4805328257425572 108.68682763523248 0 108.68682763523248 -34.828058208840957 0 0 0 0 35.923278264084729 139.22003288994165 0 139.22003288994165 -105.2484729331336 0 0 0 0 35.923278264090186 139.22003288997803 0 139.22003288997803 -105.24847293336643 0 0 0 0 91.940444060957972 73.837063026393992 0 73.837063026393992 -36.315514205125169 0 0 0 0 853.71859919556664 -65.966746558769955 0 -65.966746558769955 -347.29332532454282 0 0 0 0 534.18836365686002 -181.85988552024355 0 -181.85988552024355 -219.6074809890124 0 0 0 0 49.637479366207401 83.564076435279929 0 83.564076435279929 63.26970990359743 0 0 0 0 35.923278264148394 139.22003288989072 0 139.22003288989072 -105.24847293341008 0 0 0 0 1010.4290719929122 -1288.700799022612 0 -1288.700799022612 -2577.4055471272004 0 0 0 0 1349.1918138949259 1457.497904051721 0 1457.497904051721 -3731.0978598895163 0 0 0 0 -0.59984337646892527 118.59037036138034 0 118.59037036138034 13.816202034230628 0 0 0 0 40.014816500508459 101.44325925509474 0 101.44325925509474 12.147967842771322 0 0 0 0 136.47720282382943 99.283324050891679 0 99.283324050891679 -28.207976695717662 0 0 0 0 70.107455491364817 129.48978043019815 0 129.48978043019815 -33.733063163919724 0 0 0 0 61.454892679594195 156.87499328310332 0 156.87499328310332 42.832918465239345 0 0 0 0 54.926906420652813 123.35257919862488 0 123.35257919862488 37.847225365170743 0 0 0 0 -38.375013162760297 139.79133725492284 0 139.79133725492284 102.84242643529615 0 0 0 0 -30.822979010401468 139.66929530401467 0 139.66929530401467 80.370760988080292 0 0 0 0 -113.2782840449072 203.28225858436781 0 203.28225858436781 215.05532285258778 0 0 0 0 -89.409218252585561 228.81339645464686 0 228.81339645464686 235.3811256607878 0 0 0 0 -167.81759197328938 89.41497904843709 0 89.41497904843709 199.94913014349004 0 0 0 0 -71.540876525956264 100.50806460258173 0 100.50806460258173 -83.646958605924738 0 0 0 0 -102.63447134902526 95.2960946333842 0 95.2960946333842 66.30202002934675 0 0 0 0 -86.930737852400853 140.67205365907648 0 140.67205365907648 -57.373844563873718 0 0 0 0 -45.140667278305045 172.64493422507803 0 172.64493422507803 -300.08240397369082 0 0 0 0 0.62748249961441616 91.230491725298634 0 91.230491725298634 -87.513024167346884 0 0 0 0 -120.23172538817744 96.388232798330137 0 96.388232798330137 -81.462419201150624 0 0 0 0 -104.70432606678514 166.6933022964804 0 166.6933022964804 -189.36413655651631 0 0 0 0 -101.96984489912757 210.05816102720382 0 210.05816102720382 -267.28389820268785 0 0 0 0 10.466437003604369 185.72061010270409 0 185.72061010270409 -214.46082432454205 0 0 0 0 -7.435654010703729 117.51836994232417 0 117.51836994232417 -58.87164177800878 0 0 0 0 151.50124928140576 186.91083286296634 0 186.91083286296634 -52.31879190543259 0 0 0 0 41.628952157047024 67.297596940214135 0 67.297596940214135 13.084285308243125 0 0 0 0 73.218281795931034 68.185396409570785 0 68.185396409570785 -17.872285781253595 0 0 0 0 115.44578084872046 176.88827727278112 0 176.88827727278112 -229.22176098720229 0 0 0 0 287.06616406064313 -16.550579865828695 0 -16.550579865828695 -85.974856457411079 0 0 0 0 166.33139407014824 57.972913716846961 0 57.972913716846961 -88.552618598263507 0 0 0 0 15.928729453444248 41.855846085280064 0 41.855846085280064 -22.077940013616171 0 0 0 0 203.24839164218429 138.62567049674908 0 138.62567049674908 -86.224706156426691 0 0 0 0 -23.94022287011488 17.115160878898337 0 17.115160878898337 -9.5533359942302241 0 0 0 0 -44.421098856110916 79.884130394123758 0 79.884130394123758 -53.42700533468502 0 0 0 0 -151.14969589604516 126.72968827069417 0 126.72968827069417 -43.902062899549492 0 0 0 0 58.898305183472985 166.90311298160668 0 166.90311298160668 -47.106325898227169 0 0 0 0 -46.500904303342665 79.214469501372818 0 79.214469501372818 -48.170062322373951 0 0 0 0 -34.221781492393347 119.53208652434114 0 119.53208652434114 -3.8020221671904437 0 0 0 0 163.45134260878331 110.73101549996682 0 110.73101549996682 -76.57590328619699 0 0 0 0 -46.997857500723839 73.238409664479434 0 73.238409664479434 -47.774881559319454 0 0 0 0 66.599708393994661 131.9895017435374 0 131.9895017435374 -33.994268510396068 0 0 0 0 62.366616903847898 152.39451086387999 0 152.39451086387999 23.007733039368759 0 0 0 0 391.92385842974181 452.12129924295732 0 452.12129924295732 -76.202449906311813 0 0 0 0 120.68172065004183 183.96773818004294 0 183.96773818004294 -24.759156517142401 0 0 0 0 313.63745831177221 222.6658568902858 0 222.6658568902858 -42.269382128592042 0 0 0 0 293.20068794816325 301.05527977260499 0 301.05527977260499 -286.52579134711414 0 0 0 0 645.21460502298032 103.92039882457811 0 103.92039882457811 -185.7894588457857 0 0 0 0 387.38047468689911 121.41092499320075 0 121.41092499320075 -70.372496832933393 0 0 0 0 365.0797267170783 34.553102815654711 0 34.553102815654711 -97.324396867916221 0 0 0 0 166.5411720909193 77.811178123390619 0 77.811178123390619 -39.496967719256645 0 0 0 0 573.76198512029077 77.075814218151208 0 77.075814218151208 -125.51906181464437 0 0 0 0 579.10040472184028 150.08095769767897 0 150.08095769767897 116.94835743938165 0 0 0 0 -317.53102604130254 281.68930184777855 0 281.68930184777855 100.19165173465444 0 0 0 0 -318.48628251429182 689.2354152408152 0 689.2354152408152 -36.902629717349555 0 0 0 0 -155.04553721749835 715.57186453330723 0 715.57186453330723 -416.4810225416586 0 0 0 0 -0.16905061307775426 6.7134065146583737 0 6.7134065146583737 -4.6137589182864076 0 0 0 0 1008.1705289896054 13.544098156686232 0 13.544098156686232 -286.58881257576286 0 0 0 0 -361.85369481550879 609.23769300201093 0 609.23769300201093 -305.79509289525595 0 0 0 0 -835.8871824334783 753.98606269086304 0 753.98606269086304 -92.601186925458023 0 0 0 0 -371.87872066290583 554.80070555092971 0 554.80070555092971 -345.97037026171165 0 0 0 0 355.88670997228473 332.96323595673312 0 332.96323595673312 302.0518408055068 0 0 0 0 16.109625004798982 23.350935581414348 0 23.350935581414348 -51.090909337789583 0 0 0 0 225.1169412674426 206.70705513888242 0 206.70705513888242 -180.26891103000526 0 0 0 0 -1170.6359303720674 490.73324514609703 0 490.73324514609703 -76.835393686444149 0 0 0 0 26.050959805463208 309.05043917098374 0 309.05043917098374 -62.049790446457337 0 0 0 0 63.265556685991868 89.81073284068404 0 89.81073284068404 109.20693955764189 0 0 0 0 -22.393132144096114 -3.6157673965005301 0 -3.6157673965005301 20.02330395544962 0 0 0 0 -137.03495135411504 -195.77385736491124 0 -195.77385736491124 -39.052110265933152 0 0 0 0 626.62008082481043 -74.456916454764723 0 -74.456916454764723 -337.30201696077711 0 0 0 0 44.361954104866001 102.44301362955827 0 102.44301362955827 114.55221412897356 0 0 0 0 -158.96299131390606 -43.712798542781911 0 -43.712798542781911 222.86524593358627 0 0 0 0 62.603486718774803 68.894142613110347 0 68.894142613110347 -3.1604421372833542 0 0 0 0 -438.10374360062997 419.70252201381663 0 419.70252201381663 147.92822703553247 0 0 0 0 -556.79355606331956 475.72303661970363 0 475.72303661970363 -282.26399579372082 0 0 0 0 -18.833872676461027 11.352942475274034 0 11.352942475274034 10.156550113375147 0 0 0 0 -309.35413529557991 319.89928787814279 0 319.89928787814279 -41.155144070529786 0 0 0 0 -541.84443199286852 582.78361288694305 0 582.78361288694305 -256.02778201838373 0 0 0 0 -505.07128145566094 305.3264647686301 0 305.3264647686301 -29.078898111882154 0 0 0 0 62.012294696230583 68.197466215850852 0 68.197466215850852 61.886653981391675 0 0 0 0 67.930200566425867 95.429372188752552 0 95.429372188752552 105.84602071732886 0 0 0 0 -89.315898439934244 78.200356760193245 0 78.200356760193245 -16.025727878091857 0 0 0 0 -673.01913195484667 317.59961152539472 0 317.59961152539472 104.30422967224877 0 0 0 0 -19.626938728004461 146.2605737678532 0 146.2605737678532 41.838569417392137 0 0 0 0 -620.03853135356621 -8.367385962190383 0 -8.367385962190383 22.381248860387132 0 0 0 0 -580.74181298797248 615.18979382971702 0 615.18979382971702 -198.75931208537077 0 0 0 0 30.299692550705611 32.998756289428485 0 32.998756289428485 -3.9230666589003107 0 0 0 0 -1047.4329041693709 633.79832769584573 0 633.79832769584573 -96.791363040543729 0 0 0 0 593.67302731041127 357.52165195711677 0 357.52165195711677 -571.93662107961427 0 0 0 0 311.84262985504756 682.09326659944782 0 682.09326659944782 -437.38765991713808 0 0 0 0 66.683831900678342 102.38208244387351 0 102.38208244387351 -194.87757580018661 0 0 0 0 -139.27591999575088 387.91940895127482 0 387.91940895127482 -558.734927114936 0 0 0 0 -334.18245953769656 202.4736517022975 0 202.4736517022975 -82.34800756291952 0 0 0 0 -204.51719221523672 229.53014795787021 0 229.53014795787021 -110.93054863033467 0 0 0 0 -27.489478802501253 316.14712560513226 0 316.14712560513226 -96.609910417129868 0 0 0 0 -64.118953138095094 -12.399671228808074 0 -12.399671228808074 -170.98224148497684 0 0 0 0 -352.5953919077001 149.28739234620298 0 149.28739234620298 -74.163963793838775 0 0 0 0 -380.82862778805429 -76.118574706517393 0 -76.118574706517393 -91.490457263498683 0 0 0 0 855.41235531085113 -152.4664850701738 0 -152.4664850701738 117.60786073053896 0 0 0 0 561.8930842664995 768.59512636264844 0 768.59512636264844 36.436107789337257 0 0 0 0 14.507094507810848 4.861363010037735 0 4.861363010037735 4.4224289264054448 0 0 0 0 893.2718448500309 -346.41771157944913 0 -346.41771157944913 -113.59579146032047 0 0 0 0 1138.631187254854 1095.1674581099942 0 1095.1674581099942 382.87644638861821 0 0 0 0 -839.55802713337471 1188.3583669422223 0 1188.3583669422223 521.34584577532951 0 0 0 0 -754.87695841226378 1223.0354783185467 0 1223.0354783185467 507.86324468522798 0 0 0 0 109.0466068943301 130.68070453598361 0 130.68070453598361 151.43052268124487 0 0 0 0 27.807711606607484 22.528736341716595 0 22.528736341716595 15.436340162149605 0 0 0 0 -442.94029581869836 658.32132906335755 0 658.32132906335755 1288.0205339717359 0 0 0 0 -334.5679091388738 664.38235503161559 0 664.38235503161559 -255.5066932333757 0 0 0 0 70.35855589316634 983.81536618398968 0 983.81536618398968 329.63656776191783 0 0 0 0 -415.92492766088253 122.32811554724321 0 122.32811554724321 -179.72454248846043 0 0 0 0 -1259.6895430290606 257.53761472360929 0 257.53761472360929 64.168814092641696 0 0 0 0 4102.2514823780512 661.20115179169989 0 661.20115179169989 -3862.6361173920632 0 0 0 0 -104.88592909983709 67.005418068758445 0 67.005418068758445 -872.94667113410833 0 0 0 0 -118.37536101380829 297.99512370458251 0 297.99512370458251 747.560975479224 0 0 0 0 179.81368686369387 599.41330060832115 0 599.41330060832115 865.31517243018607 0 0 0 0 515.15165658862679 543.46740200677959 0 543.46740200677959 358.06466863229434 0 0 0 0 2076.5018612925196 -6340.6803459612674 0 -6340.6803459612674 6019.3564173884843 0 0 0 0 -197.16695716016693 340.68746418902083 0 340.68746418902083 748.58327702444512 0 0 0 0 833.8659634826472 853.70717226188935 0 853.70717226188935 544.04168868323177 0 0 0 0 -878.1876080090442 -224.04081040490291 0 -224.04081040490291 1162.0660721059467 0 0 0 0 58.868077489038114 630.47403956155176 0 630.47403956155176 -468.95922308163426 0 0 0 0 244.86178462030512 -22.805500475584267 0 -22.805500475584267 -15.603635932900943 0 0 0 0 607.74942176754121 183.25150425816537 0 183.25150425816537 -458.3848355866794 0 0 0 0 403.03292405846878 639.94291556987446 0 639.94291556987446 -287.22541253914824 0 0 0 0 -684.27099448697118 543.98280051005531 0 543.98280051005531 -251.97342553597264 0 0 0 0 -700.20800931401027 396.14767998789102 0 396.14767998789102 246.84090911718522 0 0 0 0 -173.48128245215048 550.40524402613664 0 550.40524402613664 -59.619489113581949 0 0 0 0 -179.46964434365509 59.262864361760876 0 59.262864361760876 475.38022574418574 0 0 0 0 92.816999772348026 304.05173059074508 0 304.05173059074508 -261.06661166630511 0 0 0 0 -512.42779678180523 440.06588104753064 0 440.06588104753064 -182.831207933923 0 0 0 0 -147.28525803043158 90.074006323069625 0 90.074006323069625 152.62577206732749 0 0 0 0 -277.32006867157179 91.519190732673451 0 91.519190732673451 480.72184368444141 0 0 0 0 -224.48775467573432 426.83813190789078 0 426.83813190789078 542.36454611190402 0 0 0 0 -195.78183958109003 432.63994234659549 0 432.63994234659549 383.05189941814024 0 0 0 0 -482.69566052885784 217.78658333489329 0 217.78658333489329 402.35179535895077 0 0 0 0 -437.50044020230416 302.50775413635711 0 302.50775413635711 227.90842346620047 0 0 0 0 -792.46012089660508 274.97955292657207 0 274.97955292657207 490.03904166464054 0 0 0 0 -846.90516931661114 511.79217333689485 0 511.79217333689485 278.71508061325403 0 0 0 0 -1122.6562157135922 626.6107000113725 0 626.6107000113725 399.93054713445963 0 0 0 0 -866.70986516360426 490.03122118880492 0 490.03122118880492 259.79334848228791 0 0 0 0 -1012.4089189464576 610.25460911012124 0 610.25460911012124 316.23428744162084 0 0 0 0 79.526800928986631 17.067210320799859 0 17.067210320799859 -15.605362975127719 0 0 0 0 -1142.4007714739564 97.7740900086701 0 97.7740900086701 327.89120522179655 0 0 0 0 -1469.2049675768212 -234.05751246115915 0 -234.05751246115915 157.6849921746234 0 0 0 0 -25.679276565244322 9.559472946376161 0 9.559472946376161 -8.7731601624020819 0 0 0 0 -242.35442067211261 999.91392559757242 0 999.91392559757242 -2365.5134652981742 0 0 0 0 -2693.1492389057676 989.29022373442422 0 989.29022373442422 341.09720367858756 0 0 0 0 100.78498983315367 148.35709015376148 0 148.35709015376148 150.66310776802067 0 0 0 0 -5.4819671651857789 217.56751658782377 0 217.56751658782377 -150.71026517663267 0 0 0 0 -60.110211088409415 449.99745599006565 0 449.99745599006565 -314.65218782762167 0 0 0 0 -671.63520078826696 404.58202849902773 0 404.58202849902773 416.94735672498064 0 0 0 0 58.859573900917894 243.75432864801132 0 243.75432864801132 -48.551159293628189 0 0 0 0 135.90386763639981 187.91797019468322 0 187.91797019468322 -58.521353492280355 0 0 0 0 -179.05265635074466 190.86427323532189 0 190.86427323532189 181.81348774617982 0 0 0 0 514.50257308862638 112.43592957604415 0 112.43592957604415 -53.015029561822303 0 0 0 0 -40.245239001553273 196.10649090770494 0 196.10649090770494 -0.86148983294333448 0 0 0 0 -142.65716214186978 400.03314342856811 0 400.03314342856811 109.75239363178844 0 0 0 0 -59.093208419905181 46.250726320830296 0 46.250726320830296 9.2973897685205742 0 0 0 0 479.39954818721162 236.79421056293631 0 236.79421056293631 44.493213298854243 0 0 0 0 -19.531699619285064 53.3825975373029 0 53.3825975373029 590.23717286157444 0 0 0 0 9.1106524481887448 22.03835959845344 0 22.03835959845344 -27.928943836756485 0 0 0 0 176.19812046822335 618.63972519928029 0 618.63972519928029 331.60227197051427 0 0 0 0 525.63363663994824 354.03120324570773 0 354.03120324570773 -116.41536403024566 0 0 0 0 229.68325760886364 39.840959890341765 0 39.840959890341765 250.03674164290715 0 0 0 0 -320.06490635672526 232.47820553411384 0 232.47820553411384 289.79467131526326 0 0 0 0 -320.0649063566816 232.4782055341293 0 232.4782055341293 289.79467131527781 0 0 0 0 218.87843096491997 609.33493252738208 0 609.33493252738208 476.52106063722294 0 0 0 0 -320.0649063566816 232.47820553408928 0 232.47820553408928 289.7946713152669 0 0 0 0 200.53101416870777 264.19030761278373 0 264.19030761278373 52.61594528670355 0 0 0 0 40.458800360851455 177.34165658139682 0 177.34165658139682 -123.87376070350729 0 0 0 0 34.392802165178068 122.39345481181516 0 122.39345481181516 -53.024453747313522 0 0 0 0 -320.06490635676892 232.47820553411566 0 232.47820553411566 289.79467131527053 0 0 0 0 167.44081410922809 346.43116503602573 0 346.43116503602573 24.079384963511984 0 0 0 0 -320.06490635672526 232.47820553413931 0 232.47820553413931 289.79467131527053 0 0 0 0 17.42472561692685 45.790517838408789 0 45.790517838408789 24.34445477837528 0 0 0 0 144.93785936999484 186.76998106161045 0 186.76998106161045 38.90296750060952 0 0 0 0 79.850762113535893 240.22346278566692 0 240.22346278566692 100.00701274668245 0 0 0 0 30.506255864278103 41.04656218703289 0 41.04656218703289 -1.8380744082628837 0 0 0 0 220.05747612401319 448.66848813050501 0 448.66848813050501 106.32755687503959 0 0 0 0 62.896996550814947 318.70058591437919 0 318.70058591437919 252.49419522616427 0 0 0 0 -4.8969295236674952 154.17301714975019 0 154.17301714975019 -3.6392792021633795 0 0 0 0 77.133247435243959 105.52125034554159 0 105.52125034554159 139.84675795455891 0 0 0 0 60.553064333763359 198.38518690272804 0 198.38518690272804 39.919841476512374 0 0 0 0 59.42630940932122 200.89461725246565 0 200.89461725246565 41.387503562975326 0 0 0 0 29.692400972999167 167.61179889537743 0 167.61179889537743 77.73276626625011 0 0 0 0 57.738092102206792 178.4581898264496 0 178.4581898264496 81.685867874708492 0 0 0 0 98.323297318506008 146.61978121121666 0 146.61978121121666 135.03266035654389 0 0 0 0 42.930332236661343 226.85028970931307 0 226.85028970931307 74.260976869656588 0 0 0 0 6.7422109524559346 189.53463763774562 0 189.53463763774562 90.993152480485151 0 0 0 0 47.312955199275166 190.47332126411493 0 190.47332126411493 90.762411110224093 0 0 0 0 53.106909135603928 188.53997968938711 0 188.53997968938711 78.971832573224674 0 0 0 0 126.24482897596317 212.52885355395119 0 212.52885355395119 70.983151591259229 0 0 0 0 37.570511348530999 180.34311150337453 0 180.34311150337453 89.51153802198678 0 0 0 0 57.100672634776856 174.00218473489076 0 174.00218473489076 87.590308886075945 0 0 0 0 53.678408130017488 152.60280033607705 0 152.60280033607705 26.295882361708209 0 0 0 0 79.584909038585465 163.69939463186165 0 163.69939463186165 19.932084579690127 0 0 0 0 12.027093886019429 96.840355996857397 0 96.840355996857397 33.507056735514197 0 0 0 0 43.28129555756459 187.64109634167835 0 187.64109634167835 66.612144971266389 0 0 0 0 -184.8422777892556 143.66767541431182 0 143.66767541431182 396.42008560260365 0 0 0 0 49.172752955346368 485.82862596459017 0 485.82862596459017 476.90144882151071 0 0 0 0 76.121461395807273 111.14193272322154 0 111.14193272322154 -206.13055601429369 0 0 0 0 23.741018119299838 42.36188196852995 0 42.36188196852995 -28.274574587334286 0 0 0 0 30.959738296311116 231.38597440754529 0 231.38597440754529 -176.11255473192432 0 0 0 0 112.68789335360634 109.39673802239849 0 109.39673802239849 -141.03319222302525 0 0 0 0 94.227985272038495 170.90871105312544 0 170.90871105312544 -233.98005187950912 0 0 0 0 143.31060076655558 246.95193437198031 0 246.95193437198031 68.792350374103989 0 0 0 0 -26.08123237849648 101.99107020706809 0 101.99107020706809 -25.65113909548586 0 0 0 0 0.28918617979798 179.14666919666342 0 179.14666919666342 -99.965840222430415 0 0 0 0 160.23918809550378 209.78200655271939 0 209.78200655271939 106.43333511051969 0 0 0 0 
</DataArray>
<DataArray type="Float64" Name="cross_section_updated" format="ascii">
1 1 1 1 0.0080762176610439836 1 1 1 1 1 1 1 1 0.0076620691664092758 1 1 0.0057419541181251976 1 1 1 1 1 0.010588186155963533 1 1 1 0.0034824070642805807 0.020266782773204858 1 1 1 1 1 1 1 1 1 1 1 1 1 1 1 1 1 1 0.017881406618061216 1 1 1 1 1 1 1 1 0.016370431061623766 1 1 1 1 1 1 0.012658423006648892 1 1 0.011066849271305149 1 1 1 1 0.011068183813837236 1 1 1 1 1 1 1 1 1 1 1 1 1 1 1 1 1 1 1 1 1 0.011306152640315134 1 1 1 1 1 1 0.013115807087358038 1 1 1 1 1 1 1 1 1 1 1 1 1 0.010841778501491775 1 0.012724004480763114 1 1 1 1 0.011155271347119654 1 1 1 1 1 1 1 1 1 1 1 0.012964925794162557 1 1 1 1 0.007171743625170271 1 1 1 1 1 1 1 1 1 1 0.0035209301953206887 1 1 1 1 1 1 1 1 1 1 1 1 1 1 0.001826081674657129 1 1 1 1 0.0026132995102368731 1 1 1 1 1 1 1 1 1 1 1 1 1 1 1 1 1 1 1 1 1 1 1 1 1 1 1 1 1 1 1 1 1 1 1 1 1 1 1 1 1 1 1 0.0069701982488519637 1 1 0.0041203684180992073 1 1 1 1 1 1 1 1 1 1 0.0095050699480934402 0.0072685828797491164 1 1 1 1 1 1 1 1 1 1 1 1 1 0.0089477226915656381 1 1 1 1 1 0.0039195583621312625 1 1 1 1 1 0.010160156119779881 1 1 1 1 1 1 0.0090474532091856606 1 1 0.0028664157081556632 1 1 1 0.010045965696643525 1 1 1 1 0.0062578781538675521 1 1 1 0.0062419972404383281 0.019632355533165155 1 0.0099151449202764252 1 1 1 1 1 1 1 1 0.010549941371561383 1 1 1 1 1 1 1 1 1 1 1 0.0057792570595419871 1 1 1 1 1 1 1 1 1 1 1 1 1 1 1 1 1 0.0053013227922586656 1 1 1 1 1 1 1 1 1 1 1 1 1 1 1 1 1 1 0.0021091362670511635 1 1 1 0.0062315485143503713 0.0071411423664957188 1 1 1 0.0002693166928141276 1 1 0.0090813783451031346 1 1 1 1 1 1 1 1 1 1 1 1 1 0.001413153901100932 1 1 1 1 1 1 1 1 1 1 1 1 1 1 1 1 1 1.0187791582572103e-11 1 1 1 0.01129381199092979 1 1 1 1 4.5282312274852465e-10 1 1 1 1 1 1 1 0.010058519406530117 1 1 0.0020646955006549568 1 1 1 1 1 1 1 1 1 0.015210436891907132 0.01007010227669488 1 1 0.0087569885110685107 1 1 1 0.012156142464992754 1 0.0069383334684862338 1 1 1 1 0.010014494946561744 1 1 0.005274733282851371 1 1 1 1 1 1 0.010270946361909152 1 1 1 1 0.010085546347587883 1 0.010212169352257994 1 0.0093976832851919712 1 1.101959311994305e-09 1 1 1 0.011535881382891092 1 1 1 -3.1256765925524732e-10 1 1 1 0.0087462784013007319 1 0.010192597521290607 1 1 1 0.0099935459023132375 1 1 1 1 1 1 1 1 1 1 1 0.010602974351561309 1 1 1 1 1 1 1 1 1 1 1 1 1 1 0.0093907041868528315 0.0083555543879773719 1 1 1 1 0.0079418966261252735 1 1 1 1 1 1 0.011012260297204847 1 1 0.013042378265655713 1 1 1 1 1 1 1 1 1 1 1 1 1 1 1 1 1 1 1 1 1 1 1 1 0.0077441945242207565 1 1 1 0.0099896063421088116 1 1 0.00504153568228311 1 0.0010322130348845854 1 1 0.0081977732239252223 1 1 1 1 1 1 1 1 1 0.0099710217438537807 1 1 -4.2602819882997522e-10 1 1 1 1 1 1 1 1 1 1 1 1 1 1 1 1 1 1 1 1 1 1 1 1 1 1 1 1 1 0.0054266184559176381 1 1 1 1 1 1 0.0098187454893559067 1 1 1 1 1 1 1 3.7507909972367415e-10 1 1 1 0.0096588177503333303 0.017888812360044047 1 1 0.00041136747052183432 1 1 1.615940719776332e-09 1 1 1 1 1 1 1 1 1 1 1 1 0.013528819140523965 1 1 1 1 1 0.013226585140371304 1 1 1 1 1 1 0.0065365827362785164 0.011318787980266892 1 0.0059753579299915635 1 1 1 0.013438830770397604 1 0.0098268964662841796 1 0.012757919241463259 1 1 1 1 1 0.0099753290042439366 0.015148815155332711 1 1 1 0.007421151677604633 1 0.0097425088759837686 0.0089871970006574764 1 1 1 1 1 1 1 1 1 0.011986044529222167 1 1 1 1 0.0096048004657134679 1 1 1 1 1 1 0.014333058103162391 1 1 1 0.011110644091359152 1 1 1 1 1 1 1 1 0.014057806515948137 1 1 1 1 1 0.010655234515572536 1 1 1 1 1 1 1 1 1 0.01203390106785375 1 1 1 1 1 1 1 1 1 1 1 1 1 1 1 1 1 1 1 1 1 1 1 1 1 1 1 1 1 1 1 1 1 1 1 1 1 1.1354614418840336e-09 1 0.010054831163934602 1 1 0.010631688115520975 1 1 1 0.010346939133291086 1 1 1 1 1 1 1 1 1 1 1 1 0.0085751623195816848 1 1 0.0096725692540035046 1 1 1 1 1 0.0089981348262250412 0.017289605619161798 0.0017565966006642085 1 0.0098481287583578811 1 1 1 1 1 1 1 0.0047122191616014823 1 0.0099846121016575889 1 0.0058195673125550351 1 1 0.0042636950097182727 1 1 5.4732396150003471e-09 1 1 1 1 1 0.0081868704224356131 1 1 1 1 1 0.0059945354023602029 1 1 1 0.011418924812809745 1 1 0.010383051681661227 1 1 1 1 1 1 1 1 1 1 1 1 0.010384756960238106 1 0.010192882413418321 1 1 1 1 1 1 1 1 1 1 1 1 1 0.0078885085366616724 1 1 0.018359293833906137 1 1 1 0.0069524937751338917 0.016846525313686807 1 1 1 1 1 0.010503188970224342 1 1 0.016501241398343372 1 0.011421857576981817 1 1 1 1 1 0.0095489485390509651 1 1 1 1 1 1 1 1 1 1 1 1 1 1 0.015399583984109073 1 0.010064268810680958 1 1 1 1 1 0.0092405844877698276 1 1 1 1 1 0.0068833156576559099 0.005594337812989604 1 1 0.021874343771374614 1 0.0099082512420199803 1 1 0.0096356360432237557 1 0.020516173919408229 1 0.019620331504127543 0.020965831396074962 0.0058019773936129962 1 1 0.010675561080010353 1 1 1 1 1 1 1 1 1 1 1 0.0062588422816743025 1 1 0.0084823392412351414 1 1 1 1 1 1 1 1 1 0.022772933933966392 1 0.0072301371316790194 1 0.0095897776256013145 1 1 0.0099118988467641958 1 0.019916586611432949 1 1 1 0.00079179209207391743 1 0.020553192707972602 0.018329425023838337 1 1 0.004313382637991147 0.013488443781337747 1 1 1 1 1 0.0099056881067166244 1 1 1 1 1 1 1 1 1 1 1 1 1 1 1 1 1 1 1 1 1 1 1 1 1 1 1 1 1 1 1 1 1 0.01292485113972492 1 1 1 1 1 1 0.0097626373223009509 1 1 0.0023833871569940955 1 1 1 1 1 1 1 1 1 1 1 1 1 0.0044135976213958636 1 0.01077860822912699 1 1 0.010647158569493519 1 1 1 1 1 1 1 1 1 1 1 1 0.011526316614816248 1 1 0.010201805600921626 1 1 1 1 1 1 1 1 1 1 1 1 1 0.010252578466562003 0.0057948168487084901 1 1 1 1 1 0.010142995517681143 1 0.01024811677519414 0.0073133922225052626 1 1 1 1 1 1 1 1 0.0091602083960461104 1 1 1 0.00897704642500078 1 1 1 1 1 1 1 1 1 0.009217805023529077 1 0.0077347013152318789 1 1 1 1 1 1 1 1 0.0096369400646051252 1 1 1 0.0063013327979552503 1 1 1 0.010277939846200207 1 1 0.0047528797999816189 1 1 1 1 0.010050241511301919 1 1 1 1 1 0.010068976436330965 1 1 1 0.007975531229663272 1 1 1 1 1 1 1 1 1 1 1 1 0.010580830983119592 1 1 1 1 1 1 1 1 1 0.0006472392488094808 1 1 1 1 0.0093394921412796837 1 1 1 1 1 1 0.0080614871060456159 1 1 1 1 1 1 1 1 1 1 1 0.023693853378614214 1 1 0.009610074883101033 1 1 0.017110368362351948 1 0.00071132475736112102 0.0049485628737424847 1 1 1 1 1 0.026246419641279231 1 1 1 1 1 1 1 0.0038297121066907173 1 1 1 1 1 1 1 1 1 1 1 1 1 1 1 1 0.0078898074298686394 1 1 0.003936965031735051 1 1 1 1 1 1 1 1 1 0.0061012382792391909 1 1 1 1 1 1 1 1 1 1 1 1 1 1 1 1 1 1 1 1 1 1 1 1 0.0087692692465160087 1 1 1 1 1 1 1 1 1 1 1 1 1 0.0091090251275511812 1 1 1 1 1 1 1 1 1 1 0.0069469054125383643 1 1 1 1 0.0096071080312126154 1 0.010368601451964646 1 1 1 1 1 1 1 1 0.004586984737542885 1 1 1 1 1 3.2607688164182358e-09 1 1 1 1 1 0.010149159242229174 1 0.012588426896935345 1 1 1 1 1 1 1 1 1 1 1 -1.8585647257318705e-10 1 1 1 1 1 1 1 1 1 1 1 1 1 1 1 1 1 1 1 1 1 1 1 1 1 1 1 0.012161313203715734 1 1 1 1 1 1 1 1 0.0093174339017575956 1 0.0083121774106388047 1 1 1 1 1 1 1 1 1 1 1 1 1 1 1 1 1 0.0089947435088812006 1 1 1 1 1 1 1 0.0082626703238337859 1 1 1 1 1 0.0045301987078783246 1 1 1 1 1 1 1 1 1 1 0.011397036077024879 1 1 1 1 1 1 1 1 1 1 1 1 1 1 1 1 1 1 1 1 1 1 1 1 0.0088009432156766487 1 1 0.018129893408619913 1 1 1 1 1 0.021650634003045142 1 1 1 1 0.025241261231504886 1 1 1 1 1 1 1 1 1 1 1 1 1 0.0047743872206267544 0.0094483790387607514 1 1 1 1 0.0029141029422843426 1 1 1 1 1 1 1 0.014981690632565596 1 1 1 1.0736602683303342e-09 1 1 1 1 1 0.0084322270306004549 1 0.016096802107926675 1 0.0056242453419193539 1 1 1 1 1 1 1 1 1 1 1 0.0085164478148001058 1 1 1 0.013340166768531453 1 1 1 1 1 1 1 1 1 1 1 0.0051201307070929541 0.0043193478179141204 1 1 0.0052634279879661995 1 1 0.010450233105208916 1 1 1 1 1 1 1 1 1 1 1 1 1 1 1 1 1 1 1 1 1 1 1 0.0043182375822465452 1 1 1 1 1 0.0023341828189469456 1 1 1 1 0.0098050091734433881 1 1 1 1 1 1 0.0097819929432220037 1 1 1 1 1 1 0.010643160754783963 1 1 0.0060345717302842357 1 0.010266860378439829 1 0.0093369814244652349 1 1 1 1 1 1 1 1 1 1 1 1 1 1 1 1 0.017695579725988359 0.0012740349675061172 1 1 1 0.0094508482060181691 1 1 1 0.0011702004179647216 1 0.01253569280022725 1 1 -4.5995726151437655e-09 0.0098973334487525468 1 1 1 1 1 1 1 1 0.0099445070652543106 1 1 1 0.012422638282269612 1 1 0.011400845256010976 1 0.0057989762465759723 1 0.0073660146387580904 1 1 1 1 1 1 1 1 1 1 1 1 1 1 1 1 1 1 1 1 1 1 0.0098589752134971582 1 1 1 0.011627361349927024 0.010866991841773171 1 1 1 1 1 1 0.0094035647920562935 0.014851295750557025 1 1 0.0078072670514824812 1 1 1 1 0.01157658172900481 1 1 1 1 1 1 1 1 1 1 1 1 1 1 1 0.0082478872875097007 1 1 1 0.0093161833634909236 1 1 1 1 1 1 1 1 1 1 0.006607054967643038 1 1 1 1 0.0059075284503085444 1 1 1 1 0.005666429900069451 1 1 1 1 1 1 1 1 1 1 0.010379410649306822 1 0.028069218495075567 5.3032189013466069e-09 1 1 1 1 1 1 1 1 1 1 1 1 1 1 1 1 1 1 1 1 1 0.0066049959990118721 1 1 1 1 1 1 1 1 1 0.0077835726547637579 1 1 1 0.010190772315648196 1 1 1 1 1 1 1 0.014280646084220975 0.016132888117970839 1 1 0.010609975410539298 0.013001786359912474 1 0.0055378915962258175 1 1 1 0.014414676552565458 1 1 0.0073749291468923062 0.01465803475914852 1 1 1 1 1 1 1 1 1 0.012210646885530172 1 1 1 0.0090412304442552185 0.016191105216102598 1 1 1 1 1 1 1 1 0.010681391321256679 1 1 1 1 1 1 1 1 0.010202783892267184 1 1 1 1 1 1 1 1 0.021003232803408892 1 1 -1.2353804958176173e-09 1 1 1 0.0079046708581491237 0.018761024373152677 1 1 1 1 1 1 1 1 1 1 1 1 0.0087946589360648614 1 1 1 0.0076860265641068848 1 0.00023503915584927731 1 1 1 1 1 1 1 -7.1070406504336603e-11 1 0.0098923663143780441 1 1 1 1 1 1 1 1 1 1 1 1 0.014068217054622655 1 1 1 1 0.014466789375255258 1 1 1 0.011400814871858282 1 1 1 1 1 1 1 0.013604607770345337 1 1 1 3.3932633647371091e-09 1 1 1 1 1 1 1 1 0.0096131161004218216 1 1 1 1 1 1 1 1 1 1 1 1 1 1 1 1 1 1 0.012577724525839919 -6.7424425383155739e-09 1 1 1 1 8.2497012658666602e-09 1 0.009838745753171764 1 1 1 1 1 1 1 0.010377105179271331 1 1 0.012106523508370798 0.0092498934319567155 1 0.015435842152686959 0.0048521693220875892 1 0.012368082072799748 1 0.0040972351154091383 1 1 1 0.011419655248300971 1 1 1 1 1 1 1 1 1 1 1 1 0.01153823821302901 1 1 0.013807472863095159 1 1 1 1 1 1 1 0.010416023535576094 1 0.00069661736064256796 1 0.031117179307380047 1 1 6.1948826624025344e-09 1 1 0.020727266927622896 1 1 0.0087313552946550396 1 1 1 1 1 1 1 1 1 1 1 0.027564142353288343 1 1 1 1 1 1 1 1 1 1 1 1 1 1 1 1 1 1 1 1 1 1 1 1 0.010603340845264965 1 1 1 1 0.011520066189024868 1 1 1 1 1 1 0.0064993805981654901 1 1 0.0088689529427105011 1 1 1 1 1 1 1 1 1 1 0.017882178400765739 1 1 1 1 1 1 0.023178802282991511 1 1 1 1 1 1 1 1 1 1 1 1 0.011539630418400726 1 1 1 1 1 1 1 1 1 1 1 0.01350606188069798 1 1 1 0.014246159153106681 0.010508970873620599 1 1 1 1 1 0.011436459888781607 1 1 1 1 1 1 1 1 1 0.013563567309092528 1 1 0.012668870474804868 1 1 1 0.012751710624767869 1 1 1 1 1 1 1 0.012501377728078057 1 1 1 1 1 1 1 1 1 1 1 1 1 1 1 1 1 1 1 1 1 1 0.0093368044279430618 1 1 1 0.0061304137288473795 1 1 1 0.0078176748331357983 0.010005963040233025 1 1 1 1 1 1 1 0.0058033875235546026 1 1 1 1 0.011710826859214653 1 1 0.0099886673647607491 1 1 1 1 1 0.0080179246719251536 1 1 0.010176947347611633 1 1 1 1 0.0099972648817245741 1 1 1 1 1 1 1 1 1 0.0099404662564297336 1 1 0.0089924823670636048 0.010153813825283839 1 0.010018415581968955 1 1 1 0.0064339394486449125 0.0087839401206118578 0.0090785468718005691 1 1 0.0092504633137090661 1 1 0.0056722160568076409 1 1 1 1 0.013588896922698296 1 1 0.0074294098994039295 1 1 1 0.014416995299356188 1 1 1 1 0.010242560243177663 1 1 1 0.0089206457025145861 1 1 1 0.0091766141334540599 1 1 1 1 0.010362034566568076 0.010218900562718077 1 1 1 0.0081870818963054107 1 0.009456680072506489 1 1 1 1 1 1 1 1 0.0094583933779471066 1 1 1 1 1 1 0.0095492715795810548 1 1 1 1 0.010649210999768581 1 1 1 0.0074973488694045215 1 1 1 1 1 1 0.0079647259268933231 0.011279192772258115 0.0048109895448196459 1 0.010089968414163236 1 1 1 1 1 1 1 1 1 1 1 1 1 1 1 1 1 1 1 1 1 1 1 1 0.0096615900051669548 1 1 1 0.0072876260055249262 1 1 1 0.010689897933773519 1 1 1 0.0056537353947781269 1 1 1 0.0075857893409723067 1 1 1 1 1 1 1 1 1 0.0094294028155987031 1 1 1 1 1 1 1 1 1 1 1 1 1 1 1 1 1 1 1 1 1 1 1 1 1 1 1 0.0093158912107419931 1 1 1 0.0093146378318649317 1 1 1 1 0.0089397773147079432 1 1 1 1 1 1 0.0072291751967399204 1 1 1 0.0022013074079211235 1 1 1 1 1 1 1 1 1 1 1 1 1 1 1 1 1 1 1 0.0032322787339432932 1 1 1 1 1 1 1 1 1 1 1 1 1 1 1 1 1 1 1 1 1 1 1 1 1 1 1 1 1 1 1 1 1 1 1 1 1 1 1 1 1 1 1 1 1 1 1 1 1.4016082097029203e-09 1 1 1 1 1 -4.1355405211440655e-10 1 1 1 1 1 1 1 1 1 1 0.0018748932346390208 1 1 0.0062843978127969102 1 8.8227097849724601e-10 1 1 0.0076975511586044442 1 1 1 1 1 1 1 1 1 1 1 1 1 1 1 1 0.0098096469243188177 1 1 1 1 1 0.0099467385289675036 1 1 1 1 1 0.0097564438058111783 1 1 1 1 1 1 1 1 1 0.0075374057186508511 0.010033336771511744 1 1 1 0.0077362625660466356 1 1 1 1 1 1 0.0070025237425177956 0.017350524398437928 1 1 1 1 1 1 0.0048514193599691188 1 1 0.0064665743461658739 1 1 1 1 1 1 1 1 0.010294910381517905 1 1 0.011820706419608402 1 1 1 0.0099487482578781358 1 1 1 1 1 1 0.009886659250171001 1 1 1 1 1 1 1 1 1 1 1 1 0.010278830735852744 1 1 1 0.0098932127076938707 0.0091941834584123514 1 1 0.0097991581366949146 1 1 1 0.015940830930615418 1 1 1 1 1 1 1 1 1 1 0.010085245772104397 1 1 1 1 0.010255813981498954 0.0016785725720978098 1 1 1 1 0.0046902807296731446 1 1 1 0.0054726508182215035 1 1 1 1 0.010539824134477793 1 1 0.011662652308455888 1 1 1 1 1 0.0042873938308837303 1 0.017956813135969193 0.017439674338002715 1 1 0.010251634247747471 1 1 1 1 2.8996503323441836e-09 1 1 1 1 1 0.0019020499311569574 -1.712998493053064e-11 1 1 0.023616511645720137 1 0.0060494638155454226 0.010004014612502042 1 1 1 1 1 1 1 0.0082473887802969395 1 1 1 1 0.0063462327814683139 1 1 1 1 1 1 1 1 1 1 1 1 1 1 1 1 0.0074587131838595045 1 1 1 1 1 1 0.0046868481040725496 1 1 1 0.0088321192443836186 0.018693627903294728 1 1 0.009590483549531837 1 0.0090134794415709443 1 1 0.015520526937462621 1 1 1 1 1 1 1 0.0089168128127762245 1 1 1 1 1 0.00141227596838292 1 0.026589808751851522 1 1 1 0.00088940296995366347 0.018286959257896918 1 1 1 0.0096707255300682027 1 1 1 0.0090343902656857961 1 1 1 0.016398080090945507 1 1 1 1 1 1 0.0037522610166293435 0.0099981146489190719 0.010298259256133879 1 1 1 1 1 0.020754437915934325 0.0092495135581707466 1 1 1 1 1 1 0.010109935249895889 1 0.011474452893864617 1 1 1 1 1 0.021430735936324351 1 1 1 0.02176499589068254 1 0.0099955355401595541 1 1 1 1 1 1 1 1 1 1 1 0.012698961109034915 1 1 1 1 1 0.011983831146569458 1 1 1 1 1 1 0.0084719570952346626 1 1 1 0.02083190726009479 1 0.010069950459023959 1 0.0093511599267890218 1 0.03187944017374246 1 1 1 0.010009399169899062 0.035655505051549775 1 1 1 1 1 1 1 1 1 1 1 1 1 0.008252508959173295 1 1 1 1 1 1 1 1 0.0027278208451702764 1 1 1 1 1 0.0047983207699143077 1 1 0.011214646732497675 1 0.0099253020319675159 0.0075044864327843009 1 1 1 1 1 0.0026943877878451289 1 1 1 1 1 1 1 1 1 1 1 1 1 1 1 1 1 1 1 1 1 1 1 1 1 1 1 1 1 1 1 1 1 1 1 1 1 1 1 1 1 0.0069694019374922714 1 1 1 1 1 1 1 1 1 1 1 0.0095511635367621778 1 1 1 1 0.0095656145017887773 1 0.010014450965026601 1 1 0.0090404770572383164 1 1 1 1 1 1 1 1 1 1 1 1 1 1 1 1 1 1 1 1 1 1 1 1 1 1 1 1 1 1 1 1 1 1 1 0.0068248173152195765 1 1 1 1 1 1 1 1 1 1 1 1 1 0.011286620860045289 1 0.010439144194553315 1 1 1 1 1 1 0.010076179714420007 1 1 0.010001626788821785 1 1 0.0088522603492392216 1 0.012608371632433467 1 1 1 1 1 1 1 0.0077838250137132886 1 0.009567440156959324 1 1 1 0.0083314200675600261 1 1 0.010386804421964404 1 1 0.011948235173873672 0.0099985321134466107 1 0.0076762473928277536 1 0.0054851379435505304 1 1 1 1 0.010054610495684124 1 1 1 0.010120449116409247 0.010115258102900936 1 1 1 0.010343195650261101 1 1 1 1 1 0.012535474377793121 1 1 1 1 1 0.011006394162547069 1 1 1 1 1 1 1 1 1 1 0.0099619088938935133 1 1 0.0099942980473446269 0.012085994600881847 1 1 0.011934076922515753 0.0093811663527594222 1 0.011124723903172019 1 1 1 0.012959882882935111 1 1 1 1 0.01206519909914093 1 0.0089090484004421197 1 1 0.0093606978397288709 0.011910862194933682 0.01089952410725771 1 0.0093358999276952348 1 1 0.010722818503627107 1 0.010019021437152185 1 1 0.0086788283141706335 1 1 0.011746532211192567 1 0.009382335106573679 1 1 0.0084251418640019157 1 0.0091928063489662565 1 1 1 1 1 0.012519549593290498 0.012280542507830977 0.010461374646386627 1 1 1 0.010815069434090781 1 0.0091989677961533609 0.011171962475865549 1 1 0.010307731523983964 1 1 1 0.0090065057534786733 1 1 0.010666003940882629 0.013597889455052616 1 0.010012577337679468 1 0.0097416130861445252 1 1 1 0.0096912056294028159 1 1 1 1 1 1 1 0.010910337125349839 1 1 1 1 0.0099826955411003344 1 1 1 0.010086841057148313 1 1 1 1 1 0.012673258797854694 0.012063817313223729 1 1 1 1 0.01010177002962849 0.010008663035011342 1 1 1 1 1 1 1 0.0071596064221333272 1 0.01561826650513793 1 1 1 1 0.011250656844755418 1 0.007800068219679171 0.012602205574288886 1 1 1 1 1 1 0.013057971496365992 1 0.0088611213692831384 1 1 1 1 0.010148721853065449 1 0.012773834664696018 0.011639178695638415 1 1 0.010728565193781368 1 1 1 1 1 1 1 1 1 1 0.0099891145847356283 1 1 0.00924881947916616 1 1 1 1 0.0085727845341372344 1 1 1 1 1 0.010311650595741417 0.010100915565185489 1 1 0.0080332742457320874 1 1 1 1 1 1 1 1 1 1 0.010137334301622787 1 1 1 1 1 1 1 1 1 1 1 1 1 1 1 1 1 1 0.024277864657077243 1 1 0.0062158420046510773 1 1 1 1 1 1 0.010048710510446195 0.0073556716543257752 1 1 1 0.0084941344601885543 0.014503946331542381 1 1 1 0.0084432679218496495 1 1 1 0.017546115344356201 1 0.014586309107609103 1 1 1 1 0.015168293816736279 0.0099135901303915377 1 1 1 1 0.016094382322645609 1 0.0099461549999043664 1 0.013365995752436547 0.0082654239281800684 1 1 0.010375369842410873 0.009653698268807416 1 1 1 1 1 1 1 1 1 1 1 1 0.010540240682693096 1 1 0.0098396595054070501 1 1 1 1 1 1 1 0.009840034019731346 1 1 1 1 0.021008342479283289 1 1 1 1 1 1 1 1 0.0068186006440993721 1 1 7.0017731196303501e-10 0.013499961372752944 1 1 1 1 0.0092076849343837933 1 0.011725424921336405 1 1 1 1 1 1 1 1 1 0.0098347696354548278 1 1 0.010003396790216779 0.0098746497039561426 1 1 1 0.010238481360088302 1 1 0.0082826994774140086 1 1 1 0.010005441986827145 1 1 1 1 0.0062398825536335231 0.010049245226120246 1 1 1 1 0.0025236597095594088 1 1 1 1 1 1 1 1 1 1 1 0.011669680832130569 1 1 1 0.01649373225717057 1 0.013824865226576839 1 1 1 0.0054060343465848412 1 1 0.014431133152251448 0.0011313362341842034 1 1 0.0032991827055087256 0.011107556617260844 0.012944990281196958 1 0.021717125117237661 1 1 0.023997414433000935 1 0.01014087738242591 1 0.022599002118723288 0.0054241793831211332 1 1 1 0.007776723793339442 1 0.014117628535610764 1 0.017535793779476665 1 1 1 1 1 0.0096108076163559791 1 1 1 1 1 0.0029965105326211702 0.011706123510602635 1 1 1 1 1 0.011293014888226795 1 1 1 1 1 0.010042232544598788 1 1 1 1 1 1 1 1 1 0.017132608138119128 1 1 1 0.019413785217309888 0.0089581240186861616 0.016899783287595314 1 1 1 0.010519694694893311 1 0.018899730238034956 1 1 1 1 0.010082570869058873 1 1 1 1 1 1 1 1 1 1 1 1 1 1 1 1 0.010395882286408205 1 1 1 1 1 1 1 1 1 1 1 0.0014324898637484221 0.0011794381210781385 1 1 0.011403133971391921 1 1 1 0.010415168792960054 1 1 1 1 1 1 1 1 1 1 1 1 1 1 0.0042334725869287854 0.0095925895656487695 1 1 1 1 1 0.0030326484480841798 1 1 1 1 1 1 1 1 1 0.0098100398750207117 1 1 1 0.0091309832957007283 1 1 1 1 1 1 1 0.0089109114479351981 0.0055965823884971608 1 1 1 1 1 1 1 1 1 1 1 1 1 1 1 1 1 1 1 1 1 1 1 1 1 1 1 1 1 1 1 1 0.0095883250334071815 1 1 1 1 1 1 1 1 0.0099716877426819436 1 0.0086538431135328928 1 0.010671195031515451 1 1 0.011722970808107346 1 1 0.0060426961591351289 1 0.0053771466532460468 0.0028516248301007283 1 1 1 0.0098997372606664039 0.010383681521705272 1 1 1 1 1 1 1 1 1 1 1 1 1 1 1 1 1 1 1 0.0099498133326346074 1 1 1 1 1 1 1 0.0084858337184838609 1 1 1 1 1 1 1 1 0.0043082450544911291 1 1 1 0.013098371183027577 0.0042355102091522004 1 0.0092065178426136915 1 1 1 1 1 1 1 1 1 1 1 0.011091029488502213 1 1 1 1 1 1 1 1 1 1 1 1 1 1 0.012151918218647589 1 1 1 1 1 1 0.011109005718383254 1 1 1 1 1 1 1 1 1 1 0.0090209332500262099 1 1 1 1 1 1 1 1 1 1 0.008185864013564248 1 0.0091641425200168006 1 1 1 1 1 1 1 1 1 1 1 1 1 1 0.0079792858886594889 1 1 1 1 1 1 1 1 1 1 1 1 1 1 1 0.013086857211220007 1 1 1 0.013130102216394858 1 1 1 1 1 1 1 1 1 0.0081883885541860005 1 1 0.010009360757144564 1 0.013692175199355845 1 1 1 0.0099662554216055632 1 1 1 1 1 0.0066500405014945623 1 1 1 1 1 1 1 0.010168710873753782 1 1 0.0048329940424058637 1 1 1 1 1 1 0.018005631455935193 1 1 0.0034876537403592603 1 1 1 0.0099801781332681805 1 1 1 1 1 1 0.01155823846880422 1 1 1 1 1 1 1 1 1 1 1 1 1 1 1 1 1 1 0.014509708838829023 1 0.0097564442051766287 1 1 0.011032025641715466 1 1 1 1 1 1 1 1 1 1 1 1 1 1 0.0097540330542660314 1 1 0.011042912500264295 1 1 1 1 0.0095082719818649977 1 1 1 1 1 1 0.0099804814577689194 1 1 1 -8.7934522857713304e-10 1 1 0.0017219885855923288 1 1 1 0.010892691978674613 1 0.0098511352774371189 0.012853692131539043 1 1 1 0.010022182976964764 1 1 1 0.012608353292450055 0.011709192877144271 1 1 0.0039776650735866628 0.016890451596609589 1 1 1 1 0.013177185782709183 0.010022715732713822 1 1 1 1 1 0.0095288351298393886 0.014611715364296292 1 0.014085511665637309 1 1 0.0012845871998958674 1 1 1 1 1 1 1 -2.3857126690840502e-10 9.4097242844815021e-10 1 1 1 1 1 1 1 1 1 1 1 1 1 1 1 1 1 1 1 0.022509052393193375 1 1 1 1 1 0.022842749725578988 1 1 1 1 0.016340329322915112 1 1 1 1 1 1 0.015819956184319126 1 1 1 1 1 1 1 0.010028457421453786 1 1 1 1 1 0.01398758121264587 1 0.0045456842873548391 0.013454188979207006 1 1 0.0050548945803867221 1 1.5156868954369074e-09 1 -4.8442673830639826e-10 1 0.015347931322068076 1 1 1 1 1 1 1 1 0.017558863278442832 1 1 1 0.018211326808925139 1 1 1 1 1 1 1 1 1 1 1 1 1 1 1 1 1 1 1 1 1 1 1 1 1 3.6513413265160111e-09 1 1 1 1 1 1 1 1 1 0.0071522315349011184 1 0.0097542389275989891 1 1 1 1 1 1 1 1 1 1 1 1 0.010883091352893884 1 1 -5.3017912282626867e-09 1 1 1 0.0025470265011173637 1 1 1 0.010378168515534424 1 1 1 1 0.0028536287595090429 1 1 0.0075441322930707225 1 1 1 1 1 1 1 1 1 1 1 1 1 1 1 1 0.013232043811793104 1 1 1 1 1 1 1 1 0.0099489995771617074 1 1 1 0.0097899987121292734 1 1 1 1 1 1 1 1 1 1 1 1 1 1 1 1 1 1 1 1 1 1 1 1 1 1.3946485424853883e-09 1 0.0075564628187898188 1 1 1 1 0.00031785964587457971 1 1 0.0088804639197905683 1 1 1 1 1 1 1 1 1 1 1 1 -9.374013093532696e-10 1 1 1 0.0091047878192977577 1 0.0098996159047894904 1 1 1 1 1 1 1 0.013960516664575333 1 0.0055665722018860969 1 1 0.018551842002136588 1 1 1 1 1 1 1 1 1 1 1 0.0048924119450876082 1 1 1 1 0.00658633334057682 1 1 1 1 1 1 1 1 1 1 1 1 1 1 0.014299590043036995 1 1 1 1 1 1 1 1 1 1 1 1 1 1 1 1 1 1 1 1 1 1 1 1 1 1 1 1 0.010213746239219038 1 1 0.016020360921128032 0.010621048904227571 1 1 1 1 1 1 0.010011468495067267 1 1 1 1 1 1 1 1 1 1 1 1 1 1 1 1 1 1 1 1 1 1 1 1 1 1 1 1 1 1 1 1 1 1 1 1 1 1 1 1 1 1 1 1 1 1 1 1 1 1 1 1 1 1 1 1 1 1 1 1 1 1 1 1 1 0.011535676675796844 1 1 1 1 1 1 1 1 1 1 1 1 1 1 1 1 1 0.0086375632103637238 1 1 1 1 0.0062599579379246963 1 1 1 1 1 0.0099899838836431214 1 1 0.0041609815825693411 1 0.0099879003492629806 0.011356037126023594 1 0.017393279479862377 0.010658080789805641 1 0.0055968092260936728 1 1 1 1 1 0.0099990821007315371 1 0.012724820010304616 1 1 1 1 1 1 1 0.011956425711090415 0.012638248618863425 1 0.010951802657802143 1 1 1 1 1 1 1 1 1 1 1 1 1 1 1 1 1 1 1 1 1 1 1 1 1 3.5947571377925591e-09 1 1 1 0.0018789230541596622 1 1 1 1 1 1 1 1 1 1 0.0045315054492109652 1 1 1 0.0096712120483386094 1 1 0.0062590507088730318 1 1 1 1 1 1 1 0.0086633887185473095 1 1 1 1 0.014616294736123855 1 1 0.012333856790309544 1 1 1 1 1 1 1 1 1 1 1 0.010163805909588132 1 1 1 1 1 1 1 1 1 1 1 1 0.010915802182802498 1 1 1 1 1 1 1 1 1 1 1 1 1 1 1 1 0.011488759405282163 1 1 1 0.0053237928667401405 1 1 1 1 1 1 1 1 1 1 1 1 1 1 1 0.0068525527369648846 0.0081445819017657781 1 1 1 1 1 1 1 1 1 0.0087713920704830181 1 0.0064822772763034955 1 1 1 1 1 1 0.0079772487816919223 1 1 1 1 1 1 1 1 0.0070870241938427326 0.0080575109995180277 1 1 1 1 1 1 1 1 1 1 1 1 1 0.014902915212611764 1 1 1 1 1 1 0.014327530548715273 1 1 1 1 0.016699829008123473 1 1 1 1 1 1 1 1 1 1 1 1 1 1 1 1 1 1 1 0.012271960668123007 1 1 0.0094101690823399434 1 1 0.010128624529218595 1 1 1 1 0.0033531834103845831 1 1 1 1 1 1 1 1 0.00082687011428737162 1 1 0.0088166076912268784 1 1 1 1 1 1 1 0.013119700708328139 1 1 1 1 0.025478959538134806 1 1 0.0090037122961537271 1 1 1 0.0035377470135271516 1 1 1 1 0.010123341918980493 1 1 1 1 1 1 0.012957607606554908 1 0.019078733991135917 1 1 1 1 1 0.003542615591289937 0.016581745283127145 1 1 1 1 7.8166289933789823e-10 1 1 0.01403280397123924 1 1 1 1 1 1 1 1 1 1 1 -3.8512637089843649e-09 1 1 1 1 1 1 1 1 1 1 -5.5508868057607685e-09 1 1 1 1 1 1 1 1 1 1 1 1 1 1 1 1 1 1 1 1 1 1 1 1 1 1 1 1 1 1 0.011199243887049543 1 0.0071705749225206873 0.038466473940626411 1 0.0093348218198446038 1 1 1 1 1 -4.7479214240753187e-09 1 1 1 0.036877864775191865 1 1 1 1 1 -4.4628845792538119e-09 1 1 1 1 0.0092008423490292715 1 0.0078242851072863398 1 0.032371523451222212 1 1 1 1 1 1 1 1 1 1 0.0097809344798325901 1 0.0097594560845295705 1 1 1 0.0052563333595661565 1 0.0085709368267073149 1 1 1 1 0.012760931325525401 0.001290053042733004 0.0093145925847455471 1 1 1 1 1 1 1 1 1 1 1 0.0046230191595738983 1 1 0.016449095645796198 0.014379205899081531 1 1 1 1 0.0099867469012170328 1 1 1 1 1 1 1 1 1 1 1 1 1 1 0.022291286082410239 1 1 1 1 1 1 1 1 1 1 1 1 1 1 0.0077711544493000821 1 1 1 1 1 1 0.0067589249612973641 1 1 1 0.010052015952777067 0.0043281794665041146 1 0.020162052310565944 1 1 1.8056432737889594e-10 1 1 0.017465353528187635 0.010673194278162691 1 1 1 0.022524132468758049 1 1 0.010008776482449112 1 1 1 1 1 1 1 1 1.9348333352153801e-10 1 0.0020479454151582782 1 1 1 0.0042891050042047837 1 0.010185056321021959 0.0012566760468558542 1 1 0.010311319003959086 1 1 1 1 1 1 1 1 1 1 1 0.0032299866559625211 1 1 1 1 1 1 1 1 1 1 1 1 0.023833833088093809 1 0.028993154233951851 1 0.0081235672402881712 1 1 1 1 1 1 1 1 1 1 1 1 1 1 1 1 1 0.014495695178215411 1 1 1 1 1 1 1 1 0.0086643990501120375 1 1 1 1 1 1 1 1 1 1 1 1 1 1 1 1 0.018644472438505075 1 1 1 1 0.012491168638202373 1 1 1 1 1 1 1 1 1 1 0.010156057856955638 1 1 1 1 1 1 0.0088514321309486992 1 1 1 1 1 1 1 1 1 1 1 1 1 1 1 1.6706211247875108e-06 1 1 1 1 1 1 1 1 0.011609262821740782 1 1 0.00015666245814751831 1 1 0.0099426912258012805 1 1.6665970097029525e-09 0.0076385164140060496 1 0.03008024369616704 -7.0944229137170911e-10 1 1 0.027011436650778629 1 1 1 1 1 1 1 1 1 1 1 -1.8802463874062481e-09 1 1 0.0013528877042292276 1 1 1 1 1 1 1 1 1 1 1 1 1 1 0.016597069879671744 1 1 1 1 1 1 1 1 1 0.021046358065778419 1 1 1 1 0.026309060064209265 1 1 1 1 1 0.010279758898771651 1 1 1 0.0054371900908227067 1 0.0013461215037353248 1 -4.9171315977258878e-10 1 -1.4795411319712404e-09 1 1 1 0.0083777888897454307 1 1 1 1 0.0041432676612666638 1 -1.2726419709729875e-09 1 0.0015648824493675094 1 0.0066229317207679994 1 5.7147898704923428e-09 1 1 1 0.0016574469261752215 0.026607526303503139 1 1 0.0099822515116983323 0.025272634617764796 1 1 1 1 1 4.9014227832683277e-09 1 1 1 0.0029533449054106268 1 1 0.0067290979430350666 1 1 1 0.023000422053789132 1 1 1 1 0.014165903615423751 0.027459089779780205 1 1 0.00906494165911928 1 1 1 0.0040458545063194688 1 1 1 1 1 1 0.01017093849799499 1 1 0.0099788699928708528 1 0.011470184145706941 1 0.0048621103766377204 1 1 1 1 1 1 1 1 1 1 1 0.0047725871910009737 1 1 1 0.0093016045649382886 1 1 1 0.010747018531461485 1 1 1 1 1 1 1 1 1 1 1 1 1 1 1 1 1 1 0.0084900179378608765 1 0.0086125554018445134 1 0.0098649979490765434 1 0.02097922780542703 1 1 1 1 1 0.010512030709597728 1 1 1 1 1 1 0.016100592141339031 1 0.011579268646790843 1 1 0.011388185374583587 1 1 1 0.01065461678741373 1 1 1 1 1 1 1 1 1 1 1 1 1 1 1 1 1 1 1 0.018760851122030679 1 0.010241626800208507 1 1 1 1 0.0086057687933939198 1 1 1 0.0060184773530095603 1 1 1 1 1 1 1 1 1 0.017297685139004971 1 0.0098758155681580445 1 1 0.0035807838617016308 1 1 1 1 1 0.0096300351475191934 1 0.017046132896251166 -1.8847798051446762e-08 1 1 1 0.0099524573395254334 0.0016611677785622961 1 0.011952446888047393 1 1 0.012458370726901827 1 1 1 1 0.010249504715120159 1 1 1 1 1 1 1 1 1 1 0.013757600982913032 1 1 1 1 1 1 1 1 1 1 1 1 0.025776411198426649 1 1 1 1 1 0.0097143106251106198 1 1 1 1 0.010644878984902073 1 4.7420978324663743e-09 1 1 0.0054270761214732597 1 1 1 1 0.026565985454271364 1 1 1 1 1 1 1 1 1 1 1 1 0.024264950376886515 1 5.2593387958888189e-05 1 1 1 1 3.1020183036828408e-09 1 1 1 2.3107626020979488e-09 1 0.020314433104130926 1 0.009995722715169332 1 1 1 1 1 0.01398257614292824 1 1 1 1 1 1 1 0.0029035660527352378 1 1 1 0.0045238390434290277 1 1 1 1 0.025078860469507892 1 1 1 0.022442238804061331 1 1 1 1 1 1 1 0.00039898513058004431 1 0.00043320483996366933 1 1 1 1 1 1 1 1 1 1 1 0.0033365653107898553 1 0.010024645868983086 1 1 0.017588904111353484 1 1 1 0.010015214573249387 1 1 1 1 1 1 1 1 1 1 1 1 1 1 1 1 1 1 1 1 1 1 1 1 1 1 1 1 1 1 1 1 1 1 1 1 1 1 1 1 1 1 1 1 1 1 1 0.0099972363904954273 1 1 1 1 1 1 1 1 1 1 1 1 1 1 -2.006915172242385e-09 1 1 1 1 1 1 1 1 1 1 1 1 1 1 1 1 1 1 1 1 1 1 1 1 1 1 1 1 0.0098023616080935225 1 1 0.0099235403835176081 1 1 1 1 1 1 1 1 1 1 0.014628917070819421 0.016571302645283052 1 -1.270699334990355e-08 1 1 1 1 0.010018896457388524 0.003116890151107013 1 0.019559312365718284 1 1 1 0.010034566715993017 1 1 0.021737765233531235 1 1 1 1 1 1 1 1 1 1 3.9707182507286998e-10 1 1 1 1 1 0.013765180660412484 1 0.00046311477048355774 1 1 1 0.014165356284279555 1 0.0026773576203380015 1 1 1 1 1 1 0.01013395140501195 1 0.01042339836573232 1 1 1 1 1 1 1 1 1 0.0073856005891493829 1 1 1 1 1 1 1 1 1 1 1 1 1 1 7.2574857061524778e-10 1 1 1 -5.3847356105279909e-09 1 1 1 1 1 -1.2465388721238924e-09 1 1 1 1 1 1 1 1 1 0.010221572110681316 1 1 1 1 0.010562095373294722 1 1 1 1 1 1 1 1 1 1 1 1 1 1 1 1 1 1 1 1 1 1 1 1 1 1 1 0.011370582149172246 1 1 1 1 1 1 1 1 1 1 1 1 1 1 1 1 1 1 1 1 1 1 1 1 1 1 1 1 1 1 1 1 1 1 1 1 1 1 1 1 1 1 1 0.0068737313860370297 1 1 1 1 1 1 1 1 1 1 1 1 1 1 1 1 1 1 1 1 1 1 1 1 1 1 1 1 1 1 1 1 1 1 1 1 1 1 1 1 1 0.030818377003489775 1 1 1 1 1 1 1 1 1 1 1 1 1 1 0.016029925859887016 1 1 1 1 0.022684930821189248 1 1 1 1 1 0.014211596434811881 1 1 1 1 1 1 1 0.042391718344335937 1 1 1 1 1 1 0.029029737162678652 1 1 1 1 1 1 1 1 1 1 1 1 1 1 1 0.0016036859069099574 1 1 1 1 0.0070823236126836692 1 1 1 1 1 1 1 1 1 1 1 1 1 1 0.03111839629585967 1 0.021731201819547005 1 1 1 0.026610086088109941 0.0085392981035923975 1 1 1 1 1 1 0.0090005302030673126 1 0.015933887732796845 1 1 1 1 1 1 1 1 1 1 1 1 1 1 1 1 0.01204948322612294 1 1 1 1 1 0.0082554346990134746 1 1 0.00966526005651 1 1 1 1 1 0.003549927970054774 1 1 0.003523106724918422 0.021908752527936157 1 1 1 1 1 1 1 1 0.0091788573003875121 1 1 1 0.010068659949791427 0.0078176419139386263 0.0035294294018632794 1 0.016223620109157358 1 1 1 1 1 1 0.016890679897041537 1 0.017474454972351963 1 1 0.0092790593489493131 1 1 1 1 1 1 1 1 0.0099725162722439781 1 0.0099337919005942563 1 1 1 0.013714183018114438 1 1 1 0.011005944693971856 1 1 1 1 0.0071257266162582031 1 1 1 0.0099449369557085988 1 1 1 1 1 1 1 1 1 1 1 1 1 1 0.0099453654574664305 1 0.017517499615113737 1 1 1 1 1 1 0.0098211237159732089 1 0.011819837862215014 1 0.015370139013907005 1 1 1 1 1 1 1 1 1 1 1 1 1 1 1 1 1 1 1 1 1 1 1 1 1 0.010159616499707876 1 1 1 1 1 0.010298808152236863 1 1 1 1 0.010298507314237768 1 1 0.011935224552462737 1 1 1 1 1.7870266100228349e-09 1 1 0.012692345767834873 1 0.00330447291864467 1 1 1 1 0.010302578093764076 1 2.4668617196708931e-09 1 1 1 1 1 1 1 0.0024967803632084213 1 0.0031412552327644873 1 1 0.00058311964919859072 0.0073345989607765602 1 1 0.0034929133318784139 0.0088910475068933667 1 1 1 0.0083990131666533824 1 1 0.0097383041810036527 1 0.0011921973115654252 1 1 1 1 1 1 1 1 1 1 1 1 1 0.013559021517914036 0.0099215579049838493 1 1 1 1 1 1 1 1 1 1 1 1 1 1 1 1 1 1 1 1 1 1 1 1 1 1 1 1 1 1 1 1 0.0051110259467614765 1 1 1 0.0013030186331941321 1 1 -4.4688833189532318e-10 1 0.0021313599117556044 0.0071082485408960963 1 1 0.013170638337386451 0.0099771486059579625 1 1 1 1 1 1 2.3430084036130117e-09 0.0099150479565151967 1 0.014117311534994986 1 1 1 0.0019380088008720958 1 1 0.0079268926790943602 1 1 1 1 1 1 1 1 1 1 1 1 1 1 1 1 1 1 1 1 1 1 1 1 1 1 1 1 1 1 1 1 1 1 1 0.00927519301881141 1 0.00031639019269222995 1 -1.719646900572025e-09 1 1 6.3902883505606578e-09 1 1 1 1 1 1 1 1 1 1 1 1 1 1 1 1 1 1.8022901851488804e-09 1 1 1 1 1 1 1 1 1 8.1067630004760804e-09 1 1 1 1 1 1 1 0.0098867119851506896 1 1 0.0085065097658339542 1 1 1 1 1 1 1 1 1 1 0.0098379982021401836 1 1 1 1 1 1 1 1 1 1 1 1 1 0.0017701680254513415 1 1 0.010061108564083099 1 1 1 1 1 1 1 1 1 1 0.00053992275256615867 1 1 1 1 1 1 1 1 1 1 1 1 1 1 1 1 1 0.0046212356785586151 1 1 1 1 1 1 1 1 1 1 1 1 0.0095768487366009406 1 1 1 1 1 1 1 -6.3550129325573579e-09 1 2.4284642230816555e-05 1 1 1 1 1 1 1 2.9438141681270569e-10 1 1 0.0091652687202299597 1 1 1 1 1 0.0095884199836290176 1 1 1 1 1 6.0957678488238187e-10 1 1 1 1 1 1 1 1 1 1 1 1 1 1 1 1 1 1 1 1 1 1 1 1 1 1 1 1 1 1 0.012493781033289464 0.0081281855094503599 1 1 1 1 1 1 1 0.016924691794852051 1 1 1 1 1 1 1 1 1 0.0094914146673347969 1 1 0.0074618970658263117 1 1 1 1 1 1 0.009087366141521367 1 -2.0765997428562333e-09 1 1 1 1 1 1 1 1 0.0092088346550584267 1 4.4156338325357369e-09 1 1 1 1 1 1 0.0090771716069809102 1 1 1 1 1 1 1 0.012588778569711946 1 1 1 1 1 1 1 1 0.011478392386339846 1 1 1 1 1 1 1 1 0.011843555020272567 1 1 1 0.015079494635845098 1 1 1 1 0.011110386183372102 1 1 1 0.0039586894062727494 0.00076673607837089014 1 1 1 1 1 0.0099760071689724214 9.1882074865212715e-10 1 1 1 0.0099917275342634778 0.009591719980070473 1 1 1 1 0.0088001714258481994 1 2.5950891782700047e-10 1 0.0051633033197566458 1 1 1 1 1 1 1 1 1 1 1 1 1 1 0.01001766404505372 1 1 1 1 1 1 1 1 1 1 0.010041630511683872 1 1 0.00095846459364341483 0.011283356791077497 0.0030657489223473236 1 1 1 1 -3.0562722214133586e-09 1 1 1 1 1 0.00977541204057749 1 1 1 1 1 1 1 1 1 1 1 0.010003293978252503 1 1 1 0.0047499819678035893 0.0045358044475310409 1 1 1 1 1 1 1 0.009273714083861441 1 1 0.0051902234293639271 1 0.0053316865242020763 1 1 1 1 0.0099276340236169602 1 1 1 0.016787642966052674 1 1 0.010853724571302528 1 0.017216816876247189 1 1 1 1 1 1 1 1 1 1 1 1 1 1 1 1 0.010940298909667599 1 1 1 1 1 1 1 1 1 1 1 1 0.0097751565293512574 1 0.0051827180857296658 1 1 1 1 1 0.0090909869585060251 1 1 1 1 1 1 1 1 1 1 1 0.0020540372085212089 1 0.012380104193316671 1 1 0.015636980907858838 1 1 1 1 1 0.010997010970941946 1 1 1 1 1 1 1 1 1 1 0.0058748564272005886 1 1 1 1 1 1 1 1 1 1 1 1 1 0.0086911840543863889 1 1 1 0.010291043325262046 1 1 1 1 1 0.0037770575957490459 1 1 1 1 1 1 0.011329617026672227 1 0.01291127581569812 0.012521152413886433 3.2575288994030061e-10 1 1 1 1 1 0.012788897858529824 1 1 1 1 1 1 0.014956168137033508 1 0.004716915324582998 0.012354712676678571 1 1 0.0048215780790545198 0.014889293308743598 1 0.0035903896088862134 1 1 0.010439126170578038 1 1 1 1 1 1 1 1 1 1 1 1 1 1 1 1 1 1 1 1 0.011073490293875075 1 1 1 1 1 1 1 1 1 1 1 1 1 1 1 1 1 1 1 1 0.010328595204213815 1 1 1 1 1 0.025794380759621129 1 1 1 1 1 1 1 0.012927002708761175 1 1 0.0085253295610347949 1 1 1 1 1 1 1 1 1 1 1 1 1 1 1 1 1 0.010012059156851202 1 1 1 1 0.0038585072376159518 1 1 0.022391343792601423 1 0.021528411520519437 1 1 1 1 1 1 1 1 1 1 1 1 1 0.021936823988408322 1 1 1 1 1 1 1 1 0.017534337847932367 1 1 1 1 -2.412304045754099e-09 1 1 1 1 1 1 1 4.423620036702984e-05 1 1 1 1 1 1 1 1 1 1 1 1 1 1 1 1 1 0.0088860450357261967 1 1 1 1 1 0.0070398314154344888 1 1 1 1 1 1 0.0146501248004427 1 1 1 0.0056655435225304515 1 1 1 1 1 0.0045344522239931379 0.0099063078685452666 1 1 1 1 0.014281658662566138 1 0.0096842939061358834 1 0.0099484966182268354 1 1 1 1 1 1 1 1 1 1 1 1 0.014471569976378135 0.0054010335478671193 1 0.0076881776398523213 1 1 1 1 1 1 1 1 1 1 1 1 1 1 1 1 1 1 1 1 1 1 0.0098183911606421585 1 1 1 1 1 1 1 0.0089802141363261243 1 0.0096283948806469913 1 1 0.0032435671091865584 0.011866667046273517 1 1 1 1 0.008754554908340333 1 1 1 1 1 1 0.010671485165275205 1 1 1 1 1 1 0.010217421747504604 1 1 1 1 1 0.0099146858760215881 1 1 1 1 1 1 1 0.010015574356751482 0.012003078797715602 1 1 1 1 1 1 1 1 0.0096822759876738981 1 0.010008616815860356 1 1 0.010645769450264195 0.0058981130194371359 0.010779181540019684 1 1 1 1 1 1 1 0.011745090986326111 1 0.012229009480793189 1 0.012244525789631956 0.009257386149324769 1 0.011213153622423609 0.010064552722274623 1 1 1 0.010819611406200372 0.0093345046602150705 1 1 1 1 1 0.0062596158692211582 1 0.011619077703877378 0.008086868223561262 0.0091001313327719307 1 1 1 1 0.0082973451933873524 1 0.012696798971192032 1 1 1 1 1 0.010290599145175251 0.010007101383331822 1 1 1 1 1 0.0099779718125775699 1 1 1 1 1 0.010062743880940819 1 1 1 1 1 1 1 1 0.0099259360736856164 0.0072038867712569954 1 0.01114385888790622 1 1 0.0099661657975565546 1 1 1 0.0077296225142654412 0.0085610074510753115 0.0093993181140268646 1 0.011602432396200762 1 0.010255595846609414 0.0073307556616898951 1 1 0.0087094557699250383 1 1 1 1 1 1 1 1 1 1 1 1 1 0.014633649784104939 0.0067569747587262197 1 0.010478581348898234 1 0.010005349513640689 1 1 1 1 0.010124702781889171 0.0045828396286685703 1 1 1 1 0.0040929540184197338 1 1 1 1 1 1 1 1 1 1 1 1 1 0.012981582071441983 1 1 0.0056411698154287902 1 1 1 1 1 1 1 1 1 1 1 1 1 1 1 1 1 1 1 0.00079676065701864141 1 1 1 0.0024940169310464881 1 1 1 0.015293217421466436 1 1 0.016005570690332323 1 0.011638433670506931 1 0.0092936214466874043 1 1 1 1 1 1 1 1 1 1 1 0.0071742078545249215 1 1 1 1 0.0090440175508077099 1 1 0.010716771316089689 1 1 1 1 1 1 -6.1970411736195219e-09 1 1 7.1337527812048718e-09 1 1 1 1 1 1 0.011110052280946733 1 1 0.014117031217606754 1 1 0.011791917275827866 1 1 0.0067949872245238498 1 1 1 1 1 1 0.013463130729157113 1 1 1 1 0.011676857880213873 1 1 1 0.0074212359857935457 1 1 1 1 1 1 1 1 1 1 1 1 1 0.0062451451774036652 1 1 1 0.0067122586903192571 0.010012699047117475 1 1 0.0080730175671035725 1 1 0.0099490520543940777 0.010018966589131553 1 1 1 1 1 1 0.024778402482114117 1 1 0.011922600147366673 1 1 1 1 1 1 1 1 0.0099223306080020619 1 1 0.0091124507697506879 0.023818838444319604 1 1 1 1 0.013406289422071782 1 1 1 1 0.016461177845444312 1 1 1 1 1 1 1 1 1 1 1 1 1 1 1 1 1 1 1 1 1 1 1 1 1 1 1 5.2373275161166077e-10 1 1 1 0.00013907809364820806 1 1 1 1 1 0.02192776989612083 1 1 1 1 1 1 1 1 1 1 1 1 1 1 1 0.021298512773866851 0.016092975162185767 1 1 1 1 1 1 1 1 1 1 1 1 0.011114937121276612 0.0082462179851768812 1 1 0.009256938651979886 1 1 1 0.010062412701726982 1 1 1 1 1 1 1 1 1 1 1 1 1 1 1 1 1 1 1 1 1 1 1 1 1 0.011386324336379303 1 1 1 1 1 1 1 1 1 1 1 1 1 0.008426051834680294 1 1 1 1 1 1 1 1 1 1 1 1 1 0.0092466994004716044 1 1 1 1 1 1 1 1 1 1 1 1 1 1 1 1 1 1 1 0.0083503912237647328 1 1 1 1 1 1 1 1 0.0094064268842969402 1 1 1 0.01089352701588514 1 1 1 1 1 1 1 1 1 1 1 1 1 1 1 1 1 1 1 1 1 1 1 1 1 0.015682770674227294 1 1 1 0.012891942354440772 1 1 1 1 1 1 1 1 1 1 1 1 0.010218933051755759 1 1 1 1 1 0.0012239215496246715 1 1 0.019482834867173088 1 1 0.015822465802073134 1 0.0071061777406612875 1 1 1 0.002602784065481159 1 1 1 0.0016126763793356952 1 1 1 1 0.0077499567812902726 1 1 1 1 1 1 1 0.0089184644648084687 0.017994713596132805 1 1 1 0.010011730349872426 1 1 1 4.108657504497959e-09 1 1 1 1 1 1 1 1 1 0.0091167284863114956 1 1 1 1 1 1 1 1 0.013789569160966178 1 1 1 1 1 1 1 1 1 1 0.012362277056831995 1 0.015838278557164076 1 1 1 1 1 0.010564877300375426 0.01160773036736268 1 1 1 1 1 1 1 0.017240811128094554 1 1 1 1 1 1 1 1 1 0.010340523262613407 1 1 1 1 1 1 1 1 1 0.0064322640151591587 1 1 1 0.0088488826884714003 1 1 1 0.0039012000531497976 1 0.010011787813169899 1 1 1 1 1 1 1 1 1 1 1 1 1 1 1 1 1 1 1 1 1 1 1 1 1 1 1 1 1 1 1 1 1 1 1 1 1 1 1 1 1 1 0.010001544483227369 1 1 1 1 1 1 1 1 1 1 1 0.013333309426482689 1 1 1 1 1 1 1 1 1 1 1 1 1 1 1 1 1 1 1 1 1 1 1 1 1 1 1 1 1 1 1 1 1 1 1 1 1 1 1 1 1 1 1 1 1 1 1 1 1 1 1 1 1 1 1 1 1 1 1 1 1 1 1 1 1 1 0.01065516608925577 0.0029027175723410443 1 1 1 1 1 0.0119827932163937 1 0.0054887521616224094 1 1 0.0099415243387182568 1 1 1 1 1 1 1 1 1 1 0.0012885044974550869 1 1 1 1 1 1 1 1 1 1 1 1 1 1 1 1 1 1 1 1 1 1 1 1 1 1 1 1 1 0.012268724733444454 1 1 0.01647583799365945 1 1 1 1 1 1 1 1 1 1 1 1 1 0.0098443231494712707 1 1 1 1 1 0.0078732612330170218 1 1 1 1 0.011037224555257755 1 1 1 0.0096463319159815555 1 1 1 0.0088362634707230131 1 1 1 1 1 1 1 0.010044737466342935 1 1 0.0099983338873781066 1 1 1 1 1 1 1 1 1 1 1 0.010349252734395104 1 1 1 1 1 1 1 0.010046539817228077 1 1 1 1 1 1 1 1 1 1 1 1 1 1 1 1 1 1 1 1 1 1 -1.0263354038170247e-09 1 1 1 0.010020036246865406 1 1 1 1 0.0080675785895300486 1 1 1 1 1 1 1 1 0.0097184342404009194 0.0039452343560216589 1 1 1 1 1 1 1 1 1 1 1 1 1 1 1 1 1 1 1 1 1 1 1 1 1 1 1 1 1 1 0.0096805930839719903 -3.0881929513615347e-09 1 1 1 1 1 1 0.01040605381250221 0.023993778719701243 1 1 1 1 1 1 1 1 1 1 1 1 1 1 1 1 0.014297668221206435 1 0.012121316818200022 1 0.014699353797990346 1 0.0061709954875169247 0.017431826287935999 1 1 -9.4772169972889841e-10 1 1 1 1 1 1 1 1 1 1 1 1 1 1 1 0.011421582933026704 0.01697251943825883 0.017125290521674115 1 1 1 0.0098650519731661446 1 1 1 1 1 1 1 1 0.010476252988108808 0.010128911835394883 1 1 1 1 1 1 1 1 1 0.0099743466313882093 1 0.0116281028804174 0.0054896674800289993 1 1 1 1 1 0.01064031830234892 1 1 1 1 1 1 1 1 1 1 1 0.010075824425491937 1 1 1 1 1 1 1 1 0.0096515411677771216 1 1 1 1 1 1 1 1 1 1 1 1 1 1 1 1 1 1 0.0074173947985737357 1 1 1 1 1 1 1 1 1 1 0.0087003630431659804 1 0.011878378108903189 1 1 1 1 1 1 1 1 1 1 1 0.01000330913116796 1 1 0.010088711763280576 1 1 1 1 1 1 1 0.0060819197765756318 1 1 1 0.010030673449311741 1 1 1 1 1 1 1 1 1 0.016305792357408269 1 1 1 1 1 0.0099815248321309599 0.011935375205097312 1 0.011850781296204413 0.016018136411333324 1 1 1 1 1 1 1 1 1 0.014927533561396721 1 1 0.0099856520577772043 1 1 1 1 1 1 1 1 1 1 1 1 1 1 1 1 1 1 1 1 0.013450241284976024 1 1 0.017588415309673498 1 1 1 1 1 0.011099236266423597 1 1 1 1 1 1 1 1 1 1 1 1 1 1 1 1 0.011720972901057225 1 1 1 1 1 1 1 1 1 1 1 1 1 1 1 0.018652149776831967 1 1 1 1 1 1 1 1 0.019346480949711066 1 1 1 1 0.0099798519699427143 0.0037520270416232654 1 0.0097528471790666871 1 1 1 1 1 0.0052895323178171402 1 1 1 1 1 1 1 1 1 0.0053794342543160706 1 1 1 1 1 1 1 1 1 1 1 1 1 1 1 1 1 1 1 1 1 1 1 1 1 1 1 1 1 1 1 1 1 1 1 1 1 1 1 1 1 1 1 1 1 1 1 1 1 1 1 1 1 0.017904473440383505 1 1 1 1 1 1 1 1 1 1 1 1 1 1 1 1 1 1 1 1 1 1 1 1 1 0.010519412219875859 0.013262269324632807 1 1 1 1 0.00056982026516735201 1 1 1 0.0064244907092036382 1 1 1 1 0.0087903287797867213 1 1 1 1 1 1 1 1 0.014284293572527003 1 1 1 1 1 3.2305879499316958e-10 1 1 1 1 1 1 1 0.014148446655227338 1 0.009620433745475325 1 1 0.0054918858366694231 1 1 1 1 1 1 1 1 1 0.0093268184316010194 1 1 0.0024760111756944453 1 1 0.015741943284481752 0.0080166069524047964 1 1 1 1 1 1 1 1 1 1 1 1 1 1 1 1 1 2.843128503460246e-09 1 1 1 1 1 1 1 1 1 1 0.017498311990997936 1 1 1 1 1.8446038099750872e-09 1 1 1 1 1 1 1 1 0.019229731997528709 1 1 1 1 1 0.020718654385899579 1 1 1 1 0.014743475310968993 1 1 1 1 1 1 0.0095031812468147278 1 1 0.01593188833097671 1 1 1 0.0082456704078675523 1 1 1 1 1 1 1 1 1 1 0.0091720661449788479 0.020113575784589666 1 1 1 1 1 1 1 1 1 1 1 1 1 1 1 0.0043980108604956894 1 1 0.0055749807507074478 1 1 1 1 1 1 1 0.0084386400860383057 1 1 1 1 0.0095734314780858559 1 1 1 0.0090089288771078649 1 1 1 1 1 1 1 0.00030937153390312583 1 1 1 0.010434341265450231 1 1 0.010483560017176095 1 1 1 1 1 0.0099452193167149806 0.022329214450668648 1 1 1 1 1 1 0.019692066038512791 1 1 1 1 1 1 1 0.0099556408199690562 1 1 1 1 1 0.010245920532930162 1 1 1 1 1 0.0096363137875701901 1 1 1 0.013559370382858427 1 1 1 1 1 1 1 1 1 1 1 1 1 1 1 1 1 0.011636624383251177 1 1 1 1 1 1 1 1 1 1 1 1 0.016144094410189738 1 1 1 0.0092773326632626454 1 1 1 1 1 0.015259953141738412 1 0.013812905383598773 1 1 1 1 1 1 1 1 1 1 1 0.010971335827211066 1 1 1 1 1 1 0.011636499963422225 1 1 1 1 1 1 1 1 1 1 1 0.012607960210462253 1 1 1 1 1 1 1 1 1 0.008351545051923065 1 1 1 0.005472040460422857 1 1 1 1 1 0.01923042890852214 1 1 1 1 1 1 1 1 0.0032522384218637637 0.018087565801857615 1 1 0.0099900636055880523 1 1 1 1 1 1 1 1 0.01003533419105067 1 0.014794029766480955 1 1 1 1 1 1 1 1 1 1 1 1 1 1 1 1 1 1 1 1 1 1 0.010736409164057555 1 1 1 1 1 1 1 1 1 1 1 1 1 1 1 1 1 1 1 1 1 1 1 0.009948742475180454 1 1 1 1 0.0099489408670871138 1 1 1 1 1 1 1 1 0.010360041015312342 1 1 1 1 1 1 1 1 0.010362373174983373 1 1 1 1 1 1 1 1 1 1 1 1 0.0138062323973729 1 1 1 0.0081622917139290152 1 1 1 1 1 1 0.0042900848928285745 1 1 1 1 1 1 1 1 1 0.020251455586763036 1 1 0.01609978931140265 1 0.010490032097253812 1 1 0.010663389561475662 1 1 1 0.01200323562603902 1 1 1 1 1 0.016615435493142441 1 0.016131418034522609 1 0.016031673077288262 1 1 1 1 0.018161437487402197 0.013584317541572908 1 1 1 1 1 1 1 1 0.0093766048126369891 1 1 1 1 1 0.0097952477669125473 1 1 1 1 1 1 1 0.011439347267641769 1 1 1 1 1 1 1 1 1 1 1 1 1 1 1 1 1 1 1 1 1 1 1 0.013987430169589164 1 0.017928989667633441 1 1 1 1 1 1 1 1 1 1 1 1 1 1 1 1 1 1 1 1 1 1 1 1 1 1 1 1 1 1 1 1 1 1 1 1 0.010980662521097875 1 1 0.010675986008507991 1 1 1 1 1 0.010592086012852393 1 1 0.0096203981535577035 1 0.010265410190542862 1 1 0.013941559498044268 1 1 1 1 1 1 1 0.0093549879630148158 1 1 1 1 0.0099161000043444178 1 1 1 1 1 1 0.012056214168439251 1 1 1 0.010060778380381101 1 1 1 1 1 1 1 1 1 1 0.0093837316599630488 1 1 1 1 1 0.0077681108027721768 0.016411081030295066 1 1 1 1 1 1 0.019898600716732634 1 0.0057298487459209804 1 1 1 1 1 1 0.010294844446071004 1 1 1 0.010497783003749254 1 1 1 0.010263716938059338 1 1 1 1 1 1 0.018410382159906181 1 1 1 0.017670712766788978 1 1 1 1 1 1 1 0.010395727856796863 1 1 1 1 0.013338813632550843 1 1 1 1 1 1 -5.3193244947680185e-09 1 1 1 1 1 1 2.2644094238577495e-10 1 1 1 1 1 0.00037704118127956238 1 1 1 1 1 1 1 1 1 1 1 1 1 1 1 1 1 1 1 1 1 1 1 1 1 1 1 1 1 1 1 1 1 1 1 1 1 1 1 1 1 1 1 1 1 1 1 1 1 1 1 1 1 1 1 1 1 1 1 1 1 1 0.011504093772271594 1 1 1 1 1 1 1 0.013538365716210761 1 0.0019968193843999463 1 1 0.010000957364699949 1 1 1 3.9338886315132271e-11 1 1 1 1 1 0.0424701166350019 1 1 0.025015139183364059 1 0.024060521260345864 0.018793475133262627 1 1 1 0.0095754853247749933 1 1 1 1 1 1 1 1 1 1 1 1 1 1 1 1 0.00099477650376460225 1 1 1 1 -9.8791737984660344e-09 1 1 1 0.016998836012660661 1 0.018625984154184302 1 1 1 1 0.047035876427375653 1 1 1 1 -9.1336633048499927e-09 1 1 1 1 1 1 1 0.0099481762063651433 1 1 1 1 1 1 1 1 1 0.0079470964674734426 1 1 1 1 1 1 1 1 1 0.0092551265254011625 1 1 0.043692352534328779 1 1 1 1 1 1 0.0086043158590315624 1 1 1 0.0094416894706238486 1 1 1 1 0.040996361710859519 1 1 0.010774709055384392 1 1 0.041452591392215535 1 1 1 1 1 0.013058709899293169 1 1 1 1 1 1 1 1 1 1 1 1 1 1 1 1 1 1 1 1 0.0081611715936990084 1 1 1 0.01098242364920371 1 1 1 1 1 1 1 1 1 1 1 0.024590603253931198 0.030872270355565397 1 1 1 0.027765934635403829 1 0.029664728025731321 1 1 1 1 1 1 1 1 1 1 1 1 1 1 1 1 1 1 1 1 1 1 0.0082204854282385831 1 1 1 1 1 1 0.0093793918018412262 1 1 1 1 1 1 0.010503670512647723 1 1 1 1 1 0.0028768325072123027 1 1 1 1 1 1 1 0.0053722542125354961 1 0.011720069951873448 1 1 1 0.0099709282891356082 1 1 1 1 1 1 1 1 1 0.0010093675983413389 0.01595718313277697 1 1 1 1 1 1 0.007905297195096259 1 1 1 1 0.015718290717551327 1 1 1 1 1 1 1 0.01496353540576751 1 1 1 1 1 1 1 1 1 1 1 1 1 1 1 1 0.010608750671867291 1 1 1 1 1 1 1 1 1 1 1 1 1 0.010959970300059713 1 1 1 0.012738285541567432 0.0099010145245642528 1 1 0.010188195257114639 1 1 1 1 0.0022628512962408823 1 1 1 0.0090742078085011609 1 1 1 1 1 0.010061953175417984 1 1 0.00349200810336644 1 1 1 0.0066144433665938709 0.0067865548359417613 1 1 0.010550210091912052 1 1 1 1 1 1 1 1 0.012069424995957853 1 1 1 1 1 1 1 1 1 1 1 1 1 1 0.010559808750540835 1 1 1 1 1 1 0.0092295901513520032 1 1 1 0.011053880604559779 1 1 1 1 1 1 1 1 1 1 0.012078792231931007 1 1 1 1 1 1 1 1 1 1 0.0089840566097799703 1 1 1 1 1 1 1 1 1 1 1 1 1 1 1 1 1 1 1 1 1 1 1 1 1 1 1 1 1 1 1 1 1 1 1 1 0.0087405164134948757 1 1 1 1 1 1 1 1 1 1 1 1 1 1 1 0.0095744603713311394 1 1 1 1 1 1 1 1 0.0086984389024396327 1 1 1 1 1 1 1 1 1 1 1 1 1 1 0.010476931631116682 0.0095739041748613279 1 1 1 1 1 1 1 1 0.010476490185228941 1 1 1 1 1 1 1 1 1 1 1 1 1 1 1 1 1 1 1 1 1 1 0.011394190479231993 1 1 1 1 1 1 1 1 1 1 1 1 1 1 1 1 1 1 1 1 1 1 1 1 1 1 1 1 1 1 1 1 1 1 1 1 1 1 1 1 0.010879583231812789 1 0.012976631365968022 1 1 1 1 1 1 1 1 1 1 0.011831483981179808 1 1 1 1 1 1 1 1 1 1 1 1 1 1 1 1 1 1 1 1 1 1 1 1 1 1 1 1 1 1 1 1 1 1 1 1 1 1 1 1 1 1 1 1 1 1 1 1 0.012273773711044815 1 1 0.011145147384788209 1 1 1 1 1 0.0099044024525602181 1 1 1 1 1 1 0.010319257873557551 1 1 1 1 1 1 0.010520759935493923 1 1 1 1 0.0098843493048631145 1 1 0.0097889547091775386 1 1 1 1 1 1 1 1 1 1 1 1 1 1 1 0.012020311315502772 1 1 1 1 1 1 1 0.0084974622286867162 1 1 1 0.0095762216433704396 1 1 1 1 1 1 1 1 1 1 1 1 1 1 1 1 1 1 1 1 1 1 1 1 0.010746746991716814 1 1 1 1 1 1 1 1 0.012419391517173795 1 1 1 0.011672644525456971 1 1 1 1 1 1 1 1 1 1 1 1 1 1 1 1 1 1 1 1 1 1 1 1 1 1 1 1 0.01384301032911148 1 1 1 1 1 1 1 1 1 1 1 1 1 1 1 1 1 1 1 1 0.010032121331997483 1 1 1 1 1 1 1 0.012279078326873492 1 1 1 1 0.010571027022561838 1 1 1 1 1 1 1 1 1 1 1 1 1 1 1 1 1 1 1 1 1 1 1 1 1 1 1 1 1 1 1 1 1 1 1 1 1 1 1 1 1 1 1 1 1 1 1 1 1 1 1 1 1 1 1 1 1 1 1 1 1 1 0.02365421838113297 1 1 1 1 1 1 1 1 1 1 1 1 1 1 1 1 1 1 1 1 1 1 1 1 1 1 1 0.019417451173262122 0.010898729377936706 1 1 0.012722709964547841 1 0.014708044061126543 1 1 1 1 1 1 1 0.015619464089628417 1 1 1 0.0098815253536497939 1 1 1 1 1 1 1 1 1 1 1 1 1 1 1 1 1 1 1 0.011882369924467775 1 1 1 1 1 1 1 1 1 1 1 1 1 1 1 1 1 1 1 1 1 1 1 1 1 1 1 0.011670134570342191 1 1 1 1 1 1 1 1 1 1 1 1 1 1 1 1 1 1 1 1 1 1 1 1 1 1 1 1 1 1 1 1 1 1 0.008763613666113652 1 1 1 1 1 1 1 1 1 1 1 1 1 1 1 1 1 1 1 1 1 1 1 1 1 1 1 1 1 0.0089480061049005844 1 1 1 1 1 1 0.0077116197710142345 1 1 1 1 1 1 1 1 1 1 1 1 1 1 1 1 1 1 1 1 1 1 1 1 1 1 1 1 1 1 1 1 1 1 1 1 1 1 1 1 1 1 1 1 1 1 1 1 1 1 1 1 1 1 1 1 1 1 1 1 1 1 1 1 1 1 1 1 1 1 1 1 1 1 1 1 1 1 1 1 1 0.010638792420683999 1 1 0.0099486483728780384 1 1 1 1 1 1 1 1 1 1 1 1 1 1 1 1 1 1 1 1 1 1 1 1 1 1 1 1 1 1 1 1 1 1 1 1 1 1 1 1 1 1 1 1 1 1 1 1 1 1 1 1 1 1 1 1 1 1 1 1 1 1 1 1 1 1 1 1 1 1 1 1 1 1 1 1 1 1 1 1 1 0.021944950643165369 1 1 1 1 1 1 0.01373319481093558 1 1 0.021812192062764232 1 1 1 1 1 1 1 1 1 1 1 1 1 1 1 1 1 1 1 1 1 1 1 1 1 1 1 1 1 1 1 1 0.01017261965449363 2.579332060437256e-09 1 1 0.00049373912348941312 1 1 0.00087952980298718064 1 1 1 1 1 1 1 1 1 1 1 1 1 1 1 0.0094354973990220178 1 1 1 1 1 0.005054111727677689 1 1 1 0.027852581182714935 0.010349397357835998 1 1 0.022130581211376558 1 0.010150717281496689 1 1 0.010077676930356083 1 1 1 0.022930839770081334 0.028239470102577179 1 1 1 1 1 0.0098315647911073872 1 1 1 1 1 1 1 1 1 1 1 1 1 0.011489481052053743 1 1 1 1 0.035922031426896539 0.014291555556440327 1 1 1 1 1 1 1 1 1 1 1 1 1 1 1 1 1 1 1 1 1 1 1 1 1 1 1 1 1 1 1 1 1 1 1 1 1 1 0.0070140559043232048 1 1 0.037248561664544551 1 1 1 1 1 1 1 1 1 0.0019083519469360183 1 1 0.010398186397616452 1 1 1 1 1 1 1 1 1 0.0044630140578703001 1 1 1 0.0098809749167890881 1 1 0.010004184527183095 1 1 1 0.030949845836726473 1 1 1 1 0.036004594822287309 1 1 1 1 1 1 1 1 1 1 1 1 1 1 0.014290399368968768 1 1 1 1 0.00089160155950307809 1 1 
</DataArray>
</CellData>
</Piece>
</UnstructuredGrid>
</VTKFile>
